
                        S T E P       1


                                INCREMENT     1


 stresses (elem, integ.pnt.,sxx,syy,szz,sxy,sxz,syz) for set ALL and time  0.1000000E+01

         1   1  4.733786E+07  7.950143E+06  8.693290E+06  3.530610E+06  7.729809E+06  2.280214E+04
         2   1  4.068684E+07  7.021233E+06  1.301146E+07  4.766855E+06  7.443236E+06 -5.198922E+04
         3   1  4.215409E+07  7.444943E+06  1.361275E+07  5.332575E+06  4.394242E+06 -9.260480E+04
         4   1  4.231514E+07  7.487262E+06  1.443077E+07  5.709847E+06  3.120704E+06 -5.118159E+04
         5   1  4.305637E+07  7.687701E+06  1.481268E+07  5.899771E+06  1.377726E+06 -3.199065E+04
         6   1  4.299963E+07  7.649243E+06  1.490705E+07  5.965819E+06 -3.018957E-03  6.112123E-05
         7   1  4.305637E+07  7.687701E+06  1.481268E+07  5.899771E+06 -1.377726E+06  3.199065E+04
         8   1  4.231514E+07  7.487262E+06  1.443077E+07  5.709847E+06 -3.120704E+06  5.118159E+04
         9   1  4.215409E+07  7.444943E+06  1.361275E+07  5.332575E+06 -4.394242E+06  9.260480E+04
        10   1  4.068684E+07  7.021233E+06  1.301146E+07  4.766855E+06 -7.443236E+06  5.198922E+04
        11   1  4.733786E+07  7.950143E+06  8.693290E+06  3.530610E+06 -7.729809E+06 -2.280214E+04
        12   1  3.618056E+07  1.068648E+07  7.077190E+06  4.185538E+05  6.303579E+06 -4.472641E+04
        13   1  2.972836E+07  9.783750E+06  1.071446E+07  2.354542E+06  5.857374E+06 -7.787994E+04
        14   1  2.995970E+07  9.894974E+06  1.095454E+07  3.259400E+06  3.384225E+06 -1.407368E+05
        15   1  2.949704E+07  9.955031E+06  1.140676E+07  3.787940E+06  2.444181E+06 -1.136012E+05
        16   1  2.979938E+07  1.012006E+07  1.162445E+07  4.050973E+06  1.067101E+06 -5.695831E+04
        17   1  2.963392E+07  1.008240E+07  1.165406E+07  4.140729E+06 -2.307557E-03  1.398835E-04
        18   1  2.979938E+07  1.012006E+07  1.162445E+07  4.050973E+06 -1.067101E+06  5.695831E+04
        19   1  2.949704E+07  9.955031E+06  1.140676E+07  3.787940E+06 -2.444181E+06  1.136012E+05
        20   1  2.995970E+07  9.894974E+06  1.095454E+07  3.259400E+06 -3.384225E+06  1.407368E+05
        21   1  2.972836E+07  9.783750E+06  1.071446E+07  2.354542E+06 -5.857374E+06  7.787994E+04
        22   1  3.618056E+07  1.068648E+07  7.077190E+06  4.185538E+05 -6.303579E+06  4.472641E+04
        23   1  2.735630E+07  8.289203E+06  5.350636E+06 -2.543753E+06  4.920296E+06 -1.334939E+05
        24   1  2.260128E+07  7.678578E+06  8.084930E+06 -7.686203E+05  4.548687E+06 -1.523996E+05
        25   1  2.288999E+07  7.791140E+06  8.409602E+06  2.459552E+04  2.536034E+06 -1.096026E+05
        26   1  2.243083E+07  7.697676E+06  8.739873E+06  5.517063E+05  1.833633E+06 -1.101276E+05
        27   1  2.263088E+07  7.813236E+06  8.876374E+06  7.923735E+05  7.930901E+05 -5.568567E+04
        28   1  2.248242E+07  7.759905E+06  8.901410E+06  8.817858E+05 -1.722817E-03  6.944888E-05
        29   1  2.263088E+07  7.813236E+06  8.876374E+06  7.923735E+05 -7.930901E+05  5.568567E+04
        30   1  2.243083E+07  7.697676E+06  8.739873E+06  5.517063E+05 -1.833633E+06  1.101276E+05
        31   1  2.288999E+07  7.791140E+06  8.409602E+06  2.459552E+04 -2.536034E+06  1.096026E+05
        32   1  2.260128E+07  7.678578E+06  8.084930E+06 -7.686203E+05 -4.548687E+06  1.523996E+05
        33   1  2.735630E+07  8.289203E+06  5.350636E+06 -2.543753E+06 -4.920296E+06  1.334939E+05
        34   1  1.802121E+07  5.837846E+06  3.569211E+06 -3.475660E+06  3.306191E+06 -1.345367E+05
        35   1  1.469450E+07  5.377388E+06  5.348264E+06 -1.545649E+06  3.088877E+06 -2.220098E+05
        36   1  1.487378E+07  5.497047E+06  5.520827E+06 -7.577471E+05  1.722716E+06 -1.616957E+05
        37   1  1.456038E+07  5.448601E+06  5.783880E+06 -2.335257E+05  1.222449E+06 -1.068538E+05
        38   1  1.466049E+07  5.495249E+06  5.873634E+06  2.341111E+04  5.279195E+05 -5.962929E+04
        39   1  1.455841E+07  5.470510E+06  5.885280E+06  1.149582E+05 -1.120739E-03  9.080068E-05
        40   1  1.466049E+07  5.495249E+06  5.873634E+06  2.341111E+04 -5.279195E+05  5.962929E+04
        41   1  1.456038E+07  5.448601E+06  5.783880E+06 -2.335257E+05 -1.222449E+06  1.068538E+05
        42   1  1.487378E+07  5.497047E+06  5.520827E+06 -7.577471E+05 -1.722716E+06  1.616957E+05
        43   1  1.469450E+07  5.377388E+06  5.348264E+06 -1.545649E+06 -3.088877E+06  2.220098E+05
        44   1  1.802121E+07  5.837846E+06  3.569211E+06 -3.475660E+06 -3.306191E+06  1.345367E+05
        45   1  9.063721E+06  2.943386E+06  1.793941E+06 -4.497105E+06  1.674236E+06 -1.524770E+05
        46   1  7.413010E+06  2.717417E+06  2.698144E+06 -2.582699E+06  1.560279E+06 -2.261501E+05
        47   1  7.509571E+06  2.771083E+06  2.791881E+06 -1.814009E+06  8.710455E+05 -1.875586E+05
        48   1  7.351458E+06  2.749585E+06  2.912980E+06 -1.318377E+06  6.183122E+05 -1.251370E+05
        49   1  7.406655E+06  2.775376E+06  2.967428E+06 -1.078649E+06  2.641262E+05 -5.981422E+04
        50   1  7.351562E+06  2.753468E+06  2.974522E+06 -9.900936E+05 -5.648570E-04  7.506128E-05
        51   1  7.406655E+06  2.775376E+06  2.967428E+06 -1.078649E+06 -2.641262E+05  5.981422E+04
        52   1  7.351458E+06  2.749585E+06  2.912980E+06 -1.318377E+06 -6.183122E+05  1.251370E+05
        53   1  7.509571E+06  2.771083E+06  2.791881E+06 -1.814009E+06 -8.710455E+05  1.875586E+05
        54   1  7.413010E+06  2.717417E+06  2.698144E+06 -2.582699E+06 -1.560279E+06  2.261501E+05
        55   1  9.063721E+06  2.943386E+06  1.793941E+06 -4.497105E+06 -1.674236E+06  1.524770E+05
        56   1  9.908249E-03  3.188343E-03  1.894508E-03 -4.471977E+06  1.806297E-03 -1.459297E+05
        57   1  8.073075E-03  2.976810E-03  2.946803E-03 -2.512554E+06  1.731605E-03 -2.455479E+05
        58   1  8.202042E-03  3.031205E-03  3.034154E-03 -1.735067E+06  9.398736E-04 -1.898616E+05
        59   1  8.024288E-03  3.003369E-03  3.195012E-03 -1.230641E+06  6.815120E-04 -1.303373E+05
        60   1  8.085484E-03  3.034249E-03  3.226653E-03 -9.884156E+05  2.851018E-04 -6.360384E+04
        61   1  8.024062E-03  3.007223E-03  3.260695E-03 -8.985151E+05 -3.522069E-07  7.672165E-05
        62   1  8.083763E-03  3.033576E-03  3.226031E-03 -9.884156E+05 -2.858097E-04  6.360384E+04
        63   1  8.020887E-03  3.001996E-03  3.193778E-03 -1.230641E+06 -6.819460E-04  1.303373E+05
        64   1  8.196876E-03  3.029184E-03  3.032417E-03 -1.735067E+06 -9.400742E-04  1.898616E+05
        65   1  8.066396E-03  2.974243E-03  2.944631E-03 -2.512554E+06 -1.731030E-03  2.455479E+05
        66   1  9.899003E-03  3.185184E-03  1.892887E-03 -4.471977E+06 -1.805182E-03  1.459297E+05
        67   1 -9.063721E+06 -2.943386E+06 -1.793941E+06 -4.497105E+06 -1.674236E+06 -1.524770E+05
        68   1 -7.413010E+06 -2.717417E+06 -2.698144E+06 -2.582699E+06 -1.560279E+06 -2.261501E+05
        69   1 -7.509571E+06 -2.771083E+06 -2.791881E+06 -1.814009E+06 -8.710455E+05 -1.875586E+05
        70   1 -7.351458E+06 -2.749585E+06 -2.912980E+06 -1.318377E+06 -6.183122E+05 -1.251370E+05
        71   1 -7.406655E+06 -2.775376E+06 -2.967428E+06 -1.078649E+06 -2.641262E+05 -5.981422E+04
        72   1 -7.351562E+06 -2.753468E+06 -2.974522E+06 -9.900936E+05  5.641309E-04  7.507483E-05
        73   1 -7.406655E+06 -2.775376E+06 -2.967428E+06 -1.078649E+06  2.641262E+05  5.981422E+04
        74   1 -7.351458E+06 -2.749585E+06 -2.912980E+06 -1.318377E+06  6.183122E+05  1.251370E+05
        75   1 -7.509571E+06 -2.771083E+06 -2.791881E+06 -1.814009E+06  8.710455E+05  1.875586E+05
        76   1 -7.413010E+06 -2.717417E+06 -2.698144E+06 -2.582699E+06  1.560279E+06  2.261501E+05
        77   1 -9.063721E+06 -2.943386E+06 -1.793941E+06 -4.497105E+06  1.674236E+06  1.524770E+05
        78   1 -1.802121E+07 -5.837846E+06 -3.569211E+06 -3.475660E+06 -3.306191E+06 -1.345367E+05
        79   1 -1.469450E+07 -5.377388E+06 -5.348264E+06 -1.545649E+06 -3.088877E+06 -2.220098E+05
        80   1 -1.487378E+07 -5.497047E+06 -5.520827E+06 -7.577472E+05 -1.722716E+06 -1.616957E+05
        81   1 -1.456038E+07 -5.448601E+06 -5.783880E+06 -2.335257E+05 -1.222449E+06 -1.068538E+05
        82   1 -1.466049E+07 -5.495249E+06 -5.873634E+06  2.341111E+04 -5.279195E+05 -5.962929E+04
        83   1 -1.455841E+07 -5.470510E+06 -5.885280E+06  1.149582E+05  1.119946E-03  9.082202E-05
        84   1 -1.466049E+07 -5.495249E+06 -5.873634E+06  2.341110E+04  5.279195E+05  5.962929E+04
        85   1 -1.456038E+07 -5.448601E+06 -5.783880E+06 -2.335257E+05  1.222449E+06  1.068538E+05
        86   1 -1.487378E+07 -5.497047E+06 -5.520827E+06 -7.577471E+05  1.722716E+06  1.616957E+05
        87   1 -1.469450E+07 -5.377388E+06 -5.348264E+06 -1.545649E+06  3.088877E+06  2.220098E+05
        88   1 -1.802121E+07 -5.837846E+06 -3.569211E+06 -3.475660E+06  3.306191E+06  1.345367E+05
        89   1 -2.735630E+07 -8.289203E+06 -5.350636E+06 -2.543753E+06 -4.920296E+06 -1.334939E+05
        90   1 -2.260128E+07 -7.678578E+06 -8.084930E+06 -7.686203E+05 -4.548687E+06 -1.523996E+05
        91   1 -2.288999E+07 -7.791140E+06 -8.409602E+06  2.459552E+04 -2.536034E+06 -1.096026E+05
        92   1 -2.243083E+07 -7.697676E+06 -8.739873E+06  5.517063E+05 -1.833633E+06 -1.101276E+05
        93   1 -2.263088E+07 -7.813236E+06 -8.876374E+06  7.923735E+05 -7.930901E+05 -5.568567E+04
        94   1 -2.248242E+07 -7.759905E+06 -8.901410E+06  8.817858E+05  1.721890E-03  6.948421E-05
        95   1 -2.263088E+07 -7.813236E+06 -8.876374E+06  7.923735E+05  7.930901E+05  5.568567E+04
        96   1 -2.243083E+07 -7.697676E+06 -8.739873E+06  5.517063E+05  1.833633E+06  1.101276E+05
        97   1 -2.288999E+07 -7.791140E+06 -8.409602E+06  2.459552E+04  2.536034E+06  1.096026E+05
        98   1 -2.260128E+07 -7.678578E+06 -8.084930E+06 -7.686203E+05  4.548687E+06  1.523996E+05
        99   1 -2.735630E+07 -8.289203E+06 -5.350636E+06 -2.543753E+06  4.920296E+06  1.334939E+05
       100   1 -3.618056E+07 -1.068648E+07 -7.077190E+06  4.185538E+05 -6.303579E+06 -4.472641E+04
       101   1 -2.972836E+07 -9.783750E+06 -1.071446E+07  2.354542E+06 -5.857374E+06 -7.787994E+04
       102   1 -2.995970E+07 -9.894974E+06 -1.095454E+07  3.259400E+06 -3.384225E+06 -1.407368E+05
       103   1 -2.949704E+07 -9.955031E+06 -1.140676E+07  3.787940E+06 -2.444181E+06 -1.136012E+05
       104   1 -2.979938E+07 -1.012006E+07 -1.162445E+07  4.050973E+06 -1.067101E+06 -5.695831E+04
       105   1 -2.963392E+07 -1.008240E+07 -1.165406E+07  4.140729E+06  2.306445E-03  1.399402E-04
       106   1 -2.979938E+07 -1.012006E+07 -1.162445E+07  4.050973E+06  1.067101E+06  5.695831E+04
       107   1 -2.949704E+07 -9.955031E+06 -1.140676E+07  3.787940E+06  2.444181E+06  1.136012E+05
       108   1 -2.995970E+07 -9.894974E+06 -1.095454E+07  3.259400E+06  3.384225E+06  1.407368E+05
       109   1 -2.972836E+07 -9.783750E+06 -1.071446E+07  2.354542E+06  5.857374E+06  7.787994E+04
       110   1 -3.618056E+07 -1.068648E+07 -7.077190E+06  4.185538E+05  6.303579E+06  4.472641E+04
       111   1 -4.733786E+07 -7.950143E+06 -8.693290E+06  3.530610E+06 -7.729809E+06  2.280214E+04
       112   1 -4.068684E+07 -7.021233E+06 -1.301146E+07  4.766855E+06 -7.443236E+06 -5.198922E+04
       113   1 -4.215409E+07 -7.444943E+06 -1.361275E+07  5.332575E+06 -4.394242E+06 -9.260480E+04
       114   1 -4.231514E+07 -7.487262E+06 -1.443077E+07  5.709847E+06 -3.120704E+06 -5.118159E+04
       115   1 -4.305637E+07 -7.687701E+06 -1.481268E+07  5.899771E+06 -1.377726E+06 -3.199065E+04
       116   1 -4.299963E+07 -7.649243E+06 -1.490705E+07  5.965819E+06  3.017385E-03  6.117109E-05
       117   1 -4.305637E+07 -7.687701E+06 -1.481268E+07  5.899771E+06  1.377726E+06  3.199065E+04
       118   1 -4.231514E+07 -7.487262E+06 -1.443077E+07  5.709847E+06  3.120704E+06  5.118159E+04
       119   1 -4.215409E+07 -7.444943E+06 -1.361275E+07  5.332575E+06  4.394242E+06  9.260480E+04
       120   1 -4.068684E+07 -7.021233E+06 -1.301146E+07  4.766855E+06  7.443236E+06  5.198922E+04
       121   1 -4.733786E+07 -7.950143E+06 -8.693290E+06  3.530610E+06  7.729809E+06 -2.280214E+04
       122   1  3.720681E+07 -2.689759E+06 -1.764960E+06 -1.666596E+06  8.731022E+05  1.123657E+05
       123   1  4.085461E+07 -1.024343E+06  2.767650E+06 -7.098340E+05  5.151848E+06  1.441039E+04
       124   1  3.787328E+07 -1.675406E+06  5.420901E+06 -3.664482E+05  3.753532E+06 -1.352567E+05
       125   1  3.895800E+07 -1.369379E+06  6.271827E+06 -1.561412E+05  2.436023E+06 -8.563338E+04
       126   1  3.835788E+07 -1.600708E+06  6.949231E+06 -6.445472E+04  1.240512E+06 -5.474455E+04
       127   1  3.890799E+07 -1.436113E+06  7.071710E+06 -2.906276E+04 -2.849758E-03  1.008132E-04
       128   1  3.835788E+07 -1.600708E+06  6.949231E+06 -6.445472E+04 -1.240512E+06  5.474455E+04
       129   1  3.895800E+07 -1.369379E+06  6.271827E+06 -1.561412E+05 -2.436023E+06  8.563338E+04
       130   1  3.787328E+07 -1.675406E+06  5.420901E+06 -3.664482E+05 -3.753532E+06  1.352567E+05
       131   1  4.085461E+07 -1.024343E+06  2.767650E+06 -7.098339E+05 -5.151848E+06 -1.441039E+04
       132   1  3.720681E+07 -2.689759E+06 -1.764960E+06 -1.666596E+06 -8.731022E+05 -1.123657E+05
       133   1  3.277982E+07 -4.295529E+04 -5.263243E+05 -8.271676E+03  3.163126E+05 -6.541329E+04
       134   1  3.661726E+07  2.574984E+06  4.208233E+06  1.620024E+06  3.798207E+06 -1.703251E+05
       135   1  3.404570E+07  2.108505E+06  6.693816E+06  2.503243E+06  2.852063E+06 -2.434757E+05
       136   1  3.492526E+07  2.461979E+06  7.366311E+06  3.010033E+06  1.834929E+06 -2.303787E+05
       137   1  3.437195E+07  2.365732E+06  7.942613E+06  3.294602E+06  9.515336E+05 -1.163802E+05
       138   1  3.483192E+07  2.505173E+06  8.028437E+06  3.370773E+06 -2.169219E-03  2.228512E-04
       139   1  3.437195E+07  2.365732E+06  7.942613E+06  3.294602E+06 -9.515336E+05  1.163802E+05
       140   1  3.492526E+07  2.461979E+06  7.366311E+06  3.010033E+06 -1.834929E+06  2.303787E+05
       141   1  3.404570E+07  2.108505E+06  6.693816E+06  2.503243E+06 -2.852063E+06  2.434757E+05
       142   1  3.661726E+07  2.574984E+06  4.208233E+06  1.620024E+06 -3.798207E+06  1.703251E+05
       143   1  3.277982E+07 -4.295528E+04 -5.263242E+05 -8.271673E+03 -3.163126E+05  6.541329E+04
       144   1  2.297528E+07  1.531147E+06 -6.894858E+05 -7.541977E+05  3.389569E+05 -3.129519E+05
       145   1  2.573480E+07  3.754578E+06  2.831470E+06  7.318681E+05  2.918194E+06 -4.551610E+05
       146   1  2.355498E+07  3.531393E+06  4.850086E+06  1.613773E+06  2.137475E+06 -3.154245E+05
       147   1  2.409088E+07  3.782918E+06  5.431162E+06  2.098813E+06  1.379284E+06 -2.688043E+05
       148   1  2.355184E+07  3.712170E+06  5.839043E+06  2.385716E+06  7.077484E+05 -1.423572E+05
       149   1  2.388231E+07  3.832046E+06  5.912227E+06  2.466104E+06 -1.602213E-03  2.119311E-04
       150   1  2.355184E+07  3.712170E+06  5.839043E+06  2.385716E+06 -7.077484E+05  1.423572E+05
       151   1  2.409088E+07  3.782918E+06  5.431162E+06  2.098813E+06 -1.379284E+06  2.688043E+05
       152   1  2.355498E+07  3.531393E+06  4.850086E+06  1.613773E+06 -2.137475E+06  3.154245E+05
       153   1  2.573480E+07  3.754578E+06  2.831470E+06  7.318681E+05 -2.918194E+06  4.551610E+05
       154   1  2.297528E+07  1.531147E+06 -6.894858E+05 -7.541977E+05 -3.389569E+05  3.129519E+05
       155   1  1.563538E+07  1.256109E+06 -3.304292E+05 -1.665108E+06  2.319262E+05 -3.517949E+05
       156   1  1.761733E+07  2.766636E+06  2.057664E+06 -1.305219E+05  1.985834E+06 -6.043811E+05
       157   1  1.619654E+07  2.685872E+06  3.404376E+06  7.127078E+05  1.434705E+06 -4.359137E+05
       158   1  1.655796E+07  2.848044E+06  3.838982E+06  1.199791E+06  9.243603E+05 -2.995387E+05
       159   1  1.620294E+07  2.778287E+06  4.150044E+06  1.470130E+06  4.737460E+05 -1.548036E+05
       160   1  1.641758E+07  2.853789E+06  4.190097E+06  1.551561E+06 -1.067320E-03  2.194210E-04
       161   1  1.620294E+07  2.778287E+06  4.150044E+06  1.470130E+06 -4.737460E+05  1.548036E+05
       162   1  1.655796E+07  2.848044E+06  3.838982E+06  1.199791E+06 -9.243604E+05  2.995387E+05
       163   1  1.619654E+07  2.685872E+06  3.404376E+06  7.127078E+05 -1.434705E+06  4.359137E+05
       164   1  1.761733E+07  2.766636E+06  2.057664E+06 -1.305219E+05 -1.985834E+06  6.043811E+05
       165   1  1.563538E+07  1.256109E+06 -3.304292E+05 -1.665108E+06 -2.319262E+05  3.517949E+05
       166   1  7.579209E+06  7.796635E+05 -2.158083E+05 -1.939392E+06  1.265838E+05 -3.954653E+05
       167   1  8.539571E+06  1.551379E+06  9.745786E+05 -3.901590E+05  1.005746E+06 -6.707725E+05
       168   1  7.807108E+06  1.517746E+06  1.649093E+06  4.544461E+05  7.253518E+05 -5.054694E+05
       169   1  7.981613E+06  1.616685E+06  1.864439E+06  9.331567E+05  4.627963E+05 -3.468279E+05
       170   1  7.790852E+06  1.579804E+06  2.024878E+06  1.208505E+06  2.380358E+05 -1.663419E+05
       171   1  7.898302E+06  1.613808E+06  2.053930E+06  1.284466E+06 -5.254095E-04  2.127712E-04
       172   1  7.790852E+06  1.579804E+06  2.024878E+06  1.208505E+06 -2.380358E+05  1.663419E+05
       173   1  7.981613E+06  1.616685E+06  1.864439E+06  9.331566E+05 -4.627963E+05  3.468279E+05
       174   1  7.807108E+06  1.517746E+06  1.649093E+06  4.544461E+05 -7.253518E+05  5.054694E+05
       175   1  8.539571E+06  1.551379E+06  9.745786E+05 -3.901590E+05 -1.005746E+06  6.707725E+05
       176   1  7.579209E+06  7.796635E+05 -2.158083E+05 -1.939392E+06 -1.265838E+05  3.954653E+05
       177   1  8.273845E-03  8.357297E-04 -2.474635E-04 -2.261615E+06  1.218582E-04 -3.950569E+05
       178   1  9.373609E-03  1.705240E-03  1.007143E-03 -7.065844E+05  1.091017E-03 -6.905812E+05
       179   1  8.544935E-03  1.670091E-03  1.839857E-03  1.244176E+05  8.043698E-04 -5.245851E+05
       180   1  8.751726E-03  1.755926E-03  2.023315E-03  5.961799E+05  4.991554E-04 -3.605451E+05
       181   1  8.531226E-03  1.734592E-03  2.237158E-03  8.621243E+05  2.630885E-04 -1.745100E+05
       182   1  8.658457E-03  1.752409E-03  2.237042E-03  9.405351E+05 -1.441015E-07  2.175838E-04
       183   1  8.529352E-03  1.734089E-03  2.236807E-03  8.621243E+05 -2.632919E-04  1.745100E+05
       184   1  8.747880E-03  1.754967E-03  2.022721E-03  5.961799E+05 -4.992783E-04  3.605451E+05
       185   1  8.539360E-03  1.668745E-03  1.839065E-03  1.244176E+05 -8.042416E-04  5.245851E+05
       186   1  9.365684E-03  1.703455E-03  1.006643E-03 -7.065844E+05 -1.090646E-03  6.905812E+05
       187   1  8.265123E-03  8.342018E-04 -2.471590E-04 -2.261615E+06 -1.219989E-04  3.950569E+05
       188   1 -7.579209E+06 -7.796635E+05  2.158083E+05 -1.939392E+06 -1.265838E+05 -3.954653E+05
       189   1 -8.539571E+06 -1.551379E+06 -9.745786E+05 -3.901590E+05 -1.005746E+06 -6.707725E+05
       190   1 -7.807108E+06 -1.517746E+06 -1.649093E+06  4.544461E+05 -7.253518E+05 -5.054694E+05
       191   1 -7.981613E+06 -1.616685E+06 -1.864439E+06  9.331567E+05 -4.627963E+05 -3.468279E+05
       192   1 -7.790852E+06 -1.579804E+06 -2.024878E+06  1.208505E+06 -2.380358E+05 -1.663419E+05
       193   1 -7.898302E+06 -1.613808E+06 -2.053930E+06  1.284466E+06  5.251027E-04  2.128059E-04
       194   1 -7.790852E+06 -1.579804E+06 -2.024878E+06  1.208505E+06  2.380358E+05  1.663419E+05
       195   1 -7.981613E+06 -1.616685E+06 -1.864439E+06  9.331566E+05  4.627963E+05  3.468279E+05
       196   1 -7.807108E+06 -1.517746E+06 -1.649093E+06  4.544461E+05  7.253518E+05  5.054694E+05
       197   1 -8.539571E+06 -1.551379E+06 -9.745786E+05 -3.901590E+05  1.005746E+06  6.707725E+05
       198   1 -7.579209E+06 -7.796635E+05  2.158083E+05 -1.939392E+06  1.265838E+05  3.954653E+05
       199   1 -1.563538E+07 -1.256109E+06  3.304292E+05 -1.665108E+06 -2.319262E+05 -3.517949E+05
       200   1 -1.761733E+07 -2.766636E+06 -2.057664E+06 -1.305219E+05 -1.985834E+06 -6.043811E+05
       201   1 -1.619654E+07 -2.685872E+06 -3.404376E+06  7.127078E+05 -1.434705E+06 -4.359137E+05
       202   1 -1.655796E+07 -2.848044E+06 -3.838982E+06  1.199791E+06 -9.243603E+05 -2.995387E+05
       203   1 -1.620294E+07 -2.778287E+06 -4.150044E+06  1.470130E+06 -4.737460E+05 -1.548036E+05
       204   1 -1.641758E+07 -2.853789E+06 -4.190097E+06  1.551561E+06  1.066936E-03  2.194944E-04
       205   1 -1.620294E+07 -2.778287E+06 -4.150044E+06  1.470130E+06  4.737460E+05  1.548036E+05
       206   1 -1.655796E+07 -2.848044E+06 -3.838982E+06  1.199791E+06  9.243603E+05  2.995387E+05
       207   1 -1.619654E+07 -2.685872E+06 -3.404376E+06  7.127078E+05  1.434705E+06  4.359137E+05
       208   1 -1.761733E+07 -2.766636E+06 -2.057664E+06 -1.305219E+05  1.985834E+06  6.043811E+05
       209   1 -1.563538E+07 -1.256109E+06  3.304292E+05 -1.665108E+06  2.319262E+05  3.517949E+05
       210   1 -2.297528E+07 -1.531147E+06  6.894858E+05 -7.541977E+05 -3.389569E+05 -3.129519E+05
       211   1 -2.573480E+07 -3.754578E+06 -2.831470E+06  7.318681E+05 -2.918194E+06 -4.551610E+05
       212   1 -2.355498E+07 -3.531393E+06 -4.850086E+06  1.613773E+06 -2.137475E+06 -3.154245E+05
       213   1 -2.409088E+07 -3.782918E+06 -5.431162E+06  2.098813E+06 -1.379284E+06 -2.688043E+05
       214   1 -2.355184E+07 -3.712170E+06 -5.839043E+06  2.385716E+06 -7.077484E+05 -1.423572E+05
       215   1 -2.388231E+07 -3.832046E+06 -5.912227E+06  2.466104E+06  1.601722E-03  2.120500E-04
       216   1 -2.355184E+07 -3.712170E+06 -5.839043E+06  2.385716E+06  7.077484E+05  1.423572E+05
       217   1 -2.409088E+07 -3.782918E+06 -5.431162E+06  2.098813E+06  1.379284E+06  2.688043E+05
       218   1 -2.355498E+07 -3.531393E+06 -4.850086E+06  1.613773E+06  2.137475E+06  3.154245E+05
       219   1 -2.573480E+07 -3.754578E+06 -2.831470E+06  7.318681E+05  2.918194E+06  4.551610E+05
       220   1 -2.297528E+07 -1.531147E+06  6.894858E+05 -7.541977E+05  3.389569E+05  3.129519E+05
       221   1 -3.277982E+07  4.295529E+04  5.263243E+05 -8.271676E+03 -3.163126E+05 -6.541329E+04
       222   1 -3.661726E+07 -2.574984E+06 -4.208233E+06  1.620024E+06 -3.798207E+06 -1.703251E+05
       223   1 -3.404570E+07 -2.108505E+06 -6.693816E+06  2.503243E+06 -2.852063E+06 -2.434757E+05
       224   1 -3.492526E+07 -2.461979E+06 -7.366311E+06  3.010033E+06 -1.834929E+06 -2.303787E+05
       225   1 -3.437195E+07 -2.365732E+06 -7.942613E+06  3.294602E+06 -9.515336E+05 -1.163802E+05
       226   1 -3.483192E+07 -2.505173E+06 -8.028437E+06  3.370773E+06  2.168519E-03  2.230030E-04
       227   1 -3.437195E+07 -2.365732E+06 -7.942613E+06  3.294602E+06  9.515336E+05  1.163802E+05
       228   1 -3.492526E+07 -2.461979E+06 -7.366311E+06  3.010033E+06  1.834929E+06  2.303787E+05
       229   1 -3.404570E+07 -2.108505E+06 -6.693816E+06  2.503243E+06  2.852063E+06  2.434757E+05
       230   1 -3.661726E+07 -2.574984E+06 -4.208233E+06  1.620024E+06  3.798207E+06  1.703251E+05
       231   1 -3.277982E+07  4.295528E+04  5.263242E+05 -8.271673E+03  3.163126E+05  6.541329E+04
       232   1 -3.720681E+07  2.689759E+06  1.764960E+06 -1.666596E+06 -8.731022E+05  1.123657E+05
       233   1 -4.085461E+07  1.024343E+06 -2.767650E+06 -7.098340E+05 -5.151848E+06  1.441039E+04
       234   1 -3.787328E+07  1.675406E+06 -5.420901E+06 -3.664482E+05 -3.753532E+06 -1.352567E+05
       235   1 -3.895800E+07  1.369379E+06 -6.271827E+06 -1.561412E+05 -2.436023E+06 -8.563338E+04
       236   1 -3.835788E+07  1.600708E+06 -6.949231E+06 -6.445472E+04 -1.240512E+06 -5.474455E+04
       237   1 -3.890799E+07  1.436113E+06 -7.071710E+06 -2.906276E+04  2.848684E-03  1.008934E-04
       238   1 -3.835788E+07  1.600708E+06 -6.949231E+06 -6.445472E+04  1.240512E+06  5.474455E+04
       239   1 -3.895800E+07  1.369379E+06 -6.271827E+06 -1.561412E+05  2.436023E+06  8.563338E+04
       240   1 -3.787328E+07  1.675406E+06 -5.420901E+06 -3.664482E+05  3.753532E+06  1.352567E+05
       241   1 -4.085461E+07  1.024343E+06 -2.767650E+06 -7.098339E+05  5.151848E+06 -1.441039E+04
       242   1 -3.720681E+07  2.689759E+06  1.764960E+06 -1.666596E+06  8.731022E+05 -1.123657E+05
       243   1  3.727472E+07  1.107922E+06  1.474559E+06 -4.007433E+05  9.271235E+05  3.313436E+04
       244   1  3.901720E+07  5.373319E+05  8.507066E+05 -5.107114E+04  1.217054E+06  5.211731E+04
       245   1  4.024532E+07  1.075215E+06  3.184443E+06  1.256989E+05  2.704308E+06 -5.545461E+04
       246   1  3.890837E+07  7.681603E+05  4.553377E+06  2.974798E+05  1.666866E+06 -8.066758E+04
       247   1  3.961922E+07  1.022650E+06  5.170337E+06  3.631020E+05  9.484522E+05 -4.104556E+04
       248   1  3.896111E+07  8.307102E+05  5.452870E+06  3.968678E+05 -2.555818E-03  6.539710E-05
       249   1  3.961922E+07  1.022650E+06  5.170337E+06  3.631020E+05 -9.484522E+05  4.104556E+04
       250   1  3.890837E+07  7.681603E+05  4.553377E+06  2.974798E+05 -1.666866E+06  8.066758E+04
       251   1  4.024532E+07  1.075215E+06  3.184443E+06  1.256989E+05 -2.704308E+06  5.545461E+04
       252   1  3.901720E+07  5.373319E+05  8.507066E+05 -5.107113E+04 -1.217054E+06 -5.211731E+04
       253   1  3.727472E+07  1.107922E+06  1.474559E+06 -4.007433E+05 -9.271235E+05 -3.313436E+04
       254   1  3.000211E+07 -8.158564E+05  7.040794E+05 -1.821710E+06  3.860528E+05 -3.675083E+04
       255   1  3.196378E+07 -8.480505E+05  2.435003E+05 -7.455284E+05  4.663198E+05 -1.556371E+05
       256   1  3.343454E+07 -2.475400E+05  2.441350E+06 -1.660208E+05  1.942792E+06 -2.241038E+05
       257   1  3.233069E+07 -5.912780E+05  3.577808E+06  1.718516E+05  1.175651E+06 -2.094169E+05
       258   1  3.299092E+07 -3.809226E+05  4.051682E+06  3.669086E+05  6.934195E+05 -1.222733E+05
       259   1  3.241732E+07 -5.558735E+05  4.286894E+06  4.236374E+05 -1.902029E-03  1.822863E-04
       260   1  3.299092E+07 -3.809226E+05  4.051682E+06  3.669086E+05 -6.934195E+05  1.222733E+05
       261   1  3.233069E+07 -5.912779E+05  3.577808E+06  1.718516E+05 -1.175651E+06  2.094169E+05
       262   1  3.343454E+07 -2.475400E+05  2.441350E+06 -1.660208E+05 -1.942792E+06  2.241038E+05
       263   1  3.196378E+07 -8.480505E+05  2.435003E+05 -7.455284E+05 -4.663198E+05  1.556371E+05
       264   1  3.000211E+07 -8.158564E+05  7.040794E+05 -1.821710E+06 -3.860528E+05  3.675083E+04
       265   1  2.367743E+07 -2.119251E+05  8.824084E+05 -5.386285E+05  1.974204E+05 -2.535408E+05
       266   1  2.530520E+07  2.878474E+05  6.654279E+05  6.481630E+05  2.004919E+05 -5.251631E+05
       267   1  2.642048E+07  9.487462E+05  2.447707E+06  1.521492E+06  1.378692E+06 -4.442870E+05
       268   1  2.559338E+07  7.586000E+05  3.428303E+06  1.987976E+06  8.386522E+05 -3.167262E+05
       269   1  2.609100E+07  9.257702E+05  3.826302E+06  2.253290E+06  4.976574E+05 -1.777528E+05
       270   1  2.565206E+07  8.107526E+05  4.007107E+06  2.341206E+06 -1.335884E-03  2.420979E-04
       271   1  2.609100E+07  9.257702E+05  3.826302E+06  2.253290E+06 -4.976574E+05  1.777528E+05
       272   1  2.559338E+07  7.586000E+05  3.428303E+06  1.987976E+06 -8.386522E+05  3.167262E+05
       273   1  2.642048E+07  9.487462E+05  2.447707E+06  1.521492E+06 -1.378692E+06  4.442870E+05
       274   1  2.530520E+07  2.878474E+05  6.654280E+05  6.481630E+05 -2.004919E+05  5.251631E+05
       275   1  2.367743E+07 -2.119251E+05  8.824084E+05 -5.386285E+05 -1.974204E+05  2.535408E+05
       276   1  1.510441E+07  2.266813E+05  4.089712E+05 -7.355851E+05  1.459950E+05 -3.763590E+05
       277   1  1.620313E+07  6.220565E+05  2.543975E+05  3.805821E+05  1.347395E+05 -7.294887E+05
       278   1  1.690351E+07  1.152424E+06  1.476007E+06  1.234474E+06  9.059504E+05 -6.137733E+05
       279   1  1.630760E+07  1.050442E+06  2.147617E+06  1.720353E+06  5.492370E+05 -4.113143E+05
       280   1  1.661494E+07  1.169469E+06  2.439215E+06  1.986377E+06  3.304326E+05 -2.125562E+05
       281   1  1.630952E+07  1.083338E+06  2.566456E+06  2.072079E+06 -8.952959E-04  3.010555E-04
       282   1  1.661494E+07  1.169469E+06  2.439215E+06  1.986377E+06 -3.304326E+05  2.125562E+05
       283   1  1.630760E+07  1.050442E+06  2.147617E+06  1.720353E+06 -5.492370E+05  4.113143E+05
       284   1  1.690351E+07  1.152424E+06  1.476007E+06  1.234474E+06 -9.059504E+05  6.137733E+05
       285   1  1.620313E+07  6.220565E+05  2.543975E+05  3.805821E+05 -1.347396E+05  7.294887E+05
       286   1  1.510441E+07  2.266813E+05  4.089712E+05 -7.355851E+05 -1.459950E+05  3.763590E+05
       287   1  7.757713E+06  1.530572E+05  2.809722E+05 -8.114345E+05  6.780727E+04 -4.096753E+05
       288   1  8.341166E+06  3.712903E+05  2.019751E+05  3.379526E+05  6.363424E+04 -8.433140E+05
       289   1  8.710234E+06  6.598032E+05  8.194950E+05  1.203755E+06  4.527380E+05 -7.098077E+05
       290   1  8.416908E+06  6.168340E+05  1.170942E+06  1.693512E+06  2.718178E+05 -4.751006E+05
       291   1  8.576113E+06  6.746400E+05  1.323420E+06  1.968693E+06  1.641021E+05 -2.398390E+05
       292   1  8.423501E+06  6.326049E+05  1.393041E+06  2.054949E+06 -4.326432E-04  2.836213E-04
       293   1  8.576113E+06  6.746400E+05  1.323420E+06  1.968693E+06 -1.641021E+05  2.398390E+05
       294   1  8.416908E+06  6.168340E+05  1.170942E+06  1.693512E+06 -2.718178E+05  4.751006E+05
       295   1  8.710234E+06  6.598032E+05  8.194951E+05  1.203755E+06 -4.527380E+05  7.098077E+05
       296   1  8.341166E+06  3.712903E+05  2.019751E+05  3.379526E+05 -6.363424E+04  8.433140E+05
       297   1  7.757713E+06  1.530572E+05  2.809722E+05 -8.114345E+05 -6.780727E+04  4.096753E+05
       298   1  8.453333E-03  1.723056E-04  2.844284E-04 -8.293920E+05  6.259208E-05 -4.366895E+05
       299   1  9.095638E-03  4.295486E-04  2.107939E-04  3.028191E+05  5.562550E-05 -8.679296E+05
       300   1  9.528726E-03  7.354503E-04  8.759106E-04  1.163497E+06  5.012499E-04 -7.481529E+05
       301   1  9.168085E-03  6.851832E-04  1.297238E-03  1.655196E+06  2.956836E-04 -4.969277E+05
       302   1  9.374811E-03  7.521134E-04  1.430153E-03  1.928761E+06  1.798409E-04 -2.514315E+05
       303   1  9.174571E-03  7.006711E-04  1.538831E-03  2.017004E+06 -4.235722E-08  3.274819E-04
       304   1  9.372817E-03  7.518377E-04  1.430064E-03  1.928761E+06 -1.798789E-04  2.514315E+05
       305   1  9.164219E-03  6.846022E-04  1.297036E-03  1.655196E+06 -2.957152E-04  4.969277E+05
       306   1  9.522725E-03  7.345464E-04  8.758075E-04  1.163497E+06 -5.011561E-04  7.481529E+05
       307   1  9.088137E-03  4.286507E-04  2.109506E-04  3.028192E+05 -5.585478E-05  8.679296E+05
       308   1  8.444343E-03  1.711243E-04  2.842699E-04 -8.293920E+05 -6.262427E-05  4.366895E+05
       309   1 -7.757713E+06 -1.530572E+05 -2.809722E+05 -8.114345E+05 -6.780727E+04 -4.096753E+05
       310   1 -8.341166E+06 -3.712903E+05 -2.019751E+05  3.379526E+05 -6.363424E+04 -8.433140E+05
       311   1 -8.710234E+06 -6.598032E+05 -8.194950E+05  1.203755E+06 -4.527380E+05 -7.098077E+05
       312   1 -8.416908E+06 -6.168340E+05 -1.170942E+06  1.693512E+06 -2.718178E+05 -4.751006E+05
       313   1 -8.576113E+06 -6.746400E+05 -1.323420E+06  1.968693E+06 -1.641021E+05 -2.398390E+05
       314   1 -8.423501E+06 -6.326049E+05 -1.393041E+06  2.054949E+06  4.325594E-04  2.836632E-04
       315   1 -8.576113E+06 -6.746400E+05 -1.323420E+06  1.968693E+06  1.641021E+05  2.398390E+05
       316   1 -8.416908E+06 -6.168340E+05 -1.170942E+06  1.693512E+06  2.718178E+05  4.751006E+05
       317   1 -8.710234E+06 -6.598032E+05 -8.194950E+05  1.203755E+06  4.527380E+05  7.098077E+05
       318   1 -8.341166E+06 -3.712903E+05 -2.019751E+05  3.379526E+05  6.363424E+04  8.433140E+05
       319   1 -7.757713E+06 -1.530572E+05 -2.809722E+05 -8.114345E+05  6.780727E+04  4.096753E+05
       320   1 -1.510441E+07 -2.266813E+05 -4.089712E+05 -7.355851E+05 -1.459950E+05 -3.763590E+05
       321   1 -1.620313E+07 -6.220565E+05 -2.543975E+05  3.805821E+05 -1.347395E+05 -7.294887E+05
       322   1 -1.690351E+07 -1.152424E+06 -1.476007E+06  1.234474E+06 -9.059504E+05 -6.137733E+05
       323   1 -1.630760E+07 -1.050442E+06 -2.147617E+06  1.720353E+06 -5.492370E+05 -4.113143E+05
       324   1 -1.661494E+07 -1.169469E+06 -2.439215E+06  1.986377E+06 -3.304326E+05 -2.125562E+05
       325   1 -1.630952E+07 -1.083338E+06 -2.566456E+06  2.072079E+06  8.951239E-04  3.011512E-04
       326   1 -1.661494E+07 -1.169469E+06 -2.439215E+06  1.986377E+06  3.304326E+05  2.125562E+05
       327   1 -1.630760E+07 -1.050442E+06 -2.147617E+06  1.720353E+06  5.492370E+05  4.113143E+05
       328   1 -1.690351E+07 -1.152424E+06 -1.476007E+06  1.234474E+06  9.059504E+05  6.137733E+05
       329   1 -1.620313E+07 -6.220565E+05 -2.543975E+05  3.805821E+05  1.347396E+05  7.294887E+05
       330   1 -1.510441E+07 -2.266813E+05 -4.089712E+05 -7.355851E+05  1.459950E+05  3.763590E+05
       331   1 -2.367743E+07  2.119251E+05 -8.824084E+05 -5.386285E+05 -1.974204E+05 -2.535408E+05
       332   1 -2.530520E+07 -2.878474E+05 -6.654279E+05  6.481630E+05 -2.004919E+05 -5.251631E+05
       333   1 -2.642048E+07 -9.487462E+05 -2.447707E+06  1.521492E+06 -1.378692E+06 -4.442870E+05
       334   1 -2.559338E+07 -7.586000E+05 -3.428303E+06  1.987976E+06 -8.386521E+05 -3.167262E+05
       335   1 -2.609100E+07 -9.257702E+05 -3.826302E+06  2.253290E+06 -4.976574E+05 -1.777528E+05
       336   1 -2.565206E+07 -8.107526E+05 -4.007107E+06  2.341206E+06  1.335590E-03  2.422454E-04
       337   1 -2.609100E+07 -9.257702E+05 -3.826302E+06  2.253290E+06  4.976574E+05  1.777528E+05
       338   1 -2.559338E+07 -7.586000E+05 -3.428303E+06  1.987976E+06  8.386522E+05  3.167262E+05
       339   1 -2.642048E+07 -9.487462E+05 -2.447707E+06  1.521492E+06  1.378692E+06  4.442870E+05
       340   1 -2.530520E+07 -2.878474E+05 -6.654280E+05  6.481630E+05  2.004919E+05  5.251631E+05
       341   1 -2.367743E+07  2.119251E+05 -8.824084E+05 -5.386285E+05  1.974204E+05  2.535408E+05
       342   1 -3.000211E+07  8.158564E+05 -7.040794E+05 -1.821710E+06 -3.860528E+05 -3.675083E+04
       343   1 -3.196378E+07  8.480505E+05 -2.435003E+05 -7.455284E+05 -4.663198E+05 -1.556371E+05
       344   1 -3.343454E+07  2.475400E+05 -2.441350E+06 -1.660208E+05 -1.942792E+06 -2.241038E+05
       345   1 -3.233069E+07  5.912780E+05 -3.577808E+06  1.718516E+05 -1.175651E+06 -2.094169E+05
       346   1 -3.299092E+07  3.809226E+05 -4.051682E+06  3.669086E+05 -6.934195E+05 -1.222733E+05
       347   1 -3.241732E+07  5.558735E+05 -4.286894E+06  4.236374E+05  1.901506E-03  1.824552E-04
       348   1 -3.299092E+07  3.809226E+05 -4.051682E+06  3.669086E+05  6.934195E+05  1.222733E+05
       349   1 -3.233069E+07  5.912780E+05 -3.577808E+06  1.718516E+05  1.175651E+06  2.094169E+05
       350   1 -3.343454E+07  2.475400E+05 -2.441350E+06 -1.660208E+05  1.942792E+06  2.241038E+05
       351   1 -3.196378E+07  8.480505E+05 -2.435003E+05 -7.455284E+05  4.663198E+05  1.556371E+05
       352   1 -3.000211E+07  8.158564E+05 -7.040794E+05 -1.821710E+06  3.860528E+05  3.675083E+04
       353   1 -3.727472E+07 -1.107922E+06 -1.474559E+06 -4.007433E+05 -9.271235E+05  3.313436E+04
       354   1 -3.901720E+07 -5.373319E+05 -8.507066E+05 -5.107114E+04 -1.217054E+06  5.211731E+04
       355   1 -4.024532E+07 -1.075215E+06 -3.184443E+06  1.256989E+05 -2.704308E+06 -5.545461E+04
       356   1 -3.890837E+07 -7.681603E+05 -4.553377E+06  2.974798E+05 -1.666866E+06 -8.066758E+04
       357   1 -3.961922E+07 -1.022650E+06 -5.170337E+06  3.631020E+05 -9.484522E+05 -4.104556E+04
       358   1 -3.896111E+07 -8.307102E+05 -5.452870E+06  3.968678E+05  2.555032E-03  6.549473E-05
       359   1 -3.961922E+07 -1.022650E+06 -5.170337E+06  3.631020E+05  9.484522E+05  4.104556E+04
       360   1 -3.890837E+07 -7.681603E+05 -4.553377E+06  2.974798E+05  1.666866E+06  8.066758E+04
       361   1 -4.024532E+07 -1.075215E+06 -3.184443E+06  1.256989E+05  2.704308E+06  5.545461E+04
       362   1 -3.901720E+07 -5.373319E+05 -8.507066E+05 -5.107113E+04  1.217054E+06 -5.211731E+04
       363   1 -3.727472E+07 -1.107922E+06 -1.474559E+06 -4.007433E+05  9.271235E+05 -3.313436E+04
       364   1  3.728461E+07 -8.839245E+05 -5.588312E+05 -5.608123E+05  1.175381E+05 -1.458486E+04
       365   1  3.906810E+07 -3.130894E+05  9.311643E+05 -1.995681E+05  9.776088E+05 -3.780100E+04
       366   1  3.937395E+07 -6.847465E+05  1.033176E+06 -9.867874E+04  7.332711E+05 -4.755878E+04
       367   1  4.006472E+07 -4.143702E+05  2.281163E+06 -2.032918E+04  1.196484E+06 -6.727984E+04
       368   1  3.933821E+07 -6.606999E+05  2.853056E+06  4.359988E+04  5.025627E+05 -4.063564E+04
       369   1  3.992811E+07 -4.570482E+05  3.065652E+06  5.144535E+04 -2.124598E-03  5.437368E-05
       370   1  3.933821E+07 -6.606999E+05  2.853056E+06  4.359988E+04 -5.025627E+05  4.063564E+04
       371   1  4.006472E+07 -4.143702E+05  2.281163E+06 -2.032918E+04 -1.196484E+06  6.727984E+04
       372   1  3.937395E+07 -6.847465E+05  1.033176E+06 -9.867874E+04 -7.332711E+05  4.755878E+04
       373   1  3.906810E+07 -3.130894E+05  9.311643E+05 -1.995681E+05 -9.776088E+05  3.780100E+04
       374   1  3.728461E+07 -8.839245E+05 -5.588312E+05 -5.608123E+05 -1.175381E+05  1.458486E+04
       375   1  2.999869E+07 -1.240615E+05 -1.181723E+05 -5.725520E+05 -3.895885E+04 -7.181056E+04
       376   1  3.166309E+07  4.717153E+05  1.123983E+06  2.758934E+04  4.713383E+05 -1.604435E+05
       377   1  3.218959E+07  2.377441E+05  1.207514E+06  4.178254E+05  3.318601E+05 -2.152095E+05
       378   1  3.294066E+07  5.185056E+05  2.298005E+06  6.879104E+05  8.302930E+05 -1.923832E+05
       379   1  3.236717E+07  3.105566E+05  2.752770E+06  8.356248E+05  3.283316E+05 -1.124850E+05
       380   1  3.289971E+07  4.898261E+05  2.922711E+06  8.901733E+05 -1.508585E-03  1.654973E-04
       381   1  3.236717E+07  3.105566E+05  2.752770E+06  8.356248E+05 -3.283316E+05  1.124850E+05
       382   1  3.294066E+07  5.185056E+05  2.298005E+06  6.879104E+05 -8.302930E+05  1.923832E+05
       383   1  3.218959E+07  2.377441E+05  1.207514E+06  4.178254E+05 -3.318601E+05  2.152095E+05
       384   1  3.166309E+07  4.717153E+05  1.123983E+06  2.758935E+04 -4.713383E+05  1.604435E+05
       385   1  2.999869E+07 -1.240615E+05 -1.181723E+05 -5.725520E+05  3.895885E+04  7.181056E+04
       386   1  2.252547E+07 -9.379229E+05 -3.243823E+05 -9.436757E+05 -1.180197E+05 -1.673723E+05
       387   1  2.392495E+07 -3.029813E+05  5.893180E+05 -1.971072E+05  1.711955E+05 -4.023532E+05
       388   1  2.447790E+07 -4.139701E+05  6.760029E+05  3.945555E+05  1.041973E+05 -4.327522E+05
       389   1  2.508387E+07 -1.978750E+05  1.544492E+06  7.881036E+05  5.538326E+05 -3.216087E+05
       390   1  2.466283E+07 -3.711532E+05  1.915790E+06  9.887765E+05  2.113902E+05 -1.724740E+05
       391   1  2.507423E+07 -2.407014E+05  2.047928E+06  1.061093E+06 -1.038993E-03  2.148644E-04
       392   1  2.466283E+07 -3.711532E+05  1.915790E+06  9.887765E+05 -2.113902E+05  1.724740E+05
       393   1  2.508387E+07 -1.978750E+05  1.544492E+06  7.881036E+05 -5.538326E+05  3.216087E+05
       394   1  2.447790E+07 -4.139701E+05  6.760029E+05  3.945555E+05 -1.041973E+05  4.327522E+05
       395   1  2.392495E+07 -3.029813E+05  5.893180E+05 -1.971072E+05 -1.711955E+05  4.023532E+05
       396   1  2.252547E+07 -9.379228E+05 -3.243823E+05 -9.436757E+05  1.180197E+05  1.673723E+05
       397   1  1.549175E+07 -5.369888E+05 -7.272264E+04 -1.554559E+05 -1.163890E+05 -2.774438E+05
       398   1  1.645206E+07  5.135972E+04  5.702679E+05  6.186826E+05  5.887961E+04 -6.160116E+05
       399   1  1.683414E+07  6.469706E+04  6.530902E+05  1.318932E+06  2.358762E+04 -6.172546E+05
       400   1  1.725999E+07  2.505160E+05  1.267137E+06  1.797962E+06  3.384337E+05 -4.385615E+05
       401   1  1.698502E+07  1.444434E+05  1.537741E+06  2.047333E+06  1.286815E+05 -2.257409E+05
       402   1  1.726097E+07  2.336135E+05  1.636205E+06  2.132720E+06 -6.559364E-04  3.103129E-04
       403   1  1.698502E+07  1.444434E+05  1.537741E+06  2.047333E+06 -1.286815E+05  2.257409E+05
       404   1  1.725999E+07  2.505160E+05  1.267137E+06  1.797962E+06 -3.384337E+05  4.385615E+05
       405   1  1.683414E+07  6.469706E+04  6.530902E+05  1.318932E+06 -2.358762E+04  6.172546E+05
       406   1  1.645206E+07  5.135972E+04  5.702679E+05  6.186826E+05 -5.887961E+04  6.160116E+05
       407   1  1.549175E+07 -5.369888E+05 -7.272264E+04 -1.554559E+05  1.163890E+05  2.774438E+05
       408   1  7.548650E+06 -2.545646E+05 -1.033930E+05 -1.997758E+05 -5.487280E+04 -3.294464E+05
       409   1  8.036005E+06  4.599716E+04  2.089232E+05  5.301491E+05  2.236468E+04 -7.274751E+05
       410   1  8.223103E+06  7.321221E+04  2.503479E+05  1.230211E+06  1.503371E+03 -7.265954E+05
       411   1  8.428101E+06  1.740408E+05  5.617546E+05  1.721466E+06  1.641406E+05 -5.150795E+05
       412   1  8.284374E+06  1.231767E+05  7.012745E+05  1.979039E+06  6.086488E+04 -2.612001E+05
       413   1  8.422511E+06  1.676637E+05  7.520572E+05  2.068075E+06 -3.193411E-04  3.140983E-04
       414   1  8.284374E+06  1.231767E+05  7.012745E+05  1.979039E+06 -6.086488E+04  2.612001E+05
       415   1  8.428101E+06  1.740408E+05  5.617546E+05  1.721466E+06 -1.641406E+05  5.150795E+05
       416   1  8.223103E+06  7.321221E+04  2.503479E+05  1.230211E+06 -1.503371E+03  7.265954E+05
       417   1  8.036005E+06  4.599716E+04  2.089232E+05  5.301491E+05 -2.236468E+04  7.274751E+05
       418   1  7.548650E+06 -2.545646E+05 -1.033930E+05 -1.997758E+05  5.487280E+04  3.294464E+05
       419   1  8.281347E-03 -3.024847E-04 -1.175653E-04 -4.693169E+04 -6.275792E-05 -3.402290E+05
       420   1  8.823055E-03  4.492473E-05  2.145620E-04  7.071245E+05  2.779155E-05 -7.637526E+05
       421   1  9.020018E-03  6.861662E-05  2.928553E-04  1.421153E+06 -7.878432E-06 -7.641799E+05
       422   1  9.266130E-03  1.710913E-04  6.068697E-04  1.924588E+06  1.859696E-04 -5.390701E+05
       423   1  9.078534E-03  1.212975E-04  7.889550E-04  2.190007E+06  6.396450E-05 -2.745918E+05
       424   1  9.260143E-03  1.630452E-04  8.174472E-04  2.281883E+06 -1.227641E-08  3.522648E-04
       425   1  9.076508E-03  1.210918E-04  7.889178E-04  2.190007E+06 -6.402354E-05  2.745918E+05
       426   1  9.262010E-03  1.707243E-04  6.068584E-04  1.924588E+06 -1.859869E-04  5.390701E+05
       427   1  9.014050E-03  6.817108E-05  2.929478E-04  1.421153E+06  7.696275E-06  7.641799E+05
       428   1  8.815234E-03  4.427690E-05  2.144551E-04  7.071245E+05 -2.789003E-05  7.637526E+05
       429   1  8.271889E-03 -3.031523E-04 -1.174261E-04 -4.693169E+04  6.266885E-05  3.402290E+05
       430   1 -7.548650E+06  2.545646E+05  1.033930E+05 -1.997758E+05  5.487280E+04 -3.294464E+05
       431   1 -8.036005E+06 -4.599716E+04 -2.089232E+05  5.301491E+05 -2.236468E+04 -7.274751E+05
       432   1 -8.223103E+06 -7.321221E+04 -2.503479E+05  1.230211E+06 -1.503371E+03 -7.265954E+05
       433   1 -8.428101E+06 -1.740408E+05 -5.617546E+05  1.721466E+06 -1.641406E+05 -5.150795E+05
       434   1 -8.284374E+06 -1.231767E+05 -7.012745E+05  1.979039E+06 -6.086488E+04 -2.612001E+05
       435   1 -8.422511E+06 -1.676637E+05 -7.520572E+05  2.068075E+06  3.192926E-04  3.141238E-04
       436   1 -8.284374E+06 -1.231767E+05 -7.012745E+05  1.979039E+06  6.086488E+04  2.612001E+05
       437   1 -8.428101E+06 -1.740408E+05 -5.617546E+05  1.721466E+06  1.641406E+05  5.150795E+05
       438   1 -8.223103E+06 -7.321221E+04 -2.503479E+05  1.230211E+06  1.503371E+03  7.265954E+05
       439   1 -8.036005E+06 -4.599716E+04 -2.089232E+05  5.301491E+05  2.236468E+04  7.274751E+05
       440   1 -7.548650E+06  2.545646E+05  1.033930E+05 -1.997758E+05 -5.487280E+04  3.294464E+05
       441   1 -1.549175E+07  5.369888E+05  7.272264E+04 -1.554559E+05  1.163890E+05 -2.774438E+05
       442   1 -1.645206E+07 -5.135972E+04 -5.702679E+05  6.186826E+05 -5.887961E+04 -6.160116E+05
       443   1 -1.683414E+07 -6.469706E+04 -6.530902E+05  1.318932E+06 -2.358762E+04 -6.172546E+05
       444   1 -1.725999E+07 -2.505160E+05 -1.267137E+06  1.797962E+06 -3.384337E+05 -4.385615E+05
       445   1 -1.698502E+07 -1.444434E+05 -1.537741E+06  2.047333E+06 -1.286815E+05 -2.257409E+05
       446   1 -1.726097E+07 -2.336135E+05 -1.636205E+06  2.132720E+06  6.558256E-04  3.104170E-04
       447   1 -1.698502E+07 -1.444434E+05 -1.537741E+06  2.047333E+06  1.286815E+05  2.257409E+05
       448   1 -1.725999E+07 -2.505160E+05 -1.267137E+06  1.797962E+06  3.384337E+05  4.385615E+05
       449   1 -1.683414E+07 -6.469706E+04 -6.530902E+05  1.318932E+06  2.358762E+04  6.172546E+05
       450   1 -1.645206E+07 -5.135972E+04 -5.702679E+05  6.186826E+05  5.887961E+04  6.160116E+05
       451   1 -1.549175E+07  5.369888E+05  7.272264E+04 -1.554559E+05 -1.163890E+05  2.774438E+05
       452   1 -2.252547E+07  9.379228E+05  3.243823E+05 -9.436757E+05  1.180197E+05 -1.673723E+05
       453   1 -2.392495E+07  3.029813E+05 -5.893180E+05 -1.971072E+05 -1.711955E+05 -4.023532E+05
       454   1 -2.447790E+07  4.139701E+05 -6.760029E+05  3.945555E+05 -1.041973E+05 -4.327522E+05
       455   1 -2.508387E+07  1.978750E+05 -1.544492E+06  7.881036E+05 -5.538326E+05 -3.216087E+05
       456   1 -2.466283E+07  3.711532E+05 -1.915790E+06  9.887765E+05 -2.113902E+05 -1.724740E+05
       457   1 -2.507423E+07  2.407013E+05 -2.047928E+06  1.061093E+06  1.038780E-03  2.150120E-04
       458   1 -2.466283E+07  3.711532E+05 -1.915790E+06  9.887765E+05  2.113902E+05  1.724740E+05
       459   1 -2.508387E+07  1.978750E+05 -1.544492E+06  7.881036E+05  5.538326E+05  3.216087E+05
       460   1 -2.447790E+07  4.139701E+05 -6.760029E+05  3.945555E+05  1.041973E+05  4.327522E+05
       461   1 -2.392495E+07  3.029813E+05 -5.893180E+05 -1.971072E+05  1.711955E+05  4.023532E+05
       462   1 -2.252547E+07  9.379228E+05  3.243823E+05 -9.436757E+05 -1.180197E+05  1.673723E+05
       463   1 -2.999869E+07  1.240615E+05  1.181723E+05 -5.725520E+05  3.895885E+04 -7.181056E+04
       464   1 -3.166309E+07 -4.717153E+05 -1.123983E+06  2.758934E+04 -4.713383E+05 -1.604435E+05
       465   1 -3.218959E+07 -2.377441E+05 -1.207514E+06  4.178254E+05 -3.318601E+05 -2.152095E+05
       466   1 -3.294066E+07 -5.185056E+05 -2.298005E+06  6.879104E+05 -8.302930E+05 -1.923832E+05
       467   1 -3.236717E+07 -3.105566E+05 -2.752770E+06  8.356248E+05 -3.283316E+05 -1.124850E+05
       468   1 -3.289971E+07 -4.898261E+05 -2.922711E+06  8.901733E+05  1.508147E-03  1.656510E-04
       469   1 -3.236717E+07 -3.105566E+05 -2.752770E+06  8.356248E+05  3.283316E+05  1.124850E+05
       470   1 -3.294066E+07 -5.185056E+05 -2.298005E+06  6.879104E+05  8.302930E+05  1.923832E+05
       471   1 -3.218959E+07 -2.377441E+05 -1.207514E+06  4.178254E+05  3.318601E+05  2.152095E+05
       472   1 -3.166309E+07 -4.717153E+05 -1.123983E+06  2.758935E+04  4.713383E+05  1.604435E+05
       473   1 -2.999869E+07  1.240615E+05  1.181723E+05 -5.725520E+05 -3.895885E+04  7.181056E+04
       474   1 -3.728461E+07  8.839245E+05  5.588312E+05 -5.608123E+05 -1.175381E+05 -1.458486E+04
       475   1 -3.906810E+07  3.130894E+05 -9.311643E+05 -1.995681E+05 -9.776088E+05 -3.780100E+04
       476   1 -3.937395E+07  6.847465E+05 -1.033176E+06 -9.867874E+04 -7.332711E+05 -4.755878E+04
       477   1 -4.006472E+07  4.143702E+05 -2.281163E+06 -2.032918E+04 -1.196484E+06 -6.727984E+04
       478   1 -3.933821E+07  6.606999E+05 -2.853056E+06  4.359988E+04 -5.025627E+05 -4.063564E+04
       479   1 -3.992811E+07  4.570482E+05 -3.065652E+06  5.144535E+04  2.123980E-03  5.442481E-05
       480   1 -3.933821E+07  6.606999E+05 -2.853056E+06  4.359988E+04  5.025627E+05  4.063564E+04
       481   1 -4.006472E+07  4.143702E+05 -2.281163E+06 -2.032918E+04  1.196484E+06  6.727984E+04
       482   1 -3.937395E+07  6.847465E+05 -1.033176E+06 -9.867874E+04  7.332711E+05  4.755878E+04
       483   1 -3.906810E+07  3.130894E+05 -9.311643E+05 -1.995681E+05  9.776088E+05  3.780100E+04
       484   1 -3.728461E+07  8.839245E+05  5.588312E+05 -5.608123E+05  1.175381E+05  1.458486E+04
       485   1  3.766970E+07  3.932739E+05  5.301910E+05 -1.310171E+05  1.272252E+05  7.489398E+02
       486   1  3.872908E+07  1.443815E+05  1.313751E+05 -1.661559E+03  8.822615E+04 -3.287997E+04
       487   1  3.956256E+07  4.115390E+05  1.177478E+06  1.035772E+05  5.549057E+05 -6.510346E+04
       488   1  3.951255E+07  1.999585E+05  1.339817E+06  1.665527E+05  2.797697E+05 -5.202566E+04
       489   1  4.000813E+07  3.984400E+05  1.970013E+06  1.982160E+05  3.559158E+05 -3.612480E+04
       490   1  3.953667E+07  2.177107E+05  2.025457E+06  2.205380E+05 -1.933116E-03  4.667900E-05
       491   1  4.000813E+07  3.984400E+05  1.970013E+06  1.982160E+05 -3.559158E+05  3.612480E+04
       492   1  3.951255E+07  1.999585E+05  1.339817E+06  1.665527E+05 -2.797697E+05  5.202566E+04
       493   1  3.956256E+07  4.115390E+05  1.177478E+06  1.035772E+05 -5.549057E+05  6.510346E+04
       494   1  3.872908E+07  1.443815E+05  1.313751E+05 -1.661558E+03 -8.822615E+04  3.287997E+04
       495   1  3.766970E+07  3.932739E+05  5.301910E+05 -1.310171E+05 -1.272252E+05 -7.489397E+02
       496   1  2.993211E+07 -5.420165E+05  1.746725E+05 -5.589633E+05 -4.158626E+04 -7.069978E+04
       497   1  3.102614E+07 -5.255094E+05 -8.494512E+04 -1.266695E+05 -1.317479E+05 -1.684012E+05
       498   1  3.188256E+07 -2.950803E+05  7.868944E+05  1.382793E+05  2.715886E+05 -1.925621E+05
       499   1  3.195159E+07 -5.170637E+05  8.722040E+05  3.113157E+05  9.213908E+04 -1.743135E+05
       500   1  3.244184E+07 -3.467718E+05  1.391337E+06  4.273276E+05  2.299542E+05 -9.817391E+04
       501   1  3.204847E+07 -5.232580E+05  1.417180E+06  4.581272E+05 -1.383166E-03  1.331001E-04
       502   1  3.244184E+07 -3.467718E+05  1.391337E+06  4.273276E+05 -2.299542E+05  9.817391E+04
       503   1  3.195159E+07 -5.170637E+05  8.722040E+05  3.113157E+05 -9.213908E+04  1.743135E+05
       504   1  3.188256E+07 -2.950803E+05  7.868944E+05  1.382793E+05 -2.715886E+05  1.925621E+05
       505   1  3.102614E+07 -5.255094E+05 -8.494511E+04 -1.266695E+05  1.317479E+05  1.684012E+05
       506   1  2.993211E+07 -5.420165E+05  1.746725E+05 -5.589633E+05  4.158626E+04  7.069978E+04
       507   1  2.266201E+07 -1.981944E+05  3.187017E+05 -1.172714E+05 -6.461903E+04 -1.500713E+05
       508   1  2.350992E+07 -7.422414E+04  9.559473E+04  3.535919E+05 -2.126654E+05 -3.339207E+05
       509   1  2.424895E+07  1.684178E+05  7.609205E+05  7.595626E+05  8.487354E+04 -3.550445E+05
       510   1  2.438863E+07  2.596291E+04  8.458945E+05  1.058065E+06 -8.604991E+03 -2.927901E+05
       511   1  2.478691E+07  1.573952E+05  1.252440E+06  1.240075E+06  1.391929E+05 -1.567157E+05
       512   1  2.449984E+07  2.807234E+04  1.281447E+06  1.292080E+06 -9.354975E-04  1.902341E-04
       513   1  2.478691E+07  1.573952E+05  1.252440E+06  1.240075E+06 -1.391929E+05  1.567157E+05
       514   1  2.438863E+07  2.596291E+04  8.458945E+05  1.058065E+06  8.604989E+03  2.927901E+05
       515   1  2.424895E+07  1.684178E+05  7.609205E+05  7.595626E+05 -8.487354E+04  3.550445E+05
       516   1  2.350992E+07 -7.422413E+04  9.559474E+04  3.535919E+05  2.126654E+05  3.339207E+05
       517   1  2.266201E+07 -1.981944E+05  3.187017E+05 -1.172714E+05  6.461903E+04  1.500713E+05
       518   1  1.508636E+07 -5.223772E+05  8.841916E+04 -2.000062E+05 -7.347168E+04 -2.083453E+05
       519   1  1.570427E+07 -3.874640E+05 -6.163581E+04  3.039808E+05 -2.025548E+05 -4.750616E+05
       520   1  1.624355E+07 -2.052176E+05  3.785176E+05  7.757404E+05  2.290870E+03 -5.069556E+05
       521   1  1.635494E+07 -2.963610E+05  4.383461E+05  1.137214E+06 -4.199439E+04 -3.969679E+05
       522   1  1.663557E+07 -2.125413E+05  7.224602E+05  1.355366E+06  7.595101E+04 -2.083912E+05
       523   1  1.644477E+07 -3.034125E+05  7.415240E+05  1.419337E+06 -5.808035E-04  2.771951E-04
       524   1  1.663557E+07 -2.125413E+05  7.224602E+05  1.355366E+06 -7.595102E+04  2.083912E+05
       525   1  1.635494E+07 -2.963610E+05  4.383461E+05  1.137214E+06  4.199438E+04  3.969679E+05
       526   1  1.624355E+07 -2.052176E+05  3.785176E+05  7.757404E+05 -2.290872E+03  5.069556E+05
       527   1  1.570427E+07 -3.874640E+05 -6.163580E+04  3.039808E+05  2.025548E+05  4.750616E+05
       528   1  1.508636E+07 -5.223772E+05  8.841916E+04 -2.000062E+05  7.347168E+04  2.083453E+05
       529   1  7.691669E+06 -2.225733E+05  1.033997E+05  2.998381E+05 -4.473007E+04 -2.545923E+05
       530   1  7.994870E+06 -1.171316E+05  2.761503E+04  8.092776E+05 -1.160978E+05 -5.772937E+05
       531   1  8.269696E+06 -2.214305E+03  2.547484E+05  1.329876E+06 -1.294785E+04 -6.027397E+05
       532   1  8.334125E+06 -3.735042E+04  2.903204E+05  1.735575E+06 -3.166355E+04 -4.704218E+05
       533   1  8.478532E+06  9.683415E+03  4.360818E+05  1.984313E+06  3.321045E+04 -2.439217E+05
       534   1  8.384170E+06 -3.506499E+04  4.491466E+05  2.057286E+06 -2.747072E-04  2.940956E-04
       535   1  8.478532E+06  9.683415E+03  4.360818E+05  1.984313E+06 -3.321045E+04  2.439217E+05
       536   1  8.334125E+06 -3.735042E+04  2.903204E+05  1.735575E+06  3.166355E+04  4.704218E+05
       537   1  8.269696E+06 -2.214305E+03  2.547484E+05  1.329876E+06  1.294785E+04  6.027397E+05
       538   1  7.994870E+06 -1.171316E+05  2.761503E+04  8.092776E+05  1.160978E+05  5.772937E+05
       539   1  7.691669E+06 -2.225733E+05  1.033997E+05  2.998381E+05  4.473007E+04  2.545923E+05
       540   1  8.379702E-03 -2.417838E-04  9.446042E-05  1.710349E+05 -4.969177E-05 -2.678460E+05
       541   1  8.714340E-03 -1.130269E-04  8.066824E-06  6.577109E+05 -1.344811E-04 -6.041973E+05
       542   1  9.026843E-03  1.011535E-05  2.755274E-04  1.169145E+06 -5.688317E-06 -6.378556E+05
       543   1  9.072916E-03 -3.790560E-05  3.157936E-04  1.576035E+06 -4.280115E-05 -4.935964E+05
       544   1  9.257853E-03  2.441527E-05  4.644179E-04  1.824927E+06  4.076896E-05 -2.572436E+05
       545   1  9.121016E-03 -3.623676E-05  4.947696E-04  1.898939E+06 -8.381168E-08  3.277249E-04
       546   1  9.255751E-03  2.435406E-05  4.644198E-04  1.824927E+06 -4.083682E-05  2.572436E+05
       547   1  9.068880E-03 -3.811487E-05  3.158837E-04  1.576035E+06  4.263741E-05  4.935964E+05
       548   1  9.020905E-03  9.920371E-06  2.755390E-04  1.169145E+06  5.569019E-06  6.378556E+05
       549   1  8.706562E-03 -1.132905E-04  8.227548E-06  6.577109E+05  1.343100E-04  6.041973E+05
       550   1  8.370062E-03 -2.422123E-04  9.442157E-05  1.710349E+05  4.963988E-05  2.678460E+05
       551   1 -7.691669E+06  2.225733E+05 -1.033997E+05  2.998381E+05  4.473007E+04 -2.545923E+05
       552   1 -7.994870E+06  1.171316E+05 -2.761503E+04  8.092776E+05  1.160978E+05 -5.772937E+05
       553   1 -8.269696E+06  2.214305E+03 -2.547484E+05  1.329876E+06  1.294785E+04 -6.027397E+05
       554   1 -8.334125E+06  3.735042E+04 -2.903204E+05  1.735575E+06  3.166355E+04 -4.704218E+05
       555   1 -8.478532E+06 -9.683416E+03 -4.360818E+05  1.984313E+06 -3.321045E+04 -2.439217E+05
       556   1 -8.384170E+06  3.506499E+04 -4.491466E+05  2.057286E+06  2.745821E-04  2.941713E-04
       557   1 -8.478532E+06 -9.683416E+03 -4.360818E+05  1.984313E+06  3.321045E+04  2.439217E+05
       558   1 -8.334125E+06  3.735042E+04 -2.903204E+05  1.735575E+06 -3.166355E+04  4.704218E+05
       559   1 -8.269696E+06  2.214304E+03 -2.547484E+05  1.329876E+06 -1.294785E+04  6.027397E+05
       560   1 -7.994870E+06  1.171316E+05 -2.761503E+04  8.092776E+05 -1.160978E+05  5.772937E+05
       561   1 -7.691669E+06  2.225733E+05 -1.033997E+05  2.998381E+05 -4.473007E+04  2.545923E+05
       562   1 -1.508636E+07  5.223772E+05 -8.841916E+04 -2.000062E+05  7.347168E+04 -2.083453E+05
       563   1 -1.570427E+07  3.874640E+05  6.163581E+04  3.039808E+05  2.025548E+05 -4.750616E+05
       564   1 -1.624355E+07  2.052176E+05 -3.785176E+05  7.757404E+05 -2.290870E+03 -5.069556E+05
       565   1 -1.635494E+07  2.963610E+05 -4.383461E+05  1.137214E+06  4.199439E+04 -3.969679E+05
       566   1 -1.663557E+07  2.125413E+05 -7.224602E+05  1.355366E+06 -7.595101E+04 -2.083912E+05
       567   1 -1.644477E+07  3.034125E+05 -7.415240E+05  1.419337E+06  5.805822E-04  2.772569E-04
       568   1 -1.663557E+07  2.125413E+05 -7.224602E+05  1.355366E+06  7.595102E+04  2.083912E+05
       569   1 -1.635494E+07  2.963610E+05 -4.383461E+05  1.137214E+06 -4.199438E+04  3.969679E+05
       570   1 -1.624355E+07  2.052176E+05 -3.785176E+05  7.757404E+05  2.290872E+03  5.069556E+05
       571   1 -1.570427E+07  3.874640E+05  6.163580E+04  3.039808E+05 -2.025548E+05  4.750616E+05
       572   1 -1.508636E+07  5.223772E+05 -8.841916E+04 -2.000062E+05 -7.347168E+04  2.083453E+05
       573   1 -2.266201E+07  1.981944E+05 -3.187017E+05 -1.172714E+05  6.461903E+04 -1.500713E+05
       574   1 -2.350992E+07  7.422414E+04 -9.559473E+04  3.535919E+05  2.126654E+05 -3.339207E+05
       575   1 -2.424895E+07 -1.684178E+05 -7.609205E+05  7.595626E+05 -8.487354E+04 -3.550445E+05
       576   1 -2.438863E+07 -2.596291E+04 -8.458945E+05  1.058065E+06  8.604991E+03 -2.927901E+05
       577   1 -2.478691E+07 -1.573952E+05 -1.252440E+06  1.240075E+06 -1.391929E+05 -1.567157E+05
       578   1 -2.449984E+07 -2.807234E+04 -1.281447E+06  1.292080E+06  9.351405E-04  1.903813E-04
       579   1 -2.478691E+07 -1.573952E+05 -1.252440E+06  1.240075E+06  1.391929E+05  1.567157E+05
       580   1 -2.438863E+07 -2.596291E+04 -8.458945E+05  1.058065E+06 -8.604989E+03  2.927901E+05
       581   1 -2.424895E+07 -1.684178E+05 -7.609205E+05  7.595626E+05  8.487354E+04  3.550445E+05
       582   1 -2.350992E+07  7.422413E+04 -9.559474E+04  3.535919E+05 -2.126654E+05  3.339207E+05
       583   1 -2.266201E+07  1.981944E+05 -3.187017E+05 -1.172714E+05 -6.461903E+04  1.500713E+05
       584   1 -2.993211E+07  5.420165E+05 -1.746725E+05 -5.589633E+05  4.158626E+04 -7.069978E+04
       585   1 -3.102614E+07  5.255094E+05  8.494512E+04 -1.266695E+05  1.317479E+05 -1.684012E+05
       586   1 -3.188256E+07  2.950803E+05 -7.868944E+05  1.382793E+05 -2.715886E+05 -1.925621E+05
       587   1 -3.195159E+07  5.170637E+05 -8.722040E+05  3.113157E+05 -9.213908E+04 -1.743135E+05
       588   1 -3.244184E+07  3.467718E+05 -1.391337E+06  4.273276E+05 -2.299542E+05 -9.817391E+04
       589   1 -3.204847E+07  5.232580E+05 -1.417180E+06  4.581272E+05  1.382661E-03  1.332084E-04
       590   1 -3.244184E+07  3.467718E+05 -1.391337E+06  4.273276E+05  2.299542E+05  9.817391E+04
       591   1 -3.195159E+07  5.170637E+05 -8.722040E+05  3.113157E+05  9.213908E+04  1.743135E+05
       592   1 -3.188256E+07  2.950803E+05 -7.868944E+05  1.382793E+05  2.715886E+05  1.925621E+05
       593   1 -3.102614E+07  5.255094E+05  8.494511E+04 -1.266695E+05 -1.317479E+05  1.684012E+05
       594   1 -2.993211E+07  5.420165E+05 -1.746725E+05 -5.589633E+05 -4.158626E+04  7.069978E+04
       595   1 -3.766970E+07 -3.932739E+05 -5.301910E+05 -1.310171E+05 -1.272252E+05  7.489398E+02
       596   1 -3.872908E+07 -1.443815E+05 -1.313751E+05 -1.661559E+03 -8.822615E+04 -3.287997E+04
       597   1 -3.956256E+07 -4.115390E+05 -1.177478E+06  1.035772E+05 -5.549057E+05 -6.510346E+04
       598   1 -3.951255E+07 -1.999585E+05 -1.339817E+06  1.665527E+05 -2.797697E+05 -5.202566E+04
       599   1 -4.000813E+07 -3.984400E+05 -1.970013E+06  1.982160E+05 -3.559158E+05 -3.612480E+04
       600   1 -3.953667E+07 -2.177107E+05 -2.025457E+06  2.205380E+05  1.932529E-03  4.671298E-05
       601   1 -4.000813E+07 -3.984400E+05 -1.970013E+06  1.982160E+05  3.559158E+05  3.612480E+04
       602   1 -3.951255E+07 -1.999585E+05 -1.339817E+06  1.665527E+05  2.797697E+05  5.202566E+04
       603   1 -3.956256E+07 -4.115390E+05 -1.177478E+06  1.035772E+05  5.549057E+05  6.510346E+04
       604   1 -3.872908E+07 -1.443815E+05 -1.313751E+05 -1.661558E+03  8.822615E+04  3.287997E+04
       605   1 -3.766970E+07 -3.932739E+05 -5.301910E+05 -1.310171E+05  1.272252E+05 -7.489397E+02
       606   1  3.784855E+07 -3.763629E+05 -2.457139E+05 -8.857622E+04 -5.595371E+04 -1.827325E+04
       607   1  3.868762E+07 -1.261372E+05  3.638411E+05  3.151723E+04  5.896942E+04 -3.630715E+04
       608   1  3.908672E+07 -3.257971E+05  2.012529E+05  7.617760E+04 -2.679881E+04 -5.120865E+04
       609   1  3.958631E+07 -1.556040E+05  8.531046E+05  1.251046E+05  1.977564E+05 -5.276634E+04
       610   1  3.944393E+07 -3.310536E+05  8.539182E+05  1.540356E+05  3.556584E+04 -2.766848E+04
       611   1  3.979985E+07 -1.709174E+05  1.131803E+06  1.594244E+05 -1.615859E-03  3.312692E-05
       612   1  3.944393E+07 -3.310536E+05  8.539182E+05  1.540356E+05 -3.556584E+04  2.766848E+04
       613   1  3.958631E+07 -1.556040E+05  8.531046E+05  1.251046E+05 -1.977564E+05  5.276634E+04
       614   1  3.908672E+07 -3.257971E+05  2.012529E+05  7.617760E+04  2.679881E+04  5.120865E+04
       615   1  3.868762E+07 -1.261372E+05  3.638411E+05  3.151723E+04 -5.896943E+04  3.630715E+04
       616   1  3.784855E+07 -3.763629E+05 -2.457139E+05 -8.857622E+04  5.595371E+04  1.827325E+04
       617   1  3.008693E+07 -6.246857E+03 -5.202987E+04  2.019379E+04 -8.937367E+04 -5.320227E+04
       618   1  3.086650E+07  2.000169E+05  4.050262E+05  2.250041E+05 -9.514349E+04 -1.323932E+05
       619   1  3.133859E+07  8.070294E+04  2.676112E+05  4.070070E+05 -1.436182E+05 -1.689091E+05
       620   1  3.182855E+07  2.334695E+05  7.993456E+05  5.444542E+05  6.929615E+04 -1.435427E+05
       621   1  3.175755E+07  8.299054E+04  7.685798E+05  6.238351E+05 -2.157687E+04 -8.402655E+04
       622   1  3.207412E+07  2.234177E+05  1.004464E+06  6.567724E+05 -1.135533E-03  1.127604E-04
       623   1  3.175755E+07  8.299054E+04  7.685798E+05  6.238351E+05  2.157687E+04  8.402655E+04
       624   1  3.182855E+07  2.334695E+05  7.993456E+05  5.444542E+05 -6.929615E+04  1.435427E+05
       625   1  3.133859E+07  8.070294E+04  2.676112E+05  4.070070E+05  1.436182E+05  1.689091E+05
       626   1  3.086650E+07  2.000169E+05  4.050262E+05  2.250041E+05  9.514349E+04  1.323932E+05
       627   1  3.008693E+07 -6.246856E+03 -5.202986E+04  2.019379E+04  8.937366E+04  5.320227E+04
       628   1  2.254458E+07 -5.246425E+05 -1.618373E+05 -7.726791E+04 -1.138388E+05 -1.048335E+05
       629   1  2.320118E+07 -2.735184E+05  1.792225E+05  2.180518E+05 -1.532918E+05 -2.600018E+05
       630   1  2.362613E+07 -3.468992E+05  6.466094E+04  4.900672E+05 -1.901071E+05 -2.884939E+05
       631   1  2.404961E+07 -2.447672E+05  4.656770E+05  6.930422E+05 -9.119096E+03 -2.344860E+05
       632   1  2.403226E+07 -3.712228E+05  4.390023E+05  8.198211E+05 -4.780215E+04 -1.333986E+05
       633   1  2.428050E+07 -2.677248E+05  6.182690E+05  8.675667E+05 -7.522678E-04  1.473858E-04
       634   1  2.403226E+07 -3.712228E+05  4.390023E+05  8.198211E+05  4.780215E+04  1.333986E+05
       635   1  2.404961E+07 -2.447672E+05  4.656770E+05  6.930422E+05  9.119095E+03  2.344860E+05
       636   1  2.362613E+07 -3.468992E+05  6.466094E+04  4.900672E+05  1.901071E+05  2.884939E+05
       637   1  2.320118E+07 -2.735184E+05  1.792225E+05  2.180518E+05  1.532918E+05  2.600018E+05
       638   1  2.254458E+07 -5.246425E+05 -1.618373E+05 -7.726791E+04  1.138388E+05  1.048335E+05
       639   1  1.512655E+07 -2.338994E+05 -2.854265E+04  3.579719E+05 -8.719943E+04 -1.538739E+05
       640   1  1.556384E+07 -2.453564E+04  1.999664E+05  6.593789E+05 -1.376639E+05 -3.583080E+05
       641   1  1.587104E+07 -4.440055E+04  1.196802E+05  9.906592E+05 -1.694428E+05 -3.988340E+05
       642   1  1.618609E+07  4.017972E+04  3.912880E+05  1.260777E+06 -3.725192E+04 -3.171118E+05
       643   1  1.618815E+07 -4.141617E+04  3.790522E+05  1.429097E+06 -4.728198E+04 -1.762785E+05
       644   1  1.635987E+07  2.853478E+04  5.012040E+05  1.490465E+06 -4.568095E-04  2.407765E-04
       645   1  1.618815E+07 -4.141617E+04  3.790522E+05  1.429097E+06  4.728198E+04  1.762785E+05
       646   1  1.618609E+07  4.017972E+04  3.912880E+05  1.260777E+06  3.725192E+04  3.171118E+05
       647   1  1.587104E+07 -4.440055E+04  1.196802E+05  9.906592E+05  1.694428E+05  3.988340E+05
       648   1  1.556384E+07 -2.453564E+04  1.999664E+05  6.593789E+05  1.376639E+05  3.583080E+05
       649   1  1.512655E+07 -2.338994E+05 -2.854265E+04  3.579719E+05  8.719943E+04  1.538739E+05
       650   1  7.552404E+06 -2.588051E+05 -5.641515E+04  2.846329E+05 -5.043481E+04 -1.765927E+05
       651   1  7.783575E+06 -1.462750E+05  5.252786E+04  5.879543E+05 -8.317841E+04 -4.256065E+05
       652   1  7.949736E+06 -1.547708E+05  1.053171E+04  9.393814E+05 -9.769668E+04 -4.700932E+05
       653   1  8.111957E+06 -1.145476E+05  1.459120E+05  1.231860E+06 -2.808210E+04 -3.746780E+05
       654   1  8.117555E+06 -1.569192E+05  1.392062E+05  1.417137E+06 -2.874683E+04 -2.054073E+05
       655   1  8.205064E+06 -1.230392E+05  2.016035E+05  1.484717E+06 -2.132340E-04  2.385908E-04
       656   1  8.117555E+06 -1.569192E+05  1.392062E+05  1.417137E+06  2.874683E+04  2.054073E+05
       657   1  8.111957E+06 -1.145476E+05  1.459120E+05  1.231860E+06  2.808210E+04  3.746780E+05
       658   1  7.949736E+06 -1.547708E+05  1.053171E+04  9.393814E+05  9.769668E+04  4.700932E+05
       659   1  7.783575E+06 -1.462750E+05  5.252786E+04  5.879543E+05  8.317841E+04  4.256065E+05
       660   1  7.552404E+06 -2.588051E+05 -5.641515E+04  2.846329E+05  5.043481E+04  1.765927E+05
       661   1  8.286100E-03 -2.935160E-04 -6.293183E-05  5.812575E+05 -5.730178E-05 -1.911821E+05
       662   1  8.541263E-03 -1.552718E-04  5.335904E-05  8.899321E+05 -8.828428E-05 -4.500034E+05
       663   1  8.724328E-03 -1.706683E-04  2.310127E-05  1.261580E+06 -1.126728E-04 -4.981014E+05
       664   1  8.908686E-03 -1.300093E-04  1.699599E-04  1.573240E+06 -2.544017E-05 -3.936392E+05
       665   1  8.899569E-03 -1.750754E-04  1.641161E-04  1.770985E+06 -3.492679E-05 -2.170316E+05
       666   1  9.013436E-03 -1.391833E-04  2.305492E-04  1.842849E+06 -8.830318E-08  2.833867E-04
       667   1  8.897561E-03 -1.752339E-04  1.641490E-04  1.770985E+06  3.473667E-05  2.170316E+05
       668   1  8.904654E-03 -1.300312E-04  1.699815E-04  1.573240E+06  2.526994E-05  3.936392E+05
       669   1  8.718278E-03 -1.708228E-04  2.315254E-05  1.261580E+06  1.124763E-04  4.981014E+05
       670   1  8.533326E-03 -1.554959E-04  5.331481E-05  8.899321E+05  8.814858E-05  4.500034E+05
       671   1  8.276236E-03 -2.937279E-04 -6.288035E-05  5.812575E+05  5.723883E-05  1.911821E+05
       672   1 -7.552404E+06  2.588051E+05  5.641515E+04  2.846329E+05  5.043481E+04 -1.765927E+05
       673   1 -7.783575E+06  1.462750E+05 -5.252786E+04  5.879543E+05  8.317841E+04 -4.256065E+05
       674   1 -7.949736E+06  1.547708E+05 -1.053171E+04  9.393814E+05  9.769668E+04 -4.700932E+05
       675   1 -8.111957E+06  1.145476E+05 -1.459120E+05  1.231860E+06  2.808210E+04 -3.746780E+05
       676   1 -8.117555E+06  1.569192E+05 -1.392062E+05  1.417137E+06  2.874683E+04 -2.054073E+05
       677   1 -8.205064E+06  1.230392E+05 -2.016035E+05  1.484717E+06  2.130558E-04  2.385693E-04
       678   1 -8.117555E+06  1.569192E+05 -1.392062E+05  1.417137E+06 -2.874682E+04  2.054073E+05
       679   1 -8.111957E+06  1.145476E+05 -1.459120E+05  1.231860E+06 -2.808210E+04  3.746780E+05
       680   1 -7.949736E+06  1.547708E+05 -1.053171E+04  9.393814E+05 -9.769668E+04  4.700932E+05
       681   1 -7.783575E+06  1.462750E+05 -5.252786E+04  5.879543E+05 -8.317841E+04  4.256065E+05
       682   1 -7.552404E+06  2.588051E+05  5.641515E+04  2.846329E+05 -5.043481E+04  1.765927E+05
       683   1 -1.512655E+07  2.338994E+05  2.854265E+04  3.579719E+05  8.719943E+04 -1.538739E+05
       684   1 -1.556384E+07  2.453564E+04 -1.999664E+05  6.593789E+05  1.376639E+05 -3.583080E+05
       685   1 -1.587104E+07  4.440055E+04 -1.196802E+05  9.906592E+05  1.694428E+05 -3.988340E+05
       686   1 -1.618609E+07 -4.017972E+04 -3.912880E+05  1.260777E+06  3.725192E+04 -3.171118E+05
       687   1 -1.618815E+07  4.141617E+04 -3.790522E+05  1.429097E+06  4.728198E+04 -1.762785E+05
       688   1 -1.635987E+07 -2.853478E+04 -5.012040E+05  1.490465E+06  4.565542E-04  2.408799E-04
       689   1 -1.618815E+07  4.141617E+04 -3.790522E+05  1.429097E+06 -4.728198E+04  1.762785E+05
       690   1 -1.618609E+07 -4.017972E+04 -3.912880E+05  1.260777E+06 -3.725192E+04  3.171118E+05
       691   1 -1.587104E+07  4.440055E+04 -1.196802E+05  9.906592E+05 -1.694428E+05  3.988340E+05
       692   1 -1.556384E+07  2.453564E+04 -1.999664E+05  6.593789E+05 -1.376639E+05  3.583080E+05
       693   1 -1.512655E+07  2.338994E+05  2.854265E+04  3.579719E+05 -8.719943E+04  1.538739E+05
       694   1 -2.254458E+07  5.246425E+05  1.618373E+05 -7.726791E+04  1.138388E+05 -1.048335E+05
       695   1 -2.320118E+07  2.735184E+05 -1.792225E+05  2.180518E+05  1.532918E+05 -2.600018E+05
       696   1 -2.362613E+07  3.468992E+05 -6.466094E+04  4.900672E+05  1.901071E+05 -2.884939E+05
       697   1 -2.404961E+07  2.447672E+05 -4.656770E+05  6.930422E+05  9.119096E+03 -2.344860E+05
       698   1 -2.403226E+07  3.712228E+05 -4.390023E+05  8.198211E+05  4.780215E+04 -1.333986E+05
       699   1 -2.428050E+07  2.677248E+05 -6.182690E+05  8.675667E+05  7.520675E-04  1.475114E-04
       700   1 -2.403226E+07  3.712228E+05 -4.390023E+05  8.198211E+05 -4.780215E+04  1.333986E+05
       701   1 -2.404961E+07  2.447672E+05 -4.656770E+05  6.930422E+05 -9.119095E+03  2.344860E+05
       702   1 -2.362613E+07  3.468992E+05 -6.466094E+04  4.900672E+05 -1.901071E+05  2.884939E+05
       703   1 -2.320118E+07  2.735184E+05 -1.792225E+05  2.180518E+05 -1.532918E+05  2.600018E+05
       704   1 -2.254458E+07  5.246425E+05  1.618373E+05 -7.726791E+04 -1.138388E+05  1.048335E+05
       705   1 -3.008693E+07  6.246857E+03  5.202987E+04  2.019379E+04  8.937367E+04 -5.320227E+04
       706   1 -3.086650E+07 -2.000169E+05 -4.050262E+05  2.250041E+05  9.514349E+04 -1.323932E+05
       707   1 -3.133859E+07 -8.070294E+04 -2.676112E+05  4.070070E+05  1.436182E+05 -1.689091E+05
       708   1 -3.182855E+07 -2.334695E+05 -7.993456E+05  5.444542E+05 -6.929615E+04 -1.435427E+05
       709   1 -3.175755E+07 -8.299054E+04 -7.685798E+05  6.238351E+05  2.157687E+04 -8.402655E+04
       710   1 -3.207412E+07 -2.234177E+05 -1.004464E+06  6.567724E+05  1.135070E-03  1.128210E-04
       711   1 -3.175755E+07 -8.299054E+04 -7.685798E+05  6.238351E+05 -2.157687E+04  8.402655E+04
       712   1 -3.182855E+07 -2.334695E+05 -7.993456E+05  5.444542E+05  6.929615E+04  1.435427E+05
       713   1 -3.133859E+07 -8.070294E+04 -2.676112E+05  4.070070E+05 -1.436182E+05  1.689091E+05
       714   1 -3.086650E+07 -2.000169E+05 -4.050262E+05  2.250041E+05 -9.514349E+04  1.323932E+05
       715   1 -3.008693E+07  6.246856E+03  5.202986E+04  2.019379E+04 -8.937366E+04  5.320227E+04
       716   1 -3.784855E+07  3.763629E+05  2.457139E+05 -8.857622E+04  5.595371E+04 -1.827325E+04
       717   1 -3.868762E+07  1.261372E+05 -3.638411E+05  3.151723E+04 -5.896942E+04 -3.630715E+04
       718   1 -3.908672E+07  3.257971E+05 -2.012529E+05  7.617760E+04  2.679881E+04 -5.120865E+04
       719   1 -3.958631E+07  1.556040E+05 -8.531046E+05  1.251046E+05 -1.977564E+05 -5.276634E+04
       720   1 -3.944393E+07  3.310536E+05 -8.539182E+05  1.540356E+05 -3.556584E+04 -2.766848E+04
       721   1 -3.979985E+07  1.709174E+05 -1.131803E+06  1.594244E+05  1.615277E-03  3.314627E-05
       722   1 -3.944393E+07  3.310536E+05 -8.539182E+05  1.540356E+05  3.556584E+04  2.766848E+04
       723   1 -3.958631E+07  1.556040E+05 -8.531046E+05  1.251046E+05  1.977564E+05  5.276634E+04
       724   1 -3.908672E+07  3.257971E+05 -2.012529E+05  7.617760E+04 -2.679881E+04  5.120865E+04
       725   1 -3.868762E+07  1.261372E+05 -3.638411E+05  3.151723E+04  5.896943E+04  3.630715E+04
       726   1 -3.784855E+07  3.763629E+05  2.457139E+05 -8.857622E+04 -5.595371E+04  1.827325E+04
       727   1  3.794025E+07  1.964728E+05  2.428996E+05  7.434667E+04 -4.131451E+04 -1.191318E+03
       728   1  3.843667E+07  7.374259E+04 -1.288534E+04  1.061576E+05 -1.479452E+05 -3.035996E+04
       729   1  3.890257E+07  2.118166E+05  4.608216E+05  1.527547E+05 -3.666235E+04 -4.434361E+04
       730   1  3.903563E+07  8.366853E+04  3.475655E+05  1.799256E+05 -8.141684E+04 -3.816601E+04
       731   1  3.935064E+07  2.156743E+05  7.299776E+05  2.012541E+05  1.943985E+04 -2.452607E+04
       732   1  3.919180E+07  8.672607E+04  5.718484E+05  2.097429E+05 -1.562428E-03  2.743994E-05
       733   1  3.935064E+07  2.156743E+05  7.299776E+05  2.012541E+05 -1.943985E+04  2.452607E+04
       734   1  3.903563E+07  8.366853E+04  3.475655E+05  1.799256E+05  8.141683E+04  3.816601E+04
       735   1  3.890257E+07  2.118166E+05  4.608216E+05  1.527547E+05  3.666234E+04  4.434361E+04
       736   1  3.843667E+07  7.374259E+04 -1.288534E+04  1.061576E+05  1.479452E+05  3.035996E+04
       737   1  3.794025E+07  1.964728E+05  2.428996E+05  7.434667E+04  4.131451E+04  1.191318E+03
       738   1  3.017043E+07 -2.373613E+05  6.429386E+04  9.819919E+04 -8.364645E+04 -4.711926E+04
       739   1  3.067519E+07 -2.343454E+05 -9.729852E+04  2.332585E+05 -1.899524E+05 -1.061763E+05
       740   1  3.113151E+07 -1.294421E+05  2.707735E+05  3.390151E+05 -1.163661E+05 -1.282898E+05
       741   1  3.130718E+07 -2.565748E+05  1.448381E+05  4.261288E+05 -1.298570E+05 -1.168646E+05
       742   1  3.160325E+07 -1.459883E+05  4.522302E+05  4.872259E+05 -1.930583E+04 -6.551150E+04
       743   1  3.148105E+07 -2.684793E+05  3.019291E+05  5.041692E+05 -1.103567E-03  8.708212E-05
       744   1  3.160325E+07 -1.459883E+05  4.522302E+05  4.872259E+05  1.930583E+04  6.551150E+04
       745   1  3.130718E+07 -2.565748E+05  1.448381E+05  4.261288E+05  1.298570E+05  1.168646E+05
       746   1  3.113151E+07 -1.294421E+05  2.707736E+05  3.390151E+05  1.163661E+05  1.282898E+05
       747   1  3.067519E+07 -2.343454E+05 -9.729852E+04  2.332585E+05  1.899524E+05  1.061763E+05
       748   1  3.017043E+07 -2.373613E+05  6.429386E+04  9.819919E+04  8.364645E+04  4.711926E+04
       749   1  2.259376E+07 -1.418705E+04  1.446913E+05  3.736890E+05 -7.438731E+04 -8.042925E+04
       750   1  2.298407E+07  2.921517E+03 -1.420761E+04  5.253202E+05 -1.941497E+05 -1.908888E+05
       751   1  2.338238E+07  1.113460E+05  2.610532E+05  6.943161E+05 -1.434783E+05 -2.176347E+05
       752   1  2.355743E+07  2.531762E+04  1.660796E+05  8.414893E+05 -1.388777E+05 -1.844266E+05
       753   1  2.380201E+07  1.069326E+05  3.965384E+05  9.362164E+05 -3.735732E+04 -1.026103E+05
       754   1  2.372213E+07  1.642921E+04  2.821583E+05  9.672819E+05 -7.383918E-04  1.121928E-04
       755   1  2.380201E+07  1.069326E+05  3.965384E+05  9.362164E+05  3.735732E+04  1.026103E+05
       756   1  2.355743E+07  2.531762E+04  1.660796E+05  8.414893E+05  1.388777E+05  1.844266E+05
       757   1  2.338238E+07  1.113460E+05  2.610532E+05  6.943161E+05  1.434783E+05  2.176347E+05
       758   1  2.298407E+07  2.921518E+03 -1.420761E+04  5.253202E+05  1.941497E+05  1.908888E+05
       759   1  2.259376E+07 -1.418705E+04  1.446913E+05  3.736890E+05  7.438731E+04  8.042925E+04
       760   1  1.506200E+07 -2.598448E+05  2.803483E+04  3.473615E+05 -6.633688E+04 -1.088925E+05
       761   1  1.535037E+07 -2.175424E+05 -7.121391E+04  5.290534E+05 -1.571965E+05 -2.595236E+05
       762   1  1.563688E+07 -1.411975E+05  1.051393E+05  7.335286E+05 -1.233111E+05 -2.953800E+05
       763   1  1.577137E+07 -2.025285E+05  3.591147E+04  9.116173E+05 -1.158516E+05 -2.433211E+05
       764   1  1.595108E+07 -1.528940E+05  1.912025E+05  1.030835E+06 -3.686437E+04 -1.346739E+05
       765   1  1.589975E+07 -2.164901E+05  1.125175E+05  1.070132E+06 -4.479478E-04  1.839062E-04
       766   1  1.595108E+07 -1.528940E+05  1.912025E+05  1.030835E+06  3.686437E+04  1.346739E+05
       767   1  1.577137E+07 -2.025285E+05  3.591147E+04  9.116172E+05  1.158516E+05  2.433211E+05
       768   1  1.563688E+07 -1.411975E+05  1.051393E+05  7.335286E+05  1.233111E+05  2.953800E+05
       769   1  1.535037E+07 -2.175424E+05 -7.121391E+04  5.290534E+05  1.571965E+05  2.595236E+05
       770   1  1.506200E+07 -2.598448E+05  2.803483E+04  3.473615E+05  6.633688E+04  1.088925E+05
       771   1  7.550823E+06 -6.313195E+04  4.773183E+04  6.680481E+05 -3.412185E+04 -1.304698E+05
       772   1  7.688933E+06 -3.515039E+04 -7.717319E+03  8.481058E+05 -8.525047E+04 -3.066939E+05
       773   1  7.837081E+06  1.194509E+04  8.146991E+04  1.078728E+06 -7.094531E+04 -3.450466E+05
       774   1  7.911474E+06 -1.455849E+04  4.720133E+04  1.288325E+06 -6.494966E+04 -2.860095E+05
       775   1  8.004451E+06  1.270583E+04  1.250555E+05  1.428529E+06 -2.220023E+04 -1.564394E+05
       776   1  7.980665E+06 -1.902016E+04  8.677556E+04  1.474968E+06 -2.104539E-04  1.838517E-04
       777   1  8.004451E+06  1.270583E+04  1.250555E+05  1.428529E+06  2.220023E+04  1.564394E+05
       778   1  7.911474E+06 -1.455849E+04  4.720133E+04  1.288325E+06  6.494965E+04  2.860095E+05
       779   1  7.837081E+06  1.194509E+04  8.146991E+04  1.078728E+06  7.094531E+04  3.450466E+05
       780   1  7.688933E+06 -3.515039E+04 -7.717318E+03  8.481058E+05  8.525047E+04  3.066939E+05
       781   1  7.550823E+06 -6.313195E+04  4.773183E+04  6.680481E+05  3.412185E+04  1.304698E+05
       782   1  8.232196E-03 -7.952053E-05  3.360134E-05  5.140608E+05 -3.686305E-05 -1.334936E+05
       783   1  8.387147E-03 -3.804203E-05 -3.612256E-05  6.950896E+05 -9.575030E-05 -3.196750E+05
       784   1  8.555001E-03  1.285057E-05  9.056736E-05  9.249797E+05 -7.430021E-05 -3.642142E+05
       785   1  8.624026E-03 -2.917470E-05  3.744845E-05  1.134751E+06 -7.470978E-05 -2.989269E+05
       786   1  8.737528E-03  1.402494E-05  1.327951E-04  1.276208E+06 -2.222598E-05 -1.648879E+05
       787   1  8.694903E-03 -3.515047E-05  8.366960E-05  1.323515E+06 -1.375091E-07  2.156620E-04
       788   1  8.735461E-03  1.399407E-05  1.327911E-04  1.276208E+06  2.201592E-05  1.648879E+05
       789   1  8.620011E-03 -2.912734E-05  3.751382E-05  1.134751E+06  7.443052E-05  2.989269E+05
       790   1  8.548903E-03  1.278751E-05  9.052873E-05  9.249797E+05  7.412938E-05  3.642142E+05
       791   1  8.379143E-03 -3.803094E-05 -3.600840E-05  6.950896E+05  9.561058E-05  3.196750E+05
       792   1  8.222205E-03 -7.961777E-05  3.356901E-05  5.140607E+05  3.682088E-05  1.334936E+05
       793   1 -7.550823E+06  6.313195E+04 -4.773183E+04  6.680481E+05  3.412185E+04 -1.304698E+05
       794   1 -7.688933E+06  3.515039E+04  7.717318E+03  8.481058E+05  8.525047E+04 -3.066939E+05
       795   1 -7.837081E+06 -1.194509E+04 -8.146991E+04  1.078728E+06  7.094531E+04 -3.450466E+05
       796   1 -7.911474E+06  1.455849E+04 -4.720133E+04  1.288325E+06  6.494965E+04 -2.860095E+05
       797   1 -8.004451E+06 -1.270583E+04 -1.250555E+05  1.428529E+06  2.220023E+04 -1.564394E+05
       798   1 -7.980665E+06  1.902016E+04 -8.677556E+04  1.474968E+06  2.101853E-04  1.838948E-04
       799   1 -8.004451E+06 -1.270583E+04 -1.250555E+05  1.428529E+06 -2.220023E+04  1.564394E+05
       800   1 -7.911474E+06  1.455849E+04 -4.720133E+04  1.288325E+06 -6.494965E+04  2.860095E+05
       801   1 -7.837081E+06 -1.194509E+04 -8.146991E+04  1.078728E+06 -7.094531E+04  3.450466E+05
       802   1 -7.688933E+06  3.515039E+04  7.717318E+03  8.481058E+05 -8.525047E+04  3.066939E+05
       803   1 -7.550823E+06  6.313195E+04 -4.773183E+04  6.680481E+05 -3.412185E+04  1.304698E+05
       804   1 -1.506200E+07  2.598448E+05 -2.803483E+04  3.473615E+05  6.633688E+04 -1.088925E+05
       805   1 -1.535037E+07  2.175424E+05  7.121391E+04  5.290534E+05  1.571965E+05 -2.595236E+05
       806   1 -1.563688E+07  1.411975E+05 -1.051393E+05  7.335286E+05  1.233111E+05 -2.953800E+05
       807   1 -1.577137E+07  2.025285E+05 -3.591147E+04  9.116173E+05  1.158516E+05 -2.433211E+05
       808   1 -1.595108E+07  1.528940E+05 -1.912025E+05  1.030835E+06  3.686437E+04 -1.346739E+05
       809   1 -1.589975E+07  2.164901E+05 -1.125175E+05  1.070132E+06  4.476338E-04  1.839219E-04
       810   1 -1.595108E+07  1.528940E+05 -1.912025E+05  1.030835E+06 -3.686437E+04  1.346739E+05
       811   1 -1.577137E+07  2.025285E+05 -3.591147E+04  9.116173E+05 -1.158516E+05  2.433211E+05
       812   1 -1.563688E+07  1.411975E+05 -1.051393E+05  7.335286E+05 -1.233111E+05  2.953800E+05
       813   1 -1.535037E+07  2.175424E+05  7.121391E+04  5.290534E+05 -1.571965E+05  2.595236E+05
       814   1 -1.506200E+07  2.598448E+05 -2.803483E+04  3.473615E+05 -6.633688E+04  1.088925E+05
       815   1 -2.259376E+07  1.418705E+04 -1.446913E+05  3.736890E+05  7.438731E+04 -8.042925E+04
       816   1 -2.298407E+07 -2.921517E+03  1.420761E+04  5.253202E+05  1.941497E+05 -1.908888E+05
       817   1 -2.338238E+07 -1.113460E+05 -2.610532E+05  6.943161E+05  1.434783E+05 -2.176347E+05
       818   1 -2.355743E+07 -2.531762E+04 -1.660796E+05  8.414893E+05  1.388777E+05 -1.844266E+05
       819   1 -2.380201E+07 -1.069326E+05 -3.965384E+05  9.362164E+05  3.735732E+04 -1.026103E+05
       820   1 -2.372213E+07 -1.642921E+04 -2.821583E+05  9.672819E+05  7.379775E-04  1.122942E-04
       821   1 -2.380201E+07 -1.069326E+05 -3.965384E+05  9.362164E+05 -3.735732E+04  1.026103E+05
       822   1 -2.355743E+07 -2.531762E+04 -1.660796E+05  8.414893E+05 -1.388777E+05  1.844266E+05
       823   1 -2.338238E+07 -1.113460E+05 -2.610532E+05  6.943161E+05 -1.434783E+05  2.176347E+05
       824   1 -2.298407E+07 -2.921517E+03  1.420761E+04  5.253202E+05 -1.941497E+05  1.908888E+05
       825   1 -2.259376E+07  1.418705E+04 -1.446913E+05  3.736890E+05 -7.438731E+04  8.042925E+04
       826   1 -3.017043E+07  2.373613E+05 -6.429386E+04  9.819919E+04  8.364645E+04 -4.711926E+04
       827   1 -3.067519E+07  2.343454E+05  9.729852E+04  2.332585E+05  1.899524E+05 -1.061763E+05
       828   1 -3.113151E+07  1.294421E+05 -2.707735E+05  3.390151E+05  1.163661E+05 -1.282898E+05
       829   1 -3.130718E+07  2.565748E+05 -1.448381E+05  4.261288E+05  1.298570E+05 -1.168646E+05
       830   1 -3.160325E+07  1.459883E+05 -4.522302E+05  4.872259E+05  1.930583E+04 -6.551150E+04
       831   1 -3.148105E+07  2.684793E+05 -3.019291E+05  5.041692E+05  1.103025E-03  8.722317E-05
       832   1 -3.160325E+07  1.459883E+05 -4.522302E+05  4.872259E+05 -1.930583E+04  6.551150E+04
       833   1 -3.130718E+07  2.565748E+05 -1.448381E+05  4.261288E+05 -1.298570E+05  1.168646E+05
       834   1 -3.113151E+07  1.294421E+05 -2.707736E+05  3.390151E+05 -1.163661E+05  1.282898E+05
       835   1 -3.067519E+07  2.343454E+05  9.729852E+04  2.332585E+05 -1.899524E+05  1.061763E+05
       836   1 -3.017043E+07  2.373613E+05 -6.429386E+04  9.819919E+04 -8.364645E+04  4.711926E+04
       837   1 -3.794025E+07 -1.964728E+05 -2.428996E+05  7.434667E+04  4.131451E+04 -1.191318E+03
       838   1 -3.843667E+07 -7.374259E+04  1.288534E+04  1.061576E+05  1.479452E+05 -3.035996E+04
       839   1 -3.890257E+07 -2.118166E+05 -4.608216E+05  1.527547E+05  3.666235E+04 -4.434361E+04
       840   1 -3.903563E+07 -8.366853E+04 -3.475655E+05  1.799256E+05  8.141684E+04 -3.816601E+04
       841   1 -3.935064E+07 -2.156743E+05 -7.299776E+05  2.012541E+05 -1.943985E+04 -2.452607E+04
       842   1 -3.919180E+07 -8.672607E+04 -5.718484E+05  2.097429E+05  1.561785E-03  2.751475E-05
       843   1 -3.935064E+07 -2.156743E+05 -7.299776E+05  2.012541E+05  1.943985E+04  2.452607E+04
       844   1 -3.903563E+07 -8.366853E+04 -3.475655E+05  1.799256E+05 -8.141683E+04  3.816601E+04
       845   1 -3.890257E+07 -2.118166E+05 -4.608216E+05  1.527547E+05 -3.666234E+04  4.434361E+04
       846   1 -3.843667E+07 -7.374259E+04  1.288534E+04  1.061576E+05 -1.479452E+05  3.035996E+04
       847   1 -3.794025E+07 -1.964728E+05 -2.428996E+05  7.434667E+04 -4.131451E+04  1.191318E+03
       848   1  3.790110E+07 -1.819425E+05 -1.332074E+05  9.331585E+04 -7.773305E+04 -9.770222E+03
       849   1  3.827183E+07 -5.327993E+04  1.495675E+05  1.193402E+05 -1.322564E+05 -2.013164E+04
       850   1  3.850200E+07 -1.666134E+05 -2.950519E+04  1.342501E+05 -1.636698E+05 -3.314682E+04
       851   1  3.879154E+07 -6.211989E+04  3.015382E+05  1.574686E+05 -7.695329E+04 -3.086236E+04
       852   1  3.880054E+07 -1.754905E+05  1.558018E+05  1.695109E+05 -6.171273E+04 -1.752529E+04
       853   1  3.896917E+07 -6.664772E+04  3.905945E+05  1.749186E+05 -1.500691E-03  1.931815E-05
       854   1  3.880054E+07 -1.754905E+05  1.558018E+05  1.695109E+05  6.171273E+04  1.752529E+04
       855   1  3.879154E+07 -6.211989E+04  3.015382E+05  1.574686E+05  7.695329E+04  3.086236E+04
       856   1  3.850200E+07 -1.666134E+05 -2.950519E+04  1.342501E+05  1.636698E+05  3.314682E+04
       857   1  3.827183E+07 -5.327993E+04  1.495675E+05  1.193402E+05  1.322564E+05  2.013164E+04
       858   1  3.790110E+07 -1.819425E+05 -1.332074E+05  9.331584E+04  7.773305E+04  9.770222E+03
       859   1  3.017053E+07  3.139683E+04 -4.173127E+04  3.437186E+05 -7.015523E+04 -2.944952E+04
       860   1  3.051939E+07  1.254781E+05  1.681772E+05  3.839691E+05 -1.565802E+05 -7.565060E+04
       861   1  3.077476E+07  5.532688E+04  2.238087E+04  4.500297E+05 -1.784493E+05 -9.759870E+04
       862   1  3.104578E+07  1.420345E+05  2.808435E+05  5.091637E+05 -1.063748E+05 -8.548461E+04
       863   1  3.108387E+07  4.945018E+04  1.406005E+05  5.483053E+05 -7.294079E+04 -5.046861E+04
       864   1  3.122789E+07  1.406710E+05  3.374153E+05  5.647352E+05 -1.076904E-03  6.889458E-05
       865   1  3.108387E+07  4.945018E+04  1.406005E+05  5.483053E+05  7.294079E+04  5.046861E+04
       866   1  3.104578E+07  1.420345E+05  2.808435E+05  5.091637E+05  1.063748E+05  8.548461E+04
       867   1  3.077476E+07  5.532688E+04  2.238087E+04  4.500297E+05  1.784493E+05  9.759870E+04
       868   1  3.051939E+07  1.254781E+05  1.681772E+05  3.839691E+05  1.565802E+05  7.565060E+04
       869   1  3.017053E+07  3.139683E+04 -4.173127E+04  3.437186E+05  7.015523E+04  2.944952E+04
       870   1  2.258682E+07 -2.210988E+05 -8.998801E+04  4.052446E+05 -7.266672E+04 -5.500817E+04
       871   1  2.287814E+07 -1.055799E+05  6.485910E+04  4.855987E+05 -1.476858E+05 -1.390510E+05
       872   1  2.310062E+07 -1.534442E+05 -5.572145E+04  5.838311E+05 -1.682492E+05 -1.579256E+05
       873   1  2.333543E+07 -9.741034E+04  1.351353E+05  6.708570E+05 -1.088436E+05 -1.350865E+05
       874   1  2.338349E+07 -1.740860E+05  2.204588E+04  7.328053E+05 -6.970986E+04 -7.732290E+04
       875   1  2.349680E+07 -1.066026E+05  1.713832E+05  7.549739E+05 -7.285639E-04  7.484236E-05
       876   1  2.338349E+07 -1.740860E+05  2.204588E+04  7.328053E+05  6.970986E+04  7.732290E+04
       877   1  2.333543E+07 -9.741034E+04  1.351353E+05  6.708570E+05  1.088436E+05  1.350865E+05
       878   1  2.310062E+07 -1.534442E+05 -5.572145E+04  5.838311E+05  1.682492E+05  1.579256E+05
       879   1  2.287814E+07 -1.055799E+05  6.485910E+04  4.855987E+05  1.476858E+05  1.390510E+05
       880   1  2.258682E+07 -2.210988E+05 -8.998800E+04  4.052446E+05  7.266672E+04  5.500817E+04
       881   1  1.504293E+07 -4.605580E+04 -2.139260E+04  6.764390E+05 -5.067736E+04 -7.640150E+04
       882   1  1.523930E+07  3.561043E+04  7.999313E+04  7.570834E+05 -1.139201E+05 -1.825046E+05
       883   1  1.540163E+07  1.290451E+04 -6.896067E+03  8.827724E+05 -1.312096E+05 -2.133294E+05
       884   1  1.557379E+07  5.949099E+04  1.200987E+05  1.001928E+06 -8.665911E+04 -1.764919E+05
       885   1  1.561340E+07  8.208271E+03  4.508870E+04  1.083374E+06 -5.466777E+04 -1.001268E+05
       886   1  1.569358E+07  5.385961E+04  1.443177E+05  1.113008E+06 -4.471784E-04  1.436237E-04
       887   1  1.561340E+07  8.208271E+03  4.508870E+04  1.083374E+06  5.466777E+04  1.001268E+05
       888   1  1.557379E+07  5.949099E+04  1.200987E+05  1.001928E+06  8.665911E+04  1.764919E+05
       889   1  1.540163E+07  1.290451E+04 -6.896068E+03  8.827724E+05  1.312096E+05  2.133294E+05
       890   1  1.523930E+07  3.561043E+04  7.999313E+04  7.570834E+05  1.139201E+05  1.825046E+05
       891   1  1.504293E+07 -4.605580E+04 -2.139260E+04  6.764390E+05  5.067736E+04  7.640150E+04
       892   1  7.524226E+06 -1.092134E+05 -3.233459E+04  6.231416E+05 -2.954751E+04 -8.546240E+04
       893   1  7.628179E+06 -6.155541E+04  1.609331E+04  7.143075E+05 -6.285829E+04 -2.146007E+05
       894   1  7.714641E+06 -7.216735E+04 -2.771254E+04  8.512202E+05 -7.112120E+04 -2.458122E+05
       895   1  7.803919E+06 -5.182101E+04  3.414208E+04  9.797108E+05 -4.835397E+04 -2.058739E+05
       896   1  7.827592E+06 -7.835259E+04 -4.876941E+03  1.069975E+06 -2.996255E+04 -1.151204E+05
       897   1  7.868478E+06 -5.656127E+04  4.561482E+04  1.102888E+06 -2.111740E-04  1.277182E-04
       898   1  7.827592E+06 -7.835259E+04 -4.876941E+03  1.069975E+06  2.996255E+04  1.151204E+05
       899   1  7.803919E+06 -5.182101E+04  3.414208E+04  9.797108E+05  4.835397E+04  2.058739E+05
       900   1  7.714641E+06 -7.216735E+04 -2.771254E+04  8.512202E+05  7.112120E+04  2.458122E+05
       901   1  7.628179E+06 -6.155541E+04  1.609331E+04  7.143075E+05  6.285829E+04  2.146007E+05
       902   1  7.524226E+06 -1.092134E+05 -3.233459E+04  6.231416E+05  2.954751E+04  8.546241E+04
       903   1  8.246465E-03 -1.168344E-04 -3.773958E-05  8.212561E+05 -3.264661E-05 -9.325101E+04
       904   1  8.360302E-03 -5.008667E-05  1.695091E-05  9.089892E+05 -6.840772E-05 -2.237744E+05
       905   1  8.460115E-03 -6.762041E-05 -2.213073E-05  1.054302E+06 -7.936908E-05 -2.598905E+05
       906   1  8.555852E-03 -4.752202E-05  5.506138E-05  1.194495E+06 -5.148616E-05 -2.149076E+05
       907   1  8.578469E-03 -7.598663E-05 -8.470920E-07  1.292057E+06 -3.397216E-05 -1.214763E+05
       908   1  8.627049E-03 -5.231353E-05  6.943243E-05  1.327307E+06 -1.415437E-07  1.645473E-04
       909   1  8.576468E-03 -7.590946E-05 -8.197233E-07  1.292057E+06  3.371178E-05  1.214763E+05
       910   1  8.551748E-03 -4.757222E-05  5.501141E-05  1.194495E+06  5.121233E-05  2.149076E+05
       911   1  8.454015E-03 -6.774157E-05 -2.212377E-05  1.054302E+06  7.916878E-05  2.598905E+05
       912   1  8.352112E-03 -5.037117E-05  1.685025E-05  9.089892E+05  6.827861E-05  2.237744E+05
       913   1  8.236285E-03 -1.170542E-04 -3.776958E-05  8.212561E+05  3.260479E-05  9.325101E+04
       914   1 -7.524225E+06  1.092134E+05  3.233459E+04  6.231416E+05  2.954751E+04 -8.546240E+04
       915   1 -7.628179E+06  6.155541E+04 -1.609331E+04  7.143075E+05  6.285829E+04 -2.146007E+05
       916   1 -7.714641E+06  7.216735E+04  2.771254E+04  8.512202E+05  7.112120E+04 -2.458122E+05
       917   1 -7.803919E+06  5.182101E+04 -3.414208E+04  9.797108E+05  4.835397E+04 -2.058739E+05
       918   1 -7.827592E+06  7.835259E+04  4.876941E+03  1.069975E+06  2.996255E+04 -1.151204E+05
       919   1 -7.868478E+06  5.656127E+04 -4.561482E+04  1.102888E+06  2.109125E-04  1.277167E-04
       920   1 -7.827592E+06  7.835259E+04  4.876941E+03  1.069975E+06 -2.996255E+04  1.151204E+05
       921   1 -7.803919E+06  5.182101E+04 -3.414208E+04  9.797108E+05 -4.835397E+04  2.058739E+05
       922   1 -7.714641E+06  7.216735E+04  2.771254E+04  8.512202E+05 -7.112120E+04  2.458122E+05
       923   1 -7.628179E+06  6.155541E+04 -1.609331E+04  7.143075E+05 -6.285829E+04  2.146007E+05
       924   1 -7.524225E+06  1.092134E+05  3.233459E+04  6.231416E+05 -2.954751E+04  8.546241E+04
       925   1 -1.504293E+07  4.605580E+04  2.139260E+04  6.764390E+05  5.067736E+04 -7.640150E+04
       926   1 -1.523930E+07 -3.561043E+04 -7.999313E+04  7.570834E+05  1.139201E+05 -1.825046E+05
       927   1 -1.540163E+07 -1.290451E+04  6.896067E+03  8.827724E+05  1.312096E+05 -2.133294E+05
       928   1 -1.557379E+07 -5.949099E+04 -1.200987E+05  1.001928E+06  8.665911E+04 -1.764919E+05
       929   1 -1.561340E+07 -8.208271E+03 -4.508870E+04  1.083374E+06  5.466777E+04 -1.001268E+05
       930   1 -1.569358E+07 -5.385961E+04 -1.443177E+05  1.113008E+06  4.468961E-04  1.437447E-04
       931   1 -1.561340E+07 -8.208271E+03 -4.508870E+04  1.083374E+06 -5.466777E+04  1.001268E+05
       932   1 -1.557379E+07 -5.949099E+04 -1.200987E+05  1.001928E+06 -8.665911E+04  1.764919E+05
       933   1 -1.540163E+07 -1.290451E+04  6.896068E+03  8.827724E+05 -1.312096E+05  2.133294E+05
       934   1 -1.523930E+07 -3.561043E+04 -7.999313E+04  7.570834E+05 -1.139201E+05  1.825046E+05
       935   1 -1.504293E+07  4.605580E+04  2.139260E+04  6.764390E+05 -5.067736E+04  7.640150E+04
       936   1 -2.258682E+07  2.210988E+05  8.998801E+04  4.052446E+05  7.266672E+04 -5.500817E+04
       937   1 -2.287814E+07  1.055799E+05 -6.485910E+04  4.855987E+05  1.476858E+05 -1.390510E+05
       938   1 -2.310062E+07  1.534442E+05  5.572145E+04  5.838311E+05  1.682492E+05 -1.579256E+05
       939   1 -2.333543E+07  9.741034E+04 -1.351353E+05  6.708570E+05  1.088436E+05 -1.350865E+05
       940   1 -2.338349E+07  1.740860E+05 -2.204588E+04  7.328053E+05  6.970986E+04 -7.732290E+04
       941   1 -2.349680E+07  1.066026E+05 -1.713832E+05  7.549739E+05  7.280886E-04  7.489514E-05
       942   1 -2.338349E+07  1.740860E+05 -2.204588E+04  7.328053E+05 -6.970986E+04  7.732290E+04
       943   1 -2.333543E+07  9.741034E+04 -1.351353E+05  6.708570E+05 -1.088436E+05  1.350865E+05
       944   1 -2.310062E+07  1.534442E+05  5.572145E+04  5.838311E+05 -1.682492E+05  1.579256E+05
       945   1 -2.287814E+07  1.055799E+05 -6.485910E+04  4.855987E+05 -1.476858E+05  1.390510E+05
       946   1 -2.258682E+07  2.210988E+05  8.998800E+04  4.052446E+05 -7.266672E+04  5.500817E+04
       947   1 -3.017053E+07 -3.139683E+04  4.173127E+04  3.437186E+05  7.015523E+04 -2.944952E+04
       948   1 -3.051939E+07 -1.254781E+05 -1.681772E+05  3.839691E+05  1.565802E+05 -7.565060E+04
       949   1 -3.077476E+07 -5.532688E+04 -2.238087E+04  4.500297E+05  1.784493E+05 -9.759870E+04
       950   1 -3.104578E+07 -1.420345E+05 -2.808435E+05  5.091637E+05  1.063748E+05 -8.548461E+04
       951   1 -3.108387E+07 -4.945018E+04 -1.406005E+05  5.483053E+05  7.294079E+04 -5.046861E+04
       952   1 -3.122789E+07 -1.406710E+05 -3.374153E+05  5.647352E+05  1.076364E-03  6.893448E-05
       953   1 -3.108387E+07 -4.945018E+04 -1.406005E+05  5.483053E+05 -7.294079E+04  5.046861E+04
       954   1 -3.104578E+07 -1.420345E+05 -2.808435E+05  5.091637E+05 -1.063748E+05  8.548461E+04
       955   1 -3.077476E+07 -5.532688E+04 -2.238087E+04  4.500297E+05 -1.784493E+05  9.759870E+04
       956   1 -3.051939E+07 -1.254781E+05 -1.681772E+05  3.839691E+05 -1.565802E+05  7.565060E+04
       957   1 -3.017053E+07 -3.139683E+04  4.173127E+04  3.437186E+05 -7.015523E+04  2.944952E+04
       958   1 -3.790110E+07  1.819425E+05  1.332074E+05  9.331585E+04  7.773305E+04 -9.770222E+03
       959   1 -3.827183E+07  5.327993E+04 -1.495675E+05  1.193402E+05  1.322564E+05 -2.013164E+04
       960   1 -3.850200E+07  1.666134E+05  2.950519E+04  1.342501E+05  1.636698E+05 -3.314682E+04
       961   1 -3.879154E+07  6.211989E+04 -3.015382E+05  1.574686E+05  7.695329E+04 -3.086236E+04
       962   1 -3.880054E+07  1.754905E+05 -1.558018E+05  1.695109E+05  6.171273E+04 -1.752529E+04
       963   1 -3.896917E+07  6.664772E+04 -3.905945E+05  1.749186E+05  1.500277E-03  1.933990E-05
       964   1 -3.880054E+07  1.754905E+05 -1.558018E+05  1.695109E+05 -6.171273E+04  1.752529E+04
       965   1 -3.879154E+07  6.211989E+04 -3.015382E+05  1.574686E+05 -7.695329E+04  3.086236E+04
       966   1 -3.850200E+07  1.666134E+05  2.950519E+04  1.342501E+05 -1.636698E+05  3.314682E+04
       967   1 -3.827183E+07  5.327993E+04 -1.495675E+05  1.193402E+05 -1.322564E+05  2.013164E+04
       968   1 -3.790110E+07  1.819425E+05  1.332074E+05  9.331584E+04 -7.773305E+04  9.770222E+03
       969   1  3.778667E+07  1.089495E+05  1.325878E+05  1.568084E+05 -6.350337E+04  1.224412E+03
       970   1  3.799134E+07  4.026780E+04 -4.728631E+04  1.491480E+05 -1.561760E+05 -1.629151E+04
       971   1  3.822107E+07  1.166967E+05  1.844894E+05  1.639294E+05 -1.445969E+05 -2.304088E+04
       972   1  3.831989E+07  3.966071E+04  3.521387E+04  1.726474E+05 -1.255210E+05 -2.163059E+04
       973   1  3.848437E+07  1.227354E+05  2.643488E+05  1.836056E+05 -5.520242E+04 -1.312576E+04
       974   1  3.843615E+07  3.927535E+04  9.467675E+04  1.856079E+05 -1.481886E-03  1.301310E-05
       975   1  3.848437E+07  1.227354E+05  2.643488E+05  1.836056E+05  5.520242E+04  1.312576E+04
       976   1  3.831989E+07  3.966071E+04  3.521387E+04  1.726474E+05  1.255210E+05  2.163059E+04
       977   1  3.822107E+07  1.166967E+05  1.844894E+05  1.639294E+05  1.445969E+05  2.304088E+04
       978   1  3.799134E+07  4.026780E+04 -4.728631E+04  1.491480E+05  1.561760E+05  1.629151E+04
       979   1  3.778667E+07  1.089495E+05  1.325878E+05  1.568084E+05  6.350336E+04 -1.224412E+03
       980   1  3.013013E+07 -9.683336E+04  3.413942E+04  3.646144E+05 -6.346020E+04 -2.459100E+04
       981   1  3.034146E+07 -1.046074E+05 -8.144098E+04  3.778688E+05 -1.404176E+05 -5.272127E+04
       982   1  3.056224E+07 -4.707109E+04  9.615235E+04  4.049363E+05 -1.488801E+05 -6.773757E+04
       983   1  3.067569E+07 -1.215858E+05 -4.361294E+04  4.378524E+05 -1.252853E+05 -6.262413E+04
       984   1  3.082638E+07 -5.252718E+04  1.385092E+05  4.629906E+05 -6.059613E+04 -3.568562E+04
       985   1  3.079466E+07 -1.292246E+05 -1.274906E+04  4.709643E+05 -1.063441E-03  5.039534E-05
       986   1  3.082638E+07 -5.252718E+04  1.385092E+05  4.629906E+05  6.059613E+04  3.568562E+04
       987   1  3.067569E+07 -1.215858E+05 -4.361294E+04  4.378524E+05  1.252853E+05  6.262413E+04
       988   1  3.056224E+07 -4.707109E+04  9.615236E+04  4.049363E+05  1.488801E+05  6.773757E+04
       989   1  3.034146E+07 -1.046074E+05 -8.144098E+04  3.778688E+05  1.404176E+05  5.272127E+04
       990   1  3.013013E+07 -9.683336E+04  3.413942E+04  3.646143E+05  6.346020E+04  2.459100E+04
       991   1  2.254557E+07  3.944557E+04  7.780562E+04  6.206081E+05 -5.074572E+04 -3.813704E+04
       992   1  2.270923E+07  2.896564E+04 -3.587329E+04  6.371551E+05 -1.238073E+05 -9.518489E+04
       993   1  2.290188E+07  8.615642E+04  9.669115E+04  6.857870E+05 -1.317442E+05 -1.114206E+05
       994   1  2.300610E+07  3.438805E+04 -1.035816E+04  7.412749E+05 -1.104155E+05 -9.620485E+04
       995   1  2.313014E+07  8.494893E+04  1.240834E+05  7.801590E+05 -5.541475E+04 -5.505447E+04
       996   1  2.311307E+07  2.897985E+04  8.663671E+03  7.947897E+05 -7.248523E-04  5.026401E-05
       997   1  2.313014E+07  8.494893E+04  1.240834E+05  7.801590E+05  5.541474E+04  5.505447E+04
       998   1  2.300610E+07  3.438805E+04 -1.035816E+04  7.412749E+05  1.104155E+05  9.620485E+04
       999   1  2.290188E+07  8.615642E+04  9.669115E+04  6.857870E+05  1.317442E+05  1.114206E+05
      1000   1  2.270923E+07  2.896564E+04 -3.587329E+04  6.371551E+05  1.238073E+05  9.518489E+04
      1001   1  2.254557E+07  3.944557E+04  7.780562E+04  6.206081E+05  5.074572E+04  3.813704E+04
      1002   1  1.502140E+07 -9.432289E+04  1.520831E+04  6.619731E+05 -4.083311E+04 -5.186436E+04
      1003   1  1.514402E+07 -8.467990E+04 -5.290021E+04  6.938562E+05 -9.240649E+04 -1.252757E+05
      1004   1  1.528007E+07 -4.604646E+04  3.021857E+04  7.563543E+05 -9.852475E+04 -1.482740E+05
      1005   1  1.535925E+07 -8.329725E+04 -4.645974E+04  8.226040E+05 -8.325224E+04 -1.245299E+05
      1006   1  1.545054E+07 -5.199267E+04  4.398410E+04  8.715592E+05 -4.185369E+04 -7.080464E+04
      1007   1  1.543951E+07 -9.124777E+04 -3.537382E+04  8.892375E+05 -4.469005E-04  1.059475E-04
      1008   1  1.545054E+07 -5.199267E+04  4.398410E+04  8.715592E+05  4.185369E+04  7.080464E+04
      1009   1  1.535925E+07 -8.329725E+04 -4.645974E+04  8.226040E+05  8.325224E+04  1.245299E+05
      1010   1  1.528007E+07 -4.604646E+04  3.021857E+04  7.563543E+05  9.852475E+04  1.482740E+05
      1011   1  1.514402E+07 -8.467990E+04 -5.290021E+04  6.938562E+05  9.240649E+04  1.252757E+05
      1012   1  1.502140E+07 -9.432289E+04  1.520831E+04  6.619731E+05  4.083311E+04  5.186436E+04
      1013   1  7.504473E+06 -1.428357E+01  2.575425E+04  8.667163E+05 -2.011170E+04 -6.067770E+04
      1014   1  7.563068E+06  3.367450E+03 -1.402678E+04  8.951530E+05 -4.891030E+04 -1.461861E+05
      1015   1  7.634725E+06  2.597650E+04  2.796680E+04  9.680769E+05 -5.311677E+04 -1.703426E+05
      1016   1  7.677242E+06  9.383618E+03 -1.040223E+04  1.049465E+06 -4.435322E+04 -1.451274E+05
      1017   1  7.724130E+06  2.639178E+04  3.417169E+04  1.107632E+06 -2.258658E+04 -8.101910E+04
      1018   1  7.719956E+06  6.657815E+03 -4.816831E+03  1.128640E+06 -2.126677E-04  8.902778E-05
      1019   1  7.724130E+06  2.639178E+04  3.417169E+04  1.107632E+06  2.258658E+04  8.101910E+04
      1020   1  7.677242E+06  9.383618E+03 -1.040223E+04  1.049465E+06  4.435322E+04  1.451274E+05
      1021   1  7.634725E+06  2.597650E+04  2.796680E+04  9.680769E+05  5.311677E+04  1.703426E+05
      1022   1  7.563068E+06  3.367450E+03 -1.402678E+04  8.951530E+05  4.891030E+04  1.461861E+05
      1023   1  7.504473E+06 -1.428351E+01  2.575425E+04  8.667163E+05  2.011170E+04  6.067770E+04
      1024   1  8.190090E-03 -1.767887E-05  1.210388E-05  7.738176E+05 -2.181975E-05 -6.179825E+04
      1025   1  8.257981E-03 -4.300268E-06 -4.472977E-05  8.078441E+05 -5.354006E-05 -1.517715E+05
      1026   1  8.339938E-03  2.052092E-05  3.426613E-05  8.818130E+05 -5.802399E-05 -1.795687E+05
      1027   1  8.380038E-03 -1.134183E-05 -2.918404E-05  9.614464E+05 -4.917231E-05 -1.504257E+05
      1028   1  8.434820E-03  2.034572E-05  3.799907E-05  1.019762E+06 -2.450052E-05 -8.538033E+04
      1029   1  8.423821E-03 -1.555385E-05 -2.195684E-05  1.041050E+06 -1.746560E-07  1.188516E-04
      1030   1  8.432746E-03  2.029329E-05  3.795852E-05  1.019762E+06  2.422253E-05  8.538033E+04
      1031   1  8.375921E-03 -1.129395E-05 -2.920032E-05  9.614464E+05  4.886448E-05  1.504257E+05
      1032   1  8.333858E-03  2.055060E-05  3.434119E-05  8.818130E+05  5.788810E-05  1.795687E+05
      1033   1  8.249790E-03 -4.433764E-06 -4.476287E-05  8.078441E+05  5.336085E-05  1.517715E+05
      1034   1  8.179916E-03 -1.756322E-05  1.216371E-05  7.738176E+05  2.179122E-05  6.179825E+04
      1035   1 -7.504473E+06  1.428339E+01 -2.575425E+04  8.667163E+05  2.011170E+04 -6.067770E+04
      1036   1 -7.563068E+06 -3.367450E+03  1.402678E+04  8.951530E+05  4.891030E+04 -1.461861E+05
      1037   1 -7.634725E+06 -2.597650E+04 -2.796680E+04  9.680769E+05  5.311677E+04 -1.703426E+05
      1038   1 -7.677242E+06 -9.383618E+03  1.040223E+04  1.049465E+06  4.435322E+04 -1.451274E+05
      1039   1 -7.724130E+06 -2.639178E+04 -3.417169E+04  1.107632E+06  2.258658E+04 -8.101910E+04
      1040   1 -7.719956E+06 -6.657815E+03  4.816831E+03  1.128640E+06  2.123657E-04  8.902535E-05
      1041   1 -7.724130E+06 -2.639178E+04 -3.417169E+04  1.107632E+06 -2.258658E+04  8.101910E+04
      1042   1 -7.677242E+06 -9.383618E+03  1.040223E+04  1.049465E+06 -4.435322E+04  1.451274E+05
      1043   1 -7.634725E+06 -2.597650E+04 -2.796680E+04  9.680769E+05 -5.311677E+04  1.703426E+05
      1044   1 -7.563068E+06 -3.367450E+03  1.402678E+04  8.951530E+05 -4.891030E+04  1.461861E+05
      1045   1 -7.504473E+06  1.428332E+01 -2.575425E+04  8.667163E+05 -2.011170E+04  6.067770E+04
      1046   1 -1.502140E+07  9.432289E+04 -1.520831E+04  6.619731E+05  4.083311E+04 -5.186436E+04
      1047   1 -1.514402E+07  8.467990E+04  5.290021E+04  6.938562E+05  9.240649E+04 -1.252757E+05
      1048   1 -1.528007E+07  4.604646E+04 -3.021857E+04  7.563543E+05  9.852475E+04 -1.482740E+05
      1049   1 -1.535925E+07  8.329725E+04  4.645974E+04  8.226040E+05  8.325224E+04 -1.245299E+05
      1050   1 -1.545054E+07  5.199267E+04 -4.398410E+04  8.715592E+05  4.185369E+04 -7.080464E+04
      1051   1 -1.543951E+07  9.124777E+04  3.537382E+04  8.892375E+05  4.465462E-04  1.059498E-04
      1052   1 -1.545054E+07  5.199267E+04 -4.398410E+04  8.715592E+05 -4.185369E+04  7.080464E+04
      1053   1 -1.535925E+07  8.329725E+04  4.645974E+04  8.226040E+05 -8.325224E+04  1.245299E+05
      1054   1 -1.528007E+07  4.604646E+04 -3.021857E+04  7.563543E+05 -9.852475E+04  1.482740E+05
      1055   1 -1.514402E+07  8.467990E+04  5.290021E+04  6.938562E+05 -9.240649E+04  1.252757E+05
      1056   1 -1.502140E+07  9.432289E+04 -1.520831E+04  6.619731E+05 -4.083311E+04  5.186436E+04
      1057   1 -2.254557E+07 -3.944557E+04 -7.780562E+04  6.206081E+05  5.074572E+04 -3.813704E+04
      1058   1 -2.270923E+07 -2.896564E+04  3.587329E+04  6.371551E+05  1.238073E+05 -9.518489E+04
      1059   1 -2.290188E+07 -8.615642E+04 -9.669115E+04  6.857870E+05  1.317442E+05 -1.114206E+05
      1060   1 -2.300610E+07 -3.438805E+04  1.035816E+04  7.412749E+05  1.104155E+05 -9.620485E+04
      1061   1 -2.313014E+07 -8.494893E+04 -1.240834E+05  7.801590E+05  5.541475E+04 -5.505447E+04
      1062   1 -2.311307E+07 -2.897985E+04 -8.663670E+03  7.947897E+05  7.245961E-04  5.031367E-05
      1063   1 -2.313014E+07 -8.494893E+04 -1.240834E+05  7.801590E+05 -5.541474E+04  5.505447E+04
      1064   1 -2.300610E+07 -3.438805E+04  1.035816E+04  7.412749E+05 -1.104155E+05  9.620485E+04
      1065   1 -2.290188E+07 -8.615642E+04 -9.669115E+04  6.857870E+05 -1.317442E+05  1.114206E+05
      1066   1 -2.270923E+07 -2.896564E+04  3.587329E+04  6.371551E+05 -1.238073E+05  9.518489E+04
      1067   1 -2.254557E+07 -3.944557E+04 -7.780562E+04  6.206081E+05 -5.074572E+04  3.813704E+04
      1068   1 -3.013013E+07  9.683336E+04 -3.413942E+04  3.646144E+05  6.346020E+04 -2.459100E+04
      1069   1 -3.034146E+07  1.046074E+05  8.144098E+04  3.778688E+05  1.404176E+05 -5.272127E+04
      1070   1 -3.056224E+07  4.707109E+04 -9.615235E+04  4.049363E+05  1.488801E+05 -6.773757E+04
      1071   1 -3.067569E+07  1.215858E+05  4.361294E+04  4.378524E+05  1.252853E+05 -6.262413E+04
      1072   1 -3.082638E+07  5.252718E+04 -1.385092E+05  4.629906E+05  6.059613E+04 -3.568562E+04
      1073   1 -3.079466E+07  1.292246E+05  1.274906E+04  4.709643E+05  1.062911E-03  5.041594E-05
      1074   1 -3.082638E+07  5.252718E+04 -1.385092E+05  4.629906E+05 -6.059613E+04  3.568562E+04
      1075   1 -3.067569E+07  1.215858E+05  4.361294E+04  4.378524E+05 -1.252853E+05  6.262413E+04
      1076   1 -3.056224E+07  4.707109E+04 -9.615236E+04  4.049363E+05 -1.488801E+05  6.773757E+04
      1077   1 -3.034146E+07  1.046074E+05  8.144098E+04  3.778688E+05 -1.404176E+05  5.272127E+04
      1078   1 -3.013013E+07  9.683336E+04 -3.413942E+04  3.646143E+05 -6.346020E+04  2.459100E+04
      1079   1 -3.778667E+07 -1.089495E+05 -1.325878E+05  1.568084E+05  6.350337E+04  1.224412E+03
      1080   1 -3.799134E+07 -4.026780E+04  4.728631E+04  1.491480E+05  1.561760E+05 -1.629151E+04
      1081   1 -3.822107E+07 -1.166967E+05 -1.844894E+05  1.639294E+05  1.445969E+05 -2.304088E+04
      1082   1 -3.831989E+07 -3.966071E+04 -3.521387E+04  1.726474E+05  1.255210E+05 -2.163059E+04
      1083   1 -3.848437E+07 -1.227354E+05 -2.643488E+05  1.836056E+05  5.520242E+04 -1.312576E+04
      1084   1 -3.843615E+07 -3.927535E+04 -9.467675E+04  1.856079E+05  1.481373E-03  1.307106E-05
      1085   1 -3.848437E+07 -1.227354E+05 -2.643488E+05  1.836056E+05 -5.520242E+04  1.312576E+04
      1086   1 -3.831989E+07 -3.966071E+04 -3.521387E+04  1.726474E+05 -1.255210E+05  2.163059E+04
      1087   1 -3.822107E+07 -1.166967E+05 -1.844894E+05  1.639294E+05 -1.445969E+05  2.304088E+04
      1088   1 -3.799134E+07 -4.026780E+04  4.728631E+04  1.491480E+05 -1.561760E+05  1.629151E+04
      1089   1 -3.778667E+07 -1.089495E+05 -1.325878E+05  1.568084E+05 -6.350336E+04 -1.224412E+03
      1090   1  3.760211E+07 -9.497224E+04 -7.996109E+04  1.573822E+05 -6.374925E+04 -3.544336E+03
      1091   1  3.775330E+07 -1.972297E+04  7.220206E+04  1.488695E+05 -1.373835E+05 -8.179205E+03
      1092   1  3.785796E+07 -8.878615E+04 -7.443719E+04  1.484902E+05 -1.483112E+05 -1.673774E+04
      1093   1  3.800373E+07 -2.286071E+04  1.055038E+05  1.558740E+05 -1.112476E+05 -1.481334E+04
      1094   1  3.802541E+07 -9.481831E+04 -3.642926E+04  1.590543E+05 -6.334841E+04 -9.115090E+03
      1095   1  3.810210E+07 -2.417502E+04  1.293836E+05  1.622251E+05 -1.493018E-03  8.306808E-06
      1096   1  3.802541E+07 -9.481831E+04 -3.642926E+04  1.590543E+05  6.334840E+04  9.115090E+03
      1097   1  3.800373E+07 -2.286071E+04  1.055038E+05  1.558740E+05  1.112476E+05  1.481334E+04
      1098   1  3.785796E+07 -8.878615E+04 -7.443720E+04  1.484902E+05  1.483112E+05  1.673774E+04
      1099   1  3.775330E+07 -1.972297E+04  7.220206E+04  1.488695E+05  1.373835E+05  8.179205E+03
      1100   1  3.760211E+07 -9.497224E+04 -7.996109E+04  1.573822E+05  6.374925E+04  3.544336E+03
      1101   1  3.000347E+07  2.515108E+04 -3.859928E+04  4.686932E+05 -4.448247E+04 -1.418355E+04
      1102   1  3.014862E+07  7.805602E+04  8.058430E+04  4.444626E+05 -1.182917E+05 -3.505318E+04
      1103   1  3.026456E+07  3.287021E+04 -3.638410E+04  4.535177E+05 -1.298154E+05 -4.665012E+04
      1104   1  3.039706E+07  8.489995E+04  1.028286E+05  4.700129E+05 -1.050882E+05 -4.251189E+04
      1105   1  3.043190E+07  2.909891E+04 -2.370524E+04  4.839010E+05 -5.890716E+04 -2.516291E+04
      1106   1  3.049449E+07  8.534671E+04  1.137162E+05  4.898886E+05 -1.088484E-03  3.791850E-05
      1107   1  3.043190E+07  2.909891E+04 -2.370524E+04  4.839010E+05  5.890715E+04  2.516291E+04
      1108   1  3.039706E+07  8.489995E+04  1.028286E+05  4.700129E+05  1.050882E+05  4.251189E+04
      1109   1  3.026456E+07  3.287021E+04 -3.638410E+04  4.535177E+05  1.298154E+05  4.665012E+04
      1110   1  3.014862E+07  7.805602E+04  8.058430E+04  4.444626E+05  1.182917E+05  3.505318E+04
      1111   1  3.000347E+07  2.515108E+04 -3.859928E+04  4.686932E+05  4.448247E+04  1.418355E+04
      1112   1  2.247770E+07 -9.311333E+04 -5.480827E+04  6.189597E+05 -4.095673E+04 -2.501989E+04
      1113   1  2.259678E+07 -3.371524E+04  2.952569E+04  6.084388E+05 -9.657916E+04 -6.559197E+04
      1114   1  2.269752E+07 -6.442216E+04 -6.440160E+04  6.234008E+05 -1.074711E+05 -7.487711E+04
      1115   1  2.281176E+07 -3.044159E+04  3.886528E+04  6.471049E+05 -8.877609E+04 -6.630175E+04
      1116   1  2.284655E+07 -7.613380E+04 -6.157795E+04  6.685734E+05 -4.944544E+04 -3.807582E+04
      1117   1  2.289629E+07 -3.390448E+04  4.283004E+04  6.759542E+05 -7.501434E-04  2.680208E-05
      1118   1  2.284655E+07 -7.613380E+04 -6.157795E+04  6.685734E+05  4.944544E+04  3.807582E+04
      1119   1  2.281176E+07 -3.044159E+04  3.886528E+04  6.471049E+05  8.877608E+04  6.630175E+04
      1120   1  2.269752E+07 -6.442216E+04 -6.440160E+04  6.234008E+05  1.074711E+05  7.487711E+04
      1121   1  2.259678E+07 -3.371524E+04  2.952569E+04  6.084388E+05  9.657916E+04  6.559197E+04
      1122   1  2.247770E+07 -9.311333E+04 -5.480827E+04  6.189597E+05  4.095673E+04  2.501989E+04
      1123   1  1.496203E+07  2.565546E+03 -1.912780E+04  8.352907E+05 -2.698556E+04 -3.462169E+04
      1124   1  1.504462E+07  4.016523E+04  3.825897E+04  8.215881E+05 -6.987577E+04 -8.362760E+04
      1125   1  1.511804E+07  2.182393E+04 -2.941321E+04  8.460688E+05 -7.801725E+04 -1.012432E+05
      1126   1  1.520094E+07  5.027928E+04  3.903240E+04  8.814174E+05 -6.381104E+04 -8.512751E+04
      1127   1  1.522758E+07  1.913946E+04 -2.808316E+04  9.099043E+05 -3.602801E+04 -4.896951E+04
      1128   1  1.526304E+07  4.793061E+04  4.101267E+04  9.203644E+05 -4.669403E-04  7.969490E-05
      1129   1  1.522758E+07  1.913946E+04 -2.808316E+04  9.099043E+05  3.602801E+04  4.896951E+04
      1130   1  1.520094E+07  5.027928E+04  3.903240E+04  8.814174E+05  6.381104E+04  8.512751E+04
      1131   1  1.511804E+07  2.182393E+04 -2.941321E+04  8.460688E+05  7.801725E+04  1.012432E+05
      1132   1  1.504462E+07  4.016523E+04  3.825897E+04  8.215881E+05  6.987577E+04  8.362760E+04
      1133   1  1.496203E+07  2.565546E+03 -1.912780E+04  8.352907E+05  2.698556E+04  3.462169E+04
      1134   1  7.482362E+06 -4.132948E+04 -1.972172E+04  8.372794E+05 -1.542674E+04 -3.814445E+04
      1135   1  7.525420E+06 -1.836454E+04  7.083535E+03  8.306175E+05 -3.676409E+04 -9.870358E+04
      1136   1  7.564337E+06 -2.670140E+04 -2.625121E+04  8.592381E+05 -4.090642E+04 -1.145972E+05
      1137   1  7.607350E+06 -1.477407E+04  6.715689E+03  8.966834E+05 -3.383461E+04 -9.910654E+04
      1138   1  7.622632E+06 -3.035395E+04 -2.792639E+04  9.279162E+05 -1.890413E+04 -5.563217E+04
      1139   1  7.640571E+06 -1.671467E+04  7.326734E+03  9.394100E+05 -2.236014E-04  5.541813E-05
      1140   1  7.622632E+06 -3.035395E+04 -2.792639E+04  9.279162E+05  1.890413E+04  5.563217E+04
      1141   1  7.607350E+06 -1.477407E+04  6.715689E+03  8.966834E+05  3.383461E+04  9.910654E+04
      1142   1  7.564337E+06 -2.670140E+04 -2.625121E+04  8.592381E+05  4.090642E+04  1.145972E+05
      1143   1  7.525420E+06 -1.836454E+04  7.083535E+03  8.306175E+05  3.676409E+04  9.870358E+04
      1144   1  7.482362E+06 -4.132948E+04 -1.972172E+04  8.372794E+05  1.542674E+04  3.814445E+04
      1145   1  8.193531E-03 -3.768522E-05 -2.735428E-05  9.601156E+05 -1.634248E-05 -4.180026E+04
      1146   1  8.240654E-03  2.456925E-06  7.745799E-06  9.490722E+05 -4.088592E-05 -1.014275E+05
      1147   1  8.289079E-03 -1.328703E-05 -2.275061E-05  9.803700E+05 -4.455349E-05 -1.217409E+05
      1148   1  8.331128E-03 -1.846506E-06  2.557008E-05  1.023623E+06 -3.737370E-05 -1.025774E+05
      1149   1  8.349218E-03 -1.813696E-05 -2.923537E-05  1.058192E+06 -2.084583E-05 -5.884974E+04
      1150   1  8.366566E-03 -3.726523E-06  2.872971E-05  1.070611E+06 -1.045417E-07  8.647148E-05
      1151   1  8.347096E-03 -1.825223E-05 -2.934876E-05  1.058192E+06  2.049878E-05  5.884974E+04
      1152   1  8.326804E-03 -2.234955E-06  2.540489E-05  1.023623E+06  3.712314E-05  1.025774E+05
      1153   1  8.282819E-03 -1.331130E-05 -2.281982E-05  9.803700E+05  4.436509E-05  1.217409E+05
      1154   1  8.232317E-03  2.365435E-06  7.757023E-06  9.490722E+05  4.072383E-05  1.014275E+05
      1155   1  8.183100E-03 -3.774955E-05 -2.746782E-05  9.601156E+05  1.627935E-05  4.180027E+04
      1156   1 -7.482362E+06  4.132948E+04  1.972172E+04  8.372794E+05  1.542674E+04 -3.814445E+04
      1157   1 -7.525420E+06  1.836454E+04 -7.083535E+03  8.306175E+05  3.676409E+04 -9.870358E+04
      1158   1 -7.564337E+06  2.670140E+04  2.625121E+04  8.592381E+05  4.090642E+04 -1.145972E+05
      1159   1 -7.607350E+06  1.477407E+04 -6.715689E+03  8.966834E+05  3.383461E+04 -9.910654E+04
      1160   1 -7.622632E+06  3.035395E+04  2.792639E+04  9.279162E+05  1.890413E+04 -5.563217E+04
      1161   1 -7.640571E+06  1.671467E+04 -7.326734E+03  9.394100E+05  2.232527E-04  5.542598E-05
      1162   1 -7.622632E+06  3.035395E+04  2.792639E+04  9.279162E+05 -1.890413E+04  5.563217E+04
      1163   1 -7.607350E+06  1.477407E+04 -6.715689E+03  8.966834E+05 -3.383461E+04  9.910654E+04
      1164   1 -7.564337E+06  2.670140E+04  2.625121E+04  8.592381E+05 -4.090642E+04  1.145972E+05
      1165   1 -7.525420E+06  1.836454E+04 -7.083535E+03  8.306175E+05 -3.676409E+04  9.870358E+04
      1166   1 -7.482362E+06  4.132948E+04  1.972172E+04  8.372794E+05 -1.542674E+04  3.814445E+04
      1167   1 -1.496203E+07 -2.565546E+03  1.912780E+04  8.352907E+05  2.698556E+04 -3.462169E+04
      1168   1 -1.504462E+07 -4.016523E+04 -3.825897E+04  8.215881E+05  6.987577E+04 -8.362760E+04
      1169   1 -1.511804E+07 -2.182393E+04  2.941321E+04  8.460688E+05  7.801725E+04 -1.012432E+05
      1170   1 -1.520094E+07 -5.027928E+04 -3.903240E+04  8.814174E+05  6.381104E+04 -8.512751E+04
      1171   1 -1.522758E+07 -1.913946E+04  2.808316E+04  9.099043E+05  3.602801E+04 -4.896951E+04
      1172   1 -1.526304E+07 -4.793061E+04 -4.101267E+04  9.203644E+05  4.665264E-04  7.967147E-05
      1173   1 -1.522758E+07 -1.913946E+04  2.808316E+04  9.099043E+05 -3.602801E+04  4.896951E+04
      1174   1 -1.520094E+07 -5.027928E+04 -3.903240E+04  8.814174E+05 -6.381104E+04  8.512751E+04
      1175   1 -1.511804E+07 -2.182393E+04  2.941321E+04  8.460688E+05 -7.801725E+04  1.012432E+05
      1176   1 -1.504462E+07 -4.016523E+04 -3.825897E+04  8.215881E+05 -6.987577E+04  8.362760E+04
      1177   1 -1.496203E+07 -2.565547E+03  1.912780E+04  8.352907E+05 -2.698556E+04  3.462169E+04
      1178   1 -2.247770E+07  9.311333E+04  5.480827E+04  6.189597E+05  4.095673E+04 -2.501989E+04
      1179   1 -2.259678E+07  3.371524E+04 -2.952569E+04  6.084388E+05  9.657916E+04 -6.559197E+04
      1180   1 -2.269752E+07  6.442216E+04  6.440160E+04  6.234008E+05  1.074711E+05 -7.487711E+04
      1181   1 -2.281176E+07  3.044159E+04 -3.886528E+04  6.471049E+05  8.877609E+04 -6.630175E+04
      1182   1 -2.284655E+07  7.613380E+04  6.157795E+04  6.685734E+05  4.944544E+04 -3.807582E+04
      1183   1 -2.289629E+07  3.390448E+04 -4.283004E+04  6.759542E+05  7.498574E-04  2.687925E-05
      1184   1 -2.284655E+07  7.613380E+04  6.157795E+04  6.685734E+05 -4.944544E+04  3.807582E+04
      1185   1 -2.281176E+07  3.044159E+04 -3.886528E+04  6.471049E+05 -8.877608E+04  6.630175E+04
      1186   1 -2.269752E+07  6.442216E+04  6.440160E+04  6.234008E+05 -1.074711E+05  7.487712E+04
      1187   1 -2.259678E+07  3.371524E+04 -2.952569E+04  6.084388E+05 -9.657916E+04  6.559197E+04
      1188   1 -2.247770E+07  9.311333E+04  5.480827E+04  6.189597E+05 -4.095673E+04  2.501989E+04
      1189   1 -3.000347E+07 -2.515108E+04  3.859928E+04  4.686932E+05  4.448247E+04 -1.418355E+04
      1190   1 -3.014862E+07 -7.805602E+04 -8.058430E+04  4.444626E+05  1.182917E+05 -3.505318E+04
      1191   1 -3.026456E+07 -3.287021E+04  3.638410E+04  4.535177E+05  1.298154E+05 -4.665012E+04
      1192   1 -3.039706E+07 -8.489995E+04 -1.028286E+05  4.700129E+05  1.050882E+05 -4.251189E+04
      1193   1 -3.043190E+07 -2.909891E+04  2.370524E+04  4.839010E+05  5.890716E+04 -2.516291E+04
      1194   1 -3.049449E+07 -8.534671E+04 -1.137162E+05  4.898886E+05  1.087894E-03  3.799745E-05
      1195   1 -3.043190E+07 -2.909891E+04  2.370524E+04  4.839010E+05 -5.890715E+04  2.516291E+04
      1196   1 -3.039706E+07 -8.489995E+04 -1.028286E+05  4.700129E+05 -1.050882E+05  4.251189E+04
      1197   1 -3.026456E+07 -3.287021E+04  3.638410E+04  4.535177E+05 -1.298154E+05  4.665012E+04
      1198   1 -3.014862E+07 -7.805602E+04 -8.058430E+04  4.444626E+05 -1.182917E+05  3.505318E+04
      1199   1 -3.000347E+07 -2.515108E+04  3.859928E+04  4.686932E+05 -4.448247E+04  1.418355E+04
      1200   1 -3.760211E+07  9.497224E+04  7.996109E+04  1.573822E+05  6.374925E+04 -3.544336E+03
      1201   1 -3.775330E+07  1.972297E+04 -7.220206E+04  1.488695E+05  1.373835E+05 -8.179205E+03
      1202   1 -3.785796E+07  8.878615E+04  7.443719E+04  1.484902E+05  1.483112E+05 -1.673774E+04
      1203   1 -3.800373E+07  2.286071E+04 -1.055038E+05  1.558740E+05  1.112476E+05 -1.481334E+04
      1204   1 -3.802541E+07  9.481831E+04  3.642926E+04  1.590543E+05  6.334841E+04 -9.115090E+03
      1205   1 -3.810210E+07  2.417502E+04 -1.293836E+05  1.622251E+05  1.492577E-03  8.458114E-06
      1206   1 -3.802541E+07  9.481831E+04  3.642926E+04  1.590543E+05 -6.334840E+04  9.115090E+03
      1207   1 -3.800373E+07  2.286071E+04 -1.055038E+05  1.558740E+05 -1.112476E+05  1.481334E+04
      1208   1 -3.785796E+07  8.878615E+04  7.443720E+04  1.484902E+05 -1.483112E+05  1.673774E+04
      1209   1 -3.775330E+07  1.972297E+04 -7.220206E+04  1.488695E+05 -1.373835E+05  8.179205E+03
      1210   1 -3.760211E+07  9.497224E+04  7.996109E+04  1.573822E+05 -6.374925E+04  3.544336E+03
      1211   1  3.737802E+07  6.071552E+04  8.354536E+04  1.836217E+05 -5.399045E+04  2.741074E+03
      1212   1  3.745159E+07  1.901868E+04 -4.490689E+04  1.616713E+05 -1.229910E+05 -6.665947E+03
      1213   1  3.755404E+07  6.372954E+04  8.246889E+04  1.616839E+05 -1.317366E+05 -9.985816E+03
      1214   1  3.760256E+07  1.663485E+04 -4.011786E+04  1.610351E+05 -1.041671E+05 -1.015477E+04
      1215   1  3.768153E+07  6.817673E+04  9.900242E+04  1.648739E+05 -5.642988E+04 -5.989184E+03
      1216   1  3.766452E+07  1.581159E+04 -2.989672E+04  1.644083E+05 -1.484836E-03  4.502203E-06
      1217   1  3.768153E+07  6.817673E+04  9.900242E+04  1.648739E+05  5.642988E+04  5.989184E+03
      1218   1  3.760256E+07  1.663485E+04 -4.011786E+04  1.610351E+05  1.041671E+05  1.015477E+04
      1219   1  3.755404E+07  6.372954E+04  8.246889E+04  1.616839E+05  1.317366E+05  9.985816E+03
      1220   1  3.745159E+07  1.901868E+04 -4.490689E+04  1.616713E+05  1.229910E+05  6.665947E+03
      1221   1  3.737802E+07  6.071552E+04  8.354536E+04  1.836217E+05  5.399045E+04 -2.741074E+03
      1222   1  2.985783E+07 -3.964869E+04  2.384050E+04  4.640782E+05 -4.025238E+04 -1.172363E+04
      1223   1  2.993803E+07 -5.075292E+04 -5.972774E+04  4.313431E+05 -9.020713E+04 -2.202375E+04
      1224   1  3.003589E+07 -1.517389E+04  4.064920E+04  4.227267E+05 -1.107871E+05 -3.026418E+04
      1225   1  3.008998E+07 -6.076191E+04 -6.797679E+04  4.266447E+05 -8.801973E+04 -2.872563E+04
      1226   1  3.016140E+07 -1.718805E+04  4.330399E+04  4.320459E+05 -5.014208E+04 -1.664073E+04
      1227   1  3.015190E+07 -6.479064E+04 -6.851619E+04  4.343523E+05 -1.081692E-03  2.729800E-05
      1228   1  3.016140E+07 -1.718805E+04  4.330399E+04  4.320459E+05  5.014207E+04  1.664073E+04
      1229   1  3.008998E+07 -6.076191E+04 -6.797679E+04  4.266447E+05  8.801973E+04  2.872563E+04
      1230   1  3.003589E+07 -1.517389E+04  4.064920E+04  4.227267E+05  1.107871E+05  3.026418E+04
      1231   1  2.993803E+07 -5.075292E+04 -5.972774E+04  4.313431E+05  9.020713E+04  2.202375E+04
      1232   1  2.985783E+07 -3.964869E+04  2.384050E+04  4.640782E+05  4.025238E+04  1.172363E+04
      1233   1  2.236445E+07  3.611795E+04  4.811282E+04  7.194352E+05 -2.979293E+04 -1.613190E+04
      1234   1  2.242478E+07  2.082999E+04 -3.350784E+04  6.828204E+05 -7.092208E+04 -4.276316E+04
      1235   1  2.251066E+07  5.502190E+04  4.191423E+04  6.755965E+05 -8.638374E+04 -4.998547E+04
      1236   1  2.255955E+07  2.273555E+04 -4.015102E+04  6.840513E+05 -6.985625E+04 -4.403704E+04
      1237   1  2.261771E+07  5.452704E+04  4.164981E+04  6.928288E+05 -4.033703E+04 -2.566532E+04
      1238   1  2.261403E+07  2.028262E+04 -4.291091E+04  6.972294E+05 -7.479284E-04  1.292496E-05
      1239   1  2.261771E+07  5.452704E+04  4.164981E+04  6.928288E+05  4.033703E+04  2.566533E+04
      1240   1  2.255955E+07  2.273555E+04 -4.015102E+04  6.840513E+05  6.985625E+04  4.403704E+04
      1241   1  2.251066E+07  5.502190E+04  4.191423E+04  6.755965E+05  8.638374E+04  4.998547E+04
      1242   1  2.242478E+07  2.082999E+04 -3.350783E+04  6.828204E+05  7.092208E+04  4.276316E+04
      1243   1  2.236445E+07  3.611795E+04  4.811282E+04  7.194352E+05  2.979293E+04  1.613190E+04
      1244   1  1.490300E+07 -3.253651E+04  1.182699E+04  8.171521E+05 -2.223743E+04 -2.273967E+04
      1245   1  1.495000E+07 -3.408393E+04 -3.547874E+04  7.858831E+05 -4.968471E+04 -5.466162E+04
      1246   1  1.500955E+07 -1.181266E+04  1.132686E+04  7.817842E+05 -6.033418E+04 -6.725243E+04
      1247   1  1.504674E+07 -3.426736E+04 -4.690978E+04  7.912582E+05 -4.917249E+04 -5.662806E+04
      1248   1  1.508954E+07 -1.428564E+04  8.863799E+03  8.022722E+05 -2.822644E+04 -3.288827E+04
      1249   1  1.508686E+07 -3.822959E+04 -4.963650E+04  8.072113E+05 -4.669279E-04  5.957105E-05
      1250   1  1.508954E+07 -1.428564E+04  8.863799E+03  8.022722E+05  2.822644E+04  3.288827E+04
      1251   1  1.504674E+07 -3.426736E+04 -4.690978E+04  7.912582E+05  4.917249E+04  5.662806E+04
      1252   1  1.500955E+07 -1.181266E+04  1.132686E+04  7.817842E+05  6.033418E+04  6.725243E+04
      1253   1  1.495000E+07 -3.408393E+04 -3.547874E+04  7.858831E+05  4.968471E+04  5.466162E+04
      1254   1  1.490300E+07 -3.253651E+04  1.182699E+04  8.171521E+05  2.223743E+04  2.273967E+04
      1255   1  7.445385E+06  1.069368E+04  1.591316E+04  9.703274E+05 -1.073767E+04 -2.598963E+04
      1256   1  7.467435E+06  7.740224E+03 -1.228609E+04  9.353987E+05 -2.567179E+04 -6.425179E+04
      1257   1  7.499397E+06  2.031250E+04  1.187931E+04  9.339123E+05 -3.131263E+04 -7.612112E+04
      1258   1  7.518984E+06  9.869607E+03 -1.723295E+04  9.491688E+05 -2.530550E+04 -6.638458E+04
      1259   1  7.540852E+06  2.079665E+04  9.886838E+03  9.632489E+05 -1.461730E+04 -3.726097E+04
      1260   1  7.540306E+06  8.632878E+03 -1.864202E+04  9.693771E+05 -2.241199E-04  3.434902E-05
      1261   1  7.540852E+06  2.079665E+04  9.886838E+03  9.632489E+05  1.461730E+04  3.726097E+04
      1262   1  7.518984E+06  9.869607E+03 -1.723295E+04  9.491688E+05  2.530550E+04  6.638458E+04
      1263   1  7.499397E+06  2.031250E+04  1.187931E+04  9.339123E+05  3.131263E+04  7.612112E+04
      1264   1  7.467435E+06  7.740224E+03 -1.228609E+04  9.353987E+05  2.567179E+04  6.425179E+04
      1265   1  7.445385E+06  1.069368E+04  1.591316E+04  9.703274E+05  1.073767E+04  2.598963E+04
      1266   1  8.132137E-03 -6.910446E-06  4.945875E-06  9.314132E+05 -1.167122E-05 -2.673500E+04
      1267   1  8.159146E-03 -1.379662E-06 -4.214673E-05  9.005437E+05 -2.753891E-05 -6.616747E+04
      1268   1  8.197594E-03  1.308716E-05  1.834822E-05  8.997220E+05 -3.514349E-05 -8.080819E+04
      1269   1  8.214225E-03 -1.169921E-05 -3.530852E-05  9.129986E+05 -2.738286E-05 -6.805629E+04
      1270   1  8.239349E-03  1.251377E-05  1.326300E-05  9.266616E+05 -1.643229E-05 -3.955646E+04
      1271   1  8.235393E-03 -1.450287E-05 -3.599388E-05  9.327122E+05 -2.214657E-07  6.265592E-05
      1272   1  8.237273E-03  1.278064E-05  1.338747E-05  9.266616E+05  1.610622E-05  3.955646E+04
      1273   1  8.210120E-03 -1.142531E-05 -3.529443E-05  9.129986E+05  2.704434E-05  6.805629E+04
      1274   1  8.191359E-03  1.314492E-05  1.845662E-05  8.997220E+05  3.496392E-05  8.080819E+04
      1275   1  8.150801E-03 -1.259798E-06 -4.213137E-05  9.005437E+05  2.733678E-05  6.616747E+04
      1276   1  8.121733E-03 -6.746421E-06  4.991851E-06  9.314132E+05  1.162530E-05  2.673500E+04
      1277   1 -7.445385E+06 -1.069368E+04 -1.591316E+04  9.703274E+05  1.073767E+04 -2.598963E+04
      1278   1 -7.467435E+06 -7.740224E+03  1.228609E+04  9.353987E+05  2.567179E+04 -6.425179E+04
      1279   1 -7.499397E+06 -2.031250E+04 -1.187931E+04  9.339123E+05  3.131263E+04 -7.612112E+04
      1280   1 -7.518984E+06 -9.869608E+03  1.723295E+04  9.491688E+05  2.530550E+04 -6.638458E+04
      1281   1 -7.540851E+06 -2.079665E+04 -9.886838E+03  9.632489E+05  1.461730E+04 -3.726097E+04
      1282   1 -7.540306E+06 -8.632878E+03  1.864202E+04  9.693771E+05  2.237886E-04  3.430833E-05
      1283   1 -7.540851E+06 -2.079665E+04 -9.886838E+03  9.632489E+05 -1.461730E+04  3.726097E+04
      1284   1 -7.518984E+06 -9.869608E+03  1.723295E+04  9.491688E+05 -2.530550E+04  6.638458E+04
      1285   1 -7.499397E+06 -2.031250E+04 -1.187931E+04  9.339123E+05 -3.131263E+04  7.612112E+04
      1286   1 -7.467435E+06 -7.740224E+03  1.228609E+04  9.353987E+05 -2.567179E+04  6.425179E+04
      1287   1 -7.445385E+06 -1.069368E+04 -1.591316E+04  9.703274E+05 -1.073767E+04  2.598963E+04
      1288   1 -1.490300E+07  3.253651E+04 -1.182699E+04  8.171521E+05  2.223743E+04 -2.273967E+04
      1289   1 -1.495000E+07  3.408393E+04  3.547874E+04  7.858831E+05  4.968471E+04 -5.466162E+04
      1290   1 -1.500955E+07  1.181266E+04 -1.132686E+04  7.817842E+05  6.033418E+04 -6.725243E+04
      1291   1 -1.504674E+07  3.426736E+04  4.690978E+04  7.912582E+05  4.917249E+04 -5.662806E+04
      1292   1 -1.508954E+07  1.428564E+04 -8.863799E+03  8.022722E+05  2.822644E+04 -3.288827E+04
      1293   1 -1.508686E+07  3.822959E+04  4.963650E+04  8.072113E+05  4.665227E-04  5.965377E-05
      1294   1 -1.508954E+07  1.428564E+04 -8.863799E+03  8.022722E+05 -2.822644E+04  3.288827E+04
      1295   1 -1.504674E+07  3.426736E+04  4.690978E+04  7.912582E+05 -4.917249E+04  5.662806E+04
      1296   1 -1.500955E+07  1.181266E+04 -1.132686E+04  7.817842E+05 -6.033418E+04  6.725243E+04
      1297   1 -1.495000E+07  3.408393E+04  3.547874E+04  7.858831E+05 -4.968471E+04  5.466162E+04
      1298   1 -1.490300E+07  3.253651E+04 -1.182699E+04  8.171521E+05 -2.223743E+04  2.273967E+04
      1299   1 -2.236445E+07 -3.611795E+04 -4.811282E+04  7.194352E+05  2.979293E+04 -1.613190E+04
      1300   1 -2.242478E+07 -2.082999E+04  3.350784E+04  6.828204E+05  7.092208E+04 -4.276316E+04
      1301   1 -2.251066E+07 -5.502190E+04 -4.191423E+04  6.755965E+05  8.638374E+04 -4.998547E+04
      1302   1 -2.255955E+07 -2.273555E+04  4.015102E+04  6.840513E+05  6.985625E+04 -4.403704E+04
      1303   1 -2.261771E+07 -5.452704E+04 -4.164981E+04  6.928288E+05  4.033703E+04 -2.566532E+04
      1304   1 -2.261403E+07 -2.028262E+04  4.291091E+04  6.972294E+05  7.475796E-04  1.329637E-05
      1305   1 -2.261771E+07 -5.452704E+04 -4.164981E+04  6.928288E+05 -4.033703E+04  2.566533E+04
      1306   1 -2.255955E+07 -2.273555E+04  4.015102E+04  6.840513E+05 -6.985625E+04  4.403704E+04
      1307   1 -2.251066E+07 -5.502190E+04 -4.191423E+04  6.755965E+05 -8.638374E+04  4.998547E+04
      1308   1 -2.242478E+07 -2.082999E+04  3.350783E+04  6.828204E+05 -7.092208E+04  4.276316E+04
      1309   1 -2.236445E+07 -3.611795E+04 -4.811282E+04  7.194352E+05 -2.979293E+04  1.613190E+04
      1310   1 -2.985783E+07  3.964869E+04 -2.384050E+04  4.640782E+05  4.025238E+04 -1.172363E+04
      1311   1 -2.993803E+07  5.075292E+04  5.972774E+04  4.313431E+05  9.020713E+04 -2.202375E+04
      1312   1 -3.003589E+07  1.517389E+04 -4.064920E+04  4.227267E+05  1.107871E+05 -3.026418E+04
      1313   1 -3.008998E+07  6.076191E+04  6.797679E+04  4.266447E+05  8.801973E+04 -2.872563E+04
      1314   1 -3.016140E+07  1.718805E+04 -4.330399E+04  4.320459E+05  5.014208E+04 -1.664073E+04
      1315   1 -3.015190E+07  6.479064E+04  6.851619E+04  4.343523E+05  1.081220E-03  2.770957E-05
      1316   1 -3.016140E+07  1.718805E+04 -4.330399E+04  4.320459E+05 -5.014207E+04  1.664073E+04
      1317   1 -3.008998E+07  6.076191E+04  6.797679E+04  4.266447E+05 -8.801973E+04  2.872563E+04
      1318   1 -3.003589E+07  1.517389E+04 -4.064920E+04  4.227267E+05 -1.107871E+05  3.026418E+04
      1319   1 -2.993803E+07  5.075292E+04  5.972774E+04  4.313431E+05 -9.020713E+04  2.202375E+04
      1320   1 -2.985783E+07  3.964869E+04 -2.384050E+04  4.640782E+05 -4.025238E+04  1.172363E+04
      1321   1 -3.737802E+07 -6.071552E+04 -8.354536E+04  1.836217E+05  5.399045E+04  2.741074E+03
      1322   1 -3.745159E+07 -1.901868E+04  4.490689E+04  1.616713E+05  1.229910E+05 -6.665947E+03
      1323   1 -3.755404E+07 -6.372954E+04 -8.246889E+04  1.616839E+05  1.317366E+05 -9.985816E+03
      1324   1 -3.760256E+07 -1.663485E+04  4.011786E+04  1.610351E+05  1.041671E+05 -1.015477E+04
      1325   1 -3.768153E+07 -6.817673E+04 -9.900242E+04  1.648739E+05  5.642988E+04 -5.989184E+03
      1326   1 -3.766452E+07 -1.581159E+04  2.989672E+04  1.644083E+05  1.484435E-03  4.476435E-06
      1327   1 -3.768153E+07 -6.817673E+04 -9.900242E+04  1.648739E+05 -5.642988E+04  5.989184E+03
      1328   1 -3.760256E+07 -1.663485E+04  4.011786E+04  1.610351E+05 -1.041671E+05  1.015477E+04
      1329   1 -3.755404E+07 -6.372954E+04 -8.246889E+04  1.616839E+05 -1.317366E+05  9.985816E+03
      1330   1 -3.745159E+07 -1.901868E+04  4.490689E+04  1.616713E+05 -1.229910E+05  6.665947E+03
      1331   1 -3.737802E+07 -6.071552E+04 -8.354536E+04  1.836217E+05 -5.399045E+04 -2.741074E+03
      1332   1  3.711821E+07 -5.225370E+04 -4.870172E+04  1.793029E+05 -4.896200E+04 -2.378410E+02
      1333   1  3.717529E+07 -3.758715E+03  4.475126E+04  1.588147E+05 -1.105343E+05 -2.038211E+03
      1334   1  3.721332E+07 -4.875429E+04 -6.237954E+04  1.516572E+05 -1.149266E+05 -7.200418E+03
      1335   1  3.728168E+07 -5.540008E+03  4.324098E+04  1.510133E+05 -9.390541E+04 -6.046514E+03
      1336   1  3.729121E+07 -5.184948E+04 -6.287475E+04  1.500129E+05 -5.017043E+04 -4.091381E+03
      1337   1  3.732765E+07 -6.055215E+03  4.662530E+04  1.512120E+05 -1.504604E-03  2.218959E-06
      1338   1  3.729121E+07 -5.184948E+04 -6.287475E+04  1.500129E+05  5.017043E+04  4.091381E+03
      1339   1  3.728168E+07 -5.540008E+03  4.324098E+04  1.510133E+05  9.390541E+04  6.046514E+03
      1340   1  3.721332E+07 -4.875429E+04 -6.237954E+04  1.516572E+05  1.149266E+05  7.200418E+03
      1341   1  3.717529E+07 -3.758715E+03  4.475126E+04  1.588147E+05  1.105343E+05  2.038212E+03
      1342   1  3.711821E+07 -5.225370E+04 -4.870172E+04  1.793029E+05  4.896200E+04  2.378410E+02
      1343   1  2.965892E+07  1.137745E+04 -3.393590E+04  5.098010E+05 -2.733483E+04 -6.609006E+03
      1344   1  2.971585E+07  4.583981E+04  4.540931E+04  4.624002E+05 -7.816965E+04 -1.357696E+04
      1345   1  2.976086E+07  1.525058E+04 -3.863312E+04  4.464589E+05 -8.647644E+04 -1.915846E+04
      1346   1  2.982092E+07  4.776301E+04  4.412756E+04  4.423690E+05 -7.600473E+04 -1.841957E+04
      1347   1  2.983770E+07  1.353951E+04 -4.701052E+04  4.427713E+05 -4.063286E+04 -1.090105E+04
      1348   1  2.986589E+07  4.819975E+04  4.320508E+04  4.434534E+05 -1.106184E-03  2.067157E-05
      1349   1  2.983770E+07  1.353951E+04 -4.701052E+04  4.427713E+05  4.063286E+04  1.090105E+04
      1350   1  2.982092E+07  4.776301E+04  4.412756E+04  4.423690E+05  7.600472E+04  1.841957E+04
      1351   1  2.976086E+07  1.525058E+04 -3.863312E+04  4.464589E+05  8.647644E+04  1.915846E+04
      1352   1  2.971585E+07  4.583981E+04  4.540931E+04  4.624002E+05  7.816965E+04  1.357696E+04
      1353   1  2.965892E+07  1.137745E+04 -3.393590E+04  5.098010E+05  2.733483E+04  6.609006E+03
      1354   1  2.223528E+07 -4.402580E+04 -3.468534E+04  7.072594E+05 -2.248326E+04 -1.011110E+04
      1355   1  2.227951E+07 -1.042861E+04  1.796966E+04  6.616401E+05 -5.689024E+04 -2.846816E+04
      1356   1  2.231949E+07 -3.013717E+04 -4.785821E+04  6.402641E+05 -6.383618E+04 -3.148101E+04
      1357   1  2.237119E+07 -8.477940E+03  1.469777E+04  6.335816E+05 -5.774033E+04 -2.885297E+04
      1358   1  2.238718E+07 -3.641922E+04 -5.692285E+04  6.341683E+05 -3.095423E+04 -1.662629E+04
      1359   1  2.240996E+07 -9.765808E+03  1.193845E+04  6.343045E+05 -7.700336E-04  1.185177E-06
      1360   1  2.238718E+07 -3.641922E+04 -5.692285E+04  6.341683E+05  3.095423E+04  1.662629E+04
      1361   1  2.237119E+07 -8.477940E+03  1.469777E+04  6.335816E+05  5.774033E+04  2.885297E+04
      1362   1  2.231949E+07 -3.013717E+04 -4.785821E+04  6.402641E+05  6.383618E+04  3.148101E+04
      1363   1  2.227951E+07 -1.042861E+04  1.796966E+04  6.616401E+05  5.689024E+04  2.846816E+04
      1364   1  2.223528E+07 -4.402580E+04 -3.468534E+04  7.072594E+05  2.248326E+04  1.011110E+04
      1365   1  1.480948E+07  6.493786E+03 -1.640794E+04  9.029293E+05 -1.387664E+04 -1.457089E+04
      1366   1  1.484175E+07  2.695661E+04  2.227983E+04  8.525693E+05 -3.880094E+04 -3.481211E+04
      1367   1  1.487043E+07  1.338805E+04 -2.543810E+04  8.320071E+05 -4.325662E+04 -4.399509E+04
      1368   1  1.490788E+07  3.174462E+04  1.598809E+04  8.271679E+05 -3.880127E+04 -3.689856E+04
      1369   1  1.492003E+07  1.242033E+04 -3.155784E+04  8.288233E+05 -2.114465E+04 -2.158870E+04
      1370   1  1.493615E+07  3.066921E+04  1.386333E+04  8.297075E+05 -4.829122E-04  4.556380E-05
      1371   1  1.492003E+07  1.242033E+04 -3.155784E+04  8.288233E+05  2.114465E+04  2.158870E+04
      1372   1  1.490788E+07  3.174462E+04  1.598809E+04  8.271679E+05  3.880126E+04  3.689856E+04
      1373   1  1.487043E+07  1.338805E+04 -2.543810E+04  8.320071E+05  4.325662E+04  4.399509E+04
      1374   1  1.484175E+07  2.695661E+04  2.227983E+04  8.525693E+05  3.880094E+04  3.481211E+04
      1375   1  1.480948E+07  6.493787E+03 -1.640794E+04  9.029293E+05  1.387664E+04  1.457089E+04
      1376   1  7.405793E+06 -1.739979E+04 -1.244610E+04  9.487922E+05 -7.724243E+03 -1.567763E+04
      1377   1  7.421987E+06 -5.021554E+03  4.784333E+03  9.015809E+05 -1.964449E+04 -4.213169E+04
      1378   1  7.437499E+06 -1.100620E+04 -1.813012E+04  8.813791E+05 -2.194503E+04 -4.875730E+04
      1379   1  7.456794E+06 -3.456812E+03  1.841388E+03  8.755914E+05 -1.981533E+04 -4.363607E+04
      1380   1  7.463773E+06 -1.273604E+04 -2.273189E+04  8.770846E+05 -1.068046E+04 -2.429057E+04
      1381   1  7.471904E+06 -4.189173E+03  6.401194E+02  8.779641E+05 -2.327626E-04  1.749455E-05
      1382   1  7.463773E+06 -1.273604E+04 -2.273189E+04  8.770846E+05  1.068046E+04  2.429057E+04
      1383   1  7.456794E+06 -3.456812E+03  1.841388E+03  8.755914E+05  1.981533E+04  4.363607E+04
      1384   1  7.437499E+06 -1.100620E+04 -1.813012E+04  8.813791E+05  2.194503E+04  4.875730E+04
      1385   1  7.421987E+06 -5.021554E+03  4.784333E+03  9.015809E+05  1.964449E+04  4.213169E+04
      1386   1  7.405793E+06 -1.739979E+04 -1.244610E+04  9.487922E+05  7.724243E+03  1.567763E+04
      1387   1  8.105469E-03 -1.226616E-05 -2.251722E-05  1.029994E+06 -7.803046E-06 -1.746737E+04
      1388   1  8.123554E-03  1.649199E-05  4.227492E-06  9.794223E+05 -2.214679E-05 -4.236355E+04
      1389   1  8.146056E-03  3.560478E-06 -1.532809E-05  9.596336E+05 -2.351109E-05 -5.269829E+04
      1390   1  8.161758E-03  9.748535E-06  1.789534E-05  9.562524E+05 -2.240627E-05 -4.451078E+04
      1391   1  8.171251E-03  8.432764E-07 -2.488517E-05  9.590679E+05 -1.158933E-05 -2.604847E+04
      1392   1  8.176674E-03  8.747155E-06  1.884898E-05  9.602153E+05 -1.833269E-07  4.571764E-05
      1393   1  8.169166E-03  7.513523E-07 -2.487273E-05  9.590679E+05  1.123930E-05  2.604847E+04
      1394   1  8.157298E-03  9.381365E-06  1.770101E-05  9.562524E+05  2.209896E-05  4.451078E+04
      1395   1  8.139425E-03  3.047242E-06 -1.545053E-05  9.596336E+05  2.339960E-05  5.269829E+04
      1396   1  8.115100E-03  1.650472E-05  4.026768E-06  9.794223E+05  2.199156E-05  4.236355E+04
      1397   1  8.094701E-03 -1.242601E-05 -2.253691E-05  1.029994E+06  7.684015E-06  1.746737E+04
      1398   1 -7.405793E+06  1.739979E+04  1.244610E+04  9.487922E+05  7.724243E+03 -1.567763E+04
      1399   1 -7.421987E+06  5.021554E+03 -4.784333E+03  9.015809E+05  1.964449E+04 -4.213169E+04
      1400   1 -7.437499E+06  1.100620E+04  1.813012E+04  8.813791E+05  2.194503E+04 -4.875730E+04
      1401   1 -7.456794E+06  3.456812E+03 -1.841388E+03  8.755914E+05  1.981533E+04 -4.363607E+04
      1402   1 -7.463773E+06  1.273604E+04  2.273189E+04  8.770846E+05  1.068046E+04 -2.429057E+04
      1403   1 -7.471904E+06  4.189173E+03 -6.401194E+02  8.779641E+05  2.323740E-04  1.753465E-05
      1404   1 -7.463773E+06  1.273604E+04  2.273189E+04  8.770846E+05 -1.068046E+04  2.429057E+04
      1405   1 -7.456794E+06  3.456812E+03 -1.841388E+03  8.755914E+05 -1.981533E+04  4.363607E+04
      1406   1 -7.437499E+06  1.100620E+04  1.813012E+04  8.813791E+05 -2.194503E+04  4.875730E+04
      1407   1 -7.421987E+06  5.021554E+03 -4.784333E+03  9.015809E+05 -1.964449E+04  4.213169E+04
      1408   1 -7.405793E+06  1.739979E+04  1.244610E+04  9.487922E+05 -7.724243E+03  1.567763E+04
      1409   1 -1.480948E+07 -6.493786E+03  1.640794E+04  9.029293E+05  1.387664E+04 -1.457089E+04
      1410   1 -1.484175E+07 -2.695661E+04 -2.227983E+04  8.525693E+05  3.880094E+04 -3.481211E+04
      1411   1 -1.487043E+07 -1.338805E+04  2.543810E+04  8.320071E+05  4.325662E+04 -4.399509E+04
      1412   1 -1.490788E+07 -3.174462E+04 -1.598809E+04  8.271679E+05  3.880126E+04 -3.689856E+04
      1413   1 -1.492003E+07 -1.242033E+04  3.155784E+04  8.288233E+05  2.114465E+04 -2.158870E+04
      1414   1 -1.493615E+07 -3.066921E+04 -1.386333E+04  8.297075E+05  4.824794E-04  4.555887E-05
      1415   1 -1.492003E+07 -1.242033E+04  3.155784E+04  8.288233E+05 -2.114465E+04  2.158870E+04
      1416   1 -1.490788E+07 -3.174462E+04 -1.598809E+04  8.271679E+05 -3.880126E+04  3.689856E+04
      1417   1 -1.487043E+07 -1.338805E+04  2.543810E+04  8.320071E+05 -4.325662E+04  4.399509E+04
      1418   1 -1.484175E+07 -2.695661E+04 -2.227983E+04  8.525693E+05 -3.880094E+04  3.481211E+04
      1419   1 -1.480948E+07 -6.493787E+03  1.640794E+04  9.029293E+05 -1.387664E+04  1.457089E+04
      1420   1 -2.223528E+07  4.402580E+04  3.468534E+04  7.072594E+05  2.248326E+04 -1.011110E+04
      1421   1 -2.227951E+07  1.042861E+04 -1.796966E+04  6.616401E+05  5.689024E+04 -2.846816E+04
      1422   1 -2.231949E+07  3.013717E+04  4.785821E+04  6.402641E+05  6.383618E+04 -3.148101E+04
      1423   1 -2.237119E+07  8.477940E+03 -1.469777E+04  6.335816E+05  5.774033E+04 -2.885297E+04
      1424   1 -2.238718E+07  3.641922E+04  5.692285E+04  6.341683E+05  3.095423E+04 -1.662629E+04
      1425   1 -2.240996E+07  9.765808E+03 -1.193845E+04  6.343045E+05  7.696992E-04  1.182993E-06
      1426   1 -2.238718E+07  3.641922E+04  5.692285E+04  6.341683E+05 -3.095423E+04  1.662629E+04
      1427   1 -2.237119E+07  8.477940E+03 -1.469777E+04  6.335816E+05 -5.774033E+04  2.885297E+04
      1428   1 -2.231949E+07  3.013717E+04  4.785821E+04  6.402641E+05 -6.383618E+04  3.148101E+04
      1429   1 -2.227951E+07  1.042861E+04 -1.796966E+04  6.616401E+05 -5.689024E+04  2.846816E+04
      1430   1 -2.223528E+07  4.402580E+04  3.468534E+04  7.072594E+05 -2.248326E+04  1.011110E+04
      1431   1 -2.965892E+07 -1.137745E+04  3.393590E+04  5.098010E+05  2.733483E+04 -6.609006E+03
      1432   1 -2.971585E+07 -4.583981E+04 -4.540931E+04  4.624002E+05  7.816965E+04 -1.357696E+04
      1433   1 -2.976086E+07 -1.525058E+04  3.863312E+04  4.464589E+05  8.647644E+04 -1.915846E+04
      1434   1 -2.982092E+07 -4.776301E+04 -4.412756E+04  4.423690E+05  7.600473E+04 -1.841957E+04
      1435   1 -2.983770E+07 -1.353951E+04  4.701052E+04  4.427713E+05  4.063286E+04 -1.090105E+04
      1436   1 -2.986589E+07 -4.819975E+04 -4.320508E+04  4.434534E+05  1.105694E-03  2.085850E-05
      1437   1 -2.983770E+07 -1.353951E+04  4.701052E+04  4.427713E+05 -4.063286E+04  1.090105E+04
      1438   1 -2.982092E+07 -4.776301E+04 -4.412756E+04  4.423690E+05 -7.600472E+04  1.841957E+04
      1439   1 -2.976086E+07 -1.525058E+04  3.863312E+04  4.464589E+05 -8.647644E+04  1.915846E+04
      1440   1 -2.971585E+07 -4.583981E+04 -4.540931E+04  4.624002E+05 -7.816965E+04  1.357696E+04
      1441   1 -2.965892E+07 -1.137745E+04  3.393590E+04  5.098010E+05 -2.733483E+04  6.609006E+03
      1442   1 -3.711821E+07  5.225370E+04  4.870172E+04  1.793029E+05  4.896200E+04 -2.378410E+02
      1443   1 -3.717529E+07  3.758715E+03 -4.475126E+04  1.588147E+05  1.105343E+05 -2.038211E+03
      1444   1 -3.721332E+07  4.875429E+04  6.237954E+04  1.516572E+05  1.149266E+05 -7.200418E+03
      1445   1 -3.728168E+07  5.540008E+03 -4.324098E+04  1.510133E+05  9.390541E+04 -6.046514E+03
      1446   1 -3.729121E+07  5.184948E+04  6.287475E+04  1.500129E+05  5.017043E+04 -4.091381E+03
      1447   1 -3.732765E+07  6.055215E+03 -4.662530E+04  1.512120E+05  1.504256E-03  2.184275E-06
      1448   1 -3.729121E+07  5.184948E+04  6.287475E+04  1.500129E+05 -5.017043E+04  4.091381E+03
      1449   1 -3.728168E+07  5.540008E+03 -4.324098E+04  1.510133E+05 -9.390541E+04  6.046514E+03
      1450   1 -3.721332E+07  4.875429E+04  6.237954E+04  1.516572E+05 -1.149266E+05  7.200418E+03
      1451   1 -3.717529E+07  3.758715E+03 -4.475126E+04  1.588147E+05 -1.105343E+05  2.038212E+03
      1452   1 -3.711821E+07  5.225370E+04  4.870172E+04  1.793029E+05 -4.896200E+04  2.378410E+02
      1453   1  3.684085E+07  3.321817E+04  5.759759E+04  1.911265E+05 -4.349671E+04  3.231985E+03
      1454   1  3.686249E+07  7.285814E+03 -3.272089E+04  1.646217E+05 -9.636846E+04 -1.803561E+03
      1455   1  3.690469E+07  3.418303E+04  4.498171E+04  1.584113E+05 -1.050444E+05 -3.627411E+03
      1456   1  3.692236E+07  4.963188E+03 -4.266584E+04  1.535949E+05 -8.128169E+04 -4.070425E+03
      1457   1  3.695926E+07  3.696090E+04  4.382149E+04  1.535829E+05 -4.585773E+04 -2.390831E+03
      1458   1  3.695010E+07  4.281824E+03 -4.428942E+04  1.523118E+05 -1.500019E-03  1.316022E-07
      1459   1  3.695926E+07  3.696090E+04  4.382149E+04  1.535829E+05  4.585773E+04  2.390831E+03
      1460   1  3.692236E+07  4.963188E+03 -4.266584E+04  1.535949E+05  8.128169E+04  4.070425E+03
      1461   1  3.690469E+07  3.418303E+04  4.498171E+04  1.584113E+05  1.050444E+05  3.627412E+03
      1462   1  3.686249E+07  7.285814E+03 -3.272089E+04  1.646217E+05  9.636846E+04  1.803561E+03
      1463   1  3.684085E+07  3.321817E+04  5.759759E+04  1.911265E+05  4.349671E+04 -3.231985E+03
      1464   1  2.945372E+07 -1.669751E+04  1.775514E+04  5.007025E+05 -2.534589E+04 -5.704387E+03
      1465   1  2.948140E+07 -2.651172E+04 -4.029422E+04  4.517871E+05 -5.926932E+04 -7.501911E+03
      1466   1  2.952213E+07 -3.303309E+03  2.386970E+04  4.284861E+05 -7.639098E+04 -1.153416E+04
      1467   1  2.954217E+07 -3.238119E+04 -5.162534E+04  4.189822E+05 -6.027653E+04 -1.159024E+04
      1468   1  2.957548E+07 -4.138033E+03  1.871784E+04  4.150501E+05 -3.577635E+04 -6.787680E+03
      1469   1  2.956979E+07 -3.440520E+04 -5.664449E+04  4.143230E+05 -1.102186E-03  1.545264E-05
      1470   1  2.957548E+07 -4.138033E+03  1.871784E+04  4.150501E+05  3.577635E+04  6.787680E+03
      1471   1  2.954217E+07 -3.238119E+04 -5.162534E+04  4.189822E+05  6.027653E+04  1.159024E+04
      1472   1  2.952213E+07 -3.303308E+03  2.386970E+04  4.284861E+05  7.639097E+04  1.153416E+04
      1473   1  2.948140E+07 -2.651172E+04 -4.029422E+04  4.517871E+05  5.926931E+04  7.501911E+03
      1474   1  2.945372E+07 -1.669751E+04  1.775514E+04  5.007025E+05  2.534589E+04  5.704387E+03
      1475   1  2.207876E+07  2.289767E+04  3.229177E+04  7.538725E+05 -1.714803E+04 -6.074385E+03
      1476   1  2.209682E+07  9.398318E+03 -2.578420E+04  6.981825E+05 -4.098491E+04 -1.801086E+04
      1477   1  2.213322E+07  3.169468E+04  2.283237E+04  6.675440E+05 -5.316763E+04 -1.991466E+04
      1478   1  2.215185E+07  1.069599E+04 -3.308857E+04  6.545241E+05 -4.320361E+04 -1.806153E+04
      1479   1  2.217839E+07  3.110365E+04  1.851408E+04  6.490667E+05 -2.611024E+04 -1.066939E+04
      1480   1  2.217600E+07  9.732480E+03 -3.781076E+04  6.482105E+05 -7.678537E-04 -5.393237E-06
      1481   1  2.217839E+07  3.110365E+04  1.851408E+04  6.490667E+05  2.611023E+04  1.066939E+04
      1482   1  2.215185E+07  1.069599E+04 -3.308857E+04  6.545241E+05  4.320360E+04  1.806153E+04
      1483   1  2.213322E+07  3.169468E+04  2.283237E+04  6.675440E+05  5.316763E+04  1.991466E+04
      1484   1  2.209682E+07  9.398318E+03 -2.578420E+04  6.981825E+05  4.098491E+04  1.801086E+04
      1485   1  2.207876E+07  2.289767E+04  3.229177E+04  7.538725E+05  1.714803E+04  6.074385E+03
      1486   1  1.471612E+07 -1.200080E+04  9.596009E+03  8.863635E+05 -1.173290E+04 -9.372031E+03
      1487   1  1.473208E+07 -1.646999E+04 -2.257600E+04  8.309589E+05 -2.665496E+04 -2.170299E+04
      1488   1  1.475647E+07 -2.531697E+03  7.281163E+03  7.986167E+05 -3.463436E+04 -2.825082E+04
      1489   1  1.477098E+07 -1.625900E+04 -3.227476E+04  7.824014E+05 -2.820776E+04 -2.327292E+04
      1490   1  1.479058E+07 -3.396705E+03  3.587884E+03  7.756664E+05 -1.712530E+04 -1.390040E+04
      1491   1  1.478859E+07 -1.827232E+04 -3.574274E+04  7.742936E+05 -4.823066E-04  3.617999E-05
      1492   1  1.479058E+07 -3.396705E+03  3.587885E+03  7.756664E+05  1.712530E+04  1.390040E+04
      1493   1  1.477098E+07 -1.625900E+04 -3.227476E+04  7.824014E+05  2.820776E+04  2.327292E+04
      1494   1  1.475647E+07 -2.531697E+03  7.281164E+03  7.986167E+05  3.463436E+04  2.825082E+04
      1495   1  1.473208E+07 -1.646999E+04 -2.257600E+04  8.309589E+05  2.665496E+04  2.170299E+04
      1496   1  1.471612E+07 -1.200080E+04  9.596009E+03  8.863635E+05  1.173290E+04  9.372031E+03
      1497   1  7.354944E+06  8.232085E+03  1.064652E+04  1.015293E+06 -5.539151E+03 -1.026478E+04
      1498   1  7.361770E+06  4.392194E+03 -9.122486E+03  9.566450E+05 -1.326608E+04 -2.641859E+04
      1499   1  7.375274E+06  1.217978E+04  6.823098E+03  9.234854E+05 -1.728155E+04 -3.113722E+04
      1500   1  7.382757E+06  5.379825E+03 -1.296478E+04  9.084936E+05 -1.396162E+04 -2.811132E+04
      1501   1  7.392717E+06  1.259695E+04  4.256090E+03  9.019854E+05 -8.521054E+03 -1.558573E+04
      1502   1  7.392174E+06  4.903630E+03 -1.467337E+04  9.007770E+05 -2.326164E-04  7.402589E-06
      1503   1  7.392717E+06  1.259695E+04  4.256090E+03  9.019854E+05  8.521054E+03  1.558573E+04
      1504   1  7.382757E+06  5.379825E+03 -1.296478E+04  9.084936E+05  1.396162E+04  2.811132E+04
      1505   1  7.375274E+06  1.217978E+04  6.823098E+03  9.234854E+05  1.728155E+04  3.113722E+04
      1506   1  7.361770E+06  4.392194E+03 -9.122486E+03  9.566450E+05  1.326608E+04  2.641859E+04
      1507   1  7.354944E+06  8.232085E+03  1.064652E+04  1.015293E+06  5.539151E+03  1.026478E+04
      1508   1  8.037424E-03 -7.069384E-06  1.802528E-06  1.009830E+06 -5.912825E-06 -1.085838E+04
      1509   1  8.046938E-03 -3.661081E-06 -3.661833E-05  9.533406E+05 -1.400672E-05 -2.658191E+04
      1510   1  8.065778E-03  6.270241E-06  1.382524E-05  9.203218E+05 -1.974568E-05 -3.387407E+04
      1511   1  8.068969E-03 -1.393056E-05 -2.767394E-05  9.036389E+05 -1.488252E-05 -2.817221E+04
      1512   1  8.081152E-03  5.532219E-06  7.898115E-06  8.965231E+05 -9.805164E-06 -1.693011E+04
      1513   1  8.077389E-03 -1.553731E-05 -2.845111E-05  8.950800E+05 -1.683701E-07  3.477770E-05
      1514   1  8.078915E-03  5.228498E-06  7.834596E-06  8.965231E+05  9.463476E-06  1.693011E+04
      1515   1  8.064530E-03 -1.429156E-05 -2.773201E-05  9.036389E+05  1.461613E-05  2.817221E+04
      1516   1  8.059448E-03  6.422230E-06  1.390073E-05  9.203218E+05  1.954221E-05  3.387407E+04
      1517   1  8.038294E-03 -3.376126E-06 -3.667807E-05  9.533406E+05  1.385273E-05  2.658191E+04
      1518   1  8.026598E-03 -7.421766E-06  1.717809E-06  1.009830E+06  5.814837E-06  1.085838E+04
      1519   1 -7.354944E+06 -8.232085E+03 -1.064652E+04  1.015293E+06  5.539151E+03 -1.026478E+04
      1520   1 -7.361770E+06 -4.392194E+03  9.122486E+03  9.566450E+05  1.326608E+04 -2.641859E+04
      1521   1 -7.375274E+06 -1.217978E+04 -6.823098E+03  9.234854E+05  1.728155E+04 -3.113722E+04
      1522   1 -7.382757E+06 -5.379825E+03  1.296478E+04  9.084936E+05  1.396162E+04 -2.811132E+04
      1523   1 -7.392717E+06 -1.259695E+04 -4.256090E+03  9.019854E+05  8.521054E+03 -1.558573E+04
      1524   1 -7.392174E+06 -4.903630E+03  1.467337E+04  9.007770E+05  2.321287E-04  7.192603E-06
      1525   1 -7.392717E+06 -1.259695E+04 -4.256090E+03  9.019854E+05 -8.521054E+03  1.558573E+04
      1526   1 -7.382757E+06 -5.379825E+03  1.296478E+04  9.084936E+05 -1.396162E+04  2.811132E+04
      1527   1 -7.375274E+06 -1.217978E+04 -6.823098E+03  9.234854E+05 -1.728155E+04  3.113722E+04
      1528   1 -7.361770E+06 -4.392194E+03  9.122486E+03  9.566450E+05 -1.326608E+04  2.641859E+04
      1529   1 -7.354944E+06 -8.232085E+03 -1.064652E+04  1.015293E+06 -5.539151E+03  1.026478E+04
      1530   1 -1.471612E+07  1.200080E+04 -9.596009E+03  8.863635E+05  1.173290E+04 -9.372031E+03
      1531   1 -1.473208E+07  1.646999E+04  2.257600E+04  8.309589E+05  2.665496E+04 -2.170299E+04
      1532   1 -1.475647E+07  2.531697E+03 -7.281163E+03  7.986167E+05  3.463436E+04 -2.825082E+04
      1533   1 -1.477098E+07  1.625900E+04  3.227476E+04  7.824014E+05  2.820776E+04 -2.327292E+04
      1534   1 -1.479058E+07  3.396705E+03 -3.587885E+03  7.756664E+05  1.712530E+04 -1.390040E+04
      1535   1 -1.478859E+07  1.827232E+04  3.574274E+04  7.742936E+05  4.818692E-04  3.596034E-05
      1536   1 -1.479058E+07  3.396705E+03 -3.587885E+03  7.756664E+05 -1.712530E+04  1.390040E+04
      1537   1 -1.477098E+07  1.625900E+04  3.227476E+04  7.824014E+05 -2.820776E+04  2.327292E+04
      1538   1 -1.475647E+07  2.531697E+03 -7.281164E+03  7.986167E+05 -3.463436E+04  2.825082E+04
      1539   1 -1.473208E+07  1.646999E+04  2.257600E+04  8.309589E+05 -2.665496E+04  2.170299E+04
      1540   1 -1.471612E+07  1.200080E+04 -9.596009E+03  8.863635E+05 -1.173290E+04  9.372031E+03
      1541   1 -2.207876E+07 -2.289767E+04 -3.229177E+04  7.538725E+05  1.714803E+04 -6.074385E+03
      1542   1 -2.209682E+07 -9.398317E+03  2.578420E+04  6.981825E+05  4.098491E+04 -1.801086E+04
      1543   1 -2.213322E+07 -3.169468E+04 -2.283237E+04  6.675440E+05  5.316763E+04 -1.991466E+04
      1544   1 -2.215185E+07 -1.069599E+04  3.308857E+04  6.545241E+05  4.320361E+04 -1.806153E+04
      1545   1 -2.217839E+07 -3.110365E+04 -1.851408E+04  6.490667E+05  2.611024E+04 -1.066939E+04
      1546   1 -2.217600E+07 -9.732480E+03  3.781076E+04  6.482105E+05  7.672320E-04 -5.417444E-06
      1547   1 -2.217839E+07 -3.110365E+04 -1.851408E+04  6.490667E+05 -2.611023E+04  1.066939E+04
      1548   1 -2.215185E+07 -1.069599E+04  3.308857E+04  6.545241E+05 -4.320360E+04  1.806153E+04
      1549   1 -2.213322E+07 -3.169468E+04 -2.283237E+04  6.675440E+05 -5.316763E+04  1.991466E+04
      1550   1 -2.209682E+07 -9.398318E+03  2.578420E+04  6.981825E+05 -4.098491E+04  1.801086E+04
      1551   1 -2.207876E+07 -2.289767E+04 -3.229177E+04  7.538725E+05 -1.714803E+04  6.074385E+03
      1552   1 -2.945372E+07  1.669751E+04 -1.775514E+04  5.007025E+05  2.534589E+04 -5.704387E+03
      1553   1 -2.948140E+07  2.651172E+04  4.029422E+04  4.517871E+05  5.926932E+04 -7.501911E+03
      1554   1 -2.952213E+07  3.303309E+03 -2.386970E+04  4.284861E+05  7.639098E+04 -1.153416E+04
      1555   1 -2.954217E+07  3.238119E+04  5.162534E+04  4.189822E+05  6.027653E+04 -1.159024E+04
      1556   1 -2.957548E+07  4.138033E+03 -1.871784E+04  4.150501E+05  3.577635E+04 -6.787680E+03
      1557   1 -2.956979E+07  3.440520E+04  5.664449E+04  4.143230E+05  1.101568E-03  1.546201E-05
      1558   1 -2.957548E+07  4.138032E+03 -1.871784E+04  4.150501E+05 -3.577635E+04  6.787680E+03
      1559   1 -2.954217E+07  3.238119E+04  5.162534E+04  4.189822E+05 -6.027653E+04  1.159024E+04
      1560   1 -2.952213E+07  3.303308E+03 -2.386970E+04  4.284861E+05 -7.639097E+04  1.153416E+04
      1561   1 -2.948140E+07  2.651172E+04  4.029422E+04  4.517871E+05 -5.926931E+04  7.501911E+03
      1562   1 -2.945372E+07  1.669751E+04 -1.775514E+04  5.007025E+05 -2.534589E+04  5.704387E+03
      1563   1 -3.684085E+07 -3.321817E+04 -5.759759E+04  1.911265E+05  4.349671E+04  3.231985E+03
      1564   1 -3.686249E+07 -7.285814E+03  3.272089E+04  1.646217E+05  9.636846E+04 -1.803561E+03
      1565   1 -3.690469E+07 -3.418303E+04 -4.498171E+04  1.584113E+05  1.050444E+05 -3.627411E+03
      1566   1 -3.692236E+07 -4.963188E+03  4.266584E+04  1.535949E+05  8.128169E+04 -4.070425E+03
      1567   1 -3.695926E+07 -3.696090E+04 -4.382149E+04  1.535829E+05  4.585773E+04 -2.390831E+03
      1568   1 -3.695010E+07 -4.281824E+03  4.428942E+04  1.523118E+05  1.499599E-03  2.674841E-09
      1569   1 -3.695926E+07 -3.696090E+04 -4.382149E+04  1.535829E+05 -4.585773E+04  2.390831E+03
      1570   1 -3.692236E+07 -4.963188E+03  4.266584E+04  1.535949E+05 -8.128169E+04  4.070425E+03
      1571   1 -3.690469E+07 -3.418303E+04 -4.498171E+04  1.584113E+05 -1.050444E+05  3.627412E+03
      1572   1 -3.686249E+07 -7.285814E+03  3.272089E+04  1.646217E+05 -9.636846E+04  1.803561E+03
      1573   1 -3.684085E+07 -3.321817E+04 -5.759759E+04  1.911265E+05 -4.349671E+04 -3.231985E+03
      1574   1  3.654578E+07 -3.000060E+04 -2.842571E+04  1.870349E+05 -4.000115E+04  1.319308E+03
      1575   1  3.656620E+07  3.308487E+03  3.298221E+04  1.625275E+05 -8.977048E+04  5.458513E+02
      1576   1  3.657500E+07 -2.758346E+04 -4.115554E+04  1.528004E+05 -9.212372E+04 -2.665587E+03
      1577   1  3.660641E+07  1.744317E+03  2.496768E+04  1.485453E+05 -7.562406E+04 -2.010069E+03
      1578   1  3.660644E+07 -2.882902E+04 -4.765155E+04  1.458354E+05 -4.000834E+04 -1.623954E+03
      1579   1  3.662547E+07  1.388041E+03  2.334359E+04  1.458546E+05 -1.514750E-03 -6.409810E-07
      1580   1  3.660644E+07 -2.882902E+04 -4.765155E+04  1.458354E+05  4.000833E+04  1.623954E+03
      1581   1  3.660641E+07  1.744317E+03  2.496768E+04  1.485453E+05  7.562406E+04  2.010069E+03
      1582   1  3.657500E+07 -2.758346E+04 -4.115554E+04  1.528004E+05  9.212372E+04  2.665587E+03
      1583   1  3.656620E+07  3.308487E+03  3.298221E+04  1.625275E+05  8.977048E+04 -5.458513E+02
      1584   1  3.654578E+07 -3.000060E+04 -2.842571E+04  1.870349E+05  4.000115E+04 -1.319308E+03
      1585   1  2.922008E+07  1.999343E+03 -2.799324E+04  5.215834E+05 -1.838332E+04 -3.395770E+03
      1586   1  2.924243E+07  2.645564E+04  2.900167E+04  4.667107E+05 -5.362497E+04 -3.956786E+03
      1587   1  2.925645E+07  5.248298E+03 -2.806940E+04  4.408542E+05 -6.106315E+04 -6.543688E+03
      1588   1  2.928262E+07  2.606203E+04  2.473824E+04  4.278918E+05 -5.419864E+04 -6.998839E+03
      1589   1  2.928742E+07  4.577013E+03 -3.611908E+04  4.220199E+05 -2.893077E+04 -4.115480E+03
      1590   1  2.930125E+07  2.624154E+04  2.223501E+04  4.203616E+05 -1.118338E-03  1.241777E-05
      1591   1  2.928742E+07  4.577013E+03 -3.611908E+04  4.220199E+05  2.893076E+04  4.115480E+03
      1592   1  2.928262E+07  2.606203E+04  2.473824E+04  4.278918E+05  5.419863E+04  6.998839E+03
      1593   1  2.925645E+07  5.248298E+03 -2.806940E+04  4.408542E+05  6.106314E+04  6.543688E+03
      1594   1  2.924243E+07  2.645564E+04  2.900167E+04  4.667107E+05  5.362497E+04  3.956786E+03
      1595   1  2.922008E+07  1.999344E+03 -2.799324E+04  5.215834E+05  1.838332E+04  3.395770E+03
      1596   1  2.191433E+07 -2.360293E+04 -2.184721E+04  7.423973E+05 -1.325127E+04 -3.611422E+03
      1597   1  2.192902E+07 -3.084382E+03  1.292879E+04  6.844030E+05 -3.444165E+04 -1.192403E+04
      1598   1  2.194254E+07 -1.564155E+04 -3.093262E+04  6.485210E+05 -3.989296E+04 -1.164880E+04
      1599   1  2.196515E+07 -1.534655E+03  1.002741E+04  6.288386E+05 -3.724332E+04 -1.125398E+04
      1600   1  2.196979E+07 -1.918997E+04 -3.757657E+04  6.199567E+05 -1.998407E+04 -6.492285E+03
      1601   1  2.198126E+07 -1.982798E+03  7.339115E+03  6.169232E+05 -7.819216E-04 -1.082205E-05
      1602   1  2.196979E+07 -1.918997E+04 -3.757657E+04  6.199567E+05  1.998406E+04  6.492285E+03
      1603   1  2.196515E+07 -1.534655E+03  1.002741E+04  6.288386E+05  3.724332E+04  1.125398E+04
      1604   1  2.194254E+07 -1.564155E+04 -3.093262E+04  6.485210E+05  3.989296E+04  1.164880E+04
      1605   1  2.192902E+07 -3.084382E+03  1.292879E+04  6.844030E+05  3.444165E+04  1.192403E+04
      1606   1  2.191433E+07 -2.360293E+04 -2.184721E+04  7.423973E+05  1.325127E+04  3.611422E+03
      1607   1  1.460232E+07  2.761268E+03 -1.322576E+04  9.273069E+05 -7.464835E+03 -5.870710E+03
      1608   1  1.461441E+07  1.535906E+04  1.477897E+04  8.642841E+05 -2.175744E+04 -1.314159E+04
      1609   1  1.462348E+07  5.688158E+03 -1.757785E+04  8.254963E+05 -2.485618E+04 -1.794708E+04
      1610   1  1.463996E+07  1.798392E+04  9.435984E+03  8.033139E+05 -2.323675E+04 -1.445686E+04
      1611   1  1.464370E+07  5.570394E+03 -2.172172E+04  7.928358E+05 -1.267620E+04 -8.729664E+03
      1612   1  1.465162E+07  1.735647E+04  7.656356E+03  7.894683E+05 -4.919840E-04  2.953856E-05
      1613   1  1.464370E+07  5.570394E+03 -2.172172E+04  7.928358E+05  1.267620E+04  8.729664E+03
      1614   1  1.463996E+07  1.798392E+04  9.435983E+03  8.033139E+05  2.323675E+04  1.445686E+04
      1615   1  1.462348E+07  5.688158E+03 -1.757785E+04  8.254963E+05  2.485618E+04  1.794708E+04
      1616   1  1.461441E+07  1.535906E+04  1.477897E+04  8.642841E+05  2.175744E+04  1.314159E+04
      1617   1  1.460232E+07  2.761268E+03 -1.322576E+04  9.273069E+05  7.464835E+03  5.870710E+03
      1618   1  7.302303E+06 -8.732492E+03 -7.870940E+03  9.993203E+05 -3.989669E+03 -5.910414E+03
      1619   1  7.307756E+06 -1.457142E+03  3.815939E+03  9.371580E+05 -1.050581E+04 -1.701449E+04
      1620   1  7.313087E+06 -5.557635E+03 -1.122856E+04  8.969799E+05 -1.205044E+04 -1.898891E+04
      1621   1  7.321403E+06 -5.950087E+02  1.867548E+03  8.727243E+05 -1.135557E+04 -1.796175E+04
      1622   1  7.323685E+06 -6.266464E+03 -1.439362E+04  8.608834E+05 -6.114365E+03 -9.669240E+03
      1623   1  7.327705E+06 -8.421257E+02  9.703568E+02  8.570896E+05 -2.378141E-04 -1.832823E-07
      1624   1  7.323685E+06 -6.266464E+03 -1.439362E+04  8.608834E+05  6.114364E+03  9.669240E+03
      1625   1  7.321403E+06 -5.950087E+02  1.867548E+03  8.727243E+05  1.135557E+04  1.796175E+04
      1626   1  7.313087E+06 -5.557635E+03 -1.122856E+04  8.969799E+05  1.205044E+04  1.898891E+04
      1627   1  7.307756E+06 -1.457142E+03  3.815938E+03  9.371580E+05  1.050581E+04  1.701449E+04
      1628   1  7.302303E+06 -8.732492E+03 -7.870940E+03  9.993203E+05  3.989669E+03  5.910414E+03
      1629   1  7.989931E-03 -5.372879E-06 -1.920341E-05  1.058210E+06 -3.694401E-06 -6.916751E+03
      1630   1  7.996478E-03  1.721065E-05  8.274279E-07  9.937373E+05 -1.196751E-05 -1.628714E+04
      1631   1  8.006806E-03  5.856402E-06 -8.950448E-06  9.531450E+05 -1.291493E-05 -2.147445E+04
      1632   1  8.011177E-03  9.388151E-06  1.449193E-05  9.295539E+05 -1.301598E-05 -1.769655E+04
      1633   1  8.015310E-03  5.443571E-06 -1.612895E-05  9.180799E+05 -6.619953E-06 -1.077928E+04
      1634   1  8.016390E-03  8.748375E-06  1.561908E-05  9.142578E+05 -1.718697E-07  2.657851E-05
      1635   1  8.013062E-03  5.590273E-06 -1.610509E-05  9.180799E+05  6.318598E-06  1.077928E+04
      1636   1  8.006843E-03  9.217069E-06  1.453563E-05  9.295539E+05  1.261495E-05  1.769655E+04
      1637   1  8.000567E-03  6.890217E-06 -8.594080E-06  9.531450E+05  1.268811E-05  2.147445E+04
      1638   1  7.987963E-03  1.788038E-05  1.160309E-06  9.937373E+05  1.175396E-05  1.628714E+04
      1639   1  7.978991E-03 -5.436604E-06 -1.921970E-05  1.058210E+06  3.768672E-06  6.916751E+03
      1640   1 -7.302303E+06  8.732492E+03  7.870940E+03  9.993203E+05  3.989669E+03 -5.910414E+03
      1641   1 -7.307756E+06  1.457142E+03 -3.815938E+03  9.371580E+05  1.050581E+04 -1.701449E+04
      1642   1 -7.313087E+06  5.557635E+03  1.122856E+04  8.969799E+05  1.205044E+04 -1.898891E+04
      1643   1 -7.321403E+06  5.950087E+02 -1.867548E+03  8.727243E+05  1.135557E+04 -1.796175E+04
      1644   1 -7.323685E+06  6.266464E+03  1.439362E+04  8.608834E+05  6.114365E+03 -9.669240E+03
      1645   1 -7.327705E+06  8.421257E+02 -9.703568E+02  8.570896E+05  2.374409E-04 -1.201226E-07
      1646   1 -7.323685E+06  6.266464E+03  1.439362E+04  8.608834E+05 -6.114364E+03  9.669240E+03
      1647   1 -7.321403E+06  5.950087E+02 -1.867548E+03  8.727243E+05 -1.135557E+04  1.796175E+04
      1648   1 -7.313087E+06  5.557635E+03  1.122856E+04  8.969799E+05 -1.205044E+04  1.898891E+04
      1649   1 -7.307756E+06  1.457142E+03 -3.815938E+03  9.371580E+05 -1.050581E+04  1.701449E+04
      1650   1 -7.302303E+06  8.732492E+03  7.870939E+03  9.993203E+05 -3.989669E+03  5.910414E+03
      1651   1 -1.460232E+07 -2.761268E+03  1.322576E+04  9.273069E+05  7.464835E+03 -5.870710E+03
      1652   1 -1.461441E+07 -1.535906E+04 -1.477897E+04  8.642841E+05  2.175744E+04 -1.314159E+04
      1653   1 -1.462348E+07 -5.688158E+03  1.757785E+04  8.254963E+05  2.485618E+04 -1.794708E+04
      1654   1 -1.463996E+07 -1.798392E+04 -9.435984E+03  8.033139E+05  2.323675E+04 -1.445686E+04
      1655   1 -1.464370E+07 -5.570394E+03  2.172172E+04  7.928358E+05  1.267620E+04 -8.729664E+03
      1656   1 -1.465162E+07 -1.735647E+04 -7.656356E+03  7.894683E+05  4.916066E-04  2.949146E-05
      1657   1 -1.464370E+07 -5.570394E+03  2.172172E+04  7.928358E+05 -1.267620E+04  8.729664E+03
      1658   1 -1.463996E+07 -1.798392E+04 -9.435983E+03  8.033139E+05 -2.323675E+04  1.445686E+04
      1659   1 -1.462348E+07 -5.688158E+03  1.757785E+04  8.254963E+05 -2.485618E+04  1.794708E+04
      1660   1 -1.461441E+07 -1.535906E+04 -1.477897E+04  8.642841E+05 -2.175744E+04  1.314159E+04
      1661   1 -1.460232E+07 -2.761268E+03  1.322576E+04  9.273069E+05 -7.464835E+03  5.870710E+03
      1662   1 -2.191433E+07  2.360293E+04  2.184721E+04  7.423973E+05  1.325127E+04 -3.611422E+03
      1663   1 -2.192902E+07  3.084381E+03 -1.292879E+04  6.844030E+05  3.444165E+04 -1.192403E+04
      1664   1 -2.194254E+07  1.564155E+04  3.093262E+04  6.485210E+05  3.989296E+04 -1.164880E+04
      1665   1 -2.196515E+07  1.534655E+03 -1.002741E+04  6.288386E+05  3.724332E+04 -1.125398E+04
      1666   1 -2.196979E+07  1.918997E+04  3.757657E+04  6.199567E+05  1.998407E+04 -6.492285E+03
      1667   1 -2.198126E+07  1.982798E+03 -7.339115E+03  6.169232E+05  7.813278E-04 -1.088584E-05
      1668   1 -2.196979E+07  1.918997E+04  3.757657E+04  6.199567E+05 -1.998406E+04  6.492285E+03
      1669   1 -2.196515E+07  1.534655E+03 -1.002741E+04  6.288386E+05 -3.724332E+04  1.125398E+04
      1670   1 -2.194254E+07  1.564155E+04  3.093262E+04  6.485210E+05 -3.989296E+04  1.164880E+04
      1671   1 -2.192902E+07  3.084381E+03 -1.292879E+04  6.844030E+05 -3.444165E+04  1.192403E+04
      1672   1 -2.191433E+07  2.360293E+04  2.184721E+04  7.423973E+05 -1.325127E+04  3.611422E+03
      1673   1 -2.922008E+07 -1.999343E+03  2.799324E+04  5.215834E+05  1.838332E+04 -3.395770E+03
      1674   1 -2.924243E+07 -2.645564E+04 -2.900167E+04  4.667107E+05  5.362497E+04 -3.956786E+03
      1675   1 -2.925645E+07 -5.248298E+03  2.806940E+04  4.408542E+05  6.106315E+04 -6.543688E+03
      1676   1 -2.928262E+07 -2.606203E+04 -2.473824E+04  4.278918E+05  5.419864E+04 -6.998839E+03
      1677   1 -2.928742E+07 -4.577013E+03  3.611908E+04  4.220199E+05  2.893077E+04 -4.115480E+03
      1678   1 -2.930125E+07 -2.624154E+04 -2.223501E+04  4.203616E+05  1.117837E-03  1.218666E-05
      1679   1 -2.928742E+07 -4.577013E+03  3.611908E+04  4.220199E+05 -2.893076E+04  4.115480E+03
      1680   1 -2.928262E+07 -2.606203E+04 -2.473824E+04  4.278918E+05 -5.419863E+04  6.998839E+03
      1681   1 -2.925645E+07 -5.248298E+03  2.806940E+04  4.408542E+05 -6.106314E+04  6.543688E+03
      1682   1 -2.924243E+07 -2.645564E+04 -2.900167E+04  4.667107E+05 -5.362497E+04  3.956786E+03
      1683   1 -2.922008E+07 -1.999344E+03  2.799324E+04  5.215834E+05 -1.838332E+04  3.395770E+03
      1684   1 -3.654578E+07  3.000060E+04  2.842571E+04  1.870349E+05  4.000115E+04  1.319308E+03
      1685   1 -3.656620E+07 -3.308487E+03 -3.298221E+04  1.625275E+05  8.977048E+04  5.458513E+02
      1686   1 -3.657500E+07  2.758346E+04  4.115554E+04  1.528004E+05  9.212372E+04 -2.665587E+03
      1687   1 -3.660641E+07 -1.744317E+03 -2.496768E+04  1.485453E+05  7.562406E+04 -2.010069E+03
      1688   1 -3.660644E+07  2.882902E+04  4.765155E+04  1.458354E+05  4.000834E+04 -1.623954E+03
      1689   1 -3.662547E+07 -1.388041E+03 -2.334359E+04  1.458546E+05  1.514385E-03 -1.006988E-06
      1690   1 -3.660644E+07  2.882902E+04  4.765155E+04  1.458354E+05 -4.000833E+04  1.623954E+03
      1691   1 -3.660641E+07 -1.744317E+03 -2.496768E+04  1.485453E+05 -7.562406E+04  2.010069E+03
      1692   1 -3.657500E+07  2.758346E+04  4.115554E+04  1.528004E+05 -9.212372E+04  2.665587E+03
      1693   1 -3.656620E+07 -3.308487E+03 -3.298221E+04  1.625275E+05 -8.977048E+04 -5.458513E+02
      1694   1 -3.654578E+07  3.000060E+04  2.842571E+04  1.870349E+05 -4.000115E+04 -1.319308E+03
      1695   1  3.624424E+07  1.774952E+04  4.169518E+04  1.927922E+05 -3.732743E+04  3.233539E+03
      1696   1  3.624815E+07  2.037233E+03 -2.086433E+04  1.651422E+05 -8.165477E+04  3.111699E+02
      1697   1  3.626435E+07  1.809800E+04  2.951940E+04  1.564787E+05 -8.721461E+04 -9.680670E+02
      1698   1  3.626794E+07 -3.663301E+01 -2.976387E+04  1.500652E+05 -6.740264E+04 -1.316401E+03
      1699   1  3.628537E+07  1.981703E+04  2.542244E+04  1.482318E+05 -3.779768E+04 -8.176212E+02
      1700   1  3.627864E+07 -5.675900E+02 -3.265289E+04  1.467753E+05 -1.511291E-03 -1.584397E-06
      1701   1  3.628537E+07  1.981703E+04  2.542244E+04  1.482318E+05  3.779768E+04  8.176212E+02
      1702   1  3.626794E+07 -3.663294E+01 -2.976387E+04  1.500652E+05  6.740264E+04  1.316401E+03
      1703   1  3.626435E+07  1.809800E+04  2.951940E+04  1.564787E+05  8.721460E+04  9.680670E+02
      1704   1  3.624815E+07  2.037233E+03 -2.086433E+04  1.651422E+05  8.165477E+04 -3.111698E+02
      1705   1  3.624424E+07  1.774952E+04  4.169518E+04  1.927922E+05  3.732743E+04 -3.233539E+03
      1706   1  2.898630E+07 -7.390371E+03  1.248054E+04  5.143317E+05 -1.768071E+04 -3.199491E+03
      1707   1  2.899549E+07 -1.412683E+04 -2.589519E+04  4.601025E+05 -4.376301E+04 -1.476609E+03
      1708   1  2.901197E+07  1.179521E+03  1.791276E+04  4.313391E+05 -5.642425E+04 -3.395099E+03
      1709   1  2.901651E+07 -1.800104E+04 -3.239109E+04  4.163033E+05 -4.507598E+04 -4.044934E+03
      1710   1  2.903253E+07  8.139228E+02  1.345027E+04  4.084580E+05 -2.660008E+04 -2.358908E+03
      1711   1  2.902732E+07 -1.905151E+04 -3.594969E+04  4.063216E+05 -1.114670E-03  1.015004E-05
      1712   1  2.903253E+07  8.139228E+02  1.345027E+04  4.084580E+05  2.660007E+04  2.358908E+03
      1713   1  2.901651E+07 -1.800104E+04 -3.239109E+04  4.163033E+05  4.507598E+04  4.044934E+03
      1714   1  2.901197E+07  1.179521E+03  1.791277E+04  4.313391E+05  5.642425E+04  3.395099E+03
      1715   1  2.899549E+07 -1.412683E+04 -2.589519E+04  4.601025E+05  4.376300E+04  1.476609E+03
      1716   1  2.898630E+07 -7.390371E+03  1.248054E+04  5.143317E+05  1.768071E+04  3.199491E+03
      1717   1  2.173669E+07  1.267428E+04  2.249932E+04  7.640106E+05 -1.085888E+04 -1.953606E+03
      1718   1  2.173966E+07  2.501091E+03 -1.853603E+04  7.022552E+05 -2.646743E+04 -7.587382E+03
      1719   1  2.175506E+07  1.785739E+04  1.492585E+04  6.627459E+05 -3.504810E+04 -6.852981E+03
      1720   1  2.176008E+07  3.706791E+03 -2.143511E+04  6.408314E+05 -2.924178E+04 -6.604988E+03
      1721   1  2.177234E+07  1.704217E+04  1.206178E+04  6.293374E+05 -1.769938E+04 -3.940880E+03
      1722   1  2.176961E+07  3.389611E+03 -2.434469E+04  6.261009E+05 -7.793582E-04 -1.344807E-05
      1723   1  2.177234E+07  1.704217E+04  1.206178E+04  6.293374E+05  1.769938E+04  3.940880E+03
      1724   1  2.176008E+07  3.706791E+03 -2.143511E+04  6.408314E+05  2.924178E+04  6.604988E+03
      1725   1  2.175506E+07  1.785739E+04  1.492586E+04  6.627459E+05  3.504810E+04  6.852981E+03
      1726   1  2.173966E+07  2.501091E+03 -1.853603E+04  7.022552E+05  2.646743E+04  7.587382E+03
      1727   1  2.173669E+07  1.267428E+04  2.249932E+04  7.640106E+05  1.085888E+04  1.953606E+03
      1728   1  1.448985E+07 -4.938436E+03  7.252740E+03  9.149759E+05 -6.615778E+03 -3.804343E+03
      1729   1  1.449460E+07 -9.218735E+03 -1.392801E+04  8.512762E+05 -1.571734E+04 -7.783275E+03
      1730   1  1.450411E+07 -1.042942E+02  6.189492E+03  8.080712E+05 -2.100979E+04 -1.133746E+04
      1731   1  1.450844E+07 -8.584908E+03 -1.960087E+04  7.813304E+05 -1.751942E+04 -8.590771E+03
      1732   1  1.451758E+07 -2.576738E+02  4.216783E+03  7.671433E+05 -1.081306E+04 -5.419530E+03
      1733   1  1.451533E+07 -9.715484E+03 -2.154516E+04  7.629727E+05 -4.908665E-04  2.540415E-05
      1734   1  1.451758E+07 -2.576739E+02  4.216783E+03  7.671433E+05  1.081306E+04  5.419530E+03
      1735   1  1.450844E+07 -8.584908E+03 -1.960087E+04  7.813304E+05  1.751942E+04  8.590771E+03
      1736   1  1.450411E+07 -1.042941E+02  6.189492E+03  8.080712E+05  2.100979E+04  1.133746E+04
      1737   1  1.449460E+07 -9.218735E+03 -1.392801E+04  8.512762E+05  1.571734E+04  7.783275E+03
      1738   1  1.448985E+07 -4.938436E+03  7.252740E+03  9.149759E+05  6.615778E+03  3.804343E+03
      1739   1  7.243735E+06  4.764892E+03  7.364195E+03  1.030974E+06 -3.027339E+03 -3.727625E+03
      1740   1  7.245014E+06  1.534307E+03 -6.424457E+03  9.645839E+05 -7.391143E+03 -1.045330E+04
      1741   1  7.250654E+06  6.707241E+03  4.778171E+03  9.192198E+05 -9.970918E+03 -1.164001E+04
      1742   1  7.252748E+06  2.153261E+03 -8.162861E+03  8.916375E+05 -8.251125E+03 -1.129232E+04
      1743   1  7.257361E+06  7.040016E+03  3.101175E+03  8.764207E+05 -5.123410E+03 -5.932780E+03
      1744   1  7.256508E+06  2.011937E+03 -9.059713E+03  8.719559E+05 -2.370229E-04 -4.305335E-06
      1745   1  7.257361E+06  7.040016E+03  3.101175E+03  8.764207E+05  5.123409E+03  5.932780E+03
      1746   1  7.252748E+06  2.153261E+03 -8.162861E+03  8.916375E+05  8.251125E+03  1.129232E+04
      1747   1  7.250654E+06  6.707241E+03  4.778171E+03  9.192198E+05  9.970917E+03  1.164001E+04
      1748   1  7.245014E+06  1.534307E+03 -6.424457E+03  9.645839E+05  7.391143E+03  1.045330E+04
      1749   1  7.243735E+06  4.764892E+03  7.364195E+03  1.030974E+06  3.027339E+03  3.727625E+03
      1750   1  7.918371E-03 -8.089453E-06 -4.008905E-07  1.044039E+06 -3.028901E-06 -4.242000E+03
      1751   1  7.921054E-03 -4.258436E-06 -3.121530E-05  9.785994E+05 -7.802065E-06 -9.825354E+03
      1752   1  7.931827E-03  3.055460E-06  1.191222E-05  9.330511E+05 -1.148256E-05 -1.356064E+04
      1753   1  7.928352E-03 -1.480018E-05 -1.958555E-05  9.040820E+05 -8.855975E-06 -1.067087E+04
      1754   1  7.935277E-03  1.718483E-06  6.527401E-06  8.882399E+05 -5.937289E-06 -6.859360E+03
      1755   1  7.930823E-03 -1.479922E-05 -1.892670E-05  8.834900E+05 -2.392645E-07  2.219419E-05
      1756   1  7.933470E-03  2.345829E-06  6.739121E-06  8.882399E+05  5.652340E-06  6.859360E+03
      1757   1  7.924174E-03 -1.450602E-05 -1.939161E-05  9.040820E+05  8.526011E-06  1.067087E+04
      1758   1  7.925219E-03  2.525574E-06  1.194743E-05  9.330511E+05  1.118177E-05  1.356064E+04
      1759   1  7.912599E-03 -3.746293E-06 -3.105125E-05  9.785994E+05  7.736353E-06  9.825354E+03
      1760   1  7.907264E-03 -8.243503E-06 -4.315410E-07  1.044039E+06  2.892395E-06  4.242000E+03
      1761   1 -7.243735E+06 -4.764892E+03 -7.364195E+03  1.030974E+06  3.027339E+03 -3.727625E+03
      1762   1 -7.245014E+06 -1.534307E+03  6.424457E+03  9.645839E+05  7.391143E+03 -1.045330E+04
      1763   1 -7.250654E+06 -6.707241E+03 -4.778171E+03  9.192198E+05  9.970918E+03 -1.164001E+04
      1764   1 -7.252748E+06 -2.153261E+03  8.162861E+03  8.916375E+05  8.251125E+03 -1.129232E+04
      1765   1 -7.257361E+06 -7.040016E+03 -3.101175E+03  8.764207E+05  5.123410E+03 -5.932780E+03
      1766   1 -7.256508E+06 -2.011937E+03  9.059713E+03  8.719559E+05  2.367142E-04 -4.380208E-06
      1767   1 -7.257361E+06 -7.040016E+03 -3.101175E+03  8.764207E+05 -5.123409E+03  5.932780E+03
      1768   1 -7.252748E+06 -2.153261E+03  8.162861E+03  8.916375E+05 -8.251125E+03  1.129232E+04
      1769   1 -7.250654E+06 -6.707241E+03 -4.778171E+03  9.192198E+05 -9.970917E+03  1.164001E+04
      1770   1 -7.245014E+06 -1.534307E+03  6.424457E+03  9.645839E+05 -7.391143E+03  1.045330E+04
      1771   1 -7.243735E+06 -4.764892E+03 -7.364195E+03  1.030974E+06 -3.027339E+03  3.727625E+03
      1772   1 -1.448985E+07  4.938436E+03 -7.252740E+03  9.149759E+05  6.615778E+03 -3.804343E+03
      1773   1 -1.449460E+07  9.218735E+03  1.392801E+04  8.512762E+05  1.571734E+04 -7.783275E+03
      1774   1 -1.450411E+07  1.042942E+02 -6.189492E+03  8.080712E+05  2.100979E+04 -1.133746E+04
      1775   1 -1.450844E+07  8.584908E+03  1.960087E+04  7.813304E+05  1.751942E+04 -8.590771E+03
      1776   1 -1.451758E+07  2.576738E+02 -4.216783E+03  7.671433E+05  1.081306E+04 -5.419530E+03
      1777   1 -1.451533E+07  9.715484E+03  2.154516E+04  7.629727E+05  4.904457E-04  2.576844E-05
      1778   1 -1.451758E+07  2.576738E+02 -4.216783E+03  7.671433E+05 -1.081306E+04  5.419530E+03
      1779   1 -1.450844E+07  8.584908E+03  1.960087E+04  7.813304E+05 -1.751942E+04  8.590771E+03
      1780   1 -1.450411E+07  1.042941E+02 -6.189492E+03  8.080712E+05 -2.100979E+04  1.133746E+04
      1781   1 -1.449460E+07  9.218735E+03  1.392801E+04  8.512762E+05 -1.571734E+04  7.783275E+03
      1782   1 -1.448985E+07  4.938436E+03 -7.252740E+03  9.149759E+05 -6.615778E+03  3.804343E+03
      1783   1 -2.173669E+07 -1.267428E+04 -2.249932E+04  7.640106E+05  1.085888E+04 -1.953606E+03
      1784   1 -2.173966E+07 -2.501090E+03  1.853603E+04  7.022552E+05  2.646743E+04 -7.587382E+03
      1785   1 -2.175506E+07 -1.785739E+04 -1.492585E+04  6.627459E+05  3.504810E+04 -6.852981E+03
      1786   1 -2.176008E+07 -3.706791E+03  2.143511E+04  6.408314E+05  2.924178E+04 -6.604988E+03
      1787   1 -2.177234E+07 -1.704217E+04 -1.206178E+04  6.293374E+05  1.769938E+04 -3.940880E+03
      1788   1 -2.176961E+07 -3.389611E+03  2.434469E+04  6.261009E+05  7.788303E-04 -1.352203E-05
      1789   1 -2.177234E+07 -1.704217E+04 -1.206178E+04  6.293374E+05 -1.769938E+04  3.940880E+03
      1790   1 -2.176008E+07 -3.706791E+03  2.143511E+04  6.408314E+05 -2.924178E+04  6.604988E+03
      1791   1 -2.175506E+07 -1.785739E+04 -1.492586E+04  6.627459E+05 -3.504810E+04  6.852981E+03
      1792   1 -2.173966E+07 -2.501091E+03  1.853603E+04  7.022552E+05 -2.646743E+04  7.587382E+03
      1793   1 -2.173669E+07 -1.267428E+04 -2.249932E+04  7.640106E+05 -1.085888E+04  1.953606E+03
      1794   1 -2.898630E+07  7.390371E+03 -1.248054E+04  5.143317E+05  1.768071E+04 -3.199491E+03
      1795   1 -2.899549E+07  1.412683E+04  2.589519E+04  4.601025E+05  4.376301E+04 -1.476609E+03
      1796   1 -2.901197E+07 -1.179521E+03 -1.791276E+04  4.313391E+05  5.642425E+04 -3.395099E+03
      1797   1 -2.901651E+07  1.800104E+04  3.239109E+04  4.163033E+05  4.507598E+04 -4.044934E+03
      1798   1 -2.903253E+07 -8.139228E+02 -1.345027E+04  4.084580E+05  2.660008E+04 -2.358908E+03
      1799   1 -2.902732E+07  1.905151E+04  3.594969E+04  4.063216E+05  1.114272E-03  9.883359E-06
      1800   1 -2.903253E+07 -8.139228E+02 -1.345027E+04  4.084580E+05 -2.660007E+04  2.358908E+03
      1801   1 -2.901651E+07  1.800104E+04  3.239109E+04  4.163033E+05 -4.507598E+04  4.044934E+03
      1802   1 -2.901197E+07 -1.179521E+03 -1.791277E+04  4.313391E+05 -5.642425E+04  3.395099E+03
      1803   1 -2.899549E+07  1.412683E+04  2.589519E+04  4.601025E+05 -4.376300E+04  1.476609E+03
      1804   1 -2.898630E+07  7.390371E+03 -1.248054E+04  5.143317E+05 -1.768071E+04  3.199491E+03
      1805   1 -3.624424E+07 -1.774952E+04 -4.169518E+04  1.927922E+05  3.732743E+04  3.233539E+03
      1806   1 -3.624815E+07 -2.037233E+03  2.086433E+04  1.651422E+05  8.165477E+04  3.111699E+02
      1807   1 -3.626435E+07 -1.809800E+04 -2.951940E+04  1.564787E+05  8.721461E+04 -9.680670E+02
      1808   1 -3.626794E+07  3.663301E+01  2.976387E+04  1.500652E+05  6.740264E+04 -1.316401E+03
      1809   1 -3.628537E+07 -1.981703E+04 -2.542244E+04  1.482318E+05  3.779768E+04 -8.176212E+02
      1810   1 -3.627864E+07  5.675900E+02  3.265289E+04  1.467753E+05  1.510867E-03 -1.787329E-06
      1811   1 -3.628537E+07 -1.981703E+04 -2.542244E+04  1.482318E+05 -3.779768E+04  8.176212E+02
      1812   1 -3.626794E+07  3.663294E+01  2.976387E+04  1.500652E+05 -6.740264E+04  1.316401E+03
      1813   1 -3.626435E+07 -1.809800E+04 -2.951940E+04  1.564787E+05 -8.721460E+04  9.680670E+02
      1814   1 -3.624815E+07 -2.037233E+03  2.086433E+04  1.651422E+05 -8.165477E+04 -3.111698E+02
      1815   1 -3.624424E+07 -1.774952E+04 -4.169518E+04  1.927922E+05 -3.732743E+04 -3.233539E+03
      1816   1  3.593403E+07 -1.799221E+04 -1.500285E+04  1.899138E+05 -3.562878E+04  2.012074E+03
      1817   1  3.594141E+07  5.866588E+03  2.586946E+04  1.640426E+05 -7.865776E+04  1.457923E+03
      1818   1  3.593960E+07 -1.617890E+04 -2.429559E+04  1.535277E+05 -8.029245E+04 -7.674968E+02
      1819   1  3.595452E+07  4.294428E+03  1.881681E+04  1.477714E+05 -6.475121E+04 -3.794531E+02
      1820   1  3.595046E+07 -1.645657E+04 -2.932067E+04  1.444799E+05 -3.443921E+04 -5.613108E+02
      1821   1  3.596155E+07  3.959880E+03  1.680438E+04  1.438915E+05 -1.520883E-03 -2.095114E-06
      1822   1  3.595046E+07 -1.645657E+04 -2.932067E+04  1.444799E+05  3.443921E+04  5.613108E+02
      1823   1  3.595452E+07  4.294428E+03  1.881681E+04  1.477714E+05  6.475121E+04  3.794530E+02
      1824   1  3.593960E+07 -1.617890E+04 -2.429559E+04  1.535277E+05  8.029245E+04  7.674968E+02
      1825   1  3.594141E+07  5.866588E+03  2.586946E+04  1.640426E+05  7.865776E+04 -1.457923E+03
      1826   1  3.593403E+07 -1.799221E+04 -1.500285E+04  1.899138E+05  3.562878E+04 -2.012074E+03
      1827   1  2.873813E+07 -2.619761E+03 -2.220366E+04  5.241569E+05 -1.437942E+04 -2.190662E+03
      1828   1  2.874821E+07  1.561958E+04  1.978382E+04  4.672727E+05 -4.148588E+04 -1.486543E+02
      1829   1  2.875063E+07  7.547682E+02 -1.782828E+04  4.378417E+05 -4.871233E+04 -1.413827E+03
      1830   1  2.876199E+07  1.419194E+04  1.718378E+04  4.214385E+05 -4.238809E+04 -2.212767E+03
      1831   1  2.876146E+07  4.885051E+02 -2.242017E+04  4.129557E+05 -2.295500E+04 -1.258994E+03
      1832   1  2.876897E+07  1.417998E+04  1.545409E+04  4.103736E+05 -1.124541E-03  8.755111E-06
      1833   1  2.876146E+07  4.885052E+02 -2.242017E+04  4.129557E+05  2.295500E+04  1.258994E+03
      1834   1  2.876199E+07  1.419194E+04  1.718378E+04  4.214385E+05  4.238809E+04  2.212767E+03
      1835   1  2.875063E+07  7.547680E+02 -1.782828E+04  4.378417E+05  4.871233E+04  1.413827E+03
      1836   1  2.874821E+07  1.561958E+04  1.978382E+04  4.672727E+05  4.148588E+04  1.486542E+02
      1837   1  2.873813E+07 -2.619761E+03 -2.220366E+04  5.241569E+05  1.437942E+04  2.190662E+03
      1838   1  2.155584E+07 -1.383605E+04 -1.335251E+04  7.559818E+05 -9.133844E+03 -1.066422E+03
      1839   1  2.155998E+07 -5.482728E+02  9.538106E+03  6.940685E+05 -2.371617E+04 -5.269414E+03
      1840   1  2.156353E+07 -8.335138E+03 -1.892598E+04  6.529120E+05 -2.858212E+04 -3.520844E+03
      1841   1  2.157351E+07  8.505998E+02  9.079566E+03  6.282399E+05 -2.663009E+04 -3.860759E+03
      1842   1  2.157315E+07 -1.062065E+04 -2.194986E+04  6.154926E+05 -1.455754E+04 -2.209661E+03
      1843   1  2.157964E+07  7.319270E+02  7.581433E+03  6.112167E+05 -7.876495E-04 -1.553900E-05
      1844   1  2.157315E+07 -1.062065E+04 -2.194986E+04  6.154926E+05  1.455754E+04  2.209661E+03
      1845   1  2.157351E+07  8.505998E+02  9.079566E+03  6.282399E+05  2.663009E+04  3.860759E+03
      1846   1  2.156353E+07 -8.335138E+03 -1.892598E+04  6.529120E+05  2.858212E+04  3.520844E+03
      1847   1  2.155998E+07 -5.482728E+02  9.538106E+03  6.940685E+05  2.371617E+04  5.269414E+03
      1848   1  2.155584E+07 -1.383605E+04 -1.335251E+04  7.559818E+05  9.133844E+03  1.066422E+03
      1849   1  1.436673E+07 -8.305578E+01 -1.022745E+04  9.341822E+05 -4.656362E+03 -2.434530E+03
      1850   1  1.437152E+07  8.314666E+03  1.036437E+04  8.674654E+05 -1.371029E+04 -4.412939E+03
      1851   1  1.437314E+07  1.583046E+03 -1.131887E+04  8.220016E+05 -1.630309E+04 -7.198961E+03
      1852   1  1.438055E+07  1.004172E+04  6.976230E+03  7.930168E+05 -1.535705E+04 -5.023669E+03
      1853   1  1.438062E+07  1.795037E+03 -1.287616E+04  7.775475E+05 -8.565424E+03 -3.280980E+03
      1854   1  1.438491E+07  9.555464E+03  6.137898E+03  7.724755E+05 -4.964878E-04  2.271230E-05
      1855   1  1.438062E+07  1.795037E+03 -1.287616E+04  7.775475E+05  8.565424E+03  3.280980E+03
      1856   1  1.438055E+07  1.004172E+04  6.976230E+03  7.930168E+05  1.535705E+04  5.023669E+03
      1857   1  1.437314E+07  1.583046E+03 -1.131887E+04  8.220016E+05  1.630309E+04  7.198961E+03
      1858   1  1.437152E+07  8.314666E+03  1.036437E+04  8.674654E+05  1.371029E+04  4.412939E+03
      1859   1  1.436673E+07 -8.305573E+01 -1.022745E+04  9.341822E+05  4.656362E+03  2.434530E+03
      1860   1  7.184452E+06 -4.997653E+03 -4.887751E+03  1.020090E+06 -2.345672E+03 -2.033832E+03
      1861   1  7.186028E+06 -4.362390E+02  2.983631E+03  9.531203E+05 -6.239324E+03 -6.816242E+03
      1862   1  7.187485E+06 -3.124870E+03 -6.664180E+03  9.055307E+05 -7.476706E+03 -6.720987E+03
      1863   1  7.191051E+06  1.745854E+02  2.248351E+03  8.741364E+05 -7.126461E+03 -7.158771E+03
      1864   1  7.191281E+06 -3.354779E+03 -8.312385E+03  8.568714E+05 -3.920586E+03 -3.480699E+03
      1865   1  7.193503E+06  1.203035E+02  1.887559E+03  8.512192E+05 -2.401967E-04 -7.095963E-06
      1866   1  7.191281E+06 -3.354779E+03 -8.312385E+03  8.568714E+05  3.920586E+03  3.480700E+03
      1867   1  7.191051E+06  1.745854E+02  2.248351E+03  8.741364E+05  7.126460E+03  7.158771E+03
      1868   1  7.187485E+06 -3.124870E+03 -6.664180E+03  9.055307E+05  7.476705E+03  6.720987E+03
      1869   1  7.186028E+06 -4.362390E+02  2.983631E+03  9.531203E+05  6.239324E+03  6.816242E+03
      1870   1  7.184452E+06 -4.997653E+03 -4.887751E+03  1.020090E+06  2.345672E+03  2.033832E+03
      1871   1  7.859752E-03 -3.766249E-06 -1.644250E-05  1.066904E+06 -2.001316E-06 -2.716711E+03
      1872   1  7.862332E-03  1.557667E-05 -1.803551E-06  9.983444E+05 -7.011248E-06 -5.741964E+03
      1873   1  7.868289E-03  6.673521E-06 -4.106712E-06  9.500833E+05 -8.014982E-06 -8.565275E+03
      1874   1  7.867460E-03  6.751407E-06  1.195357E-05  9.185197E+05 -8.133143E-06 -6.422315E+03
      1875   1  7.868631E-03  5.858623E-06 -9.401969E-06  9.011743E+05 -4.342939E-06 -4.310849E+03
      1876   1  7.868223E-03  5.977956E-06  1.317047E-05  8.953593E+05 -1.093007E-07  1.859198E-05
      1877   1  7.866471E-03  6.120922E-06 -9.482851E-06  9.011743E+05  4.153159E-06  4.310849E+03
      1878   1  7.862935E-03  6.841745E-06  1.196834E-05  9.185197E+05  7.876738E-06  6.422315E+03
      1879   1  7.861516E-03  6.456848E-06 -3.969592E-06  9.500833E+05  7.887615E-06  8.565275E+03
      1880   1  7.853503E-03  1.574171E-05 -1.950583E-06  9.983444E+05  6.797306E-06  5.741964E+03
      1881   1  7.848350E-03 -4.244348E-06 -1.660764E-05  1.066904E+06  1.988388E-06  2.716711E+03
      1882   1 -7.184452E+06  4.997653E+03  4.887750E+03  1.020090E+06  2.345672E+03 -2.033832E+03
      1883   1 -7.186028E+06  4.362390E+02 -2.983631E+03  9.531203E+05  6.239324E+03 -6.816242E+03
      1884   1 -7.187485E+06  3.124870E+03  6.664180E+03  9.055307E+05  7.476705E+03 -6.720987E+03
      1885   1 -7.191051E+06 -1.745854E+02 -2.248351E+03  8.741364E+05  7.126461E+03 -7.158771E+03
      1886   1 -7.191281E+06  3.354779E+03  8.312385E+03  8.568714E+05  3.920586E+03 -3.480699E+03
      1887   1 -7.193503E+06 -1.203035E+02 -1.887559E+03  8.512192E+05  2.397692E-04 -7.046645E-06
      1888   1 -7.191281E+06  3.354779E+03  8.312385E+03  8.568714E+05 -3.920586E+03  3.480700E+03
      1889   1 -7.191051E+06 -1.745854E+02 -2.248351E+03  8.741364E+05 -7.126460E+03  7.158771E+03
      1890   1 -7.187485E+06  3.124870E+03  6.664180E+03  9.055307E+05 -7.476705E+03  6.720987E+03
      1891   1 -7.186028E+06  4.362390E+02 -2.983631E+03  9.531203E+05 -6.239324E+03  6.816242E+03
      1892   1 -7.184452E+06  4.997653E+03  4.887750E+03  1.020090E+06 -2.345672E+03  2.033832E+03
      1893   1 -1.436673E+07  8.305581E+01  1.022745E+04  9.341822E+05  4.656362E+03 -2.434530E+03
      1894   1 -1.437152E+07 -8.314666E+03 -1.036437E+04  8.674654E+05  1.371029E+04 -4.412939E+03
      1895   1 -1.437314E+07 -1.583046E+03  1.131887E+04  8.220016E+05  1.630309E+04 -7.198961E+03
      1896   1 -1.438055E+07 -1.004172E+04 -6.976230E+03  7.930168E+05  1.535705E+04 -5.023669E+03
      1897   1 -1.438062E+07 -1.795037E+03  1.287616E+04  7.775475E+05  8.565424E+03 -3.280980E+03
      1898   1 -1.438491E+07 -9.555464E+03 -6.137898E+03  7.724755E+05  4.958794E-04  2.271872E-05
      1899   1 -1.438062E+07 -1.795037E+03  1.287616E+04  7.775475E+05 -8.565423E+03  3.280980E+03
      1900   1 -1.438055E+07 -1.004172E+04 -6.976230E+03  7.930168E+05 -1.535705E+04  5.023669E+03
      1901   1 -1.437314E+07 -1.583046E+03  1.131887E+04  8.220016E+05 -1.630309E+04  7.198961E+03
      1902   1 -1.437152E+07 -8.314666E+03 -1.036437E+04  8.674654E+05 -1.371029E+04  4.412939E+03
      1903   1 -1.436673E+07  8.305575E+01  1.022745E+04  9.341822E+05 -4.656362E+03  2.434530E+03
      1904   1 -2.155584E+07  1.383605E+04  1.335251E+04  7.559818E+05  9.133844E+03 -1.066422E+03
      1905   1 -2.155998E+07  5.482727E+02 -9.538106E+03  6.940685E+05  2.371617E+04 -5.269414E+03
      1906   1 -2.156353E+07  8.335138E+03  1.892598E+04  6.529120E+05  2.858212E+04 -3.520844E+03
      1907   1 -2.157351E+07 -8.505999E+02 -9.079566E+03  6.282399E+05  2.663009E+04 -3.860759E+03
      1908   1 -2.157315E+07  1.062065E+04  2.194986E+04  6.154926E+05  1.455754E+04 -2.209661E+03
      1909   1 -2.157964E+07 -7.319271E+02 -7.581433E+03  6.112167E+05  7.871868E-04 -1.545938E-05
      1910   1 -2.157315E+07  1.062065E+04  2.194986E+04  6.154926E+05 -1.455754E+04  2.209661E+03
      1911   1 -2.157351E+07 -8.505998E+02 -9.079566E+03  6.282399E+05 -2.663009E+04  3.860759E+03
      1912   1 -2.156353E+07  8.335138E+03  1.892598E+04  6.529120E+05 -2.858212E+04  3.520844E+03
      1913   1 -2.155998E+07  5.482727E+02 -9.538106E+03  6.940685E+05 -2.371617E+04  5.269414E+03
      1914   1 -2.155584E+07  1.383605E+04  1.335251E+04  7.559818E+05 -9.133844E+03  1.066422E+03
      1915   1 -2.873813E+07  2.619761E+03  2.220366E+04  5.241569E+05  1.437942E+04 -2.190662E+03
      1916   1 -2.874821E+07 -1.561958E+04 -1.978382E+04  4.672727E+05  4.148588E+04 -1.486543E+02
      1917   1 -2.875063E+07 -7.547682E+02  1.782828E+04  4.378417E+05  4.871233E+04 -1.413827E+03
      1918   1 -2.876199E+07 -1.419194E+04 -1.718378E+04  4.214385E+05  4.238809E+04 -2.212767E+03
      1919   1 -2.876146E+07 -4.885051E+02  2.242017E+04  4.129557E+05  2.295500E+04 -1.258994E+03
      1920   1 -2.876897E+07 -1.417998E+04 -1.545409E+04  4.103736E+05  1.123909E-03  9.074398E-06
      1921   1 -2.876146E+07 -4.885051E+02  2.242017E+04  4.129557E+05 -2.295500E+04  1.258994E+03
      1922   1 -2.876199E+07 -1.419194E+04 -1.718378E+04  4.214385E+05 -4.238809E+04  2.212767E+03
      1923   1 -2.875063E+07 -7.547680E+02  1.782828E+04  4.378417E+05 -4.871233E+04  1.413827E+03
      1924   1 -2.874821E+07 -1.561958E+04 -1.978382E+04  4.672727E+05 -4.148588E+04  1.486542E+02
      1925   1 -2.873813E+07  2.619761E+03  2.220366E+04  5.241569E+05 -1.437942E+04  2.190662E+03
      1926   1 -3.593403E+07  1.799221E+04  1.500285E+04  1.899138E+05  3.562878E+04  2.012074E+03
      1927   1 -3.594141E+07 -5.866588E+03 -2.586946E+04  1.640426E+05  7.865776E+04  1.457923E+03
      1928   1 -3.593960E+07  1.617890E+04  2.429559E+04  1.535277E+05  8.029245E+04 -7.674968E+02
      1929   1 -3.595452E+07 -4.294428E+03 -1.881681E+04  1.477714E+05  6.475121E+04 -3.794531E+02
      1930   1 -3.595046E+07  1.645657E+04  2.932067E+04  1.444799E+05  3.443921E+04 -5.613108E+02
      1931   1 -3.596155E+07 -3.959880E+03 -1.680438E+04  1.438915E+05  1.520193E-03 -2.192300E-06
      1932   1 -3.595046E+07  1.645657E+04  2.932067E+04  1.444799E+05 -3.443921E+04  5.613108E+02
      1933   1 -3.595452E+07 -4.294428E+03 -1.881681E+04  1.477714E+05 -6.475121E+04  3.794530E+02
      1934   1 -3.593960E+07  1.617890E+04  2.429559E+04  1.535277E+05 -8.029245E+04  7.674968E+02
      1935   1 -3.594141E+07 -5.866588E+03 -2.586946E+04  1.640426E+05 -7.865776E+04 -1.457923E+03
      1936   1 -3.593403E+07  1.799221E+04  1.500285E+04  1.899138E+05 -3.562878E+04 -2.012074E+03
      1937   1  3.562226E+07  9.120246E+03  3.121250E+04  1.928783E+05 -3.445857E+04  3.082865E+03
      1938   1  3.562142E+07  3.151942E+02 -1.187785E+04  1.651420E+05 -7.487887E+04  1.138984E+03
      1939   1  3.562709E+07  9.422990E+03  2.144992E+04  1.555434E+05 -7.819755E+04  1.743019E+00
      1940   1  3.562581E+07 -1.597234E+03 -1.784035E+04  1.486306E+05 -6.061471E+04 -2.074228E+02
      1941   1  3.563435E+07  1.057348E+04  1.807630E+04  1.460008E+05 -3.346696E+04 -2.083522E+02
      1942   1  3.562919E+07 -2.045566E+03 -1.986564E+04  1.445596E+05 -1.517066E-03 -2.128728E-06
      1943   1  3.563435E+07  1.057348E+04  1.807630E+04  1.460008E+05  3.346695E+04  2.083522E+02
      1944   1  3.562581E+07 -1.597233E+03 -1.784035E+04  1.486306E+05  6.061471E+04  2.074228E+02
      1945   1  3.562709E+07  9.422990E+03  2.144992E+04  1.555434E+05  7.819754E+04 -1.742998E+00
      1946   1  3.562142E+07  3.151943E+02 -1.187785E+04  1.651420E+05  7.487887E+04 -1.138983E+03
      1947   1  3.562226E+07  9.120246E+03  3.121250E+04  1.928783E+05  3.445857E+04 -3.082865E+03
      1948   1  2.849194E+07 -3.741808E+03  7.854345E+03  5.194607E+05 -1.425456E+04 -2.236992E+03
      1949   1  2.849574E+07 -7.271095E+03 -1.618426E+04  4.636068E+05 -3.699925E+04  7.488882E+02
      1950   1  2.850260E+07  2.708010E+03  1.447130E+04  4.330448E+05 -4.687540E+04 -2.471439E+02
      1951   1  2.850146E+07 -1.026877E+04 -1.865913E+04  4.159601E+05 -3.800120E+04 -1.076363E+03
      1952   1  2.850978E+07  2.543049E+03  1.187129E+04  4.066489E+05 -2.198127E+04 -5.838217E+02
      1953   1  2.850508E+07 -1.088043E+04 -2.044834E+04  4.039306E+05 -1.121260E-03  7.831265E-06
      1954   1  2.850978E+07  2.543049E+03  1.187129E+04  4.066489E+05  2.198127E+04  5.838217E+02
      1955   1  2.850146E+07 -1.026877E+04 -1.865913E+04  4.159601E+05  3.800119E+04  1.076363E+03
      1956   1  2.850260E+07  2.708011E+03  1.447131E+04  4.330448E+05  4.687540E+04  2.471439E+02
      1957   1  2.849574E+07 -7.271095E+03 -1.618426E+04  4.636068E+05  3.699925E+04 -7.488882E+02
      1958   1  2.849194E+07 -3.741808E+03  7.854344E+03  5.194607E+05  1.425456E+04  2.236992E+03
      1959   1  2.136942E+07  6.423071E+03  1.600692E+04  7.660275E+05 -8.135369E+03 -4.357614E+02
      1960   1  2.136799E+07 -5.801938E+02 -1.305140E+04  7.026951E+05 -2.021042E+04 -3.623307E+03
      1961   1  2.137505E+07  1.038754E+04  1.055878E+04  6.601892E+05 -2.662826E+04 -1.740698E+03
      1962   1  2.137503E+07  5.872270E+02 -1.263714E+04  6.349181E+05 -2.288043E+04 -2.053489E+03
      1963   1  2.138099E+07  9.390388E+03  9.496918E+03  6.211174E+05 -1.360240E+04 -1.226664E+03
      1964   1  2.137836E+07  5.171535E+02 -1.390983E+04  6.169014E+05 -7.851621E-04 -1.651260E-05
      1965   1  2.138099E+07  9.390388E+03  9.496918E+03  6.211174E+05  1.360240E+04  1.226664E+03
      1966   1  2.137503E+07  5.872270E+02 -1.263714E+04  6.349181E+05  2.288042E+04  2.053489E+03
      1967   1  2.137505E+07  1.038754E+04  1.055878E+04  6.601892E+05  2.662826E+04  1.740698E+03
      1968   1  2.136799E+07 -5.801938E+02 -1.305140E+04  7.026951E+05  2.021042E+04  3.623307E+03
      1969   1  2.136942E+07  6.423071E+03  1.600692E+04  7.660275E+05  8.135369E+03  4.357614E+02
      1970   1  1.424547E+07 -2.308191E+03  5.017416E+03  9.261455E+05 -4.390833E+03 -1.695917E+03
      1971   1  1.424685E+07 -5.457622E+03 -8.418626E+03  8.599422E+05 -1.104941E+04 -2.443056E+03
      1972   1  1.425046E+07  6.220201E+02  5.241943E+03  8.129914E+05 -1.475794E+04 -4.671923E+03
      1973   1  1.425100E+07 -4.603827E+03 -1.137041E+04  7.823526E+05 -1.270952E+04 -2.732567E+03
      1974   1  1.425553E+07  7.682099E+02  4.817803E+03  7.653477E+05 -7.788790E+03 -1.986962E+03
      1975   1  1.425335E+07 -5.354856E+03 -1.207134E+04  7.600498E+05 -4.950386E-04  2.099414E-05
      1976   1  1.425553E+07  7.682098E+02  4.817803E+03  7.653477E+05  7.788789E+03  1.986962E+03
      1977   1  1.425100E+07 -4.603827E+03 -1.137041E+04  7.823526E+05  1.270952E+04  2.732567E+03
      1978   1  1.425046E+07  6.220202E+02  5.241943E+03  8.129914E+05  1.475794E+04  4.671923E+03
      1979   1  1.424685E+07 -5.457622E+03 -8.418626E+03  8.599422E+05  1.104941E+04  2.443056E+03
      1980   1  1.424547E+07 -2.308191E+03  5.017416E+03  9.261455E+05  4.390832E+03  1.695917E+03
      1981   1  7.122495E+06  2.447959E+03  5.173311E+03  1.034816E+06 -1.948967E+03 -1.243412E+03
      1982   1  7.122112E+06  9.832152E+01 -4.478208E+03  9.663857E+05 -4.882836E+03 -4.302618E+03
      1983   1  7.124629E+06  3.692947E+03  3.545952E+03  9.168277E+05 -6.641695E+03 -3.935226E+03
      1984   1  7.124706E+06  5.823839E+02 -4.834882E+03  8.844632E+05 -5.696300E+03 -4.550822E+03
      1985   1  7.126979E+06  3.955439E+03  2.658165E+03  8.658942E+05 -3.510087E+03 -2.021582E+03
      1986   1  7.126078E+06  5.705399E+02 -5.087411E+03  8.601071E+05 -2.393527E-04 -9.103163E-06
      1987   1  7.126979E+06  3.955439E+03  2.658165E+03  8.658942E+05  3.510086E+03  2.021582E+03
      1988   1  7.124706E+06  5.823839E+02 -4.834882E+03  8.844632E+05  5.696300E+03  4.550822E+03
      1989   1  7.124629E+06  3.692947E+03  3.545952E+03  9.168277E+05  6.641695E+03  3.935226E+03
      1990   1  7.122112E+06  9.832153E+01 -4.478208E+03  9.663857E+05  4.882836E+03  4.302618E+03
      1991   1  7.122495E+06  2.447959E+03  5.173311E+03  1.034816E+06  1.948967E+03  1.243412E+03
      1992   1  7.787474E-03 -8.501761E-06 -2.210714E-06  1.057689E+06 -1.776718E-06 -1.723534E+03
      1993   1  7.788202E-03 -2.862397E-06 -2.660223E-05  9.895571E+05 -5.065480E-06 -3.343805E+03
      1994   1  7.795055E-03  1.290645E-06  1.040677E-05  9.396433E+05 -7.641040E-06 -5.524759E+03
      1995   1  7.789744E-03 -1.223070E-05 -1.320457E-05  9.061091E+05 -6.153026E-06 -3.665559E+03
      1996   1  7.794259E-03  5.629603E-07  5.962060E-06  8.869552E+05 -4.151543E-06 -2.771845E+03
      1997   1  7.789583E-03 -1.256242E-05 -1.147345E-05  8.808755E+05 -2.291001E-07  1.669325E-05
      1998   1  7.792274E-03  1.275573E-06  6.058857E-06  8.869552E+05  3.740141E-06  2.771845E+03
      1999   1  7.785618E-03 -1.202014E-05 -1.276393E-05  9.061091E+05  5.872569E-06  3.665559E+03
      2000   1  7.788639E-03  1.898660E-06  1.066233E-05  9.396433E+05  7.363926E-06  5.524759E+03
      2001   1  7.778994E-03 -2.914040E-06 -2.656659E-05  9.895571E+05  5.006589E-06  3.343805E+03
      2002   1  7.776260E-03 -8.469705E-06 -2.123021E-06  1.057689E+06  1.825579E-06  1.723534E+03
      2003   1 -7.122495E+06 -2.447959E+03 -5.173311E+03  1.034816E+06  1.948967E+03 -1.243412E+03
      2004   1 -7.122112E+06 -9.832152E+01  4.478208E+03  9.663857E+05  4.882836E+03 -4.302618E+03
      2005   1 -7.124629E+06 -3.692947E+03 -3.545952E+03  9.168277E+05  6.641695E+03 -3.935226E+03
      2006   1 -7.124706E+06 -5.823839E+02  4.834882E+03  8.844632E+05  5.696300E+03 -4.550822E+03
      2007   1 -7.126979E+06 -3.955439E+03 -2.658165E+03  8.658942E+05  3.510087E+03 -2.021582E+03
      2008   1 -7.126078E+06 -5.705399E+02  5.087411E+03  8.601071E+05  2.390525E-04 -9.050658E-06
      2009   1 -7.126979E+06 -3.955439E+03 -2.658165E+03  8.658942E+05 -3.510086E+03  2.021582E+03
      2010   1 -7.124706E+06 -5.823839E+02  4.834882E+03  8.844632E+05 -5.696300E+03  4.550822E+03
      2011   1 -7.124629E+06 -3.692947E+03 -3.545952E+03  9.168277E+05 -6.641695E+03  3.935226E+03
      2012   1 -7.122112E+06 -9.832153E+01  4.478208E+03  9.663857E+05 -4.882836E+03  4.302618E+03
      2013   1 -7.122495E+06 -2.447959E+03 -5.173311E+03  1.034816E+06 -1.948967E+03  1.243412E+03
      2014   1 -1.424547E+07  2.308191E+03 -5.017416E+03  9.261455E+05  4.390833E+03 -1.695917E+03
      2015   1 -1.424685E+07  5.457622E+03  8.418626E+03  8.599422E+05  1.104941E+04 -2.443056E+03
      2016   1 -1.425046E+07 -6.220201E+02 -5.241943E+03  8.129914E+05  1.475794E+04 -4.671923E+03
      2017   1 -1.425100E+07  4.603827E+03  1.137041E+04  7.823526E+05  1.270952E+04 -2.732567E+03
      2018   1 -1.425553E+07 -7.682099E+02 -4.817803E+03  7.653477E+05  7.788790E+03 -1.986962E+03
      2019   1 -1.425335E+07  5.354856E+03  1.207134E+04  7.600498E+05  4.946284E-04  2.133578E-05
      2020   1 -1.425553E+07 -7.682098E+02 -4.817803E+03  7.653477E+05 -7.788789E+03  1.986962E+03
      2021   1 -1.425100E+07  4.603826E+03  1.137041E+04  7.823526E+05 -1.270952E+04  2.732567E+03
      2022   1 -1.425046E+07 -6.220202E+02 -5.241943E+03  8.129914E+05 -1.475794E+04  4.671923E+03
      2023   1 -1.424685E+07  5.457622E+03  8.418626E+03  8.599422E+05 -1.104941E+04  2.443056E+03
      2024   1 -1.424547E+07  2.308191E+03 -5.017416E+03  9.261455E+05 -4.390832E+03  1.695917E+03
      2025   1 -2.136942E+07 -6.423071E+03 -1.600692E+04  7.660275E+05  8.135369E+03 -4.357613E+02
      2026   1 -2.136799E+07  5.801939E+02  1.305140E+04  7.026951E+05  2.021042E+04 -3.623307E+03
      2027   1 -2.137505E+07 -1.038754E+04 -1.055878E+04  6.601892E+05  2.662826E+04 -1.740698E+03
      2028   1 -2.137503E+07 -5.872269E+02  1.263714E+04  6.349181E+05  2.288043E+04 -2.053489E+03
      2029   1 -2.138099E+07 -9.390388E+03 -9.496918E+03  6.211174E+05  1.360240E+04 -1.226664E+03
      2030   1 -2.137836E+07 -5.171534E+02  1.390983E+04  6.169014E+05  7.845753E-04 -1.606028E-05
      2031   1 -2.138099E+07 -9.390388E+03 -9.496918E+03  6.211174E+05 -1.360240E+04  1.226664E+03
      2032   1 -2.137503E+07 -5.872269E+02  1.263714E+04  6.349181E+05 -2.288042E+04  2.053489E+03
      2033   1 -2.137505E+07 -1.038754E+04 -1.055878E+04  6.601892E+05 -2.662826E+04  1.740698E+03
      2034   1 -2.136799E+07  5.801938E+02  1.305140E+04  7.026951E+05 -2.021042E+04  3.623307E+03
      2035   1 -2.136942E+07 -6.423071E+03 -1.600692E+04  7.660275E+05 -8.135369E+03  4.357613E+02
      2036   1 -2.849194E+07  3.741808E+03 -7.854345E+03  5.194607E+05  1.425456E+04 -2.236992E+03
      2037   1 -2.849574E+07  7.271095E+03  1.618426E+04  4.636068E+05  3.699925E+04  7.488882E+02
      2038   1 -2.850260E+07 -2.708010E+03 -1.447130E+04  4.330448E+05  4.687540E+04 -2.471439E+02
      2039   1 -2.850146E+07  1.026877E+04  1.865913E+04  4.159601E+05  3.800120E+04 -1.076363E+03
      2040   1 -2.850978E+07 -2.543049E+03 -1.187129E+04  4.066489E+05  2.198127E+04 -5.838217E+02
      2041   1 -2.850508E+07  1.088043E+04  2.044834E+04  4.039306E+05  1.120768E-03  7.891137E-06
      2042   1 -2.850978E+07 -2.543049E+03 -1.187129E+04  4.066489E+05 -2.198127E+04  5.838217E+02
      2043   1 -2.850146E+07  1.026877E+04  1.865913E+04  4.159601E+05 -3.800119E+04  1.076363E+03
      2044   1 -2.850260E+07 -2.708011E+03 -1.447131E+04  4.330448E+05 -4.687540E+04  2.471439E+02
      2045   1 -2.849574E+07  7.271095E+03  1.618426E+04  4.636068E+05 -3.699925E+04 -7.488882E+02
      2046   1 -2.849194E+07  3.741808E+03 -7.854344E+03  5.194607E+05 -1.425456E+04  2.236992E+03
      2047   1 -3.562226E+07 -9.120246E+03 -3.121250E+04  1.928783E+05  3.445857E+04  3.082865E+03
      2048   1 -3.562142E+07 -3.151942E+02  1.187785E+04  1.651420E+05  7.487887E+04  1.138984E+03
      2049   1 -3.562709E+07 -9.422990E+03 -2.144992E+04  1.555434E+05  7.819755E+04  1.743019E+00
      2050   1 -3.562581E+07  1.597234E+03  1.784035E+04  1.486306E+05  6.061471E+04 -2.074228E+02
      2051   1 -3.563435E+07 -1.057348E+04 -1.807630E+04  1.460008E+05  3.346696E+04 -2.083522E+02
      2052   1 -3.562919E+07  2.045566E+03  1.986564E+04  1.445596E+05  1.516939E-03 -2.241695E-06
      2053   1 -3.563435E+07 -1.057348E+04 -1.807630E+04  1.460008E+05 -3.346695E+04  2.083522E+02
      2054   1 -3.562581E+07  1.597233E+03  1.784035E+04  1.486306E+05 -6.061471E+04  2.074228E+02
      2055   1 -3.562709E+07 -9.422990E+03 -2.144992E+04  1.555434E+05 -7.819754E+04 -1.742999E+00
      2056   1 -3.562142E+07 -3.151943E+02  1.187785E+04  1.651420E+05 -7.487887E+04 -1.138983E+03
      2057   1 -3.562226E+07 -9.120246E+03 -3.121250E+04  1.928783E+05 -3.445857E+04 -3.082865E+03
      2058   1  3.530622E+07 -1.136493E+04 -6.192023E+03  1.910481E+05 -3.377553E+04  2.308794E+03
      2059   1  3.530932E+07  6.311852E+03  2.057599E+04  1.646699E+05 -7.371308E+04  1.702101E+03
      2060   1  3.530472E+07 -9.935335E+03 -1.323857E+04  1.540159E+05 -7.506169E+04 -5.047609E+01
      2061   1  3.531247E+07  4.717751E+03  1.538078E+04  1.476636E+05 -5.955859E+04  1.978186E+02
      2062   1  3.530762E+07 -9.755804E+03 -1.629969E+04  1.442351E+05 -3.187691E+04 -1.503963E+02
      2063   1  3.531469E+07  4.384398E+03  1.391230E+04  1.433524E+05 -1.523224E-03 -2.609307E-06
      2064   1  3.530762E+07 -9.755804E+03 -1.629969E+04  1.442351E+05  3.187691E+04  1.503963E+02
      2065   1  3.531247E+07  4.717751E+03  1.538078E+04  1.476636E+05  5.955859E+04 -1.978187E+02
      2066   1  3.530472E+07 -9.935335E+03 -1.323857E+04  1.540159E+05  7.506169E+04  5.047611E+01
      2067   1  3.530932E+07  6.311852E+03  2.057599E+04  1.646699E+05  7.371308E+04 -1.702101E+03
      2068   1  3.530622E+07 -1.136493E+04 -6.192023E+03  1.910481E+05  3.377553E+04 -2.308794E+03
      2069   1  2.823857E+07 -4.401439E+03 -1.737318E+04  5.241895E+05 -1.281017E+04 -1.790201E+03
      2070   1  2.824468E+07  9.710868E+03  1.385989E+04  4.669866E+05 -3.626253E+04  1.184041E+03
      2071   1  2.824364E+07 -7.896685E+02 -1.050434E+04  4.363954E+05 -4.346043E+04  4.458412E+02
      2072   1  2.824876E+07  7.840072E+03  1.302264E+04  4.188019E+05 -3.698601E+04 -4.196241E+02
      2073   1  2.824668E+07 -9.310290E+02 -1.261932E+04  4.093383E+05 -2.031179E+04 -1.822417E+02
      2074   1  2.825110E+07  7.715996E+03  1.215066E+04  4.064296E+05 -1.126747E-03  7.369499E-06
      2075   1  2.824668E+07 -9.310290E+02 -1.261932E+04  4.093383E+05  2.031179E+04  1.822417E+02
      2076   1  2.824876E+07  7.840072E+03  1.302264E+04  4.188019E+05  3.698600E+04  4.196241E+02
      2077   1  2.824364E+07 -7.896686E+02 -1.050434E+04  4.363954E+05  4.346042E+04 -4.458412E+02
      2078   1  2.824468E+07  9.710868E+03  1.385989E+04  4.669866E+05  3.626253E+04 -1.184041E+03
      2079   1  2.823857E+07 -4.401439E+03 -1.737318E+04  5.241895E+05  1.281017E+04  1.790201E+03
      2080   1  2.118188E+07 -8.681336E+03 -7.738515E+03  7.611054E+05 -7.474603E+03 -1.712213E+02
      2081   1  2.118260E+07  3.267939E+02  6.771556E+03  6.981261E+05 -1.919683E+04 -2.841067E+03
      2082   1  2.118312E+07 -4.230850E+03 -1.140055E+04  6.552536E+05 -2.383311E+04 -5.264443E+02
      2083   1  2.118781E+07  1.643389E+03  8.139565E+03  6.288872E+05 -2.188262E+04 -1.061454E+03
      2084   1  2.118590E+07 -5.962147E+03 -1.213121E+04  6.147138E+05 -1.219522E+04 -5.785889E+02
      2085   1  2.118997E+07  1.649608E+03  7.550884E+03  6.100115E+05 -7.899617E-04 -1.716967E-05
      2086   1  2.118590E+07 -5.962147E+03 -1.213121E+04  6.147138E+05  1.219521E+04  5.785890E+02
      2087   1  2.118781E+07  1.643389E+03  8.139565E+03  6.288872E+05  2.188262E+04  1.061454E+03
      2088   1  2.118312E+07 -4.230850E+03 -1.140055E+04  6.552536E+05  2.383311E+04  5.264442E+02
      2089   1  2.118260E+07  3.267939E+02  6.771556E+03  6.981260E+05  1.919683E+04  2.841067E+03
      2090   1  2.118188E+07 -8.681336E+03 -7.738515E+03  7.611054E+05  7.474603E+03  1.712213E+02
      2091   1  1.411890E+07 -1.420475E+03 -7.765966E+03  9.351206E+05 -3.555265E+03 -1.204428E+03
      2092   1  1.412133E+07  4.492405E+03  7.400445E+03  8.676532E+05 -1.033228E+04 -1.236518E+03
      2093   1  1.412063E+07 -1.087253E+02 -7.179180E+03  8.200205E+05 -1.273835E+04 -3.168693E+03
      2094   1  1.412425E+07  5.835456E+03  5.386689E+03  7.886284E+05 -1.187204E+04 -1.429686E+03
      2095   1  1.412319E+07  1.964951E+02 -7.143597E+03  7.712885E+05 -6.791953E+03 -1.186332E+03
      2096   1  1.412573E+07  5.381979E+03  5.216409E+03  7.656036E+05 -4.981119E-04  1.961891E-05
      2097   1  1.412319E+07  1.964950E+02 -7.143597E+03  7.712885E+05  6.791952E+03  1.186332E+03
      2098   1  1.412425E+07  5.835456E+03  5.386689E+03  7.886284E+05  1.187203E+04  1.429686E+03
      2099   1  1.412063E+07 -1.087254E+02 -7.179180E+03  8.200205E+05  1.273835E+04  3.168693E+03
      2100   1  1.412133E+07  4.492405E+03  7.400445E+03  8.676532E+05  1.033228E+04  1.236518E+03
      2101   1  1.411890E+07 -1.420475E+03 -7.765966E+03  9.351206E+05  3.555265E+03  1.204428E+03
      2102   1  7.060385E+06 -3.098404E+03 -2.934951E+03  1.028066E+06 -1.686409E+03 -6.439328E+02
      2103   1  7.060703E+06 -9.051910E+01  2.176976E+03  9.598309E+05 -4.457976E+03 -3.042733E+03
      2104   1  7.060945E+06 -1.758657E+03 -3.913506E+03  9.097843E+05 -5.574561E+03 -2.125444E+03
      2105   1  7.062539E+06  4.225316E+02  2.219636E+03  8.759310E+05 -5.266141E+03 -3.017607E+03
      2106   1  7.062103E+06 -1.782166E+03 -4.655869E+03  8.566693E+05 -2.978664E+03 -1.098450E+03
      2107   1  7.063460E+06  4.411160E+02  2.223376E+03  8.503574E+05 -2.410878E-04 -1.024856E-05
      2108   1  7.062103E+06 -1.782166E+03 -4.655869E+03  8.566693E+05  2.978663E+03  1.098450E+03
      2109   1  7.062539E+06  4.225315E+02  2.219636E+03  8.759310E+05  5.266140E+03  3.017607E+03
      2110   1  7.060945E+06 -1.758657E+03 -3.913506E+03  9.097843E+05  5.574561E+03  2.125444E+03
      2111   1  7.060703E+06 -9.051911E+01  2.176976E+03  9.598309E+05  4.457975E+03  3.042733E+03
      2112   1  7.060385E+06 -3.098404E+03 -2.934951E+03  1.028066E+06  1.686409E+03  6.439328E+02
      2113   1  7.723203E-03 -3.297019E-06 -1.425245E-05  1.068349E+06 -1.403311E-06 -1.192527E+03
      2114   1  7.724785E-03  1.353652E-05 -4.748600E-06  9.989624E+05 -4.940476E-06 -1.866599E+03
      2115   1  7.728476E-03  5.029595E-06 -1.469466E-06  9.481974E+05 -6.327202E-06 -3.695748E+03
      2116   1  7.725878E-03  3.898969E-06  9.110094E-06  9.137926E+05 -5.993650E-06 -2.104275E+03
      2117   1  7.726686E-03  6.340120E-06 -4.906605E-06  8.942428E+05 -3.417722E-06 -1.810527E+03
      2118   1  7.725439E-03  3.706447E-06  1.117384E-05  8.877076E+05 -1.324381E-07  1.550548E-05
      2119   1  7.724309E-03  5.889781E-06 -5.182946E-06  8.942428E+05  3.047290E-06  1.810527E+03
      2120   1  7.721976E-03  5.191651E-06  9.937354E-06  9.137926E+05  5.661390E-06  2.104275E+03
      2121   1  7.721856E-03  5.687913E-06 -1.133823E-06  9.481974E+05  5.908233E-06  3.695748E+03
      2122   1  7.715587E-03  1.268477E-05 -4.755909E-06  9.989624E+05  4.811771E-06  1.866599E+03
      2123   1  7.711725E-03 -4.205658E-06 -1.454303E-05  1.068349E+06  1.335459E-06  1.192527E+03
      2124   1 -7.060385E+06  3.098404E+03  2.934951E+03  1.028066E+06  1.686409E+03 -6.439328E+02
      2125   1 -7.060703E+06  9.051911E+01 -2.176976E+03  9.598309E+05  4.457976E+03 -3.042733E+03
      2126   1 -7.060945E+06  1.758657E+03  3.913506E+03  9.097843E+05  5.574561E+03 -2.125444E+03
      2127   1 -7.062539E+06 -4.225315E+02 -2.219636E+03  8.759310E+05  5.266141E+03 -3.017607E+03
      2128   1 -7.062103E+06  1.782166E+03  4.655869E+03  8.566693E+05  2.978664E+03 -1.098450E+03
      2129   1 -7.063460E+06 -4.411160E+02 -2.223376E+03  8.503574E+05  2.406438E-04 -1.006137E-05
      2130   1 -7.062103E+06  1.782166E+03  4.655869E+03  8.566693E+05 -2.978663E+03  1.098450E+03
      2131   1 -7.062539E+06 -4.225315E+02 -2.219636E+03  8.759310E+05 -5.266140E+03  3.017607E+03
      2132   1 -7.060945E+06  1.758657E+03  3.913506E+03  9.097843E+05 -5.574561E+03  2.125444E+03
      2133   1 -7.060703E+06  9.051911E+01 -2.176976E+03  9.598309E+05 -4.457975E+03  3.042733E+03
      2134   1 -7.060385E+06  3.098404E+03  2.934951E+03  1.028066E+06 -1.686409E+03  6.439328E+02
      2135   1 -1.411890E+07  1.420475E+03  7.765966E+03  9.351206E+05  3.555265E+03 -1.204428E+03
      2136   1 -1.412133E+07 -4.492405E+03 -7.400445E+03  8.676532E+05  1.033228E+04 -1.236518E+03
      2137   1 -1.412063E+07  1.087254E+02  7.179180E+03  8.200205E+05  1.273835E+04 -3.168693E+03
      2138   1 -1.412425E+07 -5.835456E+03 -5.386689E+03  7.886284E+05  1.187204E+04 -1.429686E+03
      2139   1 -1.412319E+07 -1.964950E+02  7.143597E+03  7.712885E+05  6.791953E+03 -1.186332E+03
      2140   1 -1.412573E+07 -5.381979E+03 -5.216409E+03  7.656036E+05  4.976955E-04  1.980702E-05
      2141   1 -1.412319E+07 -1.964950E+02  7.143597E+03  7.712885E+05 -6.791952E+03  1.186332E+03
      2142   1 -1.412425E+07 -5.835456E+03 -5.386689E+03  7.886284E+05 -1.187203E+04  1.429686E+03
      2143   1 -1.412063E+07  1.087254E+02  7.179180E+03  8.200205E+05 -1.273835E+04  3.168693E+03
      2144   1 -1.412133E+07 -4.492405E+03 -7.400445E+03  8.676532E+05 -1.033228E+04  1.236518E+03
      2145   1 -1.411890E+07  1.420475E+03  7.765966E+03  9.351206E+05 -3.555265E+03  1.204428E+03
      2146   1 -2.118188E+07  8.681336E+03  7.738515E+03  7.611054E+05  7.474603E+03 -1.712213E+02
      2147   1 -2.118260E+07 -3.267940E+02 -6.771556E+03  6.981261E+05  1.919683E+04 -2.841067E+03
      2148   1 -2.118312E+07  4.230850E+03  1.140055E+04  6.552536E+05  2.383311E+04 -5.264443E+02
      2149   1 -2.118781E+07 -1.643389E+03 -8.139565E+03  6.288872E+05  2.188262E+04 -1.061454E+03
      2150   1 -2.118590E+07  5.962147E+03  1.213121E+04  6.147138E+05  1.219522E+04 -5.785889E+02
      2151   1 -2.118997E+07 -1.649608E+03 -7.550884E+03  6.100115E+05  7.896454E-04 -1.703111E-05
      2152   1 -2.118590E+07  5.962147E+03  1.213121E+04  6.147138E+05 -1.219521E+04  5.785890E+02
      2153   1 -2.118781E+07 -1.643389E+03 -8.139565E+03  6.288872E+05 -2.188262E+04  1.061454E+03
      2154   1 -2.118312E+07  4.230850E+03  1.140055E+04  6.552536E+05 -2.383311E+04  5.264443E+02
      2155   1 -2.118260E+07 -3.267939E+02 -6.771556E+03  6.981260E+05 -1.919683E+04  2.841067E+03
      2156   1 -2.118188E+07  8.681336E+03  7.738515E+03  7.611054E+05 -7.474603E+03  1.712213E+02
      2157   1 -2.823857E+07  4.401439E+03  1.737318E+04  5.241895E+05  1.281017E+04 -1.790201E+03
      2158   1 -2.824468E+07 -9.710868E+03 -1.385989E+04  4.669866E+05  3.626253E+04  1.184041E+03
      2159   1 -2.824364E+07  7.896685E+02  1.050434E+04  4.363954E+05  4.346043E+04  4.458412E+02
      2160   1 -2.824876E+07 -7.840072E+03 -1.302264E+04  4.188019E+05  3.698601E+04 -4.196241E+02
      2161   1 -2.824668E+07  9.310290E+02  1.261932E+04  4.093383E+05  2.031179E+04 -1.822417E+02
      2162   1 -2.825110E+07 -7.715996E+03 -1.215066E+04  4.064296E+05  1.126495E-03  7.044461E-06
      2163   1 -2.824668E+07  9.310290E+02  1.261932E+04  4.093383E+05 -2.031179E+04  1.822417E+02
      2164   1 -2.824876E+07 -7.840072E+03 -1.302264E+04  4.188019E+05 -3.698600E+04  4.196241E+02
      2165   1 -2.824364E+07  7.896686E+02  1.050434E+04  4.363954E+05 -4.346042E+04 -4.458412E+02
      2166   1 -2.824468E+07 -9.710868E+03 -1.385989E+04  4.669866E+05 -3.626253E+04 -1.184041E+03
      2167   1 -2.823857E+07  4.401439E+03  1.737318E+04  5.241895E+05 -1.281017E+04  1.790201E+03
      2168   1 -3.530622E+07  1.136493E+04  6.192023E+03  1.910481E+05  3.377553E+04  2.308794E+03
      2169   1 -3.530932E+07 -6.311852E+03 -2.057599E+04  1.646699E+05  7.371308E+04  1.702101E+03
      2170   1 -3.530472E+07  9.935335E+03  1.323857E+04  1.540159E+05  7.506169E+04 -5.047609E+01
      2171   1 -3.531247E+07 -4.717751E+03 -1.538078E+04  1.476636E+05  5.955859E+04  1.978186E+02
      2172   1 -3.530762E+07  9.755804E+03  1.629969E+04  1.442351E+05  3.187691E+04 -1.503963E+02
      2173   1 -3.531469E+07 -4.384398E+03 -1.391230E+04  1.433524E+05  1.522967E-03 -2.466827E-06
      2174   1 -3.530762E+07  9.755804E+03  1.629969E+04  1.442351E+05 -3.187691E+04  1.503963E+02
      2175   1 -3.531247E+07 -4.717751E+03 -1.538078E+04  1.476636E+05 -5.955859E+04 -1.978187E+02
      2176   1 -3.530472E+07  9.935335E+03  1.323857E+04  1.540159E+05 -7.506169E+04  5.047611E+01
      2177   1 -3.530932E+07 -6.311852E+03 -2.057599E+04  1.646699E+05 -7.371308E+04 -1.702101E+03
      2178   1 -3.530622E+07  1.136493E+04  6.192023E+03  1.910481E+05 -3.377553E+04 -2.308794E+03
      2179   1  3.499046E+07  4.301211E+03  2.415269E+04  1.926370E+05 -3.332135E+04  2.918359E+03
      2180   1  3.498906E+07  1.823610E+02 -5.667561E+03  1.650682E+05 -7.215774E+04  1.431135E+03
      2181   1  3.499057E+07  4.717109E+03  1.625824E+04  1.551074E+05 -7.432216E+04  2.981250E+02
      2182   1  3.498839E+07 -1.638448E+03 -9.695860E+03  1.480997E+05 -5.774478E+04  1.931547E+02
      2183   1  3.499275E+07  5.581970E+03  1.392455E+04  1.451344E+05 -3.152130E+04 -1.867388E+00
      2184   1  3.498904E+07 -2.047903E+03 -1.091328E+04  1.437539E+05 -1.520267E-03 -3.385724E-06
      2185   1  3.499275E+07  5.581970E+03  1.392455E+04  1.451344E+05  3.152130E+04  1.867395E+00
      2186   1  3.498839E+07 -1.638448E+03 -9.695860E+03  1.480997E+05  5.774477E+04 -1.931548E+02
      2187   1  3.499057E+07  4.717109E+03  1.625824E+04  1.551074E+05  7.432216E+04 -2.981250E+02
      2188   1  3.498906E+07  1.823611E+02 -5.667561E+03  1.650682E+05  7.215774E+04 -1.431134E+03
      2189   1  3.499046E+07  4.301211E+03  2.415269E+04  1.926370E+05  3.332135E+04 -2.918359E+03
      2190   1  2.798735E+07 -2.495679E+03  4.112322E+03  5.214103E+05 -1.288513E+04 -1.883591E+03
      2191   1  2.799014E+07 -3.369863E+03 -9.919379E+03  4.650875E+05 -3.439328E+04  1.462578E+03
      2192   1  2.799332E+07  2.973886E+03  1.167028E+04  4.340380E+05 -4.288251E+04  8.264366E+02
      2193   1  2.799076E+07 -5.985400E+03 -1.021017E+04  4.162788E+05 -3.510261E+04 -3.530896E+01
      2194   1  2.799557E+07  2.891253E+03  1.038657E+04  4.064859E+05 -1.997459E+04  4.982223E+01
      2195   1  2.799169E+07 -6.406951E+03 -1.092679E+04  4.035530E+05 -1.124360E-03  6.848128E-06
      2196   1  2.799557E+07  2.891253E+03  1.038657E+04  4.064859E+05  1.997459E+04 -4.982226E+01
      2197   1  2.799076E+07 -5.985400E+03 -1.021017E+04  4.162788E+05  3.510260E+04  3.530901E+01
      2198   1  2.799332E+07  2.973886E+03  1.167028E+04  4.340380E+05  4.288250E+04 -8.264366E+02
      2199   1  2.799014E+07 -3.369863E+03 -9.919379E+03  4.650875E+05  3.439328E+04 -1.462578E+03
      2200   1  2.798735E+07 -2.495679E+03  4.112321E+03  5.214103E+05  1.288513E+04  1.883591E+03
      2201   1  2.099229E+07  2.857479E+03  1.163087E+04  7.657998E+05 -7.093451E+03  5.577680E+01
      2202   1  2.099009E+07 -1.624677E+03 -9.213315E+03  7.022388E+05 -1.779726E+04 -2.266962E+03
      2203   1  2.099395E+07  6.449985E+03  7.574172E+03  6.588739E+05 -2.316742E+04  5.063401E+01
      2204   1  2.099261E+07 -4.919521E+02 -7.082294E+03  6.324580E+05 -2.030224E+04 -4.306822E+02
      2205   1  2.099574E+07  5.336125E+03  7.649691E+03  6.178749E+05 -1.185442E+04 -2.425348E+02
      2206   1  2.099360E+07 -4.808969E+02 -7.433585E+03  6.132872E+05 -7.874202E-04 -1.776986E-05
      2207   1  2.099574E+07  5.336125E+03  7.649691E+03  6.178749E+05  1.185442E+04  2.425348E+02
      2208   1  2.099261E+07 -4.919521E+02 -7.082293E+03  6.324580E+05  2.030224E+04  4.306822E+02
      2209   1  2.099395E+07  6.449985E+03  7.574172E+03  6.588739E+05  2.316742E+04 -5.063402E+01
      2210   1  2.099009E+07 -1.624677E+03 -9.213315E+03  7.022388E+05  1.779726E+04  2.266962E+03
      2211   1  2.099229E+07  2.857479E+03  1.163087E+04  7.657998E+05  7.093451E+03 -5.577681E+01
      2212   1  1.399402E+07 -1.319439E+03  3.145449E+03  9.303380E+05 -3.516861E+03 -9.758447E+02
      2213   1  1.399470E+07 -3.269009E+03 -4.988405E+03  8.635110E+05 -9.259233E+03 -6.024423E+02
      2214   1  1.399609E+07  8.220581E+02  4.146882E+03  8.154458E+05 -1.220463E+04 -2.295106E+03
      2215   1  1.399558E+07 -2.327275E+03 -6.551430E+03  7.835275E+05 -1.076942E+04 -6.249796E+02
      2216   1  1.399805E+07  1.083123E+03  4.630168E+03  7.655811E+05 -6.509846E+03 -7.301098E+02
      2217   1  1.399623E+07 -2.921216E+03 -6.572215E+03  7.598703E+05 -4.968382E-04  1.873396E-05
      2218   1  1.399805E+07  1.083123E+03  4.630168E+03  7.655811E+05  6.509845E+03  7.301098E+02
      2219   1  1.399558E+07 -2.327275E+03 -6.551430E+03  7.835275E+05  1.076942E+04  6.249797E+02
      2220   1  1.399609E+07  8.220581E+02  4.146882E+03  8.154458E+05  1.220463E+04  2.295106E+03
      2221   1  1.399470E+07 -3.269009E+03 -4.988405E+03  8.635110E+05  9.259233E+03  6.024423E+02
      2222   1  1.399402E+07 -1.319440E+03  3.145449E+03  9.303380E+05  3.516861E+03  9.758447E+02
      2223   1  6.997197E+06  1.114614E+03  3.690368E+03  1.034872E+06 -1.536203E+03 -3.925924E+02
      2224   1  6.996500E+06 -4.539338E+02 -3.152250E+03  9.661418E+05 -3.917908E+03 -2.162393E+03
      2225   1  6.997831E+06  2.130990E+03  2.619046E+03  9.153597E+05 -5.286348E+03 -1.181950E+03
      2226   1  6.997343E+06 -2.478506E+01 -2.821301E+03  8.813540E+05 -4.669357E+03 -2.095642E+03
      2227   1  6.998578E+06  2.341595E+03  2.193917E+03  8.616260E+05 -2.830680E+03 -5.856260E+02
      2228   1  6.997816E+06  5.884424E+00 -2.725619E+03  8.553467E+05 -2.402892E-04 -1.069797E-05
      2229   1  6.998578E+06  2.341595E+03  2.193917E+03  8.616260E+05  2.830680E+03  5.856261E+02
      2230   1  6.997343E+06 -2.478507E+01 -2.821301E+03  8.813540E+05  4.669357E+03  2.095642E+03
      2231   1  6.997831E+06  2.130990E+03  2.619046E+03  9.153597E+05  5.286348E+03  1.181950E+03
      2232   1  6.996500E+06 -4.539338E+02 -3.152250E+03  9.661418E+05  3.917907E+03  2.162393E+03
      2233   1  6.997197E+06  1.114614E+03  3.690368E+03  1.034872E+06  1.536203E+03  3.925924E+02
      2234   1  7.651222E-03 -7.979737E-06 -3.930563E-06  1.062827E+06 -1.153035E-06 -8.605119E+02
      2235   1  7.651411E-03 -7.000032E-07 -2.308780E-05  9.940543E+05 -4.287502E-06 -1.080153E+03
      2236   1  7.657418E-03  1.745627E-06  9.225017E-06  9.428262E+05 -6.008272E-06 -2.638493E+03
      2237   1  7.651152E-03 -1.097497E-05 -8.888591E-06  9.077859E+05 -5.274719E-06 -1.125411E+03
      2238   1  7.655082E-03  1.927212E-06  5.488116E-06  8.875191E+05 -3.253309E-06 -1.262670E+03
      2239   1  7.649536E-03 -1.117098E-05 -6.947187E-06  8.809523E+05 -2.559377E-07  1.452565E-05
      2240   1  7.652695E-03  2.449307E-06  5.593226E-06  8.875191E+05  2.996736E-06  1.262670E+03
      2241   1  7.646274E-03 -1.120578E-05 -8.942507E-06  9.077859E+05  4.841195E-06  1.125411E+03
      2242   1  7.650605E-03  1.476966E-06  9.337164E-06  9.428262E+05  5.934045E-06  2.638493E+03
      2243   1  7.642497E-03 -2.928112E-07 -2.269104E-05  9.940543E+05  3.988634E-06  1.080153E+03
      2244   1  7.639666E-03 -7.952569E-06 -3.698681E-06  1.062827E+06  1.302826E-06  8.605119E+02
      2245   1 -6.997197E+06 -1.114614E+03 -3.690368E+03  1.034872E+06  1.536203E+03 -3.925924E+02
      2246   1 -6.996500E+06  4.539338E+02  3.152250E+03  9.661418E+05  3.917908E+03 -2.162393E+03
      2247   1 -6.997831E+06 -2.130990E+03 -2.619046E+03  9.153597E+05  5.286348E+03 -1.181950E+03
      2248   1 -6.997343E+06  2.478507E+01  2.821301E+03  8.813540E+05  4.669357E+03 -2.095642E+03
      2249   1 -6.998578E+06 -2.341595E+03 -2.193917E+03  8.616260E+05  2.830680E+03 -5.856260E+02
      2250   1 -6.997816E+06 -5.884418E+00  2.725619E+03  8.553467E+05  2.399714E-04 -1.018640E-05
      2251   1 -6.998578E+06 -2.341595E+03 -2.193916E+03  8.616260E+05 -2.830680E+03  5.856261E+02
      2252   1 -6.997343E+06  2.478508E+01  2.821301E+03  8.813540E+05 -4.669357E+03  2.095642E+03
      2253   1 -6.997831E+06 -2.130990E+03 -2.619046E+03  9.153597E+05 -5.286348E+03  1.181950E+03
      2254   1 -6.996500E+06  4.539338E+02  3.152250E+03  9.661418E+05 -3.917907E+03  2.162393E+03
      2255   1 -6.997197E+06 -1.114614E+03 -3.690368E+03  1.034872E+06 -1.536203E+03  3.925924E+02
      2256   1 -1.399402E+07  1.319440E+03 -3.145449E+03  9.303380E+05  3.516861E+03 -9.758447E+02
      2257   1 -1.399470E+07  3.269009E+03  4.988405E+03  8.635110E+05  9.259233E+03 -6.024423E+02
      2258   1 -1.399609E+07 -8.220581E+02 -4.146882E+03  8.154458E+05  1.220463E+04 -2.295106E+03
      2259   1 -1.399558E+07  2.327275E+03  6.551430E+03  7.835275E+05  1.076942E+04 -6.249797E+02
      2260   1 -1.399805E+07 -1.083123E+03 -4.630168E+03  7.655811E+05  6.509846E+03 -7.301098E+02
      2261   1 -1.399623E+07  2.921216E+03  6.572215E+03  7.598703E+05  4.963344E-04  1.880163E-05
      2262   1 -1.399805E+07 -1.083123E+03 -4.630168E+03  7.655811E+05 -6.509845E+03  7.301098E+02
      2263   1 -1.399558E+07  2.327275E+03  6.551430E+03  7.835275E+05 -1.076942E+04  6.249797E+02
      2264   1 -1.399609E+07 -8.220581E+02 -4.146882E+03  8.154458E+05 -1.220463E+04  2.295106E+03
      2265   1 -1.399470E+07  3.269009E+03  4.988405E+03  8.635110E+05 -9.259233E+03  6.024423E+02
      2266   1 -1.399402E+07  1.319440E+03 -3.145449E+03  9.303380E+05 -3.516861E+03  9.758447E+02
      2267   1 -2.099229E+07 -2.857479E+03 -1.163087E+04  7.657998E+05  7.093451E+03  5.577683E+01
      2268   1 -2.099009E+07  1.624677E+03  9.213315E+03  7.022388E+05  1.779726E+04 -2.266962E+03
      2269   1 -2.099395E+07 -6.449985E+03 -7.574172E+03  6.588739E+05  2.316742E+04  5.063400E+01
      2270   1 -2.099261E+07  4.919521E+02  7.082294E+03  6.324581E+05  2.030224E+04 -4.306822E+02
      2271   1 -2.099574E+07 -5.336125E+03 -7.649691E+03  6.178749E+05  1.185442E+04 -2.425348E+02
      2272   1 -2.099360E+07  4.808969E+02  7.433585E+03  6.132872E+05  7.873317E-04 -1.784034E-05
      2273   1 -2.099574E+07 -5.336125E+03 -7.649691E+03  6.178749E+05 -1.185442E+04  2.425348E+02
      2274   1 -2.099261E+07  4.919521E+02  7.082294E+03  6.324580E+05 -2.030224E+04  4.306822E+02
      2275   1 -2.099395E+07 -6.449985E+03 -7.574172E+03  6.588739E+05 -2.316742E+04 -5.063402E+01
      2276   1 -2.099009E+07  1.624677E+03  9.213315E+03  7.022388E+05 -1.779726E+04  2.266962E+03
      2277   1 -2.099229E+07 -2.857479E+03 -1.163087E+04  7.657998E+05 -7.093451E+03 -5.577684E+01
      2278   1 -2.798735E+07  2.495679E+03 -4.112322E+03  5.214103E+05  1.288513E+04 -1.883591E+03
      2279   1 -2.799014E+07  3.369863E+03  9.919379E+03  4.650875E+05  3.439328E+04  1.462578E+03
      2280   1 -2.799332E+07 -2.973886E+03 -1.167028E+04  4.340380E+05  4.288251E+04  8.264366E+02
      2281   1 -2.799076E+07  5.985400E+03  1.021017E+04  4.162788E+05  3.510261E+04 -3.530896E+01
      2282   1 -2.799557E+07 -2.891253E+03 -1.038657E+04  4.064859E+05  1.997459E+04  4.982223E+01
      2283   1 -2.799169E+07  6.406951E+03  1.092679E+04  4.035530E+05  1.123659E-03  6.667219E-06
      2284   1 -2.799557E+07 -2.891253E+03 -1.038657E+04  4.064859E+05 -1.997459E+04 -4.982226E+01
      2285   1 -2.799076E+07  5.985400E+03  1.021017E+04  4.162788E+05 -3.510260E+04  3.530901E+01
      2286   1 -2.799332E+07 -2.973886E+03 -1.167028E+04  4.340380E+05 -4.288250E+04 -8.264366E+02
      2287   1 -2.799014E+07  3.369863E+03  9.919379E+03  4.650875E+05 -3.439328E+04 -1.462578E+03
      2288   1 -2.798735E+07  2.495679E+03 -4.112321E+03  5.214103E+05 -1.288513E+04  1.883591E+03
      2289   1 -3.499046E+07 -4.301211E+03 -2.415269E+04  1.926370E+05  3.332135E+04  2.918359E+03
      2290   1 -3.498906E+07 -1.823610E+02  5.667561E+03  1.650682E+05  7.215774E+04  1.431135E+03
      2291   1 -3.499057E+07 -4.717109E+03 -1.625824E+04  1.551074E+05  7.432216E+04  2.981250E+02
      2292   1 -3.498839E+07  1.638448E+03  9.695860E+03  1.480997E+05  5.774478E+04  1.931547E+02
      2293   1 -3.499275E+07 -5.581970E+03 -1.392455E+04  1.451344E+05  3.152130E+04 -1.867388E+00
      2294   1 -3.498904E+07  2.047903E+03  1.091328E+04  1.437539E+05  1.519802E-03 -3.303428E-06
      2295   1 -3.499275E+07 -5.581970E+03 -1.392455E+04  1.451344E+05 -3.152130E+04  1.867395E+00
      2296   1 -3.498839E+07  1.638448E+03  9.695860E+03  1.480997E+05 -5.774477E+04 -1.931548E+02
      2297   1 -3.499057E+07 -4.717109E+03 -1.625824E+04  1.551074E+05 -7.432216E+04 -2.981250E+02
      2298   1 -3.498906E+07 -1.823611E+02  5.667561E+03  1.650682E+05 -7.215774E+04 -1.431134E+03
      2299   1 -3.499046E+07 -4.301211E+03 -2.415269E+04  1.926370E+05 -3.332135E+04 -2.918359E+03
      2300   1  3.467247E+07 -7.640546E+03 -4.882597E+02  1.915241E+05 -3.308175E+04  2.427985E+03
      2301   1  3.467424E+07  5.905455E+03  1.649434E+04  1.649167E+05 -7.180133E+04  1.717544E+03
      2302   1  3.466956E+07 -6.458258E+03 -6.472145E+03  1.543137E+05 -7.303950E+04  1.943799E+02
      2303   1  3.467413E+07  4.304605E+03  1.258458E+04  1.477253E+05 -5.741763E+04  3.671508E+02
      2304   1  3.466983E+07 -6.075651E+03 -8.344479E+03  1.443054E+05 -3.084868E+04 -7.625971E+00
      2305   1  3.467462E+07  3.971576E+03  1.159636E+04  1.432806E+05 -1.523959E-03 -2.639087E-06
      2306   1  3.466983E+07 -6.075651E+03 -8.344479E+03  1.443054E+05  3.084868E+04  7.625977E+00
      2307   1  3.467413E+07  4.304605E+03  1.258458E+04  1.477253E+05  5.741763E+04 -3.671508E+02
      2308   1  3.466956E+07 -6.458258E+03 -6.472146E+03  1.543137E+05  7.303950E+04 -1.943798E+02
      2309   1  3.467424E+07  5.905455E+03  1.649434E+04  1.649167E+05  7.180133E+04 -1.717544E+03
      2310   1  3.467247E+07 -7.640546E+03 -4.882595E+02  1.915241E+05  3.308175E+04 -2.427985E+03
      2311   1  2.773250E+07 -4.827951E+03 -1.368073E+04  5.237327E+05 -1.228083E+04 -1.672703E+03
      2312   1  2.773742E+07  6.473951E+03  9.827848E+03  4.666331E+05 -3.426553E+04  1.575152E+03
      2313   1  2.773585E+07 -1.021794E+03 -5.741000E+03  4.357134E+05 -4.149051E+04  1.028803E+03
      2314   1  2.773832E+07  4.422277E+03  1.005139E+04  4.177674E+05 -3.481148E+04  1.711988E+02
      2315   1  2.773630E+07 -1.134367E+03 -6.584132E+03  4.079739E+05 -1.928003E+04  1.757155E+02
      2316   1  2.773899E+07  4.237341E+03  9.703775E+03  4.049647E+05 -1.127812E-03  6.590005E-06
      2317   1  2.773630E+07 -1.134367E+03 -6.584132E+03  4.079739E+05  1.928003E+04 -1.757155E+02
      2318   1  2.773832E+07  4.422277E+03  1.005139E+04  4.177674E+05  3.481148E+04 -1.711987E+02
      2319   1  2.773585E+07 -1.021795E+03 -5.741000E+03  4.357134E+05  4.149051E+04 -1.028803E+03
      2320   1  2.773742E+07  6.473951E+03  9.827848E+03  4.666331E+05  3.426553E+04 -1.575152E+03
      2321   1  2.773250E+07 -4.827951E+03 -1.368073E+04  5.237327E+05  1.228083E+04  1.672703E+03
      2322   1  2.080230E+07 -5.833031E+03 -4.067078E+03  7.630093E+05 -6.873334E+03  1.042448E+02
      2323   1  2.080203E+07  5.130223E+02  4.528782E+03  6.998110E+05 -1.750018E+04 -2.042359E+03
      2324   1  2.080202E+07 -1.853704E+03 -6.891340E+03  6.564623E+05 -2.205755E+04  4.428543E+02
      2325   1  2.080449E+07  1.769958E+03  6.881917E+03  6.296150E+05 -1.999718E+04 -1.184604E+02
      2326   1  2.080249E+07 -3.342804E+03 -6.504475E+03  6.149722E+05 -1.128019E+04 -2.618819E+01
      2327   1  2.080523E+07  1.818697E+03  6.792954E+03  6.101516E+05 -7.905200E-04 -1.755601E-05
      2328   1  2.080249E+07 -3.342804E+03 -6.504475E+03  6.149722E+05  1.128019E+04  2.618822E+01
      2329   1  2.080449E+07  1.769958E+03  6.881917E+03  6.296150E+05  1.999718E+04  1.184604E+02
      2330   1  2.080202E+07 -1.853704E+03 -6.891341E+03  6.564623E+05  2.205755E+04 -4.428543E+02
      2331   1  2.080203E+07  5.130223E+02  4.528782E+03  6.998110E+05  1.750018E+04  2.042359E+03
      2332   1  2.080230E+07 -5.833031E+03 -4.067078E+03  7.630093E+05  6.873334E+03 -1.042448E+02
      2333   1  1.386648E+07 -1.881165E+03 -5.902038E+03  9.345537E+05 -3.176536E+03 -8.123361E+02
      2334   1  1.386821E+07  2.469920E+03  5.331555E+03  8.671241E+05 -9.062397E+03 -2.167787E+02
      2335   1  1.386708E+07 -6.285341E+02 -4.594730E+03  8.189034E+05 -1.140870E+04 -1.809809E+03
      2336   1  1.386912E+07  3.639577E+03  4.061746E+03  7.867650E+05 -1.049810E+04 -2.055882E+02
      2337   1  1.386798E+07 -3.142247E+02 -3.799344E+03  7.687934E+05 -6.107298E+03 -4.628068E+02
      2338   1  1.386956E+07  3.186667E+03  4.246242E+03  7.629174E+05 -4.985800E-04  1.813498E-05
      2339   1  1.386798E+07 -3.142247E+02 -3.799344E+03  7.687934E+05  6.107297E+03  4.628068E+02
      2340   1  1.386912E+07  3.639577E+03  4.061746E+03  7.867650E+05  1.049810E+04  2.055882E+02
      2341   1  1.386708E+07 -6.285342E+02 -4.594731E+03  8.189034E+05  1.140870E+04  1.809809E+03
      2342   1  1.386821E+07  2.469920E+03  5.331555E+03  8.671241E+05  9.062396E+03  2.167787E+02
      2343   1  1.386648E+07 -1.881165E+03 -5.902038E+03  9.345537E+05  3.176535E+03  8.123361E+02
      2344   1  6.934024E+06 -2.052382E+03 -1.664486E+03  1.031003E+06 -1.447594E+03 -2.061868E+02
      2345   1  6.933976E+06  1.630098E+01  1.469554E+03  9.625571E+05 -3.790781E+03 -1.787100E+03
      2346   1  6.933977E+06 -9.335963E+02 -2.307591E+03  9.118120E+05 -4.865441E+03 -5.878218E+02
      2347   1  6.934756E+06  4.846180E+02  1.909320E+03  8.772409E+05 -4.533778E+03 -1.584870E+03
      2348   1  6.934237E+06 -8.734548E+02 -2.614512E+03  8.573268E+05 -2.615945E+03 -2.747195E+02
      2349   1  6.935125E+06  5.276719E+02  2.103099E+03  8.508156E+05 -2.412925E-04 -1.114582E-05
      2350   1  6.934237E+06 -8.734548E+02 -2.614512E+03  8.573268E+05  2.615945E+03  2.747195E+02
      2351   1  6.934756E+06  4.846180E+02  1.909320E+03  8.772409E+05  4.533777E+03  1.584870E+03
      2352   1  6.933977E+06 -9.335963E+02 -2.307591E+03  9.118120E+05  4.865440E+03  5.878218E+02
      2353   1  6.933976E+06  1.630098E+01  1.469554E+03  9.625571E+05  3.790781E+03  1.787100E+03
      2354   1  6.934024E+06 -2.052382E+03 -1.664486E+03  1.031003E+06  1.447594E+03  2.061868E+02
      2355   1  7.584618E-03 -4.078629E-06 -1.308143E-05  1.067801E+06 -1.146437E-06 -6.973295E+02
      2356   1  7.586349E-03  1.218381E-05 -6.377450E-06  9.984619E+05 -4.166466E-06 -6.008045E+02
      2357   1  7.590047E-03  6.512228E-06  1.255541E-06  9.470168E+05 -5.212819E-06 -2.039783E+03
      2358   1  7.586125E-03  2.741109E-06  7.365195E-06  9.117229E+05 -5.284282E-06 -6.174114E+02
      2359   1  7.585695E-03  4.234534E-06 -2.950490E-06  8.914255E+05 -2.886666E-06 -9.361174E+02
      2360   1  7.584624E-03  2.095858E-06  9.118921E-06  8.846641E+05 -1.309335E-07  1.418207E-05
      2361   1  7.583428E-03  4.235980E-06 -3.255090E-06  8.914255E+05  2.696017E-06  9.361174E+02
      2362   1  7.581270E-03  1.789930E-06  7.313298E-06  9.117229E+05  4.914663E-06  6.174114E+02
      2363   1  7.582264E-03  4.729027E-06  6.915329E-07  9.470168E+05  5.234976E-06  2.039783E+03
      2364   1  7.576813E-03  1.119078E-05 -7.026671E-06  9.984619E+05  3.956892E-06  6.008045E+02
      2365   1  7.572743E-03 -4.800123E-06 -1.296053E-05  1.067801E+06  9.922768E-07  6.973295E+02
      2366   1 -6.934024E+06  2.052382E+03  1.664486E+03  1.031003E+06  1.447594E+03 -2.061868E+02
      2367   1 -6.933976E+06 -1.630098E+01 -1.469554E+03  9.625571E+05  3.790781E+03 -1.787100E+03
      2368   1 -6.933977E+06  9.335963E+02  2.307591E+03  9.118120E+05  4.865441E+03 -5.878218E+02
      2369   1 -6.934756E+06 -4.846180E+02 -1.909320E+03  8.772409E+05  4.533778E+03 -1.584870E+03
      2370   1 -6.934237E+06  8.734548E+02  2.614512E+03  8.573268E+05  2.615945E+03 -2.747195E+02
      2371   1 -6.935125E+06 -5.276719E+02 -2.103099E+03  8.508156E+05  2.411779E-04 -1.066546E-05
      2372   1 -6.934237E+06  8.734547E+02  2.614512E+03  8.573268E+05 -2.615945E+03  2.747195E+02
      2373   1 -6.934756E+06 -4.846180E+02 -1.909320E+03  8.772409E+05 -4.533777E+03  1.584870E+03
      2374   1 -6.933977E+06  9.335963E+02  2.307591E+03  9.118120E+05 -4.865440E+03  5.878218E+02
      2375   1 -6.933976E+06 -1.630098E+01 -1.469554E+03  9.625571E+05 -3.790781E+03  1.787100E+03
      2376   1 -6.934024E+06  2.052382E+03  1.664486E+03  1.031003E+06 -1.447594E+03  2.061868E+02
      2377   1 -1.386648E+07  1.881165E+03  5.902038E+03  9.345537E+05  3.176536E+03 -8.123361E+02
      2378   1 -1.386821E+07 -2.469920E+03 -5.331555E+03  8.671241E+05  9.062397E+03 -2.167787E+02
      2379   1 -1.386708E+07  6.285342E+02  4.594730E+03  8.189034E+05  1.140870E+04 -1.809809E+03
      2380   1 -1.386912E+07 -3.639577E+03 -4.061746E+03  7.867650E+05  1.049810E+04 -2.055882E+02
      2381   1 -1.386798E+07  3.142247E+02  3.799344E+03  7.687934E+05  6.107298E+03 -4.628068E+02
      2382   1 -1.386956E+07 -3.186667E+03 -4.246242E+03  7.629174E+05  4.983209E-04  1.862403E-05
      2383   1 -1.386798E+07  3.142247E+02  3.799344E+03  7.687934E+05 -6.107297E+03  4.628068E+02
      2384   1 -1.386912E+07 -3.639577E+03 -4.061746E+03  7.867650E+05 -1.049810E+04  2.055882E+02
      2385   1 -1.386708E+07  6.285342E+02  4.594731E+03  8.189034E+05 -1.140870E+04  1.809809E+03
      2386   1 -1.386821E+07 -2.469920E+03 -5.331554E+03  8.671241E+05 -9.062396E+03  2.167787E+02
      2387   1 -1.386648E+07  1.881165E+03  5.902038E+03  9.345537E+05 -3.176535E+03  8.123361E+02
      2388   1 -2.080230E+07  5.833031E+03  4.067078E+03  7.630093E+05  6.873334E+03  1.042448E+02
      2389   1 -2.080203E+07 -5.130224E+02 -4.528782E+03  6.998110E+05  1.750018E+04 -2.042359E+03
      2390   1 -2.080202E+07  1.853704E+03  6.891340E+03  6.564623E+05  2.205755E+04  4.428543E+02
      2391   1 -2.080449E+07 -1.769959E+03 -6.881917E+03  6.296150E+05  1.999718E+04 -1.184604E+02
      2392   1 -2.080249E+07  3.342804E+03  6.504475E+03  6.149722E+05  1.128019E+04 -2.618819E+01
      2393   1 -2.080523E+07 -1.818697E+03 -6.792954E+03  6.101516E+05  7.902580E-04 -1.781212E-05
      2394   1 -2.080249E+07  3.342804E+03  6.504475E+03  6.149722E+05 -1.128019E+04  2.618823E+01
      2395   1 -2.080449E+07 -1.769958E+03 -6.881917E+03  6.296150E+05 -1.999718E+04  1.184604E+02
      2396   1 -2.080202E+07  1.853704E+03  6.891341E+03  6.564623E+05 -2.205755E+04 -4.428543E+02
      2397   1 -2.080203E+07 -5.130223E+02 -4.528782E+03  6.998110E+05 -1.750018E+04  2.042359E+03
      2398   1 -2.080230E+07  5.833031E+03  4.067078E+03  7.630093E+05 -6.873334E+03 -1.042448E+02
      2399   1 -2.773250E+07  4.827951E+03  1.368073E+04  5.237327E+05  1.228083E+04 -1.672703E+03
      2400   1 -2.773742E+07 -6.473951E+03 -9.827848E+03  4.666331E+05  3.426553E+04  1.575152E+03
      2401   1 -2.773585E+07  1.021794E+03  5.741000E+03  4.357134E+05  4.149051E+04  1.028803E+03
      2402   1 -2.773832E+07 -4.422277E+03 -1.005139E+04  4.177674E+05  3.481148E+04  1.711988E+02
      2403   1 -2.773630E+07  1.134367E+03  6.584132E+03  4.079739E+05  1.928003E+04  1.757155E+02
      2404   1 -2.773899E+07 -4.237341E+03 -9.703775E+03  4.049647E+05  1.127331E-03  6.618180E-06
      2405   1 -2.773630E+07  1.134367E+03  6.584132E+03  4.079739E+05 -1.928003E+04 -1.757155E+02
      2406   1 -2.773832E+07 -4.422277E+03 -1.005139E+04  4.177674E+05 -3.481148E+04 -1.711987E+02
      2407   1 -2.773585E+07  1.021795E+03  5.741000E+03  4.357134E+05 -4.149051E+04 -1.028803E+03
      2408   1 -2.773742E+07 -6.473951E+03 -9.827848E+03  4.666331E+05 -3.426553E+04 -1.575152E+03
      2409   1 -2.773250E+07  4.827951E+03  1.368073E+04  5.237327E+05 -1.228083E+04  1.672703E+03
      2410   1 -3.467247E+07  7.640546E+03  4.882597E+02  1.915241E+05  3.308175E+04  2.427985E+03
      2411   1 -3.467424E+07 -5.905455E+03 -1.649434E+04  1.649167E+05  7.180133E+04  1.717544E+03
      2412   1 -3.466956E+07  6.458258E+03  6.472145E+03  1.543137E+05  7.303950E+04  1.943799E+02
      2413   1 -3.467413E+07 -4.304605E+03 -1.258458E+04  1.477253E+05  5.741763E+04  3.671508E+02
      2414   1 -3.466983E+07  6.075651E+03  8.344479E+03  1.443054E+05  3.084868E+04 -7.625971E+00
      2415   1 -3.467462E+07 -3.971576E+03 -1.159636E+04  1.432806E+05  1.523650E-03 -2.875543E-06
      2416   1 -3.466983E+07  6.075651E+03  8.344479E+03  1.443054E+05 -3.084868E+04  7.625977E+00
      2417   1 -3.467413E+07 -4.304605E+03 -1.258458E+04  1.477253E+05 -5.741763E+04 -3.671508E+02
      2418   1 -3.466956E+07  6.458258E+03  6.472146E+03  1.543137E+05 -7.303950E+04 -1.943798E+02
      2419   1 -3.467424E+07 -5.905455E+03 -1.649434E+04  1.649167E+05 -7.180133E+04 -1.717544E+03
      2420   1 -3.467247E+07  7.640546E+03  4.882595E+02  1.915241E+05 -3.308175E+04 -2.427985E+03
      2421   1  3.435527E+07  1.592039E+03  1.938737E+04  1.924035E+05 -3.293519E+04  2.779859E+03
      2422   1  3.435434E+07  6.172811E+02 -1.538245E+03  1.650124E+05 -7.120741E+04  1.518516E+03
      2423   1  3.435416E+07  2.126950E+03  1.260241E+04  1.548980E+05 -7.286574E+04  3.596633E+02
      2424   1  3.435242E+07 -1.142404E+03 -4.624202E+03  1.479163E+05 -5.668566E+04  3.202137E+02
      2425   1  3.435468E+07  2.848974E+03  1.094542E+04  1.448081E+05 -3.075863E+04  5.524994E+01
      2426   1  3.435221E+07 -1.531658E+03 -5.393033E+03  1.434844E+05 -1.521410E-03 -2.356267E-06
      2427   1  3.435468E+07  2.848974E+03  1.094542E+04  1.448081E+05  3.075863E+04 -5.524994E+01
      2428   1  3.435242E+07 -1.142404E+03 -4.624202E+03  1.479163E+05  5.668566E+04 -3.202137E+02
      2429   1  3.435416E+07  2.126950E+03  1.260241E+04  1.548980E+05  7.286573E+04 -3.596633E+02
      2430   1  3.435434E+07  6.172812E+02 -1.538245E+03  1.650124E+05  7.120741E+04 -1.518516E+03
      2431   1  3.435527E+07  1.592039E+03  1.938737E+04  1.924035E+05  3.293519E+04 -2.779859E+03
      2432   1  2.747936E+07 -2.234190E+03  1.297033E+03  5.221681E+05 -1.239258E+04 -1.749778E+03
      2433   1  2.748230E+07 -1.142172E+03 -5.942066E+03  4.657043E+05 -3.352370E+04  1.637903E+03
      2434   1  2.748406E+07  2.730668E+03  9.307977E+03  4.345767E+05 -4.140131E+04  1.129138E+03
      2435   1  2.748160E+07 -3.574283E+03 -5.272420E+03  4.166286E+05 -3.405927E+04  2.783629E+02
      2436   1  2.748467E+07  2.676490E+03  8.722709E+03  4.067066E+05 -1.920337E+04  2.441865E+02
      2437   1  2.748165E+07 -3.913036E+03 -5.478734E+03  4.037039E+05 -1.125281E-03  6.891549E-06
      2438   1  2.748467E+07  2.676490E+03  8.722709E+03  4.067066E+05  1.920337E+04 -2.441865E+02
      2439   1  2.748160E+07 -3.574283E+03 -5.272420E+03  4.166286E+05  3.405927E+04 -2.783628E+02
      2440   1  2.748406E+07  2.730668E+03  9.307977E+03  4.345767E+05  4.140131E+04 -1.129138E+03
      2441   1  2.748230E+07 -1.142172E+03 -5.942066E+03  4.657043E+05  3.352370E+04 -1.637903E+03
      2442   1  2.747936E+07 -2.234190E+03  1.297033E+03  5.221681E+05  1.239258E+04  1.749778E+03
      2443   1  2.061175E+07  8.577387E+02  8.686762E+03  7.652201E+05 -6.746050E+03  1.846214E+02
      2444   1  2.060976E+07 -1.785029E+03 -6.605770E+03  7.017424E+05 -1.697857E+04 -1.856062E+03
      2445   1  2.061238E+07  4.347238E+03  5.394175E+03  6.582039E+05 -2.190088E+04  5.913770E+02
      2446   1  2.061103E+07 -6.789501E+02 -3.763606E+03  6.314440E+05 -1.937808E+04  7.326342E+01
      2447   1  2.061281E+07  3.169724E+03  6.035098E+03  6.166380E+05 -1.119093E+04  7.034346E+01
      2448   1  2.061127E+07 -6.461652E+02 -3.695437E+03  6.119188E+05 -7.886377E-04 -1.778154E-05
      2449   1  2.061281E+07  3.169724E+03  6.035098E+03  6.166380E+05  1.119092E+04 -7.034342E+01
      2450   1  2.061103E+07 -6.789501E+02 -3.763606E+03  6.314440E+05  1.937808E+04 -7.326344E+01
      2451   1  2.061238E+07  4.347238E+03  5.394175E+03  6.582039E+05  2.190087E+04 -5.913770E+02
      2452   1  2.060976E+07 -1.785029E+03 -6.605770E+03  7.017424E+05  1.697856E+04  1.856062E+03
      2453   1  2.061175E+07  8.577387E+02  8.686762E+03  7.652201E+05  6.746050E+03 -1.846214E+02
      2454   1  1.374019E+07 -1.001191E+03  1.712379E+03  9.318875E+05 -3.207211E+03 -7.582151E+02
      2455   1  1.374092E+07 -1.970372E+03 -2.862432E+03  8.649547E+05 -8.654787E+03 -5.319936E+01
      2456   1  1.374148E+07  7.972988E+02  3.085679E+03  8.166369E+05 -1.127365E+04 -1.542102E+03
      2457   1  1.374091E+07 -1.001343E+03 -3.822760E+03  7.843674E+05 -1.007321E+04  4.011182E+01
      2458   1  1.374240E+07  1.095259E+03  4.003740E+03  7.661604E+05 -6.027264E+03 -3.215592E+02
      2459   1  1.374100E+07 -1.529700E+03 -3.539055E+03  7.603137E+05 -4.976453E-04  1.800928E-05
      2460   1  1.374240E+07  1.095259E+03  4.003740E+03  7.661604E+05  6.027263E+03  3.215592E+02
      2461   1  1.374091E+07 -1.001343E+03 -3.822760E+03  7.843674E+05  1.007321E+04 -4.011180E+01
      2462   1  1.374148E+07  7.972988E+02  3.085679E+03  8.166369E+05  1.127365E+04  1.542102E+03
      2463   1  1.374092E+07 -1.970372E+03 -2.862432E+03  8.649547E+05  8.654787E+03  5.319936E+01
      2464   1  1.374019E+07 -1.001191E+03  1.712379E+03  9.318875E+05  3.207211E+03  7.582151E+02
      2465   1  6.870474E+06  3.734883E+02  2.691404E+03  1.034155E+06 -1.397557E+03 -1.396019E+02
      2466   1  6.869837E+06 -5.983467E+02 -2.264181E+03  9.655254E+05 -3.589688E+03 -1.506671E+03
      2467   1  6.870715E+06  1.321116E+03  1.903504E+03  9.144891E+05 -4.792477E+03 -3.160242E+02
      2468   1  6.870188E+06 -1.927296E+02 -1.648907E+03  8.799886E+05 -4.301977E+03 -1.296089E+03
      2469   1  6.870937E+06  1.496484E+03  1.703874E+03  8.599155E+05 -2.574675E+03 -1.181093E+02
      2470   1  6.870368E+06 -1.512588E+02 -1.399211E+03  8.534687E+05 -2.407877E-04 -1.104928E-05
      2471   1  6.870937E+06  1.496484E+03  1.703874E+03  8.599155E+05  2.574675E+03  1.181093E+02
      2472   1  6.870188E+06 -1.927297E+02 -1.648907E+03  8.799886E+05  4.301977E+03  1.296089E+03
      2473   1  6.870715E+06  1.321116E+03  1.903504E+03  9.144891E+05  4.792477E+03  3.160242E+02
      2474   1  6.869837E+06 -5.983467E+02 -2.264181E+03  9.655254E+05  3.589687E+03  1.506671E+03
      2475   1  6.870474E+06  3.734883E+02  2.691404E+03  1.034155E+06  1.397557E+03  1.396019E+02
      2476   1  7.513426E-03 -6.876953E-06 -5.013480E-06  1.064709E+06 -1.131814E-06 -6.020890E+02
      2477   1  7.513630E-03  9.074135E-07 -1.989705E-05  9.958524E+05 -3.875220E-06 -3.885897E+02
      2478   1  7.519005E-03  3.132745E-06  8.333081E-06  9.443190E+05 -5.481953E-06 -1.714401E+03
      2479   1  7.513333E-03 -6.776043E-06 -5.350531E-06  9.088621E+05 -4.805597E-06 -3.111358E+02
      2480   1  7.516176E-03  2.323607E-06  5.398582E-06  8.882845E+05 -3.032044E-06 -7.627943E+02
      2481   1  7.510992E-03 -8.475460E-06 -4.111211E-06  8.815568E+05 -2.667931E-07  1.401711E-05
      2482   1  7.513358E-03  1.782947E-06  4.737843E-06  8.882845E+05  2.782748E-06  7.627943E+02
      2483   1  7.507941E-03 -8.787254E-06 -5.868913E-06  9.088621E+05  4.600236E-06  3.111358E+02
      2484   1  7.511767E-03  2.095043E-06  8.194483E-06  9.443190E+05  5.292931E-06  1.714401E+03
      2485   1  7.504121E-03  8.231062E-07 -2.021149E-05  9.958524E+05  3.860954E-06  3.885897E+02
      2486   1  7.501735E-03 -7.848681E-06 -4.914380E-06  1.064709E+06  1.014121E-06  6.020890E+02
      2487   1 -6.870474E+06 -3.734883E+02 -2.691404E+03  1.034155E+06  1.397557E+03 -1.396019E+02
      2488   1 -6.869837E+06  5.983467E+02  2.264181E+03  9.655254E+05  3.589688E+03 -1.506671E+03
      2489   1 -6.870715E+06 -1.321116E+03 -1.903504E+03  9.144891E+05  4.792477E+03 -3.160242E+02
      2490   1 -6.870188E+06  1.927297E+02  1.648907E+03  8.799886E+05  4.301977E+03 -1.296089E+03
      2491   1 -6.870937E+06 -1.496484E+03 -1.703874E+03  8.599155E+05  2.574675E+03 -1.181093E+02
      2492   1 -6.870368E+06  1.512588E+02  1.399211E+03  8.534687E+05  2.403344E-04 -1.085234E-05
      2493   1 -6.870937E+06 -1.496484E+03 -1.703874E+03  8.599155E+05 -2.574675E+03  1.181093E+02
      2494   1 -6.870188E+06  1.927297E+02  1.648907E+03  8.799886E+05 -4.301977E+03  1.296089E+03
      2495   1 -6.870715E+06 -1.321116E+03 -1.903504E+03  9.144891E+05 -4.792477E+03  3.160242E+02
      2496   1 -6.869837E+06  5.983467E+02  2.264181E+03  9.655254E+05 -3.589687E+03  1.506671E+03
      2497   1 -6.870474E+06 -3.734883E+02 -2.691404E+03  1.034155E+06 -1.397557E+03  1.396019E+02
      2498   1 -1.374019E+07  1.001191E+03 -1.712378E+03  9.318875E+05  3.207211E+03 -7.582151E+02
      2499   1 -1.374092E+07  1.970372E+03  2.862432E+03  8.649547E+05  8.654787E+03 -5.319936E+01
      2500   1 -1.374148E+07 -7.972988E+02 -3.085679E+03  8.166369E+05  1.127365E+04 -1.542102E+03
      2501   1 -1.374091E+07  1.001343E+03  3.822760E+03  7.843674E+05  1.007321E+04  4.011181E+01
      2502   1 -1.374240E+07 -1.095259E+03 -4.003740E+03  7.661604E+05  6.027264E+03 -3.215592E+02
      2503   1 -1.374100E+07  1.529700E+03  3.539055E+03  7.603137E+05  4.975079E-04  1.807167E-05
      2504   1 -1.374240E+07 -1.095259E+03 -4.003740E+03  7.661604E+05 -6.027263E+03  3.215592E+02
      2505   1 -1.374091E+07  1.001343E+03  3.822760E+03  7.843674E+05 -1.007321E+04 -4.011180E+01
      2506   1 -1.374148E+07 -7.972988E+02 -3.085679E+03  8.166369E+05 -1.127365E+04  1.542102E+03
      2507   1 -1.374092E+07  1.970372E+03  2.862432E+03  8.649547E+05 -8.654787E+03  5.319935E+01
      2508   1 -1.374019E+07  1.001191E+03 -1.712378E+03  9.318875E+05 -3.207211E+03  7.582151E+02
      2509   1 -2.061175E+07 -8.577387E+02 -8.686762E+03  7.652201E+05  6.746050E+03  1.846214E+02
      2510   1 -2.060976E+07  1.785029E+03  6.605770E+03  7.017424E+05  1.697857E+04 -1.856062E+03
      2511   1 -2.061238E+07 -4.347238E+03 -5.394175E+03  6.582039E+05  2.190088E+04  5.913770E+02
      2512   1 -2.061103E+07  6.789501E+02  3.763606E+03  6.314440E+05  1.937808E+04  7.326342E+01
      2513   1 -2.061281E+07 -3.169724E+03 -6.035098E+03  6.166380E+05  1.119093E+04  7.034346E+01
      2514   1 -2.061127E+07  6.461652E+02  3.695437E+03  6.119188E+05  7.882691E-04 -1.745690E-05
      2515   1 -2.061281E+07 -3.169724E+03 -6.035098E+03  6.166380E+05 -1.119092E+04 -7.034342E+01
      2516   1 -2.061103E+07  6.789501E+02  3.763606E+03  6.314440E+05 -1.937808E+04 -7.326344E+01
      2517   1 -2.061238E+07 -4.347238E+03 -5.394175E+03  6.582039E+05 -2.190087E+04 -5.913770E+02
      2518   1 -2.060976E+07  1.785029E+03  6.605770E+03  7.017424E+05 -1.697856E+04  1.856062E+03
      2519   1 -2.061175E+07 -8.577387E+02 -8.686762E+03  7.652201E+05 -6.746050E+03 -1.846215E+02
      2520   1 -2.747936E+07  2.234190E+03 -1.297033E+03  5.221681E+05  1.239258E+04 -1.749778E+03
      2521   1 -2.748230E+07  1.142172E+03  5.942066E+03  4.657043E+05  3.352370E+04  1.637903E+03
      2522   1 -2.748406E+07 -2.730668E+03 -9.307977E+03  4.345767E+05  4.140131E+04  1.129138E+03
      2523   1 -2.748160E+07  3.574283E+03  5.272420E+03  4.166286E+05  3.405927E+04  2.783629E+02
      2524   1 -2.748467E+07 -2.676490E+03 -8.722709E+03  4.067066E+05  1.920337E+04  2.441865E+02
      2525   1 -2.748165E+07  3.913036E+03  5.478734E+03  4.037039E+05  1.125072E-03  6.398844E-06
      2526   1 -2.748467E+07 -2.676490E+03 -8.722709E+03  4.067066E+05 -1.920337E+04 -2.441865E+02
      2527   1 -2.748160E+07  3.574283E+03  5.272420E+03  4.166286E+05 -3.405927E+04 -2.783628E+02
      2528   1 -2.748406E+07 -2.730668E+03 -9.307977E+03  4.345767E+05 -4.140131E+04 -1.129138E+03
      2529   1 -2.748230E+07  1.142172E+03  5.942066E+03  4.657043E+05 -3.352370E+04 -1.637903E+03
      2530   1 -2.747936E+07  2.234190E+03 -1.297033E+03  5.221681E+05 -1.239258E+04  1.749778E+03
      2531   1 -3.435527E+07 -1.592039E+03 -1.938737E+04  1.924035E+05  3.293519E+04  2.779859E+03
      2532   1 -3.435434E+07 -6.172811E+02  1.538245E+03  1.650124E+05  7.120741E+04  1.518516E+03
      2533   1 -3.435416E+07 -2.126950E+03 -1.260241E+04  1.548980E+05  7.286574E+04  3.596633E+02
      2534   1 -3.435242E+07  1.142404E+03  4.624202E+03  1.479163E+05  5.668566E+04  3.202137E+02
      2535   1 -3.435468E+07 -2.848974E+03 -1.094542E+04  1.448081E+05  3.075863E+04  5.524994E+01
      2536   1 -3.435221E+07  1.531658E+03  5.393033E+03  1.434844E+05  1.520989E-03 -2.527279E-06
      2537   1 -3.435468E+07 -2.848973E+03 -1.094542E+04  1.448081E+05 -3.075863E+04 -5.524994E+01
      2538   1 -3.435242E+07  1.142404E+03  4.624202E+03  1.479163E+05 -5.668566E+04 -3.202137E+02
      2539   1 -3.435416E+07 -2.126950E+03 -1.260241E+04  1.548980E+05 -7.286573E+04 -3.596633E+02
      2540   1 -3.435434E+07 -6.172812E+02  1.538245E+03  1.650124E+05 -7.120741E+04 -1.518516E+03
      2541   1 -3.435527E+07 -1.592039E+03 -1.938737E+04  1.924035E+05 -3.293519E+04 -2.779859E+03
      2542   1  3.403681E+07 -5.506285E+03  3.157667E+03  1.917406E+05 -3.285721E+04  2.466334E+03
      2543   1  3.403812E+07  5.256718E+03  1.342757E+04  1.650034E+05 -7.115996E+04  1.670991E+03
      2544   1  3.403405E+07 -4.482332E+03 -2.406522E+03  1.544812E+05 -7.236768E+04  2.683813E+02
      2545   1  3.403709E+07  3.660468E+03  1.021937E+04  1.477931E+05 -5.664375E+04  3.979515E+02
      2546   1  3.403365E+07 -4.012999E+03 -3.720183E+03  1.444141E+05 -3.049132E+04  3.597242E+01
      2547   1  3.403703E+07  3.328282E+03  9.509725E+03  1.433177E+05 -1.523974E-03 -2.961406E-06
      2548   1  3.403365E+07 -4.012999E+03 -3.720183E+03  1.444141E+05  3.049132E+04 -3.597241E+01
      2549   1  3.403709E+07  3.660468E+03  1.021937E+04  1.477931E+05  5.664375E+04 -3.979516E+02
      2550   1  3.403405E+07 -4.482332E+03 -2.406523E+03  1.544812E+05  7.236768E+04 -2.683813E+02
      2551   1  3.403812E+07  5.256719E+03  1.342757E+04  1.650034E+05  7.115996E+04 -1.670991E+03
      2552   1  3.403681E+07 -5.506285E+03  3.157667E+03  1.917406E+05  3.285721E+04 -2.466334E+03
      2553   1  2.722431E+07 -4.704815E+03 -1.099226E+04  5.233325E+05 -1.214077E+04 -1.638569E+03
      2554   1  2.722884E+07  4.663868E+03  7.053255E+03  4.663822E+05 -3.358995E+04  1.648170E+03
      2555   1  2.722758E+07 -7.738431E+02 -2.724764E+03  4.353871E+05 -4.085689E+04  1.166925E+03
      2556   1  2.722883E+07  2.546802E+03  7.787981E+03  4.173648E+05 -3.403659E+04  3.306208E+02
      2557   1  2.722735E+07 -8.810960E+02 -3.025644E+03  4.074748E+05 -1.893012E+04  2.737335E+02
      2558   1  2.722897E+07  2.330207E+03  7.696924E+03  4.044415E+05 -1.127894E-03  6.450602E-06
      2559   1  2.722735E+07 -8.810959E+02 -3.025644E+03  4.074748E+05  1.893012E+04 -2.737335E+02
      2560   1  2.722883E+07  2.546802E+03  7.787981E+03  4.173648E+05  3.403659E+04 -3.306207E+02
      2561   1  2.722758E+07 -7.738432E+02 -2.724764E+03  4.353871E+05  4.085688E+04 -1.166925E+03
      2562   1  2.722884E+07  4.663868E+03  7.053255E+03  4.663822E+05  3.358995E+04 -1.648170E+03
      2563   1  2.722431E+07 -4.704815E+03 -1.099226E+04  5.233325E+05  1.214077E+04  1.638569E+03
      2564   1  2.042099E+07 -4.222757E+03 -1.687328E+03  7.637220E+05 -6.682851E+03  1.719169E+02
      2565   1  2.042043E+07  4.095225E+02  2.806625E+03  7.005079E+05 -1.693980E+04 -1.806787E+03
      2566   1  2.042062E+07 -4.790737E+02 -4.202142E+03  6.570620E+05 -2.148207E+04  6.963098E+02
      2567   1  2.042210E+07  1.617775E+03  5.595617E+03  6.301243E+05 -1.933213E+04  1.503646E+02
      2568   1  2.042046E+07 -1.854283E+03 -3.360476E+03  6.153487E+05 -1.097015E+04  1.317772E+02
      2569   1  2.042238E+07  1.677383E+03  5.737219E+03  6.105108E+05 -7.902565E-04 -1.747215E-05
      2570   1  2.042046E+07 -1.854283E+03 -3.360477E+03  6.153487E+05  1.097015E+04 -1.317772E+02
      2571   1  2.042210E+07  1.617775E+03  5.595617E+03  6.301243E+05  1.933213E+04 -1.503646E+02
      2572   1  2.042062E+07 -4.790737E+02 -4.202142E+03  6.570620E+05  2.148207E+04 -6.963098E+02
      2573   1  2.042043E+07  4.095225E+02  2.806625E+03  7.005079E+05  1.693980E+04  1.806787E+03
      2574   1  2.042099E+07 -4.222757E+03 -1.687328E+03  7.637220E+05  6.682851E+03 -1.719170E+02
      2575   1  1.361255E+07 -1.946846E+03 -4.554317E+03  9.338873E+05 -3.069884E+03 -7.049036E+02
      2576   1  1.361408E+07  1.386674E+03  3.891732E+03  8.666182E+05 -8.639902E+03  5.175909E+01
      2577   1  1.361307E+07 -6.731996E+02 -2.991229E+03  8.182920E+05 -1.097664E+04 -1.408179E+03
      2578   1  1.361440E+07  2.470007E+03  2.973589E+03  7.859686E+05 -1.001671E+04  1.503787E+02
      2579   1  1.361350E+07 -3.702606E+02 -1.896742E+03  7.678105E+05 -5.874850E+03 -2.453538E+02
      2580   1  1.361451E+07  2.012778E+03  3.316550E+03  7.618891E+05 -4.986847E-04  1.779070E-05
      2581   1  1.361350E+07 -3.702606E+02 -1.896742E+03  7.678105E+05  5.874849E+03  2.453538E+02
      2582   1  1.361440E+07  2.470007E+03  2.973589E+03  7.859686E+05  1.001671E+04 -1.503787E+02
      2583   1  1.361307E+07 -6.731997E+02 -2.991229E+03  8.182920E+05  1.097664E+04  1.408179E+03
      2584   1  1.361408E+07  1.386674E+03  3.891732E+03  8.666182E+05  8.639902E+03 -5.175910E+01
      2585   1  1.361255E+07 -1.946846E+03 -4.554317E+03  9.338873E+05  3.069884E+03  7.049036E+02
      2586   1  6.806947E+06 -1.460343E+03 -8.427260E+02  1.032071E+06 -1.371630E+03 -9.401743E+01
      2587   1  6.806798E+06  1.679991E+01  9.066605E+02  9.636540E+05 -3.569843E+03 -1.421044E+03
      2588   1  6.806848E+06 -4.383250E+02 -1.367421E+03  9.127583E+05 -4.634853E+03 -1.503248E+02
      2589   1  6.807272E+06  4.597194E+02  1.519732E+03  8.780392E+05 -4.276668E+03 -1.147832E+03
      2590   1  6.806857E+06 -3.454458E+02 -1.493785E+03  8.579459E+05 -2.492998E+03 -2.853184E+01
      2591   1  6.807462E+06  5.089740E+02  1.796886E+03  8.513917E+05 -2.415845E-04 -1.109129E-05
      2592   1  6.806857E+06 -3.454458E+02 -1.493785E+03  8.579459E+05  2.492998E+03  2.853187E+01
      2593   1  6.807272E+06  4.597194E+02  1.519732E+03  8.780392E+05  4.276668E+03  1.147832E+03
      2594   1  6.806848E+06 -4.383250E+02 -1.367421E+03  9.127583E+05  4.634853E+03  1.503248E+02
      2595   1  6.806798E+06  1.679991E+01  9.066605E+02  9.636540E+05  3.569842E+03  1.421044E+03
      2596   1  6.806947E+06 -1.460343E+03 -8.427260E+02  1.032071E+06  1.371630E+03  9.401743E+01
      2597   1  7.445182E-03 -4.502345E-06 -1.163133E-05  1.067049E+06 -8.580890E-07 -5.585338E+02
      2598   1  7.446475E-03  9.215994E-06 -8.886527E-06  9.978879E+05 -3.924928E-06 -2.542485E+02
      2599   1  7.450377E-03  4.687294E-06  1.821559E-06  9.463223E+05 -5.136586E-06 -1.544940E+03
      2600   1  7.446774E-03  1.486621E-06  5.844740E-06  9.108041E+05 -4.905837E-06 -1.740705E+02
      2601   1  7.446137E-03  4.547368E-06 -1.537984E-06  8.902843E+05 -2.955588E-06 -6.652824E+02
      2602   1  7.444297E-03 -1.664964E-07  7.360662E-06  8.834682E+05 -1.757816E-07  1.309371E-05
      2603   1  7.443743E-03  3.402581E-06 -1.692634E-06  8.902843E+05  2.645128E-06  6.652824E+02
      2604   1  7.441207E-03 -1.913613E-07  5.222873E-06  9.108041E+05  4.579996E-06  1.740705E+02
      2605   1  7.442642E-03  3.468943E-06  1.448904E-06  9.463223E+05  5.100164E-06  1.544940E+03
      2606   1  7.437313E-03  9.232890E-06 -8.688901E-06  9.978879E+05  3.911687E-06  2.542485E+02
      2607   1  7.433550E-03 -4.946735E-06 -1.164953E-05  1.067049E+06  8.614771E-07  5.585338E+02
      2608   1 -6.806947E+06  1.460343E+03  8.427260E+02  1.032071E+06  1.371630E+03 -9.401744E+01
      2609   1 -6.806798E+06 -1.679990E+01 -9.066605E+02  9.636540E+05  3.569843E+03 -1.421044E+03
      2610   1 -6.806848E+06  4.383250E+02  1.367421E+03  9.127583E+05  4.634853E+03 -1.503248E+02
      2611   1 -6.807272E+06 -4.597194E+02 -1.519732E+03  8.780392E+05  4.276668E+03 -1.147832E+03
      2612   1 -6.806857E+06  3.454458E+02  1.493785E+03  8.579459E+05  2.492998E+03 -2.853184E+01
      2613   1 -6.807462E+06 -5.089740E+02 -1.796886E+03  8.513917E+05  2.411063E-04 -1.056865E-05
      2614   1 -6.806857E+06  3.454458E+02  1.493785E+03  8.579459E+05 -2.492998E+03  2.853187E+01
      2615   1 -6.807272E+06 -4.597194E+02 -1.519732E+03  8.780392E+05 -4.276668E+03  1.147832E+03
      2616   1 -6.806848E+06  4.383250E+02  1.367421E+03  9.127583E+05 -4.634853E+03  1.503248E+02
      2617   1 -6.806798E+06 -1.679990E+01 -9.066605E+02  9.636540E+05 -3.569842E+03  1.421044E+03
      2618   1 -6.806947E+06  1.460343E+03  8.427260E+02  1.032071E+06 -1.371630E+03  9.401744E+01
      2619   1 -1.361255E+07  1.946846E+03  4.554317E+03  9.338873E+05  3.069884E+03 -7.049036E+02
      2620   1 -1.361408E+07 -1.386674E+03 -3.891732E+03  8.666182E+05  8.639902E+03  5.175910E+01
      2621   1 -1.361307E+07  6.731996E+02  2.991229E+03  8.182920E+05  1.097664E+04 -1.408179E+03
      2622   1 -1.361440E+07 -2.470007E+03 -2.973589E+03  7.859686E+05  1.001671E+04  1.503787E+02
      2623   1 -1.361350E+07  3.702606E+02  1.896742E+03  7.678105E+05  5.874850E+03 -2.453538E+02
      2624   1 -1.361451E+07 -2.012778E+03 -3.316550E+03  7.618891E+05  4.983774E-04  1.770165E-05
      2625   1 -1.361350E+07  3.702606E+02  1.896742E+03  7.678105E+05 -5.874849E+03  2.453538E+02
      2626   1 -1.361440E+07 -2.470007E+03 -2.973589E+03  7.859686E+05 -1.001671E+04 -1.503787E+02
      2627   1 -1.361307E+07  6.731997E+02  2.991229E+03  8.182920E+05 -1.097664E+04  1.408179E+03
      2628   1 -1.361408E+07 -1.386674E+03 -3.891732E+03  8.666182E+05 -8.639902E+03 -5.175910E+01
      2629   1 -1.361255E+07  1.946846E+03  4.554317E+03  9.338873E+05 -3.069884E+03  7.049036E+02
      2630   1 -2.042099E+07  4.222757E+03  1.687328E+03  7.637220E+05  6.682851E+03  1.719170E+02
      2631   1 -2.042043E+07 -4.095225E+02 -2.806625E+03  7.005079E+05  1.693980E+04 -1.806787E+03
      2632   1 -2.042062E+07  4.790737E+02  4.202142E+03  6.570620E+05  2.148207E+04  6.963098E+02
      2633   1 -2.042210E+07 -1.617775E+03 -5.595617E+03  6.301243E+05  1.933213E+04  1.503646E+02
      2634   1 -2.042046E+07  1.854283E+03  3.360476E+03  6.153487E+05  1.097015E+04  1.317772E+02
      2635   1 -2.042238E+07 -1.677383E+03 -5.737219E+03  6.105108E+05  7.903661E-04 -1.782028E-05
      2636   1 -2.042046E+07  1.854283E+03  3.360477E+03  6.153487E+05 -1.097015E+04 -1.317772E+02
      2637   1 -2.042210E+07 -1.617775E+03 -5.595617E+03  6.301243E+05 -1.933213E+04 -1.503646E+02
      2638   1 -2.042062E+07  4.790737E+02  4.202142E+03  6.570620E+05 -2.148207E+04 -6.963098E+02
      2639   1 -2.042043E+07 -4.095225E+02 -2.806625E+03  7.005079E+05 -1.693980E+04  1.806787E+03
      2640   1 -2.042099E+07  4.222757E+03  1.687328E+03  7.637220E+05 -6.682851E+03 -1.719170E+02
      2641   1 -2.722431E+07  4.704815E+03  1.099226E+04  5.233325E+05  1.214077E+04 -1.638569E+03
      2642   1 -2.722884E+07 -4.663868E+03 -7.053255E+03  4.663822E+05  3.358995E+04  1.648170E+03
      2643   1 -2.722758E+07  7.738431E+02  2.724764E+03  4.353871E+05  4.085689E+04  1.166925E+03
      2644   1 -2.722883E+07 -2.546802E+03 -7.787981E+03  4.173648E+05  3.403659E+04  3.306208E+02
      2645   1 -2.722735E+07  8.810960E+02  3.025644E+03  4.074748E+05  1.893012E+04  2.737335E+02
      2646   1 -2.722897E+07 -2.330207E+03 -7.696924E+03  4.044415E+05  1.127323E-03  6.062170E-06
      2647   1 -2.722735E+07  8.810959E+02  3.025644E+03  4.074748E+05 -1.893012E+04 -2.737335E+02
      2648   1 -2.722883E+07 -2.546802E+03 -7.787981E+03  4.173648E+05 -3.403659E+04 -3.306207E+02
      2649   1 -2.722758E+07  7.738432E+02  2.724764E+03  4.353871E+05 -4.085688E+04 -1.166925E+03
      2650   1 -2.722884E+07 -4.663868E+03 -7.053255E+03  4.663822E+05 -3.358995E+04 -1.648170E+03
      2651   1 -2.722431E+07  4.704815E+03  1.099226E+04  5.233325E+05 -1.214077E+04  1.638569E+03
      2652   1 -3.403681E+07  5.506285E+03 -3.157667E+03  1.917406E+05  3.285721E+04  2.466334E+03
      2653   1 -3.403812E+07 -5.256718E+03 -1.342757E+04  1.650034E+05  7.115996E+04  1.670991E+03
      2654   1 -3.403405E+07  4.482332E+03  2.406522E+03  1.544812E+05  7.236768E+04  2.683813E+02
      2655   1 -3.403709E+07 -3.660468E+03 -1.021937E+04  1.477931E+05  5.664375E+04  3.979515E+02
      2656   1 -3.403365E+07  4.012999E+03  3.720183E+03  1.444141E+05  3.049132E+04  3.597242E+01
      2657   1 -3.403703E+07 -3.328282E+03 -9.509725E+03  1.433177E+05  1.523682E-03 -3.379840E-06
      2658   1 -3.403365E+07  4.012999E+03  3.720183E+03  1.444141E+05 -3.049132E+04 -3.597241E+01
      2659   1 -3.403709E+07 -3.660468E+03 -1.021937E+04  1.477931E+05 -5.664375E+04 -3.979516E+02
      2660   1 -3.403405E+07  4.482332E+03  2.406523E+03  1.544812E+05 -7.236768E+04 -2.683813E+02
      2661   1 -3.403812E+07 -5.256719E+03 -1.342757E+04  1.650034E+05 -7.115996E+04 -1.670991E+03
      2662   1 -3.403681E+07  5.506285E+03 -3.157667E+03  1.917406E+05 -3.285721E+04 -2.466334E+03
      2663   1  3.371911E+07  5.474519E+01  1.616902E+04  1.922414E+05 -3.282874E+04  2.670371E+03
      2664   1  3.371870E+07  1.157846E+03  1.161566E+03  1.649835E+05 -7.093517E+04  1.532671E+03
      2665   1  3.371776E+07  6.748711E+02  9.995341E+03  1.547927E+05 -7.239105E+04  3.531791E+02
      2666   1  3.371671E+07 -5.515068E+02 -1.534727E+03  1.478576E+05 -5.635668E+04  3.523513E+02
      2667   1  3.371781E+07  1.321789E+03  8.690685E+03  1.446842E+05 -3.049716E+04  6.428956E+01
      2668   1  3.371631E+07 -9.268527E+02 -2.102817E+03  1.434027E+05 -1.522045E-03 -2.698290E-06
      2669   1  3.371781E+07  1.321789E+03  8.690685E+03  1.446842E+05  3.049716E+04 -6.428955E+01
      2670   1  3.371671E+07 -5.515068E+02 -1.534727E+03  1.478576E+05  5.635668E+04 -3.523513E+02
      2671   1  3.371776E+07  6.748710E+02  9.995341E+03  1.547927E+05  7.239104E+04 -3.531791E+02
      2672   1  3.371870E+07  1.157846E+03  1.161566E+03  1.649835E+05  7.093517E+04 -1.532671E+03
      2673   1  3.371911E+07  5.474517E+01  1.616902E+04  1.922414E+05  3.282874E+04 -2.670371E+03
      2674   1  2.697045E+07 -2.328795E+03 -7.120835E+02  5.224783E+05 -1.223456E+04 -1.688014E+03
      2675   1  2.697370E+07  1.281379E+02 -3.418008E+03  4.659566E+05 -3.329366E+04  1.645917E+03
      2676   1  2.697483E+07  2.334794E+03  7.425970E+03  4.348511E+05 -4.091921E+04  1.179414E+03
      2677   1  2.697284E+07 -2.197392E+03 -2.399272E+03  4.168638E+05 -3.374369E+04  3.487028E+02
      2678   1  2.697497E+07  2.286066E+03  7.158332E+03  4.069218E+05 -1.894218E+04  2.884815E+02
      2679   1  2.697269E+07 -2.497526E+03 -2.399951E+03  4.039000E+05 -1.126271E-03  6.583630E-06
      2680   1  2.697497E+07  2.286066E+03  7.158332E+03  4.069218E+05  1.894218E+04 -2.884815E+02
      2681   1  2.697284E+07 -2.197392E+03 -2.399272E+03  4.168638E+05  3.374368E+04 -3.487028E+02
      2682   1  2.697483E+07  2.334794E+03  7.425970E+03  4.348511E+05  4.091920E+04 -1.179414E+03
      2683   1  2.697370E+07  1.281379E+02 -3.418008E+03  4.659566E+05  3.329366E+04 -1.645917E+03
      2684   1  2.697045E+07 -2.328794E+03 -7.120836E+02  5.224783E+05  1.223456E+04  1.688014E+03
      2685   1  2.023021E+07 -2.641422E+02  6.712984E+03  7.647722E+05 -6.651027E+03  2.022714E+02
      2686   1  2.022856E+07 -1.628324E+03 -4.848312E+03  7.013987E+05 -1.674964E+04 -1.746080E+03
      2687   1  2.023064E+07  3.188909E+03  3.814829E+03  6.578663E+05 -2.149508E+04  7.130320E+02
      2688   1  2.022962E+07 -5.407102E+02 -1.783899E+03  6.310212E+05 -1.909737E+04  1.963462E+02
      2689   1  2.023069E+07  1.983651E+03  4.693572E+03  6.161727E+05 -1.096875E+04  1.504076E+02
      2690   1  2.022967E+07 -5.036116E+02 -1.554459E+03  6.114090E+05 -7.891148E-04 -1.759573E-05
      2691   1  2.023069E+07  1.983651E+03  4.693572E+03  6.161727E+05  1.096875E+04 -1.504076E+02
      2692   1  2.022962E+07 -5.407102E+02 -1.783899E+03  6.310212E+05  1.909737E+04 -1.963463E+02
      2693   1  2.023064E+07  3.188909E+03  3.814829E+03  6.578663E+05  2.149507E+04 -7.130320E+02
      2694   1  2.022856E+07 -1.628324E+03 -4.848312E+03  7.013987E+05  1.674964E+04  1.746080E+03
      2695   1  2.023021E+07 -2.641422E+02  6.712984E+03  7.647722E+05  6.651026E+03 -2.022714E+02
      2696   1  1.348573E+07 -9.542767E+02  6.772758E+02  9.324715E+05 -3.109819E+03 -7.007653E+02
      2697   1  1.348662E+07 -1.206028E+03 -1.536124E+03  8.655376E+05 -8.487030E+03  7.297990E+01
      2698   1  1.348684E+07  6.768062E+02  2.196208E+03  8.172028E+05 -1.097616E+04 -1.337395E+03
      2699   1  1.348648E+07 -2.341486E+02 -2.266996E+03  7.848682E+05 -9.859593E+03  2.087735E+02
      2700   1  1.348745E+07  9.812895E+02  3.290422E+03  7.666158E+05 -5.866592E+03 -2.096329E+02
      2701   1  1.348643E+07 -7.320821E+02 -1.869022E+03  7.607296E+05 -4.979021E-04  1.794562E-05
      2702   1  1.348745E+07  9.812895E+02  3.290422E+03  7.666158E+05  5.866591E+03  2.096329E+02
      2703   1  1.348648E+07 -2.341486E+02 -2.266996E+03  7.848682E+05  9.859592E+03 -2.087735E+02
      2704   1  1.348684E+07  6.768062E+02  2.196208E+03  8.172028E+05  1.097616E+04  1.337396E+03
      2705   1  1.348662E+07 -1.206028E+03 -1.536124E+03  8.655376E+05  8.487030E+03 -7.297990E+01
      2706   1  1.348573E+07 -9.542767E+02  6.772758E+02  9.324715E+05  3.109818E+03  7.007653E+02
      2707   1  6.743323E+06 -3.811561E+01  2.022618E+03  1.033538E+06 -1.358905E+03 -8.110541E+01
      2708   1  6.742803E+06 -5.853279E+02 -1.669523E+03  9.650342E+05 -3.496845E+03 -1.338289E+03
      2709   1  6.743490E+06  8.887761E+02  1.371270E+03  9.140032E+05 -4.634381E+03 -9.406890E+01
      2710   1  6.743067E+06 -1.903891E+02 -9.598116E+02  8.793811E+05 -4.189766E+03 -1.070597E+03
      2711   1  6.743563E+06  1.041505E+03  1.268782E+03  8.592309E+05 -2.489335E+03  8.695120E+00
      2712   1  6.743171E+06 -1.476030E+02 -6.537256E+02  8.527324E+05 -2.408027E-04 -1.086706E-05
      2713   1  6.743563E+06  1.041505E+03  1.268782E+03  8.592309E+05  2.489335E+03 -8.695096E+00
      2714   1  6.743067E+06 -1.903891E+02 -9.598116E+02  8.793811E+05  4.189766E+03  1.070597E+03
      2715   1  6.743490E+06  8.887761E+02  1.371270E+03  9.140032E+05  4.634381E+03  9.406889E+01
      2716   1  6.742803E+06 -5.853279E+02 -1.669523E+03  9.650342E+05  3.496845E+03  1.338289E+03
      2717   1  6.743323E+06 -3.811561E+01  2.022618E+03  1.033538E+06  1.358905E+03  8.110541E+01
      2718   1  7.374735E-03 -6.776180E-06 -5.477990E-06  1.065406E+06 -1.044347E-06 -5.382765E+02
      2719   1  7.374918E-03  2.400657E-06 -1.814596E-05  9.965692E+05 -3.772997E-06 -2.192493E+02
      2720   1  7.380097E-03  3.984351E-06  7.416440E-06  9.450099E+05 -5.273137E-06 -1.459493E+03
      2721   1  7.374023E-03 -6.712188E-06 -4.020050E-06  9.094742E+05 -4.784198E-06 -9.560068E+01
      2722   1  7.377180E-03  2.176860E-06  4.120623E-06  8.888409E+05 -2.910985E-06 -6.183720E+02
      2723   1  7.372473E-03 -8.022054E-06 -1.656178E-06  8.820662E+05  2.853164E-08  1.304028E-05
      2724   1  7.373914E-03  1.324851E-06  3.332676E-06  8.888409E+05  2.600837E-06  6.183720E+02
      2725   1  7.369343E-03 -7.904949E-06 -3.691094E-06  9.094742E+05  4.501980E-06  9.560070E+01
      2726   1  7.373643E-03  3.986559E-06  7.622114E-06  9.450098E+05  5.143987E-06  1.459493E+03
      2727   1  7.365428E-03  1.629298E-06 -1.798424E-05  9.965692E+05  3.659182E-06  2.192493E+02
      2728   1  7.363487E-03 -5.874821E-06 -5.298126E-06  1.065406E+06  1.101945E-06  5.382765E+02
      2729   1 -6.743323E+06  3.811562E+01 -2.022618E+03  1.033538E+06  1.358905E+03 -8.110542E+01
      2730   1 -6.742803E+06  5.853279E+02  1.669523E+03  9.650342E+05  3.496845E+03 -1.338289E+03
      2731   1 -6.743490E+06 -8.887761E+02 -1.371270E+03  9.140032E+05  4.634381E+03 -9.406890E+01
      2732   1 -6.743067E+06  1.903891E+02  9.598116E+02  8.793811E+05  4.189766E+03 -1.070597E+03
      2733   1 -6.743563E+06 -1.041505E+03 -1.268782E+03  8.592309E+05  2.489335E+03  8.695120E+00
      2734   1 -6.743171E+06  1.476030E+02  6.537256E+02  8.527324E+05  2.405546E-04 -1.079648E-05
      2735   1 -6.743563E+06 -1.041505E+03 -1.268782E+03  8.592309E+05 -2.489335E+03 -8.695096E+00
      2736   1 -6.743067E+06  1.903891E+02  9.598116E+02  8.793811E+05 -4.189766E+03  1.070597E+03
      2737   1 -6.743490E+06 -8.887761E+02 -1.371270E+03  9.140032E+05 -4.634381E+03  9.406889E+01
      2738   1 -6.742803E+06  5.853279E+02  1.669523E+03  9.650342E+05 -3.496845E+03  1.338289E+03
      2739   1 -6.743323E+06  3.811561E+01 -2.022618E+03  1.033538E+06 -1.358905E+03  8.110542E+01
      2740   1 -1.348573E+07  9.542767E+02 -6.772757E+02  9.324715E+05  3.109819E+03 -7.007653E+02
      2741   1 -1.348662E+07  1.206028E+03  1.536124E+03  8.655376E+05  8.487030E+03  7.297990E+01
      2742   1 -1.348684E+07 -6.768062E+02 -2.196208E+03  8.172028E+05  1.097616E+04 -1.337396E+03
      2743   1 -1.348648E+07  2.341486E+02  2.266996E+03  7.848683E+05  9.859593E+03  2.087735E+02
      2744   1 -1.348745E+07 -9.812895E+02 -3.290422E+03  7.666158E+05  5.866592E+03 -2.096329E+02
      2745   1 -1.348643E+07  7.320820E+02  1.869022E+03  7.607296E+05  4.975571E-04  1.786348E-05
      2746   1 -1.348745E+07 -9.812895E+02 -3.290422E+03  7.666158E+05 -5.866591E+03  2.096329E+02
      2747   1 -1.348648E+07  2.341486E+02  2.266996E+03  7.848682E+05 -9.859592E+03 -2.087735E+02
      2748   1 -1.348684E+07 -6.768062E+02 -2.196208E+03  8.172028E+05 -1.097616E+04  1.337396E+03
      2749   1 -1.348662E+07  1.206028E+03  1.536124E+03  8.655376E+05 -8.487030E+03 -7.297991E+01
      2750   1 -1.348573E+07  9.542767E+02 -6.772757E+02  9.324715E+05 -3.109818E+03  7.007653E+02
      2751   1 -2.023021E+07  2.641422E+02 -6.712984E+03  7.647722E+05  6.651027E+03  2.022714E+02
      2752   1 -2.022856E+07  1.628324E+03  4.848312E+03  7.013987E+05  1.674964E+04 -1.746080E+03
      2753   1 -2.023064E+07 -3.188909E+03 -3.814829E+03  6.578663E+05  2.149508E+04  7.130320E+02
      2754   1 -2.022962E+07  5.407102E+02  1.783899E+03  6.310212E+05  1.909737E+04  1.963462E+02
      2755   1 -2.023069E+07 -1.983651E+03 -4.693572E+03  6.161727E+05  1.096875E+04  1.504076E+02
      2756   1 -2.022967E+07  5.036117E+02  1.554459E+03  6.114090E+05  7.888849E-04 -1.725856E-05
      2757   1 -2.023069E+07 -1.983651E+03 -4.693572E+03  6.161727E+05 -1.096875E+04 -1.504076E+02
      2758   1 -2.022962E+07  5.407102E+02  1.783899E+03  6.310212E+05 -1.909737E+04 -1.963463E+02
      2759   1 -2.023064E+07 -3.188909E+03 -3.814829E+03  6.578663E+05 -2.149507E+04 -7.130320E+02
      2760   1 -2.022856E+07  1.628324E+03  4.848312E+03  7.013987E+05 -1.674964E+04  1.746080E+03
      2761   1 -2.023021E+07  2.641422E+02 -6.712984E+03  7.647722E+05 -6.651026E+03 -2.022715E+02
      2762   1 -2.697045E+07  2.328794E+03  7.120835E+02  5.224783E+05  1.223456E+04 -1.688014E+03
      2763   1 -2.697370E+07 -1.281379E+02  3.418008E+03  4.659566E+05  3.329366E+04  1.645917E+03
      2764   1 -2.697483E+07 -2.334794E+03 -7.425970E+03  4.348511E+05  4.091921E+04  1.179414E+03
      2765   1 -2.697284E+07  2.197392E+03  2.399272E+03  4.168638E+05  3.374369E+04  3.487028E+02
      2766   1 -2.697497E+07 -2.286066E+03 -7.158332E+03  4.069218E+05  1.894218E+04  2.884815E+02
      2767   1 -2.697269E+07  2.497526E+03  2.399951E+03  4.039000E+05  1.125898E-03  5.530501E-06
      2768   1 -2.697497E+07 -2.286066E+03 -7.158332E+03  4.069218E+05 -1.894218E+04 -2.884815E+02
      2769   1 -2.697284E+07  2.197392E+03  2.399272E+03  4.168638E+05 -3.374368E+04 -3.487028E+02
      2770   1 -2.697483E+07 -2.334794E+03 -7.425970E+03  4.348511E+05 -4.091920E+04 -1.179414E+03
      2771   1 -2.697370E+07 -1.281379E+02  3.418008E+03  4.659566E+05 -3.329366E+04 -1.645917E+03
      2772   1 -2.697045E+07  2.328794E+03  7.120836E+02  5.224783E+05 -1.223456E+04  1.688014E+03
      2773   1 -3.371911E+07 -5.474518E+01 -1.616902E+04  1.922414E+05  3.282874E+04  2.670371E+03
      2774   1 -3.371870E+07 -1.157846E+03 -1.161566E+03  1.649835E+05  7.093517E+04  1.532671E+03
      2775   1 -3.371776E+07 -6.748710E+02 -9.995341E+03  1.547927E+05  7.239105E+04  3.531791E+02
      2776   1 -3.371671E+07  5.515068E+02  1.534727E+03  1.478576E+05  5.635668E+04  3.523513E+02
      2777   1 -3.371781E+07 -1.321789E+03 -8.690685E+03  1.446842E+05  3.049716E+04  6.428955E+01
      2778   1 -3.371631E+07  9.268527E+02  2.102817E+03  1.434027E+05  1.521610E-03 -2.963724E-06
      2779   1 -3.371781E+07 -1.321789E+03 -8.690685E+03  1.446842E+05 -3.049716E+04 -6.428955E+01
      2780   1 -3.371671E+07  5.515068E+02  1.534727E+03  1.478576E+05 -5.635668E+04 -3.523513E+02
      2781   1 -3.371776E+07 -6.748709E+02 -9.995341E+03  1.547927E+05 -7.239104E+04 -3.531791E+02
      2782   1 -3.371870E+07 -1.157846E+03 -1.161566E+03  1.649835E+05 -7.093517E+04 -1.532671E+03
      2783   1 -3.371911E+07 -5.474517E+01 -1.616902E+04  1.922414E+05 -3.282874E+04 -2.670371E+03
      2784   1  3.340064E+07 -4.253220E+03  5.460458E+03  1.918491E+05 -3.280030E+04  2.466052E+03
      2785   1  3.340174E+07  4.625168E+03  1.119324E+04  1.650270E+05 -7.098160E+04  1.616654E+03
      2786   1  3.339828E+07 -3.331279E+03  4.962756E+01  1.545708E+05 -7.219328E+04  2.865776E+02
      2787   1  3.340051E+07  3.040325E+03  8.336188E+03  1.478344E+05 -5.640278E+04  3.899570E+02
      2788   1  3.339783E+07 -2.826498E+03 -1.039439E+03  1.444930E+05 -3.039075E+04  4.686574E+01
      2789   1  3.340030E+07  2.709335E+03  7.763595E+03  1.433579E+05 -1.523728E-03 -2.987262E-06
      2790   1  3.339783E+07 -2.826498E+03 -1.039439E+03  1.444930E+05  3.039074E+04 -4.686574E+01
      2791   1  3.340051E+07  3.040325E+03  8.336188E+03  1.478344E+05  5.640278E+04 -3.899571E+02
      2792   1  3.339828E+07 -3.331279E+03  4.962723E+01  1.545708E+05  7.219327E+04 -2.865776E+02
      2793   1  3.340174E+07  4.625168E+03  1.119324E+04  1.650270E+05  7.098160E+04 -1.616654E+03
      2794   1  3.340064E+07 -4.253220E+03  5.460459E+03  1.918490E+05  3.280030E+04 -2.466052E+03
      2795   1  2.671554E+07 -4.408064E+03 -9.083215E+03  5.230750E+05 -1.212439E+04 -1.621014E+03
      2796   1  2.671987E+07  3.621202E+03  5.154667E+03  4.662357E+05 -3.339390E+04  1.629892E+03
      2797   1  2.671902E+07 -4.142919E+02 -8.128758E+02  4.352292E+05 -4.070148E+04  1.171201E+03
      2798   1  2.671965E+07  1.490739E+03  6.099339E+03  4.172059E+05 -3.379711E+04  3.552825E+02
      2799   1  2.671872E+07 -5.180746E+02 -9.175151E+02  4.072934E+05 -1.883464E+04  2.894206E+02
      2800   1  2.671965E+07  1.258607E+03  6.116892E+03  4.042581E+05 -1.127527E-03  6.432680E-06
      2801   1  2.671872E+07 -5.180746E+02 -9.175151E+02  4.072934E+05  1.883464E+04 -2.894207E+02
      2802   1  2.671965E+07  1.490739E+03  6.099339E+03  4.172059E+05  3.379711E+04 -3.552824E+02
      2803   1  2.671902E+07 -4.142920E+02 -8.128757E+02  4.352292E+05  4.070148E+04 -1.171201E+03
      2804   1  2.671987E+07  3.621202E+03  5.154667E+03  4.662357E+05  3.339389E+04 -1.629892E+03
      2805   1  2.671554E+07 -4.408064E+03 -9.083215E+03  5.230750E+05  1.212439E+04  1.621014E+03
      2806   1  2.003925E+07 -3.292256E+03 -1.535140E+02  7.640002E+05 -6.634746E+03  1.798790E+02
      2807   1  2.003859E+07  2.112841E+02  1.549139E+03  7.007980E+05 -1.678469E+04 -1.739582E+03
      2808   1  2.003909E+07  3.105584E+02 -2.570945E+03  6.573482E+05 -2.133565E+04  7.299061E+02
      2809   1  2.004006E+07  1.378099E+03  4.490802E+03  6.304209E+05 -1.912891E+04  2.039643E+02
      2810   1  2.003884E+07 -1.001525E+03 -1.579529E+03  6.156162E+05 -1.088455E+04  1.628587E+02
      2811   1  2.004022E+07  1.437549E+03  4.724710E+03  6.107869E+05 -7.904384E-04 -1.751620E-05
      2812   1  2.003884E+07 -1.001525E+03 -1.579529E+03  6.156162E+05  1.088455E+04 -1.628587E+02
      2813   1  2.004006E+07  1.378099E+03  4.490802E+03  6.304209E+05  1.912891E+04 -2.039643E+02
      2814   1  2.003909E+07  3.105584E+02 -2.570945E+03  6.573482E+05  2.133565E+04 -7.299061E+02
      2815   1  2.003859E+07  2.112841E+02  1.549139E+03  7.007980E+05  1.678469E+04  1.739582E+03
      2816   1  2.003925E+07 -3.292256E+03 -1.535139E+02  7.640002E+05  6.634746E+03 -1.798790E+02
      2817   1  1.335819E+07 -1.863991E+03 -3.603772E+03  9.334307E+05 -3.051905E+03 -6.801382E+02
      2818   1  1.335964E+07  7.911457E+02  2.902463E+03  8.662857E+05 -8.520602E+03  9.402958E+01
      2819   1  1.335884E+07 -5.612427E+02 -1.979660E+03  8.179699E+05 -1.086518E+04 -1.307522E+03
      2820   1  1.335982E+07  1.824591E+03  2.138684E+03  7.856237E+05 -9.871021E+03  2.253943E+02
      2821   1  1.335920E+07 -2.699918E+02 -7.953356E+02  7.674214E+05 -5.809863E+03 -1.932824E+02
      2822   1  1.335984E+07  1.365907E+03  2.541466E+03  7.614970E+05 -4.986033E-04  1.729077E-05
      2823   1  1.335920E+07 -2.699918E+02 -7.953356E+02  7.674214E+05  5.809862E+03  1.932823E+02
      2824   1  1.335982E+07  1.824591E+03  2.138684E+03  7.856237E+05  9.871020E+03 -2.253943E+02
      2825   1  1.335884E+07 -5.612427E+02 -1.979660E+03  8.179699E+05  1.086518E+04  1.307522E+03
      2826   1  1.335964E+07  7.911457E+02  2.902463E+03  8.662857E+05  8.520602E+03 -9.402959E+01
      2827   1  1.335819E+07 -1.863991E+03 -3.603772E+03  9.334307E+05  3.051905E+03  6.801382E+02
      2828   1  6.679696E+06 -1.119728E+03 -3.128704E+02  1.032471E+06 -1.352165E+03 -7.694139E+01
      2829   1  6.679514E+06 -2.636049E+01  4.886821E+02  9.641003E+05 -3.508110E+03 -1.329873E+03
      2830   1  6.679663E+06 -1.466191E+02 -8.047053E+02  9.131931E+05 -4.575173E+03 -6.056586E+01
      2831   1  6.679913E+06  3.989428E+02  1.165349E+03  8.784785E+05 -4.198290E+03 -1.034755E+03
      2832   1  6.679630E+06 -4.108053E+01 -8.659765E+02  8.583506E+05 -2.458680E+03  2.773783E+01
      2833   1  6.680053E+06  4.482362E+02  1.472758E+03  8.517976E+05 -2.414398E-04 -1.084695E-05
      2834   1  6.679630E+06 -4.108052E+01 -8.659765E+02  8.583506E+05  2.458679E+03 -2.773781E+01
      2835   1  6.679913E+06  3.989428E+02  1.165349E+03  8.784785E+05  4.198289E+03  1.034755E+03
      2836   1  6.679663E+06 -1.466191E+02 -8.047053E+02  9.131931E+05  4.575173E+03  6.056586E+01
      2837   1  6.679514E+06 -2.636049E+01  4.886821E+02  9.641003E+05  3.508109E+03  1.329873E+03
      2838   1  6.679696E+06 -1.119728E+03 -3.128704E+02  1.032471E+06  1.352165E+03  7.694139E+01
      2839   1  7.306236E-03 -5.226922E-06 -1.029450E-05  1.066517E+06 -9.515301E-07 -5.269475E+02
      2840   1  7.307491E-03  8.969874E-06 -9.925558E-06  9.974916E+05 -3.924928E-06 -1.895124E+02
      2841   1  7.311138E-03  3.991843E-06  2.620007E-06  9.459402E+05 -5.297255E-06 -1.419713E+03
      2842   1  7.306880E-03 -7.258233E-07  3.989475E-06  9.103920E+05 -4.550216E-06 -7.187493E+01
      2843   1  7.306695E-03  2.776304E-06 -8.526527E-07  8.898184E+05 -2.663172E-06 -5.935299E+02
      2844   1  7.304873E-03 -1.411313E-06  5.942583E-06  8.829982E+05 -3.127892E-07  1.335589E-05
      2845   1  7.304326E-03  2.780778E-06 -8.615531E-07  8.898184E+05  2.585836E-06  5.935299E+02
      2846   1  7.301904E-03 -1.021931E-06  4.019788E-06  9.103920E+05  4.486555E-06  7.187495E+01
      2847   1  7.303552E-03  3.618779E-06  2.267895E-06  9.459402E+05  4.892462E-06  1.419713E+03
      2848   1  7.297985E-03  8.648699E-06 -9.488683E-06  9.974916E+05  3.587497E-06  1.895124E+02
      2849   1  7.293931E-03 -4.661372E-06 -1.099450E-05  1.066517E+06  6.006801E-07  5.269475E+02
      2850   1 -6.679696E+06  1.119728E+03  3.128704E+02  1.032471E+06  1.352165E+03 -7.694140E+01
      2851   1 -6.679514E+06  2.636050E+01 -4.886821E+02  9.641003E+05  3.508110E+03 -1.329873E+03
      2852   1 -6.679663E+06  1.466191E+02  8.047052E+02  9.131931E+05  4.575173E+03 -6.056586E+01
      2853   1 -6.679913E+06 -3.989428E+02 -1.165349E+03  8.784785E+05  4.198290E+03 -1.034755E+03
      2854   1 -6.679630E+06  4.108052E+01  8.659765E+02  8.583506E+05  2.458680E+03  2.773783E+01
      2855   1 -6.680053E+06 -4.482362E+02 -1.472758E+03  8.517976E+05  2.413058E-04 -1.116791E-05
      2856   1 -6.679630E+06  4.108051E+01  8.659765E+02  8.583506E+05 -2.458679E+03 -2.773781E+01
      2857   1 -6.679913E+06 -3.989428E+02 -1.165349E+03  8.784785E+05 -4.198289E+03  1.034755E+03
      2858   1 -6.679663E+06  1.466191E+02  8.047053E+02  9.131931E+05 -4.575173E+03  6.056585E+01
      2859   1 -6.679514E+06  2.636050E+01 -4.886821E+02  9.641003E+05 -3.508109E+03  1.329873E+03
      2860   1 -6.679696E+06  1.119728E+03  3.128704E+02  1.032471E+06 -1.352165E+03  7.694140E+01
      2861   1 -1.335819E+07  1.863991E+03  3.603772E+03  9.334307E+05  3.051905E+03 -6.801382E+02
      2862   1 -1.335964E+07 -7.911457E+02 -2.902463E+03  8.662857E+05  8.520602E+03  9.402959E+01
      2863   1 -1.335884E+07  5.612427E+02  1.979660E+03  8.179699E+05  1.086518E+04 -1.307522E+03
      2864   1 -1.335982E+07 -1.824591E+03 -2.138684E+03  7.856237E+05  9.871021E+03  2.253943E+02
      2865   1 -1.335920E+07  2.699918E+02  7.953356E+02  7.674214E+05  5.809863E+03 -1.932824E+02
      2866   1 -1.335984E+07 -1.365907E+03 -2.541466E+03  7.614970E+05  4.984343E-04  1.659681E-05
      2867   1 -1.335920E+07  2.699918E+02  7.953356E+02  7.674214E+05 -5.809862E+03  1.932823E+02
      2868   1 -1.335982E+07 -1.824591E+03 -2.138684E+03  7.856237E+05 -9.871020E+03 -2.253943E+02
      2869   1 -1.335884E+07  5.612427E+02  1.979660E+03  8.179699E+05 -1.086518E+04  1.307522E+03
      2870   1 -1.335964E+07 -7.911457E+02 -2.902463E+03  8.662857E+05 -8.520602E+03 -9.402959E+01
      2871   1 -1.335819E+07  1.863991E+03  3.603772E+03  9.334307E+05 -3.051905E+03  6.801382E+02
      2872   1 -2.003925E+07  3.292256E+03  1.535140E+02  7.640002E+05  6.634746E+03  1.798790E+02
      2873   1 -2.003859E+07 -2.112841E+02 -1.549139E+03  7.007980E+05  1.678469E+04 -1.739582E+03
      2874   1 -2.003909E+07 -3.105584E+02  2.570945E+03  6.573482E+05  2.133565E+04  7.299061E+02
      2875   1 -2.004006E+07 -1.378099E+03 -4.490802E+03  6.304209E+05  1.912891E+04  2.039643E+02
      2876   1 -2.003884E+07  1.001525E+03  1.579529E+03  6.156162E+05  1.088455E+04  1.628587E+02
      2877   1 -2.004022E+07 -1.437549E+03 -4.724710E+03  6.107869E+05  7.903460E-04 -1.742819E-05
      2878   1 -2.003884E+07  1.001525E+03  1.579529E+03  6.156162E+05 -1.088455E+04 -1.628587E+02
      2879   1 -2.004006E+07 -1.378099E+03 -4.490802E+03  6.304209E+05 -1.912891E+04 -2.039643E+02
      2880   1 -2.003909E+07 -3.105584E+02  2.570945E+03  6.573482E+05 -2.133565E+04 -7.299061E+02
      2881   1 -2.003859E+07 -2.112841E+02 -1.549139E+03  7.007980E+05 -1.678469E+04  1.739582E+03
      2882   1 -2.003925E+07  3.292256E+03  1.535139E+02  7.640002E+05 -6.634746E+03 -1.798790E+02
      2883   1 -2.671554E+07  4.408064E+03  9.083215E+03  5.230750E+05  1.212439E+04 -1.621014E+03
      2884   1 -2.671987E+07 -3.621202E+03 -5.154667E+03  4.662357E+05  3.339390E+04  1.629892E+03
      2885   1 -2.671902E+07  4.142919E+02  8.128758E+02  4.352292E+05  4.070148E+04  1.171201E+03
      2886   1 -2.671965E+07 -1.490739E+03 -6.099339E+03  4.172059E+05  3.379711E+04  3.552825E+02
      2887   1 -2.671872E+07  5.180746E+02  9.175151E+02  4.072934E+05  1.883464E+04  2.894206E+02
      2888   1 -2.671965E+07 -1.258607E+03 -6.116892E+03  4.042581E+05  1.127392E-03  5.614491E-06
      2889   1 -2.671872E+07  5.180746E+02  9.175151E+02  4.072934E+05 -1.883464E+04 -2.894207E+02
      2890   1 -2.671965E+07 -1.490739E+03 -6.099339E+03  4.172059E+05 -3.379711E+04 -3.552824E+02
      2891   1 -2.671902E+07  4.142920E+02  8.128757E+02  4.352292E+05 -4.070148E+04 -1.171201E+03
      2892   1 -2.671987E+07 -3.621202E+03 -5.154667E+03  4.662357E+05 -3.339389E+04 -1.629892E+03
      2893   1 -2.671554E+07  4.408064E+03  9.083215E+03  5.230750E+05 -1.212439E+04  1.621014E+03
      2894   1 -3.340064E+07  4.253220E+03 -5.460458E+03  1.918491E+05  3.280030E+04  2.466052E+03
      2895   1 -3.340174E+07 -4.625168E+03 -1.119324E+04  1.650270E+05  7.098160E+04  1.616654E+03
      2896   1 -3.339828E+07  3.331279E+03 -4.962757E+01  1.545708E+05  7.219328E+04  2.865777E+02
      2897   1 -3.340051E+07 -3.040325E+03 -8.336188E+03  1.478344E+05  5.640278E+04  3.899570E+02
      2898   1 -3.339783E+07  2.826498E+03  1.039439E+03  1.444930E+05  3.039075E+04  4.686574E+01
      2899   1 -3.340030E+07 -2.709335E+03 -7.763595E+03  1.433579E+05  1.523429E-03 -2.504988E-06
      2900   1 -3.339783E+07  2.826498E+03  1.039439E+03  1.444930E+05 -3.039074E+04 -4.686574E+01
      2901   1 -3.340051E+07 -3.040325E+03 -8.336188E+03  1.478344E+05 -5.640278E+04 -3.899571E+02
      2902   1 -3.339828E+07  3.331279E+03 -4.962724E+01  1.545708E+05 -7.219327E+04 -2.865776E+02
      2903   1 -3.340174E+07 -4.625168E+03 -1.119324E+04  1.650270E+05 -7.098160E+04 -1.616654E+03
      2904   1 -3.340064E+07  4.253220E+03 -5.460459E+03  1.918490E+05 -3.280030E+04 -2.466052E+03
      2905   1  3.308277E+07 -8.262418E+02  1.398301E+04  1.921418E+05 -3.281003E+04  2.583003E+03
      2906   1  3.308273E+07  1.628173E+03  2.909179E+03  1.649733E+05 -7.088694E+04  1.521641E+03
      2907   1  3.308140E+07 -1.548676E+02  8.157560E+03  1.547376E+05 -7.226372E+04  3.339084E+02
      2908   1  3.308092E+07 -3.522504E+01  3.605053E+02  1.478416E+05 -5.628376E+04  3.553952E+02
      2909   1  3.308133E+07  4.485328E+02  7.020133E+03  1.446347E+05 -3.042122E+04  6.109601E+01
      2910   1  3.308053E+07 -3.986450E+02 -1.295397E+02  1.433818E+05 -1.522255E-03 -2.982626E-06
      2911   1  3.308133E+07  4.485328E+02  7.020133E+03  1.446347E+05  3.042122E+04 -6.109601E+01
      2912   1  3.308092E+07 -3.522499E+01  3.605054E+02  1.478416E+05  5.628376E+04 -3.553953E+02
      2913   1  3.308140E+07 -1.548677E+02  8.157560E+03  1.547376E+05  7.226372E+04 -3.339083E+02
      2914   1  3.308273E+07  1.628173E+03  2.909179E+03  1.649733E+05  7.088694E+04 -1.521641E+03
      2915   1  3.308277E+07 -8.262418E+02  1.398301E+04  1.921418E+05  3.281003E+04 -2.583003E+03
      2916   1  2.646140E+07 -2.511538E+03 -2.091712E+03  5.226163E+05 -1.219041E+04 -1.647487E+03
      2917   1  2.646486E+07  8.526533E+02 -1.805527E+03  4.660577E+05 -3.326470E+04  1.612503E+03
      2918   1  2.646566E+07  1.944540E+03  6.008076E+03  4.349840E+05 -4.078765E+04  1.161209E+03
      2919   1  2.646414E+07 -1.396980E+03 -6.945985E+02  4.169947E+05 -3.367715E+04  3.503556E+02
      2920   1  2.646569E+07  1.892907E+03  5.870094E+03  4.070588E+05 -1.886682E+04  2.891997E+02
      2921   1  2.646397E+07 -1.676485E+03 -6.255966E+02  4.040331E+05 -1.126259E-03  5.696386E-06
      2922   1  2.646569E+07  1.892908E+03  5.870094E+03  4.070588E+05  1.886682E+04 -2.891998E+02
      2923   1  2.646414E+07 -1.396980E+03 -6.945985E+02  4.169947E+05  3.367714E+04 -3.503556E+02
      2924   1  2.646566E+07  1.944540E+03  6.008076E+03  4.349840E+05  4.078765E+04 -1.161209E+03
      2925   1  2.646486E+07  8.526533E+02 -1.805527E+03  4.660577E+05  3.326470E+04 -1.612503E+03
      2926   1  2.646140E+07 -2.511538E+03 -2.091713E+03  5.226163E+05  1.219041E+04  1.647487E+03
      2927   1  1.984844E+07 -8.960172E+02  5.388904E+03  7.645030E+05 -6.634405E+03  1.934910E+02
      2928   1  1.984706E+07 -1.396649E+03 -3.662087E+03  7.011993E+05 -1.671005E+04 -1.713881E+03
      2929   1  1.984886E+07  2.525061E+03  2.699753E+03  6.577002E+05 -2.138759E+04  7.155662E+02
      2930   1  1.984818E+07 -3.231261E+02 -5.759684E+02  6.308408E+05 -1.903623E+04  2.088777E+02
      2931   1  1.984882E+07  1.314110E+03  3.660743E+03  6.159968E+05 -1.090569E+04  1.608296E+02
      2932   1  1.984821E+07 -2.853352E+02 -2.967230E+02  6.112177E+05 -7.892559E-04 -1.719258E-05
      2933   1  1.984882E+07  1.314110E+03  3.660743E+03  6.159968E+05  1.090569E+04 -1.608296E+02
      2934   1  1.984818E+07 -3.231261E+02 -5.759683E+02  6.308408E+05  1.903623E+04 -2.088777E+02
      2935   1  1.984886E+07  2.525062E+03  2.699753E+03  6.577002E+05  2.138759E+04 -7.155662E+02
      2936   1  1.984706E+07 -1.396649E+03 -3.662086E+03  7.011993E+05  1.671005E+04  1.713881E+03
      2937   1  1.984844E+07 -8.960172E+02  5.388904E+03  7.645030E+05  6.634404E+03 -1.934910E+02
      2938   1  1.323116E+07 -1.001895E+03 -4.220410E+01  9.327057E+05 -3.083670E+03 -6.852362E+02
      2939   1  1.323219E+07 -7.583531E+02 -6.994029E+02  8.657756E+05 -8.458828E+03  8.296629E+01
      2940   1  1.323224E+07  5.322143E+02  1.516361E+03  8.174663E+05 -1.089766E+04 -1.290214E+03
      2941   1  1.323210E+07  2.064992E+02 -1.352964E+03  7.851363E+05 -9.811118E+03  2.305220E+02
      2942   1  1.323277E+07  8.325805E+02  2.666119E+03  7.668918E+05 -5.821409E+03 -1.875610E+02
      2943   1  1.323203E+07 -2.738703E+02 -9.224562E+02  7.609959E+05 -4.983154E-04  1.698116E-05
      2944   1  1.323277E+07  8.325805E+02  2.666119E+03  7.668918E+05  5.821408E+03  1.875610E+02
      2945   1  1.323210E+07  2.064992E+02 -1.352964E+03  7.851363E+05  9.811117E+03 -2.305219E+02
      2946   1  1.323224E+07  5.322143E+02  1.516361E+03  8.174663E+05  1.089766E+04  1.290214E+03
      2947   1  1.323219E+07 -7.583531E+02 -6.994029E+02  8.657756E+05  8.458828E+03 -8.296630E+01
      2948   1  1.323116E+07 -1.001895E+03 -4.220409E+01  9.327057E+05  3.083670E+03  6.852362E+02
      2949   1  6.616075E+06 -2.681044E+02  1.575701E+03  1.033156E+06 -1.351668E+03 -7.556120E+01
      2950   1  6.615647E+06 -5.247268E+02 -1.268930E+03  9.647321E+05 -3.479883E+03 -1.303378E+03
      2951   1  6.616236E+06  6.484900E+02  9.910331E+02  9.137479E+05 -4.592396E+03 -6.065752E+01
      2952   1  6.615926E+06 -1.357166E+02 -5.415590E+02  8.791074E+05 -4.164606E+03 -1.017261E+03
      2953   1  6.616275E+06  7.869488E+02  9.265560E+02  8.589541E+05 -2.465198E+03  3.116932E+01
      2954   1  6.616020E+06 -9.360567E+01 -2.208411E+02  8.524408E+05 -2.410647E-04 -1.029894E-05
      2955   1  6.616275E+06  7.869488E+02  9.265560E+02  8.589541E+05  2.465198E+03 -3.116930E+01
      2956   1  6.615926E+06 -1.357166E+02 -5.415590E+02  8.791074E+05  4.164606E+03  1.017261E+03
      2957   1  6.616236E+06  6.484900E+02  9.910332E+02  9.137479E+05  4.592396E+03  6.065751E+01
      2958   1  6.615647E+06 -5.247268E+02 -1.268930E+03  9.647321E+05  3.479882E+03  1.303378E+03
      2959   1  6.616075E+06 -2.681044E+02  1.575701E+03  1.033156E+06  1.351668E+03  7.556120E+01
      2960   1  7.236060E-03 -6.806641E-06 -6.541297E-06  1.065679E+06 -1.074127E-06 -5.258763E+02
      2961   1  7.236930E-03  3.948891E-06 -1.639889E-05  9.968593E+05 -3.746293E-06 -1.967020E+02
      2962   1  7.240978E-03  2.088676E-06  6.664883E-06  9.453263E+05 -4.923312E-06 -1.400185E+03
      2963   1  7.235430E-03 -5.941903E-06 -2.922588E-06  9.097950E+05 -4.844204E-06 -5.960644E+01
      2964   1  7.236763E-03  7.460525E-07  2.764398E-06  8.891703E+05 -2.697009E-06 -5.829547E+02
      2965   1  7.234547E-03 -4.899512E-06  1.575337E-08  8.823838E+05 -6.065202E-08  1.351754E-05
      2966   1  7.235411E-03  1.691558E-06  3.669112E-06  8.891703E+05  2.470260E-06  5.829547E+02
      2967   1  7.231996E-03 -2.445337E-06 -1.404200E-06  9.097950E+05  4.377912E-06  5.960645E+01
      2968   1  7.233673E-03  3.676750E-06  7.007372E-06  9.453263E+05  5.045820E-06  1.400185E+03
      2969   1  7.226931E-03  4.386729E-06 -1.629621E-05  9.968593E+05  3.481038E-06  1.967020E+02
      2970   1  7.223741E-03 -6.247285E-06 -6.325390E-06  1.065679E+06  1.248081E-06  5.258763E+02
      2971   1 -6.616074E+06  2.681044E+02 -1.575701E+03  1.033156E+06  1.351668E+03 -7.556121E+01
      2972   1 -6.615647E+06  5.247268E+02  1.268930E+03  9.647321E+05  3.479883E+03 -1.303378E+03
      2973   1 -6.616236E+06 -6.484900E+02 -9.910331E+02  9.137479E+05  4.592396E+03 -6.065752E+01
      2974   1 -6.615926E+06  1.357166E+02  5.415590E+02  8.791074E+05  4.164606E+03 -1.017261E+03
      2975   1 -6.616275E+06 -7.869488E+02 -9.265560E+02  8.589541E+05  2.465198E+03  3.116932E+01
      2976   1 -6.616020E+06  9.360567E+01  2.208411E+02  8.524408E+05  2.410117E-04 -1.116008E-05
      2977   1 -6.616275E+06 -7.869488E+02 -9.265559E+02  8.589541E+05 -2.465198E+03 -3.116930E+01
      2978   1 -6.615926E+06  1.357166E+02  5.415590E+02  8.791074E+05 -4.164606E+03  1.017261E+03
      2979   1 -6.616236E+06 -6.484900E+02 -9.910332E+02  9.137479E+05 -4.592396E+03  6.065751E+01
      2980   1 -6.615647E+06  5.247268E+02  1.268930E+03  9.647321E+05 -3.479882E+03  1.303378E+03
      2981   1 -6.616074E+06  2.681044E+02 -1.575701E+03  1.033156E+06 -1.351668E+03  7.556121E+01
      2982   1 -1.323116E+07  1.001895E+03  4.220417E+01  9.327057E+05  3.083670E+03 -6.852362E+02
      2983   1 -1.323219E+07  7.583531E+02  6.994029E+02  8.657756E+05  8.458828E+03  8.296630E+01
      2984   1 -1.323224E+07 -5.322143E+02 -1.516361E+03  8.174663E+05  1.089766E+04 -1.290214E+03
      2985   1 -1.323210E+07 -2.064992E+02  1.352964E+03  7.851363E+05  9.811118E+03  2.305220E+02
      2986   1 -1.323277E+07 -8.325805E+02 -2.666119E+03  7.668918E+05  5.821409E+03 -1.875610E+02
      2987   1 -1.323203E+07  2.738703E+02  9.224562E+02  7.609959E+05  4.980566E-04  1.706187E-05
      2988   1 -1.323277E+07 -8.325805E+02 -2.666119E+03  7.668918E+05 -5.821408E+03  1.875610E+02
      2989   1 -1.323210E+07 -2.064992E+02  1.352964E+03  7.851363E+05 -9.811117E+03 -2.305219E+02
      2990   1 -1.323224E+07 -5.322143E+02 -1.516361E+03  8.174663E+05 -1.089766E+04  1.290214E+03
      2991   1 -1.323219E+07  7.583531E+02  6.994029E+02  8.657756E+05 -8.458828E+03 -8.296630E+01
      2992   1 -1.323116E+07  1.001895E+03  4.220417E+01  9.327057E+05 -3.083670E+03  6.852362E+02
      2993   1 -1.984844E+07  8.960172E+02 -5.388904E+03  7.645030E+05  6.634405E+03  1.934910E+02
      2994   1 -1.984706E+07  1.396649E+03  3.662087E+03  7.011993E+05  1.671005E+04 -1.713881E+03
      2995   1 -1.984886E+07 -2.525061E+03 -2.699753E+03  6.577002E+05  2.138759E+04  7.155662E+02
      2996   1 -1.984818E+07  3.231261E+02  5.759684E+02  6.308408E+05  1.903623E+04  2.088777E+02
      2997   1 -1.984882E+07 -1.314110E+03 -3.660743E+03  6.159968E+05  1.090569E+04  1.608296E+02
      2998   1 -1.984821E+07  2.853352E+02  2.967230E+02  6.112177E+05  7.895947E-04 -1.714520E-05
      2999   1 -1.984882E+07 -1.314110E+03 -3.660743E+03  6.159968E+05 -1.090569E+04 -1.608296E+02
      3000   1 -1.984818E+07  3.231261E+02  5.759683E+02  6.308408E+05 -1.903623E+04 -2.088777E+02
      3001   1 -1.984886E+07 -2.525062E+03 -2.699753E+03  6.577002E+05 -2.138759E+04 -7.155662E+02
      3002   1 -1.984706E+07  1.396649E+03  3.662087E+03  7.011993E+05 -1.671005E+04  1.713881E+03
      3003   1 -1.984844E+07  8.960172E+02 -5.388904E+03  7.645030E+05 -6.634404E+03 -1.934910E+02
      3004   1 -2.646140E+07  2.511538E+03  2.091712E+03  5.226163E+05  1.219041E+04 -1.647487E+03
      3005   1 -2.646486E+07 -8.526533E+02  1.805527E+03  4.660577E+05  3.326470E+04  1.612503E+03
      3006   1 -2.646566E+07 -1.944540E+03 -6.008076E+03  4.349840E+05  4.078765E+04  1.161209E+03
      3007   1 -2.646414E+07  1.396980E+03  6.945985E+02  4.169947E+05  3.367715E+04  3.503556E+02
      3008   1 -2.646569E+07 -1.892907E+03 -5.870094E+03  4.070588E+05  1.886682E+04  2.891998E+02
      3009   1 -2.646397E+07  1.676485E+03  6.255966E+02  4.040331E+05  1.126076E-03  5.500364E-06
      3010   1 -2.646569E+07 -1.892908E+03 -5.870094E+03  4.070588E+05 -1.886682E+04 -2.891998E+02
      3011   1 -2.646414E+07  1.396980E+03  6.945985E+02  4.169947E+05 -3.367714E+04 -3.503556E+02
      3012   1 -2.646566E+07 -1.944540E+03 -6.008076E+03  4.349840E+05 -4.078765E+04 -1.161209E+03
      3013   1 -2.646486E+07 -8.526533E+02  1.805527E+03  4.660577E+05 -3.326470E+04 -1.612503E+03
      3014   1 -2.646140E+07  2.511538E+03  2.091712E+03  5.226163E+05 -1.219041E+04  1.647487E+03
      3015   1 -3.308277E+07  8.262418E+02 -1.398301E+04  1.921418E+05  3.281003E+04  2.583003E+03
      3016   1 -3.308273E+07 -1.628173E+03 -2.909179E+03  1.649733E+05  7.088694E+04  1.521641E+03
      3017   1 -3.308140E+07  1.548676E+02 -8.157560E+03  1.547376E+05  7.226372E+04  3.339084E+02
      3018   1 -3.308092E+07  3.522503E+01 -3.605053E+02  1.478416E+05  5.628376E+04  3.553952E+02
      3019   1 -3.308133E+07 -4.485328E+02 -7.020133E+03  1.446347E+05  3.042122E+04  6.109601E+01
      3020   1 -3.308053E+07  3.986450E+02  1.295397E+02  1.433818E+05  1.521924E-03 -2.293052E-06
      3021   1 -3.308133E+07 -4.485328E+02 -7.020133E+03  1.446347E+05 -3.042122E+04 -6.109601E+01
      3022   1 -3.308092E+07  3.522498E+01 -3.605054E+02  1.478416E+05 -5.628376E+04 -3.553953E+02
      3023   1 -3.308140E+07  1.548677E+02 -8.157560E+03  1.547376E+05 -7.226372E+04 -3.339083E+02
      3024   1 -3.308273E+07 -1.628173E+03 -2.909179E+03  1.649733E+05 -7.088694E+04 -1.521641E+03
      3025   1 -3.308277E+07  8.262418E+02 -1.398301E+04  1.921418E+05 -3.281003E+04 -2.583003E+03
      3026   1  3.276439E+07 -3.494774E+03  6.893216E+03  1.919085E+05 -3.279439E+04  2.445952E+03
      3027   1  3.276535E+07  4.098385E+03  9.598401E+03  1.650280E+05 -7.094699E+04  1.567968E+03
      3028   1  3.276236E+07 -2.640325E+03  1.552697E+03  1.546177E+05 -7.217415E+04  2.885030E+02
      3029   1  3.276409E+07  2.529678E+03  6.920385E+03  1.478537E+05 -5.634245E+04  3.752170E+02
      3030   1  3.276200E+07 -2.122780E+03  5.447357E+02  1.445396E+05 -3.037451E+04  4.846292E+01
      3031   1  3.276385E+07  2.200457E+03  6.410921E+03  1.433817E+05 -1.523505E-03 -1.835654E-06
      3032   1  3.276200E+07 -2.122780E+03  5.447357E+02  1.445396E+05  3.037451E+04 -4.846291E+01
      3033   1  3.276409E+07  2.529678E+03  6.920385E+03  1.478537E+05  5.634244E+04 -3.752171E+02
      3034   1  3.276236E+07 -2.640325E+03  1.552697E+03  1.546177E+05  7.217415E+04 -2.885030E+02
      3035   1  3.276535E+07  4.098385E+03  9.598401E+03  1.650280E+05  7.094699E+04 -1.567968E+03
      3036   1  3.276439E+07 -3.494774E+03  6.893216E+03  1.919085E+05  3.279439E+04 -2.445952E+03
      3037   1  2.620665E+07 -4.094043E+03 -7.740987E+03  5.229293E+05 -1.213704E+04 -1.601881E+03
      3038   1  2.621083E+07  2.998382E+03  3.865119E+03  4.661602E+05 -3.334925E+04  1.592726E+03
      3039   1  2.621031E+07 -8.454228E+01  4.096683E+02  4.351531E+05 -4.069008E+04  1.144477E+03
      3040   1  2.621057E+07  8.791942E+02  4.880981E+03  4.171419E+05 -3.373711E+04  3.464702E+02
      3041   1  2.621008E+07 -1.831172E+02  3.621507E+02  4.072265E+05 -1.882060E+04  2.839698E+02
      3042   1  2.621054E+07  6.403921E+02  4.939047E+03  4.041937E+05 -1.127603E-03  6.062349E-06
      3043   1  2.621008E+07 -1.831172E+02  3.621507E+02  4.072265E+05  1.882060E+04 -2.839698E+02
      3044   1  2.621057E+07  8.791942E+02  4.880981E+03  4.171419E+05  3.373711E+04 -3.464702E+02
      3045   1  2.621031E+07 -8.454233E+01  4.096684E+02  4.351531E+05  4.069008E+04 -1.144477E+03
      3046   1  2.621083E+07  2.998382E+03  3.865119E+03  4.661602E+05  3.334925E+04 -1.592726E+03
      3047   1  2.620665E+07 -4.094043E+03 -7.740987E+03  5.229293E+05  1.213704E+04  1.601881E+03
      3048   1  1.965747E+07 -2.738369E+03  8.308125E+02  7.641176E+05 -6.628915E+03  1.749791E+02
      3049   1  1.965676E+07  1.031423E+01  6.651814E+02  7.009205E+05 -1.675422E+04 -1.711217E+03
      3050   1  1.965749E+07  7.621941E+02 -1.556335E+03  6.574794E+05 -2.131977E+04  7.105296E+02
      3051   1  1.965817E+07  1.141096E+03  3.632399E+03  6.305759E+05 -1.907913E+04  2.014203E+02
      3052   1  1.965728E+07 -5.069623E+02 -5.359971E+02  6.157682E+05 -1.087083E+04  1.605079E+02
      3053   1  1.965830E+07  1.197279E+03  3.897347E+03  6.109497E+05 -7.904033E-04 -1.701003E-05
      3054   1  1.965728E+07 -5.069623E+02 -5.359971E+02  6.157682E+05  1.087083E+04 -1.605078E+02
      3055   1  1.965817E+07  1.141096E+03  3.632399E+03  6.305759E+05  1.907913E+04 -2.014204E+02
      3056   1  1.965749E+07  7.621941E+02 -1.556335E+03  6.574794E+05  2.131977E+04 -7.105296E+02
      3057   1  1.965676E+07  1.031423E+01  6.651814E+02  7.009205E+05  1.675422E+04  1.711217E+03
      3058   1  1.965747E+07 -2.738369E+03  8.308125E+02  7.641176E+05  6.628914E+03 -1.749791E+02
      3059   1  1.310374E+07 -1.741475E+03 -2.940930E+03  9.331705E+05 -3.056545E+03 -6.729587E+02
      3060   1  1.310513E+07  4.539204E+02  2.229613E+03  8.661002E+05 -8.495513E+03  8.388785E+01
      3061   1  1.310451E+07 -4.211732E+02 -1.326902E+03  8.178074E+05 -1.085163E+04 -1.283382E+03
      3062   1  1.310529E+07  1.453129E+03  1.533445E+03  7.854726E+05 -9.836160E+03  2.252050E+02
      3063   1  1.310490E+07 -1.382988E+02 -1.344424E+02  7.672643E+05 -5.798686E+03 -1.862307E+02
      3064   1  1.310529E+07  9.967004E+02  1.952992E+03  7.613457E+05 -4.986080E-04  1.676724E-05
      3065   1  1.310490E+07 -1.382988E+02 -1.344423E+02  7.672643E+05  5.798685E+03  1.862306E+02
      3066   1  1.310529E+07  1.453129E+03  1.533445E+03  7.854726E+05  9.836160E+03 -2.252050E+02
      3067   1  1.310451E+07 -4.211732E+02 -1.326902E+03  8.178074E+05  1.085163E+04  1.283382E+03
      3068   1  1.310513E+07  4.539204E+02  2.229613E+03  8.661002E+05  8.495513E+03 -8.388785E+01
      3069   1  1.310374E+07 -1.741475E+03 -2.940930E+03  9.331705E+05  3.056545E+03  6.729587E+02
      3070   1  6.552428E+06 -9.190981E+02  2.817374E+01  1.032631E+06 -1.349565E+03 -8.034423E+01
      3071   1  6.552228E+06 -7.986037E+01  1.925293E+02  9.642867E+05 -3.495612E+03 -1.306618E+03
      3072   1  6.552458E+06  2.311456E+01 -4.580519E+02  9.133894E+05 -4.567754E+03 -5.993902E+01
      3073   1  6.552610E+06  3.314710E+02  8.851913E+02  8.787029E+05 -4.179121E+03 -1.009218E+03
      3074   1  6.552436E+06  1.334267E+02 -4.997123E+02  8.585755E+05 -2.452802E+03  3.174712E+01
      3075   1  6.552737E+06  3.791173E+02  1.199751E+03  8.520314E+05 -2.412735E-04 -1.033205E-05
      3076   1  6.552436E+06  1.334267E+02 -4.997123E+02  8.585755E+05  2.452801E+03 -3.174709E+01
      3077   1  6.552610E+06  3.314710E+02  8.851913E+02  8.787029E+05  4.179121E+03  1.009218E+03
      3078   1  6.552458E+06  2.311457E+01 -4.580519E+02  9.133894E+05  4.567754E+03  5.993901E+01
      3079   1  6.552228E+06 -7.986037E+01  1.925293E+02  9.642867E+05  3.495612E+03  1.306618E+03
      3080   1  6.552428E+06 -9.190981E+02  2.817374E+01  1.032631E+06  1.349565E+03  8.034423E+01
      3081   1  7.167307E-03 -5.243805E-06 -9.958123E-06  1.066211E+06 -1.068688E-06 -5.204147E+02
      3082   1  7.168132E-03  6.422765E-06 -1.075471E-05  9.972652E+05 -3.679689E-06 -1.926356E+02
      3083   1  7.171311E-03  2.463146E-06  2.401268E-06  9.457423E+05 -5.147553E-06 -1.390696E+03
      3084   1  7.167170E-03 -2.810453E-06  2.704623E-06  9.102063E+05 -4.721339E-06 -6.280622E+01
      3085   1  7.167363E-03  1.534138E-06 -8.819121E-07  8.896246E+05 -2.633481E-06 -5.769005E+02
      3086   1  7.165251E-03 -1.833128E-06  5.009048E-06  8.828112E+05 -2.546671E-08  1.326293E-05
      3087   1  7.165104E-03  2.259710E-06 -4.720609E-07  8.896246E+05  2.520592E-06  5.769004E+02
      3088   1  7.162313E-03 -3.427192E-06  2.380511E-06  9.102063E+05  4.389236E-06  6.280623E+01
      3089   1  7.163995E-03  1.316187E-06  2.193446E-06  9.457423E+05  4.985190E-06  1.390696E+03
      3090   1  7.158890E-03  7.603419E-06 -1.044605E-05  9.972652E+05  3.835276E-06  1.926356E+02
      3091   1  7.154848E-03 -6.136300E-06 -9.770696E-06  1.066211E+06  9.180946E-07  5.204147E+02
      3092   1 -6.552428E+06  9.190981E+02 -2.817377E+01  1.032631E+06  1.349565E+03 -8.034424E+01
      3093   1 -6.552228E+06  7.986037E+01 -1.925293E+02  9.642867E+05  3.495612E+03 -1.306618E+03
      3094   1 -6.552458E+06 -2.311457E+01  4.580519E+02  9.133894E+05  4.567754E+03 -5.993901E+01
      3095   1 -6.552610E+06 -3.314710E+02 -8.851912E+02  8.787029E+05  4.179121E+03 -1.009218E+03
      3096   1 -6.552436E+06 -1.334267E+02  4.997123E+02  8.585755E+05  2.452802E+03  3.174712E+01
      3097   1 -6.552737E+06 -3.791173E+02 -1.199751E+03  8.520314E+05  2.413990E-04 -9.806034E-06
      3098   1 -6.552436E+06 -1.334267E+02  4.997123E+02  8.585755E+05 -2.452801E+03 -3.174709E+01
      3099   1 -6.552610E+06 -3.314710E+02 -8.851913E+02  8.787029E+05 -4.179121E+03  1.009218E+03
      3100   1 -6.552458E+06 -2.311457E+01  4.580519E+02  9.133894E+05 -4.567754E+03  5.993901E+01
      3101   1 -6.552228E+06  7.986037E+01 -1.925293E+02  9.642867E+05 -3.495611E+03  1.306618E+03
      3102   1 -6.552428E+06  9.190981E+02 -2.817377E+01  1.032631E+06 -1.349565E+03  8.034424E+01
      3103   1 -1.310374E+07  1.741475E+03  2.940930E+03  9.331705E+05  3.056545E+03 -6.729588E+02
      3104   1 -1.310513E+07 -4.539205E+02 -2.229613E+03  8.661002E+05  8.495513E+03  8.388785E+01
      3105   1 -1.310451E+07  4.211732E+02  1.326902E+03  8.178074E+05  1.085163E+04 -1.283382E+03
      3106   1 -1.310529E+07 -1.453129E+03 -1.533445E+03  7.854726E+05  9.836160E+03  2.252050E+02
      3107   1 -1.310490E+07  1.382988E+02  1.344424E+02  7.672643E+05  5.798686E+03 -1.862307E+02
      3108   1 -1.310529E+07 -9.967004E+02 -1.952992E+03  7.613457E+05  4.982373E-04  1.817314E-05
      3109   1 -1.310490E+07  1.382988E+02  1.344423E+02  7.672643E+05 -5.798685E+03  1.862306E+02
      3110   1 -1.310529E+07 -1.453129E+03 -1.533445E+03  7.854726E+05 -9.836160E+03 -2.252050E+02
      3111   1 -1.310451E+07  4.211732E+02  1.326902E+03  8.178074E+05 -1.085163E+04  1.283382E+03
      3112   1 -1.310513E+07 -4.539205E+02 -2.229613E+03  8.661002E+05 -8.495513E+03 -8.388786E+01
      3113   1 -1.310374E+07  1.741475E+03  2.940930E+03  9.331705E+05 -3.056545E+03  6.729588E+02
      3114   1 -1.965747E+07  2.738369E+03 -8.308125E+02  7.641176E+05  6.628915E+03  1.749791E+02
      3115   1 -1.965676E+07 -1.031424E+01 -6.651814E+02  7.009205E+05  1.675422E+04 -1.711217E+03
      3116   1 -1.965749E+07 -7.621941E+02  1.556335E+03  6.574794E+05  2.131977E+04  7.105296E+02
      3117   1 -1.965817E+07 -1.141096E+03 -3.632399E+03  6.305759E+05  1.907913E+04  2.014203E+02
      3118   1 -1.965728E+07  5.069623E+02  5.359971E+02  6.157682E+05  1.087083E+04  1.605079E+02
      3119   1 -1.965830E+07 -1.197279E+03 -3.897347E+03  6.109497E+05  7.901731E-04 -1.717609E-05
      3120   1 -1.965728E+07  5.069623E+02  5.359972E+02  6.157682E+05 -1.087083E+04 -1.605078E+02
      3121   1 -1.965817E+07 -1.141096E+03 -3.632399E+03  6.305759E+05 -1.907913E+04 -2.014204E+02
      3122   1 -1.965749E+07 -7.621941E+02  1.556335E+03  6.574794E+05 -2.131977E+04 -7.105296E+02
      3123   1 -1.965676E+07 -1.031423E+01 -6.651814E+02  7.009205E+05 -1.675422E+04  1.711217E+03
      3124   1 -1.965747E+07  2.738369E+03 -8.308125E+02  7.641176E+05 -6.628914E+03 -1.749791E+02
      3125   1 -2.620665E+07  4.094043E+03  7.740987E+03  5.229293E+05  1.213704E+04 -1.601881E+03
      3126   1 -2.621083E+07 -2.998382E+03 -3.865119E+03  4.661602E+05  3.334925E+04  1.592726E+03
      3127   1 -2.621031E+07  8.454228E+01 -4.096683E+02  4.351531E+05  4.069008E+04  1.144477E+03
      3128   1 -2.621057E+07 -8.791942E+02 -4.880981E+03  4.171419E+05  3.373711E+04  3.464702E+02
      3129   1 -2.621008E+07  1.831172E+02 -3.621507E+02  4.072265E+05  1.882060E+04  2.839698E+02
      3130   1 -2.621054E+07 -6.403921E+02 -4.939047E+03  4.041937E+05  1.126906E-03  6.208395E-06
      3131   1 -2.621008E+07  1.831172E+02 -3.621507E+02  4.072265E+05 -1.882060E+04 -2.839698E+02
      3132   1 -2.621057E+07 -8.791942E+02 -4.880981E+03  4.171419E+05 -3.373711E+04 -3.464702E+02
      3133   1 -2.621031E+07  8.454233E+01 -4.096684E+02  4.351531E+05 -4.069008E+04 -1.144477E+03
      3134   1 -2.621083E+07 -2.998382E+03 -3.865119E+03  4.661602E+05 -3.334925E+04 -1.592726E+03
      3135   1 -2.620665E+07  4.094043E+03  7.740987E+03  5.229293E+05 -1.213704E+04  1.601881E+03
      3136   1 -3.276439E+07  3.494774E+03 -6.893216E+03  1.919085E+05  3.279439E+04  2.445952E+03
      3137   1 -3.276535E+07 -4.098385E+03 -9.598401E+03  1.650280E+05  7.094699E+04  1.567968E+03
      3138   1 -3.276236E+07  2.640325E+03 -1.552697E+03  1.546177E+05  7.217415E+04  2.885030E+02
      3139   1 -3.276409E+07 -2.529678E+03 -6.920385E+03  1.478537E+05  5.634245E+04  3.752170E+02
      3140   1 -3.276200E+07  2.122780E+03 -5.447357E+02  1.445396E+05  3.037451E+04  4.846292E+01
      3141   1 -3.276385E+07 -2.200457E+03 -6.410921E+03  1.433817E+05  1.523074E-03 -2.200948E-06
      3142   1 -3.276200E+07  2.122780E+03 -5.447358E+02  1.445396E+05 -3.037451E+04 -4.846291E+01
      3143   1 -3.276409E+07 -2.529678E+03 -6.920385E+03  1.478537E+05 -5.634244E+04 -3.752171E+02
      3144   1 -3.276236E+07  2.640325E+03 -1.552697E+03  1.546177E+05 -7.217415E+04 -2.885030E+02
      3145   1 -3.276535E+07 -4.098385E+03 -9.598401E+03  1.650280E+05 -7.094699E+04 -1.567968E+03
      3146   1 -3.276439E+07  3.494774E+03 -6.893216E+03  1.919085E+05 -3.279439E+04 -2.445952E+03
      3147   1  3.244644E+07 -1.334956E+03  1.247890E+04  1.920838E+05 -3.281206E+04  2.510383E+03
      3148   1  3.244664E+07  1.982215E+03  4.027239E+03  1.649731E+05 -7.089719E+04  1.501690E+03
      3149   1  3.244508E+07 -6.371136E+02  6.876497E+03  1.547082E+05 -7.224046E+04  3.165622E+02
      3150   1  3.244501E+07  3.617934E+02  1.539359E+03  1.478395E+05 -5.628469E+04  3.509168E+02
      3151   1  3.244498E+07 -6.220062E+01  5.818970E+03  1.446131E+05 -3.040441E+04  5.648897E+01
      3152   1  3.244466E+07  9.339317E+00  1.077359E+03  1.433790E+05 -1.522279E-03 -2.116602E-06
      3153   1  3.244498E+07 -6.220063E+01  5.818970E+03  1.446131E+05  3.040440E+04 -5.648896E+01
      3154   1  3.244501E+07  3.617934E+02  1.539359E+03  1.478395E+05  5.628469E+04 -3.509169E+02
      3155   1  3.244508E+07 -6.371137E+02  6.876497E+03  1.547082E+05  7.224046E+04 -3.165621E+02
      3156   1  3.244664E+07  1.982215E+03  4.027239E+03  1.649731E+05  7.089719E+04 -1.501690E+03
      3157   1  3.244644E+07 -1.334956E+03  1.247890E+04  1.920838E+05  3.281206E+04 -2.510383E+03
      3158   1  2.595239E+07 -2.679353E+03 -3.009914E+03  5.226840E+05 -1.218000E+04 -1.612538E+03
      3159   1  2.595597E+07  1.266112E+03 -7.673648E+02  4.660969E+05 -3.328303E+04  1.574020E+03
      3160   1  2.595656E+07  1.617576E+03  4.979642E+03  4.350456E+05 -4.076154E+04  1.131066E+03
      3161   1  2.595538E+07 -9.213655E+02  3.436923E+02  4.170595E+05 -3.368024E+04  3.383956E+02
      3162   1  2.595657E+07  1.561134E+03  4.890627E+03  4.071317E+05 -1.885014E+04  2.807350E+02
      3163   1  2.595525E+07 -1.187831E+03  4.302213E+02  4.041058E+05 -1.126540E-03  6.401741E-06
      3164   1  2.595657E+07  1.561134E+03  4.890627E+03  4.071317E+05  1.885014E+04 -2.807350E+02
      3165   1  2.595538E+07 -9.213656E+02  3.436922E+02  4.170595E+05  3.368023E+04 -3.383956E+02
      3166   1  2.595656E+07  1.617576E+03  4.979643E+03  4.350456E+05  4.076154E+04 -1.131066E+03
      3167   1  2.595597E+07  1.266112E+03 -7.673648E+02  4.660969E+05  3.328303E+04 -1.574020E+03
      3168   1  2.595239E+07 -2.679353E+03 -3.009914E+03  5.226840E+05  1.218000E+04  1.612538E+03
      3169   1  1.946667E+07 -1.252339E+03  4.495302E+03  7.643599E+05 -6.636442E+03  1.824239E+02
      3170   1  1.946547E+07 -1.180279E+03 -2.857465E+03  7.010952E+05 -1.671836E+04 -1.693072E+03
      3171   1  1.946708E+07  2.127319E+03  1.930000E+03  6.576214E+05 -2.136835E+04  6.938798E+02
      3172   1  1.946665E+07 -1.199251E+02  1.809072E+02  6.307622E+05 -1.903682E+04  1.979506E+02
      3173   1  1.946703E+07  9.234613E+02  2.908338E+03  6.159295E+05 -1.089232E+04  1.553051E+02
      3174   1  1.946670E+07 -8.164701E+01  4.684976E+02  6.111440E+05 -7.894991E-04 -1.685444E-05
      3175   1  1.946703E+07  9.234613E+02  2.908338E+03  6.159295E+05  1.089232E+04 -1.553050E+02
      3176   1  1.946665E+07 -1.199251E+02  1.809072E+02  6.307622E+05  1.903682E+04 -1.979506E+02
      3177   1  1.946708E+07  2.127319E+03  1.930000E+03  6.576214E+05  2.136835E+04 -6.938798E+02
      3178   1  1.946547E+07 -1.180279E+03 -2.857465E+03  7.010952E+05  1.671835E+04  1.693072E+03
      3179   1  1.946667E+07 -1.252339E+03  4.495302E+03  7.643599E+05  6.636442E+03 -1.824239E+02
      3180   1  1.297663E+07 -1.068265E+03 -5.287728E+02  9.328089E+05 -3.078186E+03 -6.764357E+02
      3181   1  1.297773E+07 -4.946330E+02 -1.659407E+02  8.658743E+05 -8.465606E+03  7.133255E+01
      3182   1  1.297768E+07  3.993269E+02  1.025557E+03  8.175861E+05 -1.088382E+04 -1.275752E+03
      3183   1  1.297771E+07  4.586419E+02 -7.953756E+02  7.852685E+05 -9.809694E+03  2.194777E+02
      3184   1  1.297818E+07  6.924833E+02  2.180852E+03  7.670381E+05 -5.812100E+03 -1.865983E+02
      3185   1  1.297766E+07 -8.825351E+00 -3.627904E+02  7.611399E+05 -4.980118E-04  1.655093E-05
      3186   1  1.297818E+07  6.924833E+02  2.180852E+03  7.670381E+05  5.812099E+03  1.865983E+02
      3187   1  1.297771E+07  4.586419E+02 -7.953757E+02  7.852685E+05  9.809693E+03 -2.194776E+02
      3188   1  1.297768E+07  3.993269E+02  1.025557E+03  8.175861E+05  1.088382E+04  1.275752E+03
      3189   1  1.297773E+07 -4.946330E+02 -1.659408E+02  8.658743E+05  8.465605E+03 -7.133256E+01
      3190   1  1.297663E+07 -1.068265E+03 -5.287728E+02  9.328089E+05  3.078186E+03  6.764357E+02
      3191   1  6.488818E+06 -3.969960E+02  1.275986E+03  1.032951E+06 -1.352142E+03 -7.962021E+01
      3192   1  6.488452E+06 -4.592835E+02 -9.970653E+02  9.645693E+05 -3.482413E+03 -1.292574E+03
      3193   1  6.488979E+06  5.089951E+02  7.271859E+02  9.136215E+05 -4.584807E+03 -6.850411E+01
      3194   1  6.488757E+06 -7.500757E+01 -2.785425E+02  8.789834E+05 -4.164113E+03 -1.003628E+03
      3195   1  6.489012E+06  6.382727E+02  6.766109E+02  8.588404E+05 -2.460118E+03  2.849436E+01
      3196   1  6.488856E+06 -3.361992E+01  4.130624E+01  8.523226E+05 -2.410597E-04 -1.054997E-05
      3197   1  6.489012E+06  6.382727E+02  6.766109E+02  8.588404E+05  2.460118E+03 -2.849433E+01
      3198   1  6.488757E+06 -7.500758E+01 -2.785425E+02  8.789834E+05  4.164112E+03  1.003628E+03
      3199   1  6.488979E+06  5.089951E+02  7.271859E+02  9.136215E+05  4.584807E+03  6.850410E+01
      3200   1  6.488452E+06 -4.592835E+02 -9.970653E+02  9.645693E+05  3.482413E+03  1.292574E+03
      3201   1  6.488818E+06 -3.969960E+02  1.275986E+03  1.032951E+06  1.352142E+03  7.962022E+01
      3202   1  7.097790E-03 -4.813056E-06 -6.106253E-06  1.065797E+06 -8.011148E-07 -5.217727E+02
      3203   1  7.098393E-03  5.225391E-06 -1.455880E-05  9.969794E+05 -3.865814E-06 -2.032967E+02
      3204   1  7.102483E-03  4.179625E-06  6.516099E-06  9.454691E+05 -4.903697E-06 -1.383381E+03
      3205   1  7.096247E-03 -6.575304E-06 -2.176439E-06  9.099522E+05 -4.701501E-06 -6.492604E+01
      3206   1  7.098181E-03  1.921012E-06  2.501408E-06  8.893437E+05 -2.947351E-06 -5.738763E+02
      3207   1  7.094073E-03 -7.343132E-06 -8.568656E-07  8.825543E+05 -1.180385E-07  1.295958E-05
      3208   1  7.095952E-03  1.942830E-06  3.324965E-06  8.893437E+05  2.545914E-06  5.738763E+02
      3209   1  7.092360E-03 -2.690032E-06 -1.235008E-06  9.099522E+05  4.433861E-06  6.492606E+01
      3210   1  7.095052E-03  3.758741E-06  6.784254E-06  9.454691E+05  4.922465E-06  1.383381E+03
      3211   1  7.088637E-03  5.173709E-06 -1.452739E-05  9.969794E+05  3.369497E-06  2.032967E+02
      3212   1  7.084938E-03 -6.397349E-06 -6.887023E-06  1.065797E+06  1.142425E-06  5.217727E+02
      3213   1 -6.488818E+06  3.969960E+02 -1.275986E+03  1.032951E+06  1.352142E+03 -7.962022E+01
      3214   1 -6.488452E+06  4.592835E+02  9.970654E+02  9.645693E+05  3.482413E+03 -1.292574E+03
      3215   1 -6.488979E+06 -5.089951E+02 -7.271859E+02  9.136215E+05  4.584807E+03 -6.850410E+01
      3216   1 -6.488757E+06  7.500758E+01  2.785425E+02  8.789834E+05  4.164113E+03 -1.003628E+03
      3217   1 -6.489012E+06 -6.382727E+02 -6.766109E+02  8.588404E+05  2.460118E+03  2.849436E+01
      3218   1 -6.488856E+06  3.361993E+01 -4.130624E+01  8.523226E+05  2.407307E-04 -1.035317E-05
      3219   1 -6.489012E+06 -6.382727E+02 -6.766109E+02  8.588404E+05 -2.460118E+03 -2.849433E+01
      3220   1 -6.488757E+06  7.500758E+01  2.785425E+02  8.789834E+05 -4.164112E+03  1.003628E+03
      3221   1 -6.488979E+06 -5.089951E+02 -7.271859E+02  9.136215E+05 -4.584807E+03  6.850410E+01
      3222   1 -6.488452E+06  4.592835E+02  9.970653E+02  9.645693E+05 -3.482413E+03  1.292574E+03
      3223   1 -6.488818E+06  3.969960E+02 -1.275986E+03  1.032951E+06 -1.352142E+03  7.962023E+01
      3224   1 -1.297663E+07  1.068265E+03  5.287729E+02  9.328089E+05  3.078186E+03 -6.764357E+02
      3225   1 -1.297773E+07  4.946330E+02  1.659407E+02  8.658743E+05  8.465606E+03  7.133256E+01
      3226   1 -1.297768E+07 -3.993269E+02 -1.025557E+03  8.175861E+05  1.088382E+04 -1.275752E+03
      3227   1 -1.297771E+07 -4.586419E+02  7.953757E+02  7.852685E+05  9.809694E+03  2.194777E+02
      3228   1 -1.297818E+07 -6.924833E+02 -2.180852E+03  7.670381E+05  5.812100E+03 -1.865983E+02
      3229   1 -1.297766E+07  8.825345E+00  3.627904E+02  7.611399E+05  4.982398E-04  1.653676E-05
      3230   1 -1.297818E+07 -6.924833E+02 -2.180852E+03  7.670381E+05 -5.812099E+03  1.865983E+02
      3231   1 -1.297771E+07 -4.586420E+02  7.953757E+02  7.852685E+05 -9.809693E+03 -2.194776E+02
      3232   1 -1.297768E+07 -3.993269E+02 -1.025557E+03  8.175861E+05 -1.088382E+04  1.275752E+03
      3233   1 -1.297773E+07  4.946329E+02  1.659408E+02  8.658743E+05 -8.465605E+03 -7.133256E+01
      3234   1 -1.297663E+07  1.068265E+03  5.287729E+02  9.328089E+05 -3.078186E+03  6.764357E+02
      3235   1 -1.946667E+07  1.252339E+03 -4.495302E+03  7.643599E+05  6.636442E+03  1.824239E+02
      3236   1 -1.946547E+07  1.180279E+03  2.857465E+03  7.010952E+05  1.671836E+04 -1.693072E+03
      3237   1 -1.946708E+07 -2.127319E+03 -1.930000E+03  6.576214E+05  2.136835E+04  6.938797E+02
      3238   1 -1.946665E+07  1.199251E+02 -1.809072E+02  6.307622E+05  1.903682E+04  1.979506E+02
      3239   1 -1.946703E+07 -9.234613E+02 -2.908338E+03  6.159295E+05  1.089232E+04  1.553051E+02
      3240   1 -1.946670E+07  8.164701E+01 -4.684976E+02  6.111440E+05  7.893477E-04 -1.737737E-05
      3241   1 -1.946703E+07 -9.234613E+02 -2.908338E+03  6.159295E+05 -1.089232E+04 -1.553050E+02
      3242   1 -1.946665E+07  1.199251E+02 -1.809072E+02  6.307622E+05 -1.903682E+04 -1.979506E+02
      3243   1 -1.946708E+07 -2.127319E+03 -1.930000E+03  6.576214E+05 -2.136835E+04 -6.938798E+02
      3244   1 -1.946547E+07  1.180279E+03  2.857465E+03  7.010952E+05 -1.671835E+04  1.693072E+03
      3245   1 -1.946667E+07  1.252339E+03 -4.495302E+03  7.643599E+05 -6.636442E+03 -1.824239E+02
      3246   1 -2.595239E+07  2.679353E+03  3.009914E+03  5.226840E+05  1.218000E+04 -1.612538E+03
      3247   1 -2.595597E+07 -1.266112E+03  7.673648E+02  4.660969E+05  3.328303E+04  1.574020E+03
      3248   1 -2.595656E+07 -1.617576E+03 -4.979642E+03  4.350456E+05  4.076154E+04  1.131066E+03
      3249   1 -2.595538E+07  9.213655E+02 -3.436923E+02  4.170595E+05  3.368024E+04  3.383956E+02
      3250   1 -2.595657E+07 -1.561134E+03 -4.890627E+03  4.071317E+05  1.885014E+04  2.807350E+02
      3251   1 -2.595525E+07  1.187831E+03 -4.302213E+02  4.041058E+05  1.126215E-03  6.446188E-06
      3252   1 -2.595657E+07 -1.561134E+03 -4.890627E+03  4.071317E+05 -1.885014E+04 -2.807350E+02
      3253   1 -2.595538E+07  9.213656E+02 -3.436923E+02  4.170595E+05 -3.368023E+04 -3.383956E+02
      3254   1 -2.595656E+07 -1.617576E+03 -4.979643E+03  4.350456E+05 -4.076154E+04 -1.131066E+03
      3255   1 -2.595597E+07 -1.266112E+03  7.673648E+02  4.660969E+05 -3.328303E+04 -1.574020E+03
      3256   1 -2.595239E+07  2.679353E+03  3.009914E+03  5.226840E+05 -1.218000E+04  1.612538E+03
      3257   1 -3.244644E+07  1.334956E+03 -1.247890E+04  1.920838E+05  3.281206E+04  2.510383E+03
      3258   1 -3.244664E+07 -1.982215E+03 -4.027239E+03  1.649731E+05  7.089719E+04  1.501690E+03
      3259   1 -3.244508E+07  6.371136E+02 -6.876497E+03  1.547082E+05  7.224046E+04  3.165622E+02
      3260   1 -3.244501E+07 -3.617934E+02 -1.539359E+03  1.478395E+05  5.628469E+04  3.509168E+02
      3261   1 -3.244498E+07  6.220063E+01 -5.818970E+03  1.446131E+05  3.040441E+04  5.648897E+01
      3262   1 -3.244466E+07 -9.339325E+00 -1.077359E+03  1.433790E+05  1.522245E-03 -2.484660E-06
      3263   1 -3.244498E+07  6.220064E+01 -5.818970E+03  1.446131E+05 -3.040440E+04 -5.648896E+01
      3264   1 -3.244501E+07 -3.617934E+02 -1.539359E+03  1.478395E+05 -5.628469E+04 -3.509169E+02
      3265   1 -3.244508E+07  6.371137E+02 -6.876497E+03  1.547082E+05 -7.224046E+04 -3.165621E+02
      3266   1 -3.244664E+07 -1.982215E+03 -4.027239E+03  1.649731E+05 -7.089719E+04 -1.501690E+03
      3267   1 -3.244644E+07  1.334956E+03 -1.247890E+04  1.920838E+05 -3.281206E+04 -2.510383E+03
      3268   1  3.212816E+07 -3.018577E+03  7.763094E+03  1.919433E+05 -3.279990E+04  2.414891E+03
      3269   1  3.212900E+07  3.688127E+03  8.468924E+03  1.650224E+05 -7.094689E+04  1.525848E+03
      3270   1  3.212635E+07 -2.210853E+03  2.481075E+03  1.546420E+05 -7.219064E+04  2.861688E+02
      3271   1  3.212775E+07  2.139331E+03  5.894763E+03  1.478604E+05 -5.633309E+04  3.618756E+02
      3272   1  3.212606E+07 -1.691052E+03  1.502787E+03  1.445644E+05 -3.037980E+04  4.798437E+01
      3273   1  3.212751E+07  1.812713E+03  5.415432E+03  1.433924E+05 -1.523263E-03 -2.826148E-06
      3274   1  3.212606E+07 -1.691052E+03  1.502787E+03  1.445644E+05  3.037980E+04 -4.798436E+01
      3275   1  3.212775E+07  2.139331E+03  5.894763E+03  1.478604E+05  5.633309E+04 -3.618757E+02
      3276   1  3.212635E+07 -2.210854E+03  2.481075E+03  1.546420E+05  7.219063E+04 -2.861688E+02
      3277   1  3.212900E+07  3.688127E+03  8.468924E+03  1.650224E+05  7.094689E+04 -1.525847E+03
      3278   1  3.212816E+07 -3.018577E+03  7.763094E+03  1.919433E+05  3.279990E+04 -2.414891E+03
      3279   1  2.569777E+07 -3.817575E+03 -6.796688E+03  5.228523E+05 -1.215074E+04 -1.578405E+03
      3280   1  2.570180E+07  2.610336E+03  2.992688E+03  4.661254E+05 -3.334356E+04  1.555503E+03
      3281   1  2.570151E+07  1.745558E+02  1.195696E+03  4.351173E+05 -4.070912E+04  1.115218E+03
      3282   1  2.570154E+07  5.150230E+02  4.022983E+03  4.171160E+05 -3.372754E+04  3.335658E+02
      3283   1  2.570134E+07  8.203996E+01  1.157922E+03  4.072012E+05 -1.882652E+04  2.754425E+02
      3284   1  2.570150E+07  2.744573E+02  4.094087E+03  4.041708E+05 -1.127125E-03  6.151020E-06
      3285   1  2.570134E+07  8.203999E+01  1.157922E+03  4.072012E+05  1.882652E+04 -2.754425E+02
      3286   1  2.570154E+07  5.150230E+02  4.022983E+03  4.171160E+05  3.372754E+04 -3.335658E+02
      3287   1  2.570151E+07  1.745557E+02  1.195697E+03  4.351173E+05  4.070912E+04 -1.115218E+03
      3288   1  2.570180E+07  2.610336E+03  2.992688E+03  4.661254E+05  3.334356E+04 -1.555503E+03
      3289   1  2.569777E+07 -3.817575E+03 -6.796688E+03  5.228523E+05  1.215074E+04  1.578405E+03
      3290   1  1.927573E+07 -2.395494E+03  1.458628E+03  7.641718E+05 -6.632388E+03  1.693707E+02
      3291   1  1.927497E+07 -1.574129E+02  6.079203E+01  7.009730E+05 -1.675387E+04 -1.686120E+03
      3292   1  1.927586E+07  1.019437E+03 -9.100553E+02  6.575369E+05 -2.133291E+04  6.856423E+02
      3293   1  1.927635E+07  9.414635E+02  3.001980E+03  6.306507E+05 -1.907197E+04  1.901788E+02
      3294   1  1.927570E+07 -2.153714E+02  9.834217E+01  6.158438E+05 -1.087500E+04  1.528662E+02
      3295   1  1.927647E+07  9.940351E+02  3.273837E+03  6.110334E+05 -7.900978E-04 -1.729213E-05
      3296   1  1.927570E+07 -2.153714E+02  9.834214E+01  6.158438E+05  1.087500E+04 -1.528661E+02
      3297   1  1.927635E+07  9.414635E+02  3.001980E+03  6.306507E+05  1.907197E+04 -1.901788E+02
      3298   1  1.927586E+07  1.019437E+03 -9.100553E+02  6.575369E+05  2.133291E+04 -6.856423E+02
      3299   1  1.927497E+07 -1.574129E+02  6.079205E+01  7.009730E+05  1.675386E+04  1.686120E+03
      3300   1  1.927573E+07 -2.395494E+03  1.458628E+03  7.641718E+05  6.632388E+03 -1.693707E+02
      3301   1  1.284929E+07 -1.622158E+03 -2.479795E+03  9.330362E+05 -3.063621E+03 -6.661012E+02
      3302   1  1.285063E+07  2.573113E+02  1.773791E+03  8.660072E+05 -8.493891E+03  6.958209E+01
      3303   1  1.285013E+07 -2.977449E+02 -8.974939E+02  8.177291E+05 -1.086028E+04 -1.269992E+03
      3304   1  1.285077E+07  1.229352E+03  1.110868E+03  7.854065E+05 -9.831750E+03  2.122598E+02
      3305   1  1.285054E+07 -2.081999E+01  2.760736E+02  7.671993E+05 -5.801120E+03 -1.872319E+02
      3306   1  1.285077E+07  7.779326E+02  1.530455E+03  7.612863E+05 -4.982611E-04  1.675505E-05
      3307   1  1.285054E+07 -2.082000E+01  2.760736E+02  7.671993E+05  5.801119E+03  1.872319E+02
      3308   1  1.285077E+07  1.229352E+03  1.110868E+03  7.854065E+05  9.831749E+03 -2.122597E+02
      3309   1  1.285013E+07 -2.977449E+02 -8.974939E+02  8.177291E+05  1.086028E+04  1.269992E+03
      3310   1  1.285063E+07  2.573113E+02  1.773791E+03  8.660072E+05  8.493891E+03 -6.958210E+01
      3311   1  1.284929E+07 -1.622158E+03 -2.479795E+03  9.330362E+05  3.063621E+03  6.661012E+02
      3312   1  6.425174E+06 -7.967103E+02  2.470740E+02  1.032702E+06 -1.350752E+03 -8.441051E+01
      3313   1  6.424960E+06 -1.281701E+02 -1.062194E+01  9.643668E+05 -3.495217E+03 -1.291964E+03
      3314   1  6.425245E+06  1.214597E+02 -2.388570E+02  9.134756E+05 -4.572236E+03 -7.215314E+01
      3315   1  6.425335E+06  2.712272E+02  6.793026E+02  8.788106E+05 -4.176397E+03 -9.989863E+02
      3316   1  6.425239E+06  2.332565E+02 -2.763363E+02  8.586878E+05 -2.454106E+03  2.611026E+01
      3317   1  6.425457E+06  3.170117E+02  9.920522E+02  8.521511E+05 -2.412047E-04 -1.105539E-05
      3318   1  6.425239E+06  2.332565E+02 -2.763363E+02  8.586878E+05  2.454105E+03 -2.611024E+01
      3319   1  6.425335E+06  2.712272E+02  6.793026E+02  8.788106E+05  4.176397E+03  9.989863E+02
      3320   1  6.425245E+06  1.214597E+02 -2.388570E+02  9.134756E+05  4.572236E+03  7.215314E+01
      3321   1  6.424960E+06 -1.281701E+02 -1.062193E+01  9.643668E+05  3.495216E+03  1.291964E+03
      3322   1  6.425174E+06 -7.967103E+02  2.470740E+02  1.032702E+06  1.350752E+03  8.441051E+01
      3323   1  7.027970E-03 -6.487968E-06 -9.068655E-06  1.066053E+06 -1.061823E-06 -5.161246E+02
      3324   1  7.029192E-03  6.261493E-06 -1.102957E-05  9.971498E+05 -3.669748E-06 -2.028767E+02
      3325   1  7.032285E-03  2.914924E-06  2.966191E-06  9.456453E+05 -5.084783E-06 -1.376522E+03
      3326   1  7.027816E-03 -2.478999E-06  2.129618E-06  9.101233E+05 -4.512657E-06 -7.062342E+01
      3327   1  7.028364E-03  1.235826E-06 -7.760998E-07  8.895424E+05 -2.905752E-06 -5.706607E+02
      3328   1  7.025571E-03 -3.228548E-06  3.942723E-06  8.827354E+05 -1.378435E-07  1.234022E-05
      3329   1  7.025516E-03  1.498150E-06 -4.453007E-07  8.895424E+05  2.514350E-06  5.706607E+02
      3330   1  7.022842E-03 -3.790014E-06  2.027409E-06  9.101233E+05  4.298826E-06  7.062343E+01
      3331   1  7.025373E-03  4.927130E-06  3.465241E-06  9.456453E+05  5.055895E-06  1.376522E+03
      3332   1  7.019077E-03  5.456303E-06 -1.108188E-05  9.971498E+05  3.605240E-06  2.028767E+02
      3333   1  7.015606E-03 -7.333380E-06 -9.570082E-06  1.066053E+06  1.049162E-06  5.161246E+02
      3334   1 -6.425174E+06  7.967103E+02 -2.470741E+02  1.032702E+06  1.350752E+03 -8.441052E+01
      3335   1 -6.424960E+06  1.281701E+02  1.062196E+01  9.643668E+05  3.495217E+03 -1.291964E+03
      3336   1 -6.425245E+06 -1.214597E+02  2.388570E+02  9.134756E+05  4.572236E+03 -7.215314E+01
      3337   1 -6.425335E+06 -2.712272E+02 -6.793026E+02  8.788106E+05  4.176397E+03 -9.989863E+02
      3338   1 -6.425239E+06 -2.332565E+02  2.763363E+02  8.586878E+05  2.454106E+03  2.611026E+01
      3339   1 -6.425457E+06 -3.170117E+02 -9.920521E+02  8.521511E+05  2.411944E-04 -1.012565E-05
      3340   1 -6.425239E+06 -2.332565E+02  2.763363E+02  8.586878E+05 -2.454105E+03 -2.611024E+01
      3341   1 -6.425335E+06 -2.712272E+02 -6.793026E+02  8.788106E+05 -4.176397E+03  9.989863E+02
      3342   1 -6.425245E+06 -1.214597E+02  2.388570E+02  9.134756E+05 -4.572236E+03  7.215313E+01
      3343   1 -6.424960E+06  1.281701E+02  1.062195E+01  9.643668E+05 -3.495216E+03  1.291964E+03
      3344   1 -6.425174E+06  7.967103E+02 -2.470741E+02  1.032702E+06 -1.350752E+03  8.441052E+01
      3345   1 -1.284929E+07  1.622158E+03  2.479795E+03  9.330362E+05  3.063621E+03 -6.661012E+02
      3346   1 -1.285063E+07 -2.573113E+02 -1.773791E+03  8.660072E+05  8.493891E+03  6.958210E+01
      3347   1 -1.285013E+07  2.977449E+02  8.974939E+02  8.177291E+05  1.086028E+04 -1.269992E+03
      3348   1 -1.285077E+07 -1.229352E+03 -1.110868E+03  7.854065E+05  9.831750E+03  2.122598E+02
      3349   1 -1.285054E+07  2.081999E+01 -2.760736E+02  7.671993E+05  5.801120E+03 -1.872319E+02
      3350   1 -1.285077E+07 -7.779326E+02 -1.530455E+03  7.612863E+05  4.982074E-04  1.638345E-05
      3351   1 -1.285054E+07  2.082000E+01 -2.760736E+02  7.671993E+05 -5.801119E+03  1.872319E+02
      3352   1 -1.285077E+07 -1.229352E+03 -1.110868E+03  7.854065E+05 -9.831749E+03 -2.122597E+02
      3353   1 -1.285013E+07  2.977449E+02  8.974939E+02  8.177291E+05 -1.086028E+04  1.269992E+03
      3354   1 -1.285063E+07 -2.573113E+02 -1.773791E+03  8.660072E+05 -8.493891E+03 -6.958210E+01
      3355   1 -1.284929E+07  1.622158E+03  2.479795E+03  9.330362E+05 -3.063621E+03  6.661012E+02
      3356   1 -1.927573E+07  2.395494E+03 -1.458628E+03  7.641718E+05  6.632388E+03  1.693707E+02
      3357   1 -1.927497E+07  1.574129E+02 -6.079203E+01  7.009730E+05  1.675387E+04 -1.686120E+03
      3358   1 -1.927586E+07 -1.019437E+03  9.100553E+02  6.575369E+05  2.133291E+04  6.856423E+02
      3359   1 -1.927635E+07 -9.414635E+02 -3.001980E+03  6.306507E+05  1.907197E+04  1.901788E+02
      3360   1 -1.927570E+07  2.153714E+02 -9.834217E+01  6.158438E+05  1.087500E+04  1.528662E+02
      3361   1 -1.927647E+07 -9.940351E+02 -3.273837E+03  6.110334E+05  7.900592E-04 -1.591035E-05
      3362   1 -1.927570E+07  2.153714E+02 -9.834214E+01  6.158438E+05 -1.087500E+04 -1.528661E+02
      3363   1 -1.927635E+07 -9.414635E+02 -3.001980E+03  6.306507E+05 -1.907197E+04 -1.901788E+02
      3364   1 -1.927586E+07 -1.019437E+03  9.100553E+02  6.575369E+05 -2.133291E+04 -6.856423E+02
      3365   1 -1.927497E+07  1.574129E+02 -6.079205E+01  7.009730E+05 -1.675386E+04  1.686120E+03
      3366   1 -1.927573E+07  2.395494E+03 -1.458628E+03  7.641718E+05 -6.632388E+03 -1.693707E+02
      3367   1 -2.569777E+07  3.817575E+03  6.796688E+03  5.228523E+05  1.215074E+04 -1.578405E+03
      3368   1 -2.570180E+07 -2.610336E+03 -2.992688E+03  4.661254E+05  3.334356E+04  1.555503E+03
      3369   1 -2.570151E+07 -1.745558E+02 -1.195696E+03  4.351173E+05  4.070912E+04  1.115218E+03
      3370   1 -2.570154E+07 -5.150230E+02 -4.022983E+03  4.171160E+05  3.372754E+04  3.335658E+02
      3371   1 -2.570134E+07 -8.203997E+01 -1.157922E+03  4.072012E+05  1.882652E+04  2.754425E+02
      3372   1 -2.570150E+07 -2.744573E+02 -4.094087E+03  4.041708E+05  1.127039E-03  6.004661E-06
      3373   1 -2.570134E+07 -8.203999E+01 -1.157922E+03  4.072012E+05 -1.882652E+04 -2.754426E+02
      3374   1 -2.570154E+07 -5.150230E+02 -4.022983E+03  4.171160E+05 -3.372754E+04 -3.335658E+02
      3375   1 -2.570151E+07 -1.745557E+02 -1.195697E+03  4.351173E+05 -4.070912E+04 -1.115218E+03
      3376   1 -2.570180E+07 -2.610336E+03 -2.992688E+03  4.661254E+05 -3.334356E+04 -1.555503E+03
      3377   1 -2.569777E+07  3.817575E+03  6.796688E+03  5.228523E+05 -1.215074E+04  1.578405E+03
      3378   1 -3.212816E+07  3.018577E+03 -7.763094E+03  1.919433E+05  3.279990E+04  2.414891E+03
      3379   1 -3.212900E+07 -3.688127E+03 -8.468924E+03  1.650224E+05  7.094689E+04  1.525847E+03
      3380   1 -3.212635E+07  2.210853E+03 -2.481075E+03  1.546420E+05  7.219064E+04  2.861688E+02
      3381   1 -3.212775E+07 -2.139331E+03 -5.894763E+03  1.478604E+05  5.633309E+04  3.618756E+02
      3382   1 -3.212606E+07  1.691052E+03 -1.502787E+03  1.445644E+05  3.037980E+04  4.798437E+01
      3383   1 -3.212751E+07 -1.812713E+03 -5.415432E+03  1.433924E+05  1.523202E-03 -2.208259E-06
      3384   1 -3.212606E+07  1.691052E+03 -1.502787E+03  1.445644E+05 -3.037980E+04 -4.798436E+01
      3385   1 -3.212775E+07 -2.139331E+03 -5.894763E+03  1.478604E+05 -5.633309E+04 -3.618757E+02
      3386   1 -3.212635E+07  2.210854E+03 -2.481075E+03  1.546420E+05 -7.219063E+04 -2.861688E+02
      3387   1 -3.212900E+07 -3.688127E+03 -8.468924E+03  1.650224E+05 -7.094689E+04 -1.525847E+03
      3388   1 -3.212816E+07  3.018577E+03 -7.763094E+03  1.919433E+05 -3.279990E+04 -2.414891E+03
      3389   1  3.181017E+07 -1.628813E+03  1.142253E+04  1.920506E+05 -3.281573E+04  2.447023E+03
      3390   1  3.181050E+07  2.225514E+03  4.728497E+03  1.649770E+05 -7.091464E+04  1.478034E+03
      3391   1  3.180879E+07 -9.205748E+02  5.986122E+03  1.546922E+05 -7.224070E+04  3.031954E+02
      3392   1  3.180900E+07  6.453653E+02  2.278165E+03  1.478414E+05 -5.629909E+04  3.449591E+02
      3393   1  3.180869E+07 -3.666320E+02  4.971985E+03  1.446028E+05 -3.040271E+04  5.287340E+01
      3394   1  3.180869E+07  3.030343E+02  1.827336E+03  1.433808E+05 -1.522545E-03 -2.662358E-06
      3395   1  3.180869E+07 -3.666320E+02  4.971985E+03  1.446028E+05  3.040271E+04 -5.287340E+01
      3396   1  3.180900E+07  6.453654E+02  2.278165E+03  1.478414E+05  5.629909E+04 -3.449591E+02
      3397   1  3.180879E+07 -9.205749E+02  5.986122E+03  1.546922E+05  7.224070E+04 -3.031954E+02
      3398   1  3.181050E+07  2.225514E+03  4.728497E+03  1.649770E+05  7.091463E+04 -1.478034E+03
      3399   1  3.181017E+07 -1.628813E+03  1.142253E+04  1.920506E+05  3.281573E+04 -2.447023E+03
      3400   1  2.544344E+07 -2.801337E+03 -3.602285E+03  5.227199E+05 -1.217775E+04 -1.579003E+03
      3401   1  2.544706E+07  1.500886E+03 -9.543544E+01  4.661110E+05 -3.330366E+04  1.538084E+03
      3402   1  2.544751E+07  1.364323E+03  4.248936E+03  4.350730E+05 -4.076008E+04  1.102567E+03
      3403   1  2.544657E+07 -6.316653E+02  9.893266E+02  4.170886E+05 -3.369499E+04  3.268062E+02
      3404   1  2.544751E+07  1.303632E+03  4.177916E+03  4.071663E+05 -1.884841E+04  2.721621E+02
      3405   1  2.544647E+07 -8.885754E+02  1.076485E+03  4.041405E+05 -1.126775E-03  6.005909E-06
      3406   1  2.544751E+07  1.303632E+03  4.177916E+03  4.071663E+05  1.884841E+04 -2.721621E+02
      3407   1  2.544657E+07 -6.316653E+02  9.893265E+02  4.170886E+05  3.369499E+04 -3.268062E+02
      3408   1  2.544751E+07  1.364323E+03  4.248937E+03  4.350730E+05  4.076007E+04 -1.102567E+03
      3409   1  2.544706E+07  1.500886E+03 -9.543547E+01  4.661110E+05  3.330366E+04 -1.538084E+03
      3410   1  2.544344E+07 -2.801337E+03 -3.602285E+03  5.227199E+05  1.217775E+04  1.579003E+03
      3411   1  1.908492E+07 -1.451658E+03  3.885374E+03  7.642892E+05 -6.640135E+03  1.738697E+02
      3412   1  1.908384E+07 -1.004986E+03 -2.308334E+03  7.010451E+05 -1.673206E+04 -1.668761E+03
      3413   1  1.908531E+07  1.877257E+03  1.406270E+03  6.575862E+05 -2.136892E+04  6.723131E+02
      3414   1  1.908506E+07  4.125548E+01  6.638170E+02  6.307278E+05 -1.904826E+04  1.865659E+02
      3415   1  1.908527E+07  6.876944E+02  2.377705E+03  6.159035E+05 -1.089136E+04  1.485768E+02
      3416   1  1.908513E+07  8.016705E+01  9.468676E+02  6.111146E+05 -7.899181E-04 -1.708902E-05
      3417   1  1.908527E+07  6.876944E+02  2.377705E+03  6.159035E+05  1.089136E+04 -1.485768E+02
      3418   1  1.908506E+07  4.125547E+01  6.638170E+02  6.307278E+05  1.904826E+04 -1.865659E+02
      3419   1  1.908531E+07  1.877257E+03  1.406270E+03  6.575862E+05  2.136892E+04 -6.723131E+02
      3420   1  1.908384E+07 -1.004986E+03 -2.308334E+03  7.010451E+05  1.673206E+04  1.668761E+03
      3421   1  1.908492E+07 -1.451658E+03  3.885374E+03  7.642892E+05  6.640135E+03 -1.738697E+02
      3422   1  1.272213E+07 -1.124722E+03 -8.503334E+02  9.328587E+05 -3.077436E+03 -6.663864E+02
      3423   1  1.272327E+07 -3.368188E+02  1.763739E+02  8.659156E+05 -8.476100E+03  6.120412E+01
      3424   1  1.272315E+07  2.913702E+02  6.833392E+02  8.176389E+05 -1.088447E+04 -1.261502E+03
      3425   1  1.272329E+07  6.023516E+02 -4.437234E+02  7.853291E+05 -9.817075E+03  2.065667E+02
      3426   1  1.272365E+07  5.768463E+02  1.825460E+03  7.671084E+05 -5.811663E+03 -1.875443E+02
      3427   1  1.272326E+07  1.459848E+02 -1.861827E+01  7.612094E+05 -4.980231E-04  1.678313E-05
      3428   1  1.272365E+07  5.768462E+02  1.825460E+03  7.671084E+05  5.811662E+03  1.875443E+02
      3429   1  1.272329E+07  6.023517E+02 -4.437235E+02  7.853291E+05  9.817074E+03 -2.065667E+02
      3430   1  1.272315E+07  2.913702E+02  6.833393E+02  8.176389E+05  1.088447E+04  1.261502E+03
      3431   1  1.272327E+07 -3.368188E+02  1.763739E+02  8.659156E+05  8.476100E+03 -6.120413E+01
      3432   1  1.272213E+07 -1.124722E+03 -8.503334E+02  9.328587E+05  3.077436E+03  6.663864E+02
      3433   1  6.361570E+06 -4.687598E+02  1.073258E+03  1.032850E+06 -1.353470E+03 -8.276345E+01
      3434   1  6.361244E+06 -4.030561E+02 -8.112044E+02  9.644889E+05 -3.487399E+03 -1.279197E+03
      3435   1  6.361726E+06  4.243289E+02  5.471895E+02  9.135627E+05 -4.585010E+03 -7.825848E+01
      3436   1  6.361565E+06 -2.370876E+01 -1.086957E+02  8.789276E+05 -4.168149E+03 -9.931555E+02
      3437   1  6.361759E+06  5.473559E+02  5.017259E+02  8.587932E+05 -2.459794E+03  2.310067E+01
      3438   1  6.361670E+06  1.714840E+01  2.054368E+02  8.522736E+05 -2.409029E-04 -1.088861E-05
      3439   1  6.361759E+06  5.473559E+02  5.017259E+02  8.587932E+05  2.459793E+03 -2.310064E+01
      3440   1  6.361565E+06 -2.370877E+01 -1.086957E+02  8.789276E+05  4.168148E+03  9.931554E+02
      3441   1  6.361726E+06  4.243289E+02  5.471895E+02  9.135627E+05  4.585010E+03  7.825847E+01
      3442   1  6.361244E+06 -4.030561E+02 -8.112044E+02  9.644889E+05  3.487398E+03  1.279197E+03
      3443   1  6.361570E+06 -4.687598E+02  1.073258E+03  1.032850E+06  1.353470E+03  8.276345E+01
      3444   1  6.958716E-03 -6.401041E-06 -6.154599E-06  1.065853E+06 -1.315933E-06 -5.160403E+02
      3445   1  6.958995E-03  4.334144E-06 -1.401098E-05  9.970301E+05 -3.761673E-06 -2.093090E+02
      3446   1  6.964639E-03  6.417772E-06  6.897103E-06  9.455322E+05 -5.562688E-06 -1.368263E+03
      3447   1  6.958517E-03 -2.420766E-06 -1.490686E-07  9.100243E+05 -4.664343E-06 -7.343536E+01
      3448   1  6.960767E-03  7.133996E-06  4.475795E-06  8.894273E+05 -2.865618E-06 -5.676729E+02
      3449   1  6.955859E-03 -4.337103E-06  7.496973E-07  8.826368E+05 -4.067430E-07  1.187573E-05
      3450   1  6.956778E-03  1.884025E-06  2.858871E-06  8.894273E+05  2.980241E-06  5.676729E+02
      3451   1  6.953436E-03 -3.575397E-06 -7.751951E-07  9.100243E+05  4.324906E-06  7.343538E+01
      3452   1  6.956160E-03  3.128423E-06  5.776605E-06  9.455322E+05  4.838029E-06  1.368263E+03
      3453   1  6.949046E-03  4.092160E-06 -1.399511E-05  9.970301E+05  3.995677E-06  2.093090E+02
      3454   1  6.946145E-03 -5.094187E-06 -5.814254E-06  1.065853E+06  1.144921E-06  5.160403E+02
      3455   1 -6.361570E+06  4.687598E+02 -1.073258E+03  1.032850E+06  1.353470E+03 -8.276346E+01
      3456   1 -6.361244E+06  4.030561E+02  8.112045E+02  9.644889E+05  3.487399E+03 -1.279197E+03
      3457   1 -6.361726E+06 -4.243289E+02 -5.471895E+02  9.135627E+05  4.585010E+03 -7.825848E+01
      3458   1 -6.361565E+06  2.370876E+01  1.086957E+02  8.789276E+05  4.168149E+03 -9.931555E+02
      3459   1 -6.361759E+06 -5.473559E+02 -5.017259E+02  8.587932E+05  2.459794E+03  2.310067E+01
      3460   1 -6.361670E+06 -1.714840E+01 -2.054368E+02  8.522736E+05  2.408199E-04 -1.028860E-05
      3461   1 -6.361759E+06 -5.473559E+02 -5.017259E+02  8.587932E+05 -2.459793E+03 -2.310064E+01
      3462   1 -6.361565E+06  2.370877E+01  1.086957E+02  8.789276E+05 -4.168148E+03  9.931555E+02
      3463   1 -6.361726E+06 -4.243289E+02 -5.471895E+02  9.135627E+05 -4.585010E+03  7.825847E+01
      3464   1 -6.361244E+06  4.030561E+02  8.112044E+02  9.644889E+05 -3.487398E+03  1.279197E+03
      3465   1 -6.361570E+06  4.687598E+02 -1.073258E+03  1.032850E+06 -1.353470E+03  8.276346E+01
      3466   1 -1.272213E+07  1.124722E+03  8.503334E+02  9.328587E+05  3.077436E+03 -6.663864E+02
      3467   1 -1.272327E+07  3.368188E+02 -1.763739E+02  8.659156E+05  8.476100E+03  6.120413E+01
      3468   1 -1.272315E+07 -2.913702E+02 -6.833392E+02  8.176389E+05  1.088447E+04 -1.261502E+03
      3469   1 -1.272329E+07 -6.023517E+02  4.437234E+02  7.853291E+05  9.817075E+03  2.065667E+02
      3470   1 -1.272365E+07 -5.768463E+02 -1.825460E+03  7.671084E+05  5.811663E+03 -1.875443E+02
      3471   1 -1.272326E+07 -1.459849E+02  1.861828E+01  7.612094E+05  4.978888E-04  1.688792E-05
      3472   1 -1.272365E+07 -5.768462E+02 -1.825460E+03  7.671084E+05 -5.811662E+03  1.875443E+02
      3473   1 -1.272329E+07 -6.023517E+02  4.437235E+02  7.853291E+05 -9.817074E+03 -2.065667E+02
      3474   1 -1.272315E+07 -2.913702E+02 -6.833393E+02  8.176389E+05 -1.088447E+04  1.261502E+03
      3475   1 -1.272327E+07  3.368188E+02 -1.763739E+02  8.659156E+05 -8.476100E+03 -6.120413E+01
      3476   1 -1.272213E+07  1.124722E+03  8.503334E+02  9.328587E+05 -3.077436E+03  6.663864E+02
      3477   1 -1.908492E+07  1.451658E+03 -3.885374E+03  7.642892E+05  6.640135E+03  1.738697E+02
      3478   1 -1.908384E+07  1.004986E+03  2.308334E+03  7.010451E+05  1.673206E+04 -1.668761E+03
      3479   1 -1.908531E+07 -1.877257E+03 -1.406270E+03  6.575862E+05  2.136892E+04  6.723131E+02
      3480   1 -1.908506E+07 -4.125549E+01 -6.638170E+02  6.307278E+05  1.904826E+04  1.865659E+02
      3481   1 -1.908527E+07 -6.876944E+02 -2.377705E+03  6.159035E+05  1.089136E+04  1.485768E+02
      3482   1 -1.908513E+07 -8.016705E+01 -9.468676E+02  6.111146E+05  7.897836E-04 -1.624306E-05
      3483   1 -1.908527E+07 -6.876944E+02 -2.377705E+03  6.159035E+05 -1.089136E+04 -1.485768E+02
      3484   1 -1.908506E+07 -4.125547E+01 -6.638170E+02  6.307278E+05 -1.904826E+04 -1.865659E+02
      3485   1 -1.908531E+07 -1.877257E+03 -1.406270E+03  6.575862E+05 -2.136892E+04 -6.723131E+02
      3486   1 -1.908384E+07  1.004986E+03  2.308334E+03  7.010451E+05 -1.673206E+04  1.668761E+03
      3487   1 -1.908492E+07  1.451658E+03 -3.885374E+03  7.642892E+05 -6.640135E+03 -1.738697E+02
      3488   1 -2.544344E+07  2.801337E+03  3.602285E+03  5.227199E+05  1.217775E+04 -1.579003E+03
      3489   1 -2.544706E+07 -1.500886E+03  9.543542E+01  4.661110E+05  3.330366E+04  1.538084E+03
      3490   1 -2.544751E+07 -1.364323E+03 -4.248936E+03  4.350730E+05  4.076008E+04  1.102567E+03
      3491   1 -2.544657E+07  6.316653E+02 -9.893266E+02  4.170886E+05  3.369499E+04  3.268062E+02
      3492   1 -2.544751E+07 -1.303632E+03 -4.177916E+03  4.071663E+05  1.884841E+04  2.721621E+02
      3493   1 -2.544647E+07  8.885754E+02 -1.076485E+03  4.041405E+05  1.126448E-03  6.098905E-06
      3494   1 -2.544751E+07 -1.303632E+03 -4.177916E+03  4.071663E+05 -1.884841E+04 -2.721621E+02
      3495   1 -2.544657E+07  6.316653E+02 -9.893265E+02  4.170886E+05 -3.369499E+04 -3.268062E+02
      3496   1 -2.544751E+07 -1.364323E+03 -4.248937E+03  4.350730E+05 -4.076007E+04 -1.102567E+03
      3497   1 -2.544706E+07 -1.500886E+03  9.543546E+01  4.661110E+05 -3.330366E+04 -1.538084E+03
      3498   1 -2.544344E+07  2.801337E+03  3.602285E+03  5.227199E+05 -1.217775E+04  1.579003E+03
      3499   1 -3.181017E+07  1.628813E+03 -1.142253E+04  1.920506E+05  3.281573E+04  2.447023E+03
      3500   1 -3.181050E+07 -2.225514E+03 -4.728497E+03  1.649770E+05  7.091464E+04  1.478034E+03
      3501   1 -3.180879E+07  9.205748E+02 -5.986122E+03  1.546922E+05  7.224070E+04  3.031954E+02
      3502   1 -3.180900E+07 -6.453653E+02 -2.278165E+03  1.478414E+05  5.629909E+04  3.449591E+02
      3503   1 -3.180869E+07  3.666320E+02 -4.971985E+03  1.446028E+05  3.040271E+04  5.287340E+01
      3504   1 -3.180869E+07 -3.030343E+02 -1.827336E+03  1.433808E+05  1.522574E-03 -1.881216E-06
      3505   1 -3.180869E+07  3.666320E+02 -4.971985E+03  1.446028E+05 -3.040271E+04 -5.287340E+01
      3506   1 -3.180900E+07 -6.453654E+02 -2.278165E+03  1.478414E+05 -5.629909E+04 -3.449591E+02
      3507   1 -3.180879E+07  9.205750E+02 -5.986122E+03  1.546922E+05 -7.224070E+04 -3.031954E+02
      3508   1 -3.181050E+07 -2.225514E+03 -4.728497E+03  1.649770E+05 -7.091463E+04 -1.478034E+03
      3509   1 -3.181017E+07  1.628813E+03 -1.142253E+04  1.920506E+05 -3.281573E+04 -2.447023E+03
      3510   1  3.149195E+07 -2.706810E+03  8.267763E+03  1.919644E+05 -3.280563E+04  2.377381E+03
      3511   1  3.149270E+07  3.378033E+03  7.665759E+03  1.650160E+05 -7.095047E+04  1.488466E+03
      3512   1  3.149028E+07 -1.933382E+03  3.053460E+03  1.546547E+05 -7.220808E+04  2.826680E+02
      3513   1  3.149145E+07  1.852227E+03  5.164957E+03  1.478612E+05 -5.633388E+04  3.508769E+02
      3514   1  3.149005E+07 -1.416592E+03  2.090553E+03  1.445769E+05 -3.038731E+04  4.725034E+01
      3515   1  3.149121E+07  1.529131E+03  4.702606E+03  1.433957E+05 -1.522908E-03 -2.976295E-06
      3516   1  3.149005E+07 -1.416592E+03  2.090553E+03  1.445769E+05  3.038731E+04 -4.725033E+01
      3517   1  3.149145E+07  1.852227E+03  5.164957E+03  1.478612E+05  5.633387E+04 -3.508770E+02
      3518   1  3.149028E+07 -1.933382E+03  3.053460E+03  1.546547E+05  7.220808E+04 -2.826680E+02
      3519   1  3.149270E+07  3.378033E+03  7.665759E+03  1.650160E+05  7.095047E+04 -1.488466E+03
      3520   1  3.149195E+07 -2.706810E+03  8.267763E+03  1.919644E+05  3.280563E+04 -2.377381E+03
      3521   1  2.518889E+07 -3.590232E+03 -6.126380E+03  5.228129E+05 -1.215998E+04 -1.551583E+03
      3522   1  2.519280E+07  2.356928E+03  2.402009E+03  4.661114E+05 -3.334420E+04  1.521070E+03
      3523   1  2.519265E+07  3.622361E+02  1.699338E+03  4.351010E+05 -4.072713E+04  1.088747E+03
      3524   1  2.519252E+07  2.924345E+02  3.425510E+03  4.171058E+05 -3.372811E+04  3.227452E+02
      3525   1  2.519254E+07  2.755202E+02  1.658820E+03  4.071915E+05 -1.883403E+04  2.678305E+02
      3526   1  2.519249E+07  5.285278E+01  3.499800E+03  4.041626E+05 -1.126745E-03  5.518108E-06
      3527   1  2.519254E+07  2.755202E+02  1.658820E+03  4.071915E+05  1.883403E+04 -2.678305E+02
      3528   1  2.519252E+07  2.924345E+02  3.425510E+03  4.171058E+05  3.372811E+04 -3.227452E+02
      3529   1  2.519265E+07  3.622360E+02  1.699338E+03  4.351010E+05  4.072713E+04 -1.088747E+03
      3530   1  2.519280E+07  2.356928E+03  2.402009E+03  4.661114E+05  3.334420E+04 -1.521070E+03
      3531   1  2.518889E+07 -3.590232E+03 -6.126380E+03  5.228129E+05  1.215998E+04  1.551583E+03
      3532   1  1.889401E+07 -2.172929E+03  1.854323E+03  7.641987E+05 -6.636159E+03  1.649823E+02
      3533   1  1.889322E+07 -2.838875E+02 -3.436736E+02  7.009954E+05 -1.675704E+04 -1.657706E+03
      3534   1  1.889421E+07  1.164269E+03 -4.911094E+02  6.575605E+05 -2.134654E+04  6.647573E+02
      3535   1  1.889457E+07  7.861989E+02  2.552074E+03  6.306844E+05 -1.907313E+04  1.809865E+02
      3536   1  1.889408E+07 -4.030105E+01  4.945629E+02  6.158775E+05 -1.088089E+04  1.464151E+02
      3537   1  1.889469E+07  8.356188E+02  2.822344E+03  6.110724E+05 -7.901564E-04 -1.727265E-05
      3538   1  1.889408E+07 -4.030105E+01  4.945629E+02  6.158775E+05  1.088088E+04 -1.464150E+02
      3539   1  1.889457E+07  7.861989E+02  2.552074E+03  6.306844E+05  1.907313E+04 -1.809865E+02
      3540   1  1.889421E+07  1.164269E+03 -4.911095E+02  6.575605E+05  2.134654E+04 -6.647573E+02
      3541   1  1.889322E+07 -2.838875E+02 -3.436735E+02  7.009954E+05  1.675704E+04  1.657706E+03
      3542   1  1.889401E+07 -2.172929E+03  1.854323E+03  7.641987E+05  6.636158E+03 -1.649823E+02
      3543   1  1.259484E+07 -1.519706E+03 -2.157566E+03  9.329711E+05 -3.068661E+03 -6.567568E+02
      3544   1  1.259613E+07  1.395229E+02  1.464254E+03  8.659644E+05 -8.495551E+03  6.016743E+01
      3545   1  1.259572E+07 -2.017665E+02 -6.114093E+02  8.176934E+05 -1.086972E+04 -1.253013E+03
      3546   1  1.259627E+07  1.087834E+03  8.220765E+02  7.853784E+05 -9.833059E+03  2.012751E+02
      3547   1  1.259615E+07  7.032062E+01  5.364869E+02  7.671720E+05 -5.805076E+03 -1.873580E+02
      3548   1  1.259627E+07  6.431395E+02  1.235904E+03  7.612628E+05 -4.986404E-04  1.586733E-05
      3549   1  1.259615E+07  7.032061E+01  5.364869E+02  7.671720E+05  5.805075E+03  1.873579E+02
      3550   1  1.259627E+07  1.087834E+03  8.220764E+02  7.853784E+05  9.833058E+03 -2.012751E+02
      3551   1  1.259572E+07 -2.017665E+02 -6.114093E+02  8.176934E+05  1.086972E+04  1.253013E+03
      3552   1  1.259613E+07  1.395229E+02  1.464254E+03  8.659644E+05  8.495550E+03 -6.016743E+01
      3553   1  1.259484E+07 -1.519706E+03 -2.157566E+03  9.329711E+05  3.068661E+03  6.567568E+02
      3554   1  6.297933E+06 -7.185639E+02  3.866286E+02  1.032736E+06 -1.352128E+03 -8.592870E+01
      3555   1  6.297708E+06 -1.659806E+02 -1.466446E+02  9.644020E+05 -3.496384E+03 -1.273573E+03
      3556   1  6.298026E+06  1.783696E+02 -9.768822E+01  9.135117E+05 -4.577190E+03 -8.034784E+01
      3557   1  6.298075E+06  2.227920E+02  5.337432E+02  8.788593E+05 -4.176889E+03 -9.868040E+02
      3558   1  6.298032E+06  2.901013E+02 -1.351478E+02  8.587390E+05 -2.456207E+03  2.128275E+01
      3559   1  6.298194E+06  2.668918E+02  8.415846E+02  8.522070E+05 -2.409979E-04 -9.400132E-06
      3560   1  6.298032E+06  2.901013E+02 -1.351478E+02  8.587390E+05  2.456206E+03 -2.128272E+01
      3561   1  6.298075E+06  2.227920E+02  5.337432E+02  8.788593E+05  4.176889E+03  9.868040E+02
      3562   1  6.298026E+06  1.783696E+02 -9.768823E+01  9.135117E+05  4.577190E+03  8.034783E+01
      3563   1  6.297708E+06 -1.659806E+02 -1.466445E+02  9.644020E+05  3.496383E+03  1.273573E+03
      3564   1  6.297933E+06 -7.185639E+02  3.866286E+02  1.032736E+06  1.352128E+03  8.592871E+01
      3565   1  6.888885E-03 -6.107150E-06 -9.027184E-06  1.065976E+06 -7.890781E-07 -5.097091E+02
      3566   1  6.889898E-03  5.773620E-06 -1.157103E-05  9.970958E+05 -3.820520E-06 -2.080726E+02
      3567   1  6.893903E-03  4.460140E-06  3.626124E-06  9.456006E+05 -5.350841E-06 -1.358791E+03
      3568   1  6.889730E-03 -2.212206E-06  2.298735E-06  9.100872E+05 -5.051771E-06 -7.683878E+01
      3569   1  6.889128E-03  8.208844E-08 -8.242542E-08  8.895072E+05 -2.803556E-06 -5.637377E+02
      3570   1  6.887030E-03 -5.029594E-06  3.085093E-06  8.827046E+05  1.746002E-07  1.272732E-05
      3571   1  6.885807E-03 -2.315222E-06 -1.449465E-06  8.895072E+05  2.706538E-06  5.637377E+02
      3572   1  6.884590E-03 -1.882535E-06  2.182064E-06  9.100872E+05  4.229325E-06  7.683879E+01
      3573   1  6.885495E-03  1.550616E-06  2.848984E-06  9.456006E+05  5.395466E-06  1.358791E+03
      3574   1  6.880165E-03  4.577518E-06 -1.098239E-05  9.970958E+05  3.386884E-06  2.080726E+02
      3575   1  6.877104E-03 -5.648393E-06 -9.838621E-06  1.065976E+06  7.847983E-07  5.097090E+02
      3576   1 -6.297933E+06  7.185639E+02 -3.866287E+02  1.032736E+06  1.352128E+03 -8.592871E+01
      3577   1 -6.297708E+06  1.659806E+02  1.466446E+02  9.644020E+05  3.496384E+03 -1.273573E+03
      3578   1 -6.298026E+06 -1.783696E+02  9.768821E+01  9.135117E+05  4.577190E+03 -8.034783E+01
      3579   1 -6.298075E+06 -2.227920E+02 -5.337432E+02  8.788593E+05  4.176889E+03 -9.868040E+02
      3580   1 -6.298032E+06 -2.901013E+02  1.351478E+02  8.587390E+05  2.456207E+03  2.128275E+01
      3581   1 -6.298194E+06 -2.668918E+02 -8.415846E+02  8.522070E+05  2.406366E-04 -9.694782E-06
      3582   1 -6.298032E+06 -2.901013E+02  1.351478E+02  8.587390E+05 -2.456206E+03 -2.128272E+01
      3583   1 -6.298075E+06 -2.227920E+02 -5.337432E+02  8.788593E+05 -4.176889E+03  9.868040E+02
      3584   1 -6.298026E+06 -1.783696E+02  9.768823E+01  9.135117E+05 -4.577190E+03  8.034782E+01
      3585   1 -6.297708E+06  1.659806E+02  1.466446E+02  9.644020E+05 -3.496383E+03  1.273573E+03
      3586   1 -6.297933E+06  7.185639E+02 -3.866287E+02  1.032736E+06 -1.352128E+03  8.592872E+01
      3587   1 -1.259484E+07  1.519706E+03  2.157566E+03  9.329711E+05  3.068661E+03 -6.567568E+02
      3588   1 -1.259613E+07 -1.395229E+02 -1.464254E+03  8.659644E+05  8.495551E+03  6.016743E+01
      3589   1 -1.259572E+07  2.017665E+02  6.114093E+02  8.176934E+05  1.086972E+04 -1.253013E+03
      3590   1 -1.259627E+07 -1.087834E+03 -8.220765E+02  7.853784E+05  9.833059E+03  2.012751E+02
      3591   1 -1.259615E+07 -7.032062E+01 -5.364869E+02  7.671720E+05  5.805076E+03 -1.873580E+02
      3592   1 -1.259627E+07 -6.431395E+02 -1.235904E+03  7.612628E+05  4.983822E-04  1.690598E-05
      3593   1 -1.259615E+07 -7.032061E+01 -5.364869E+02  7.671720E+05 -5.805075E+03  1.873579E+02
      3594   1 -1.259627E+07 -1.087834E+03 -8.220764E+02  7.853784E+05 -9.833058E+03 -2.012751E+02
      3595   1 -1.259572E+07  2.017665E+02  6.114093E+02  8.176934E+05 -1.086972E+04  1.253013E+03
      3596   1 -1.259613E+07 -1.395229E+02 -1.464254E+03  8.659644E+05 -8.495550E+03 -6.016744E+01
      3597   1 -1.259484E+07  1.519706E+03  2.157566E+03  9.329711E+05 -3.068661E+03  6.567568E+02
      3598   1 -1.889401E+07  2.172929E+03 -1.854323E+03  7.641987E+05  6.636159E+03  1.649823E+02
      3599   1 -1.889322E+07  2.838875E+02  3.436736E+02  7.009954E+05  1.675704E+04 -1.657706E+03
      3600   1 -1.889421E+07 -1.164269E+03  4.911094E+02  6.575605E+05  2.134654E+04  6.647573E+02
      3601   1 -1.889457E+07 -7.861989E+02 -2.552074E+03  6.306844E+05  1.907313E+04  1.809865E+02
      3602   1 -1.889408E+07  4.030105E+01 -4.945629E+02  6.158775E+05  1.088089E+04  1.464151E+02
      3603   1 -1.889469E+07 -8.356188E+02 -2.822344E+03  6.110724E+05  7.898864E-04 -1.681351E-05
      3604   1 -1.889408E+07  4.030105E+01 -4.945629E+02  6.158775E+05 -1.088088E+04 -1.464150E+02
      3605   1 -1.889457E+07 -7.861989E+02 -2.552074E+03  6.306844E+05 -1.907313E+04 -1.809865E+02
      3606   1 -1.889421E+07 -1.164269E+03  4.911095E+02  6.575605E+05 -2.134654E+04 -6.647573E+02
      3607   1 -1.889322E+07  2.838875E+02  3.436735E+02  7.009954E+05 -1.675704E+04  1.657706E+03
      3608   1 -1.889401E+07  2.172929E+03 -1.854323E+03  7.641987E+05 -6.636158E+03 -1.649823E+02
      3609   1 -2.518889E+07  3.590232E+03  6.126380E+03  5.228129E+05  1.215998E+04 -1.551583E+03
      3610   1 -2.519280E+07 -2.356928E+03 -2.402009E+03  4.661114E+05  3.334420E+04  1.521070E+03
      3611   1 -2.519265E+07 -3.622361E+02 -1.699338E+03  4.351010E+05  4.072713E+04  1.088747E+03
      3612   1 -2.519252E+07 -2.924345E+02 -3.425510E+03  4.171058E+05  3.372811E+04  3.227452E+02
      3613   1 -2.519254E+07 -2.755202E+02 -1.658820E+03  4.071915E+05  1.883403E+04  2.678305E+02
      3614   1 -2.519249E+07 -5.285277E+01 -3.499800E+03  4.041626E+05  1.127125E-03  6.176208E-06
      3615   1 -2.519254E+07 -2.755202E+02 -1.658820E+03  4.071915E+05 -1.883403E+04 -2.678305E+02
      3616   1 -2.519252E+07 -2.924345E+02 -3.425510E+03  4.171058E+05 -3.372811E+04 -3.227452E+02
      3617   1 -2.519265E+07 -3.622360E+02 -1.699338E+03  4.351010E+05 -4.072713E+04 -1.088747E+03
      3618   1 -2.519280E+07 -2.356928E+03 -2.402009E+03  4.661114E+05 -3.334420E+04 -1.521070E+03
      3619   1 -2.518889E+07  3.590232E+03  6.126380E+03  5.228129E+05 -1.215998E+04  1.551583E+03
      3620   1 -3.149195E+07  2.706810E+03 -8.267763E+03  1.919644E+05  3.280563E+04  2.377381E+03
      3621   1 -3.149270E+07 -3.378033E+03 -7.665759E+03  1.650160E+05  7.095047E+04  1.488466E+03
      3622   1 -3.149028E+07  1.933382E+03 -3.053460E+03  1.546547E+05  7.220808E+04  2.826680E+02
      3623   1 -3.149145E+07 -1.852227E+03 -5.164957E+03  1.478612E+05  5.633388E+04  3.508769E+02
      3624   1 -3.149005E+07  1.416592E+03 -2.090553E+03  1.445769E+05  3.038731E+04  4.725034E+01
      3625   1 -3.149121E+07 -1.529131E+03 -4.702606E+03  1.433957E+05  1.523614E-03 -2.431609E-06
      3626   1 -3.149005E+07  1.416592E+03 -2.090553E+03  1.445769E+05 -3.038731E+04 -4.725033E+01
      3627   1 -3.149145E+07 -1.852227E+03 -5.164957E+03  1.478612E+05 -5.633387E+04 -3.508770E+02
      3628   1 -3.149028E+07  1.933382E+03 -3.053460E+03  1.546547E+05 -7.220808E+04 -2.826680E+02
      3629   1 -3.149270E+07 -3.378033E+03 -7.665759E+03  1.650160E+05 -7.095047E+04 -1.488466E+03
      3630   1 -3.149195E+07  2.706810E+03 -8.267763E+03  1.919644E+05 -3.280563E+04 -2.377381E+03
      3631   1  3.117393E+07 -1.795949E+03  1.065967E+04  1.920314E+05 -3.281754E+04  2.389336E+03
      3632   1  3.117433E+07  2.379597E+03  5.152904E+03  1.649817E+05 -7.092751E+04  1.452387E+03
      3633   1  3.117255E+07 -1.087226E+03  5.362918E+03  1.546834E+05 -7.224278E+04  2.928533E+02
      3634   1  3.117293E+07  8.373173E+02  2.738341E+03  1.478441E+05 -5.631114E+04  3.388116E+02
      3635   1  3.117244E+07 -5.502344E+02  4.378170E+03  1.445973E+05 -3.040328E+04  5.030872E+01
      3636   1  3.117264E+07  5.042929E+02  2.294492E+03  1.433832E+05 -1.522590E-03 -3.196257E-06
      3637   1  3.117244E+07 -5.502344E+02  4.378170E+03  1.445973E+05  3.040328E+04 -5.030872E+01
      3638   1  3.117293E+07  8.373174E+02  2.738341E+03  1.478441E+05  5.631114E+04 -3.388116E+02
      3639   1  3.117255E+07 -1.087226E+03  5.362917E+03  1.546834E+05  7.224278E+04 -2.928533E+02
      3640   1  3.117433E+07  2.379597E+03  5.152904E+03  1.649817E+05  7.092750E+04 -1.452387E+03
      3641   1  3.117393E+07 -1.795949E+03  1.065967E+04  1.920314E+05  3.281754E+04 -2.389336E+03
      3642   1  2.493453E+07 -2.875546E+03 -3.969620E+03  5.227399E+05 -1.217682E+04 -1.545991E+03
      3643   1  2.493814E+07  1.631334E+03  3.397519E+02  4.661151E+05 -3.331773E+04  1.504768E+03
      3644   1  2.493849E+07  1.176185E+03  3.733017E+03  4.350845E+05 -4.076131E+04  1.077079E+03
      3645   1  2.493771E+07 -4.506342E+02  1.394085E+03  4.171003E+05 -3.370681E+04  3.175088E+02
      3646   1  2.493848E+07  1.112488E+03  3.669232E+03  4.071811E+05 -1.884896E+04  2.649078E+02
      3647   1  2.493763E+07 -6.997760E+02  1.477784E+03  4.041553E+05 -1.126761E-03  5.064232E-06
      3648   1  2.493848E+07  1.112488E+03  3.669233E+03  4.071811E+05  1.884896E+04 -2.649079E+02
      3649   1  2.493771E+07 -4.506342E+02  1.394085E+03  4.171003E+05  3.370680E+04 -3.175088E+02
      3650   1  2.493849E+07  1.176185E+03  3.733017E+03  4.350845E+05  4.076130E+04 -1.077079E+03
      3651   1  2.493814E+07  1.631334E+03  3.397518E+02  4.661151E+05  3.331773E+04 -1.504768E+03
      3652   1  2.493453E+07 -2.875546E+03 -3.969621E+03  5.227399E+05  1.217682E+04  1.545991E+03
      3653   1  1.870320E+07 -1.559910E+03  3.462203E+03  7.642561E+05 -6.642238E+03  1.676270E+02
      3654   1  1.870220E+07 -8.716328E+02 -1.930872E+03  7.010228E+05 -1.674188E+04 -1.640121E+03
      3655   1  1.870357E+07  1.711781E+03  1.052367E+03  6.575717E+05 -2.137107E+04  6.543967E+02
      3656   1  1.870343E+07  1.589359E+02  9.732488E+02  6.307130E+05 -1.905762E+04  1.783925E+02
      3657   1  1.870352E+07  5.405401E+02  2.008721E+03  6.158939E+05 -1.089216E+04  1.433413E+02
      3658   1  1.870352E+07  1.984003E+02  1.248925E+03  6.111026E+05 -7.901213E-04 -1.630275E-05
      3659   1  1.870352E+07  5.405401E+02  2.008721E+03  6.158939E+05  1.089215E+04 -1.433412E+02
      3660   1  1.870343E+07  1.589359E+02  9.732489E+02  6.307130E+05  1.905762E+04 -1.783925E+02
      3661   1  1.870357E+07  1.711781E+03  1.052367E+03  6.575717E+05  2.137106E+04 -6.543967E+02
      3662   1  1.870220E+07 -8.716328E+02 -1.930872E+03  7.010228E+05  1.674188E+04  1.640121E+03
      3663   1  1.870320E+07 -1.559910E+03  3.462203E+03  7.642561E+05  6.642238E+03 -1.676270E+02
      3664   1  1.246766E+07 -1.163464E+03 -1.057698E+03  9.328843E+05 -3.077274E+03 -6.545235E+02
      3665   1  1.246881E+07 -2.402272E+02  3.960598E+02  8.659325E+05 -8.483552E+03  5.530726E+01
      3666   1  1.246865E+07  2.096466E+02  4.496062E+02  8.176611E+05 -1.088623E+04 -1.242508E+03
      3667   1  1.246886E+07  6.832372E+02 -2.167783E+02  7.853546E+05 -9.823373E+03  1.972064E+02
      3668   1  1.246913E+07  4.877452E+02  1.572196E+03  7.671396E+05 -5.812403E+03 -1.867191E+02
      3669   1  1.246884E+07  2.371605E+02  1.986738E+02  7.612397E+05 -4.985522E-04  1.668465E-05
      3670   1  1.246913E+07  4.877452E+02  1.572196E+03  7.671396E+05  5.812402E+03  1.867191E+02
      3671   1  1.246886E+07  6.832372E+02 -2.167783E+02  7.853546E+05  9.823372E+03 -1.972064E+02
      3672   1  1.246865E+07  2.096466E+02  4.496063E+02  8.176611E+05  1.088623E+04  1.242508E+03
      3673   1  1.246881E+07 -2.402272E+02  3.960597E+02  8.659325E+05  8.483551E+03 -5.530727E+01
      3674   1  1.246766E+07 -1.163464E+03 -1.057698E+03  9.328843E+05  3.077274E+03  6.545235E+02
      3675   1  6.234330E+06 -5.076631E+02  9.343133E+02  1.032803E+06 -1.354265E+03 -8.379151E+01
      3676   1  6.234030E+06 -3.587632E+02 -6.831466E+02  9.644520E+05 -3.491026E+03 -1.260266E+03
      3677   1  6.234478E+06  3.705644E+02  4.252594E+02  9.135375E+05 -4.585878E+03 -8.328858E+01
      3678   1  6.234359E+06  1.505851E+01  2.493623E+00  8.789032E+05 -4.171545E+03 -9.790544E+02
      3679   1  6.234509E+06  4.889853E+02  3.820480E+02  8.587741E+05 -2.460136E+03  1.947695E+01
      3680   1  6.234466E+06  5.546272E+01  3.098087E+02  8.522532E+05 -2.413833E-04 -1.033355E-05
      3681   1  6.234509E+06  4.889853E+02  3.820480E+02  8.587741E+05  2.460135E+03 -1.947692E+01
      3682   1  6.234359E+06  1.505850E+01  2.493638E+00  8.789032E+05  4.171544E+03  9.790544E+02
      3683   1  6.234478E+06  3.705644E+02  4.252594E+02  9.135375E+05  4.585878E+03  8.328857E+01
      3684   1  6.234030E+06 -3.587632E+02 -6.831466E+02  9.644520E+05  3.491026E+03  1.260266E+03
      3685   1  6.234330E+06 -5.076631E+02  9.343133E+02  1.032803E+06  1.354265E+03  8.379152E+01
      3686   1  6.819509E-03 -5.709448E-06 -6.888339E-06  1.065881E+06 -8.670051E-07 -5.079318E+02
      3687   1  6.820283E-03  5.139793E-06 -1.452751E-05  9.970514E+05 -3.912713E-06 -2.106498E+02
      3688   1  6.824183E-03  4.263133E-06  6.146310E-06  9.455589E+05 -5.176040E-06 -1.348033E+03
      3689   1  6.819951E-03 -1.624966E-07  6.466428E-07  9.100550E+05 -4.169720E-06 -7.807813E+01
      3690   1  6.820671E-03  3.441579E-06  3.489125E-06  8.894646E+05 -2.596178E-06 -5.596296E+02
      3691   1  6.816996E-03 -3.372152E-06  1.603542E-06  8.826730E+05  1.350572E-07  1.246212E-05
      3692   1  6.818565E-03  6.000583E-06  3.782338E-06  8.894646E+05  2.380542E-06  5.596296E+02
      3693   1  6.814287E-03 -2.277336E-06 -9.778641E-08  9.100550E+05  4.754173E-06  7.807814E+01
      3694   1  6.816230E-03  2.792691E-06  5.595568E-06  9.455589E+05  4.955544E-06  1.348033E+03
      3695   1  6.810546E-03  5.776104E-06 -1.353268E-05  9.970514E+05  3.755922E-06  2.106498E+02
      3696   1  6.807493E-03 -3.294103E-06 -5.583767E-06  1.065881E+06  1.316646E-06  5.079318E+02
      3697   1 -6.234330E+06  5.076631E+02 -9.343133E+02  1.032803E+06  1.354265E+03 -8.379152E+01
      3698   1 -6.234030E+06  3.587632E+02  6.831466E+02  9.644520E+05  3.491026E+03 -1.260266E+03
      3699   1 -6.234478E+06 -3.705644E+02 -4.252594E+02  9.135375E+05  4.585878E+03 -8.328858E+01
      3700   1 -6.234359E+06 -1.505851E+01 -2.493622E+00  8.789032E+05  4.171545E+03 -9.790544E+02
      3701   1 -6.234509E+06 -4.889853E+02 -3.820480E+02  8.587741E+05  2.460136E+03  1.947695E+01
      3702   1 -6.234466E+06 -5.546273E+01 -3.098087E+02  8.522532E+05  2.413151E-04 -1.024208E-05
      3703   1 -6.234509E+06 -4.889853E+02 -3.820480E+02  8.587741E+05 -2.460135E+03 -1.947692E+01
      3704   1 -6.234359E+06 -1.505850E+01 -2.493639E+00  8.789032E+05 -4.171544E+03  9.790544E+02
      3705   1 -6.234478E+06 -3.705644E+02 -4.252594E+02  9.135375E+05 -4.585878E+03  8.328857E+01
      3706   1 -6.234030E+06  3.587632E+02  6.831466E+02  9.644520E+05 -3.491026E+03  1.260266E+03
      3707   1 -6.234330E+06  5.076631E+02 -9.343133E+02  1.032803E+06 -1.354265E+03  8.379152E+01
      3708   1 -1.246766E+07  1.163464E+03  1.057698E+03  9.328843E+05  3.077274E+03 -6.545235E+02
      3709   1 -1.246881E+07  2.402272E+02 -3.960598E+02  8.659325E+05  8.483552E+03  5.530727E+01
      3710   1 -1.246865E+07 -2.096466E+02 -4.496062E+02  8.176611E+05  1.088623E+04 -1.242508E+03
      3711   1 -1.246886E+07 -6.832372E+02  2.167783E+02  7.853546E+05  9.823373E+03  1.972064E+02
      3712   1 -1.246913E+07 -4.877452E+02 -1.572196E+03  7.671396E+05  5.812403E+03 -1.867191E+02
      3713   1 -1.246884E+07 -2.371605E+02 -1.986738E+02  7.612397E+05  4.981569E-04  1.569240E-05
      3714   1 -1.246913E+07 -4.877452E+02 -1.572196E+03  7.671396E+05 -5.812402E+03  1.867191E+02
      3715   1 -1.246886E+07 -6.832372E+02  2.167783E+02  7.853546E+05 -9.823372E+03 -1.972064E+02
      3716   1 -1.246865E+07 -2.096466E+02 -4.496062E+02  8.176611E+05 -1.088623E+04  1.242508E+03
      3717   1 -1.246881E+07  2.402272E+02 -3.960597E+02  8.659325E+05 -8.483551E+03 -5.530727E+01
      3718   1 -1.246766E+07  1.163464E+03  1.057698E+03  9.328843E+05 -3.077274E+03  6.545235E+02
      3719   1 -1.870320E+07  1.559910E+03 -3.462203E+03  7.642561E+05  6.642238E+03  1.676270E+02
      3720   1 -1.870220E+07  8.716328E+02  1.930872E+03  7.010228E+05  1.674188E+04 -1.640121E+03
      3721   1 -1.870357E+07 -1.711781E+03 -1.052367E+03  6.575717E+05  2.137107E+04  6.543967E+02
      3722   1 -1.870343E+07 -1.589359E+02 -9.732488E+02  6.307130E+05  1.905762E+04  1.783925E+02
      3723   1 -1.870352E+07 -5.405401E+02 -2.008721E+03  6.158939E+05  1.089216E+04  1.433413E+02
      3724   1 -1.870352E+07 -1.984003E+02 -1.248925E+03  6.111026E+05  7.903304E-04 -1.603906E-05
      3725   1 -1.870352E+07 -5.405401E+02 -2.008721E+03  6.158939E+05 -1.089215E+04 -1.433412E+02
      3726   1 -1.870343E+07 -1.589359E+02 -9.732489E+02  6.307130E+05 -1.905762E+04 -1.783925E+02
      3727   1 -1.870357E+07 -1.711781E+03 -1.052367E+03  6.575717E+05 -2.137106E+04 -6.543967E+02
      3728   1 -1.870220E+07  8.716328E+02  1.930872E+03  7.010228E+05 -1.674188E+04  1.640121E+03
      3729   1 -1.870320E+07  1.559910E+03 -3.462203E+03  7.642561E+05 -6.642238E+03 -1.676270E+02
      3730   1 -2.493453E+07  2.875546E+03  3.969620E+03  5.227399E+05  1.217682E+04 -1.545991E+03
      3731   1 -2.493814E+07 -1.631334E+03 -3.397519E+02  4.661151E+05  3.331773E+04  1.504768E+03
      3732   1 -2.493849E+07 -1.176185E+03 -3.733017E+03  4.350845E+05  4.076131E+04  1.077079E+03
      3733   1 -2.493771E+07  4.506342E+02 -1.394085E+03  4.171003E+05  3.370681E+04  3.175088E+02
      3734   1 -2.493848E+07 -1.112488E+03 -3.669232E+03  4.071811E+05  1.884896E+04  2.649078E+02
      3735   1 -2.493763E+07  6.997760E+02 -1.477784E+03  4.041553E+05  1.126443E-03  5.794597E-06
      3736   1 -2.493848E+07 -1.112488E+03 -3.669233E+03  4.071811E+05 -1.884896E+04 -2.649079E+02
      3737   1 -2.493771E+07  4.506342E+02 -1.394085E+03  4.171003E+05 -3.370680E+04 -3.175088E+02
      3738   1 -2.493849E+07 -1.176185E+03 -3.733017E+03  4.350845E+05 -4.076130E+04 -1.077079E+03
      3739   1 -2.493814E+07 -1.631334E+03 -3.397518E+02  4.661151E+05 -3.331773E+04 -1.504768E+03
      3740   1 -2.493453E+07  2.875546E+03  3.969620E+03  5.227399E+05 -1.217682E+04  1.545991E+03
      3741   1 -3.117393E+07  1.795949E+03 -1.065967E+04  1.920314E+05  3.281754E+04  2.389336E+03
      3742   1 -3.117433E+07 -2.379597E+03 -5.152904E+03  1.649817E+05  7.092751E+04  1.452387E+03
      3743   1 -3.117255E+07  1.087226E+03 -5.362918E+03  1.546834E+05  7.224278E+04  2.928533E+02
      3744   1 -3.117293E+07 -8.373173E+02 -2.738341E+03  1.478441E+05  5.631114E+04  3.388116E+02
      3745   1 -3.117244E+07  5.502344E+02 -4.378170E+03  1.445973E+05  3.040328E+04  5.030872E+01
      3746   1 -3.117264E+07 -5.042929E+02 -2.294493E+03  1.433832E+05  1.522492E-03 -2.737432E-06
      3747   1 -3.117244E+07  5.502344E+02 -4.378170E+03  1.445973E+05 -3.040328E+04 -5.030872E+01
      3748   1 -3.117293E+07 -8.373174E+02 -2.738341E+03  1.478441E+05 -5.631114E+04 -3.388116E+02
      3749   1 -3.117255E+07  1.087226E+03 -5.362917E+03  1.546834E+05 -7.224278E+04 -2.928533E+02
      3750   1 -3.117433E+07 -2.379597E+03 -5.152904E+03  1.649817E+05 -7.092750E+04 -1.452387E+03
      3751   1 -3.117393E+07  1.795949E+03 -1.065967E+04  1.920314E+05 -3.281754E+04 -2.389336E+03
      3752   1  3.085575E+07 -2.493171E+03  8.534309E+03  1.919776E+05 -3.280955E+04  2.335917E+03
      3753   1  3.085643E+07  3.145086E+03  7.086017E+03  1.650106E+05 -7.095191E+04  1.454059E+03
      3754   1  3.085417E+07 -1.746580E+03  3.399554E+03  1.546615E+05 -7.221990E+04  2.786266E+02
      3755   1  3.085519E+07  1.644688E+03  4.646549E+03  1.478600E+05 -5.633473E+04  3.415703E+02
      3756   1  3.085398E+07 -1.235690E+03  2.450269E+03  1.445831E+05 -3.039273E+04  4.654946E+01
      3757   1  3.085495E+07  1.325954E+03  4.196383E+03  1.433958E+05 -1.522993E-03 -1.773330E-06
      3758   1  3.085398E+07 -1.235690E+03  2.450269E+03  1.445831E+05  3.039273E+04 -4.654946E+01
      3759   1  3.085519E+07  1.644688E+03  4.646549E+03  1.478600E+05  5.633473E+04 -3.415703E+02
      3760   1  3.085417E+07 -1.746580E+03  3.399554E+03  1.546615E+05  7.221990E+04 -2.786266E+02
      3761   1  3.085643E+07  3.145086E+03  7.086017E+03  1.650106E+05  7.095191E+04 -1.454059E+03
      3762   1  3.085575E+07 -2.493171E+03  8.534309E+03  1.919776E+05  3.280955E+04 -2.335917E+03
      3763   1  2.468003E+07 -3.407293E+03 -5.642647E+03  5.227929E+05 -1.216536E+04 -1.522723E+03
      3764   1  2.468382E+07  2.182860E+03  1.999930E+03  4.661068E+05 -3.334418E+04  1.488668E+03
      3765   1  2.468376E+07  4.908568E+02  2.016992E+03  4.350940E+05 -4.073889E+04  1.064663E+03
      3766   1  2.468353E+07  1.532702E+02  3.009088E+03  4.171022E+05 -3.372889E+04  3.140717E+02
      3767   1  2.468368E+07  4.091504E+02  1.972403E+03  4.071879E+05 -1.883928E+04  2.613323E+02
      3768   1  2.468349E+07 -8.376189E+01  3.083426E+03  4.041599E+05 -1.127402E-03  5.248573E-06
      3769   1  2.468368E+07  4.091504E+02  1.972403E+03  4.071879E+05  1.883928E+04 -2.613323E+02
      3770   1  2.468353E+07  1.532702E+02  3.009088E+03  4.171022E+05  3.372889E+04 -3.140716E+02
      3771   1  2.468376E+07  4.908567E+02  2.016992E+03  4.350940E+05  4.073889E+04 -1.064663E+03
      3772   1  2.468382E+07  2.182860E+03  1.999929E+03  4.661068E+05  3.334418E+04 -1.488668E+03
      3773   1  2.468003E+07 -3.407293E+03 -5.642647E+03  5.227929E+05  1.216536E+04  1.522723E+03
      3774   1  1.851230E+07 -2.020540E+03  2.098024E+03  7.642125E+05 -6.638643E+03  1.614577E+02
      3775   1  1.851150E+07 -3.729980E+02 -6.091470E+02  7.010049E+05 -1.675857E+04 -1.626475E+03
      3776   1  1.851254E+07  1.243129E+03 -2.167764E+02  6.575690E+05 -2.135555E+04  6.476426E+02
      3777   1  1.851282E+07  6.705909E+02  2.234115E+03  6.306984E+05 -1.907424E+04  1.745562E+02
      3778   1  1.851243E+07  6.655258E+01  7.449599E+02  6.158909E+05 -1.088504E+04  1.416365E+02
      3779   1  1.851293E+07  7.174368E+02  2.500144E+03  6.110889E+05 -7.902759E-04 -1.604494E-05
      3780   1  1.851243E+07  6.655258E+01  7.449599E+02  6.158909E+05  1.088504E+04 -1.416365E+02
      3781   1  1.851282E+07  6.705909E+02  2.234115E+03  6.306984E+05  1.907424E+04 -1.745562E+02
      3782   1  1.851254E+07  1.243129E+03 -2.167764E+02  6.575690E+05  2.135555E+04 -6.476427E+02
      3783   1  1.851150E+07 -3.729980E+02 -6.091469E+02  7.010049E+05  1.675857E+04  1.626475E+03
      3784   1  1.851230E+07 -2.020540E+03  2.098024E+03  7.642125E+05  6.638643E+03 -1.614577E+02
      3785   1  1.234040E+07 -1.435790E+03 -1.930034E+03  9.329407E+05 -3.071619E+03 -6.454917E+02
      3786   1  1.234165E+07  6.723763E+01  1.252328E+03  8.659464E+05 -8.496354E+03  5.496684E+01
      3787   1  1.234129E+07 -1.316611E+02 -4.195206E+02  8.176782E+05 -1.087599E+04 -1.231846E+03
      3788   1  1.234177E+07  9.936438E+02  6.265803E+02  7.853671E+05 -9.834150E+03  1.936074E+02
      3789   1  1.234172E+07  1.358729E+02  7.021970E+02  7.671609E+05 -5.807907E+03 -1.856489E+02
      3790   1  1.234177E+07  5.566613E+02  1.032872E+03  7.612539E+05 -4.982754E-04  1.590266E-05
      3791   1  1.234172E+07  1.358729E+02  7.021970E+02  7.671609E+05  5.807906E+03  1.856488E+02
      3792   1  1.234177E+07  9.936438E+02  6.265803E+02  7.853671E+05  9.834150E+03 -1.936074E+02
      3793   1  1.234129E+07 -1.316612E+02 -4.195206E+02  8.176782E+05  1.087599E+04  1.231846E+03
      3794   1  1.234165E+07  6.723764E+01  1.252328E+03  8.659464E+05  8.496354E+03 -5.496684E+01
      3795   1  1.234040E+07 -1.435790E+03 -1.930034E+03  9.329407E+05  3.071619E+03  6.454917E+02
      3796   1  6.170699E+06 -6.659165E+02  4.743301E+02  1.032753E+06 -1.353040E+03 -8.554133E+01
      3797   1  6.170467E+06 -1.929895E+02 -2.357915E+02  9.644175E+05 -3.496993E+03 -1.251291E+03
      3798   1  6.170803E+06  2.111001E+02 -5.906031E+00  9.135257E+05 -4.580488E+03 -8.369729E+01
      3799   1  6.170824E+06  1.860601E+02  4.327101E+02  8.788798E+05 -4.177370E+03 -9.709330E+02
      3800   1  6.170816E+06  3.219269E+02 -4.390376E+01  8.587601E+05 -2.457709E+03  1.848642E+01
      3801   1  6.170941E+06  2.287002E+02  7.347053E+02  8.522310E+05 -2.411429E-04 -9.768352E-06
      3802   1  6.170816E+06  3.219269E+02 -4.390377E+01  8.587601E+05  2.457709E+03 -1.848639E+01
      3803   1  6.170824E+06  1.860601E+02  4.327102E+02  8.788798E+05  4.177370E+03  9.709330E+02
      3804   1  6.170803E+06  2.111002E+02 -5.906043E+00  9.135257E+05  4.580487E+03  8.369728E+01
      3805   1  6.170467E+06 -1.929895E+02 -2.357915E+02  9.644175E+05  3.496993E+03  1.251291E+03
      3806   1  6.170699E+06 -6.659165E+02  4.743301E+02  1.032753E+06  1.353040E+03  8.554133E+01
      3807   1  6.749813E-03 -4.444143E-06 -8.792543E-06  1.065941E+06 -1.875242E-06 -5.013920E+02
      3808   1  6.750192E-03  5.986380E-06 -1.141712E-05  9.970727E+05 -3.375872E-06 -2.085056E+02
      3809   1  6.753300E-03 -8.118640E-07  1.671369E-06  9.455813E+05 -5.631788E-06 -1.336285E+03
      3810   1  6.749648E-03 -5.670454E-06  1.271248E-06  9.100724E+05 -4.537422E-06 -7.939855E+01
      3811   1  6.750268E-03 -3.603945E-07 -9.197594E-07  8.894924E+05 -2.533648E-06 -5.547697E+02
      3812   1  6.747939E-03 -4.843096E-06  3.647640E-06  8.826926E+05 -1.972082E-07  1.172842E-05
      3813   1  6.747791E-03  4.297512E-07 -8.322833E-07  8.894924E+05  2.701834E-06  5.547697E+02
      3814   1  6.744274E-03 -6.839188E-06  5.281264E-07  9.100724E+05  4.270785E-06  7.939857E+01
      3815   1  6.746286E-03 -6.760346E-07  2.105711E-06  9.455813E+05  5.499339E-06  1.336285E+03
      3816   1  6.740786E-03  3.742449E-06 -1.212328E-05  9.970727E+05  3.329909E-06  2.085056E+02
      3817   1  6.737552E-03 -8.984245E-06 -9.185750E-06  1.065941E+06  8.689666E-07  5.013920E+02
      3818   1 -6.170699E+06  6.659165E+02 -4.743301E+02  1.032753E+06  1.353040E+03 -8.554133E+01
      3819   1 -6.170467E+06  1.929896E+02  2.357915E+02  9.644175E+05  3.496993E+03 -1.251291E+03
      3820   1 -6.170803E+06 -2.111002E+02  5.906027E+00  9.135257E+05  4.580488E+03 -8.369729E+01
      3821   1 -6.170824E+06 -1.860601E+02 -4.327101E+02  8.788798E+05  4.177370E+03 -9.709330E+02
      3822   1 -6.170816E+06 -3.219269E+02  4.390377E+01  8.587601E+05  2.457709E+03  1.848642E+01
      3823   1 -6.170940E+06 -2.287002E+02 -7.347053E+02  8.522310E+05  2.410727E-04 -1.127615E-05
      3824   1 -6.170816E+06 -3.219269E+02  4.390378E+01  8.587601E+05 -2.457709E+03 -1.848639E+01
      3825   1 -6.170824E+06 -1.860601E+02 -4.327101E+02  8.788798E+05 -4.177370E+03  9.709330E+02
      3826   1 -6.170803E+06 -2.111002E+02  5.906038E+00  9.135257E+05 -4.580487E+03  8.369728E+01
      3827   1 -6.170467E+06  1.929896E+02  2.357915E+02  9.644175E+05 -3.496993E+03  1.251291E+03
      3828   1 -6.170699E+06  6.659165E+02 -4.743301E+02  1.032753E+06 -1.353040E+03  8.554134E+01
      3829   1 -1.234040E+07  1.435790E+03  1.930034E+03  9.329407E+05  3.071619E+03 -6.454917E+02
      3830   1 -1.234165E+07 -6.723765E+01 -1.252328E+03  8.659464E+05  8.496354E+03  5.496684E+01
      3831   1 -1.234129E+07  1.316611E+02  4.195206E+02  8.176782E+05  1.087599E+04 -1.231846E+03
      3832   1 -1.234177E+07 -9.936438E+02 -6.265803E+02  7.853671E+05  9.834150E+03  1.936074E+02
      3833   1 -1.234172E+07 -1.358729E+02 -7.021970E+02  7.671609E+05  5.807907E+03 -1.856489E+02
      3834   1 -1.234177E+07 -5.566613E+02 -1.032872E+03  7.612539E+05  4.985111E-04  1.579373E-05
      3835   1 -1.234172E+07 -1.358729E+02 -7.021970E+02  7.671609E+05 -5.807906E+03  1.856488E+02
      3836   1 -1.234177E+07 -9.936438E+02 -6.265803E+02  7.853671E+05 -9.834150E+03 -1.936074E+02
      3837   1 -1.234129E+07  1.316612E+02  4.195206E+02  8.176782E+05 -1.087599E+04  1.231846E+03
      3838   1 -1.234165E+07 -6.723766E+01 -1.252328E+03  8.659464E+05 -8.496354E+03 -5.496685E+01
      3839   1 -1.234040E+07  1.435790E+03  1.930034E+03  9.329407E+05 -3.071619E+03  6.454917E+02
      3840   1 -1.851230E+07  2.020540E+03 -2.098024E+03  7.642125E+05  6.638643E+03  1.614577E+02
      3841   1 -1.851150E+07  3.729981E+02  6.091470E+02  7.010049E+05  1.675857E+04 -1.626475E+03
      3842   1 -1.851254E+07 -1.243129E+03  2.167764E+02  6.575690E+05  2.135555E+04  6.476426E+02
      3843   1 -1.851282E+07 -6.705909E+02 -2.234115E+03  6.306984E+05  1.907424E+04  1.745562E+02
      3844   1 -1.851243E+07 -6.655258E+01 -7.449599E+02  6.158909E+05  1.088504E+04  1.416365E+02
      3845   1 -1.851293E+07 -7.174368E+02 -2.500144E+03  6.110889E+05  7.899657E-04 -1.700008E-05
      3846   1 -1.851243E+07 -6.655258E+01 -7.449599E+02  6.158909E+05 -1.088504E+04 -1.416364E+02
      3847   1 -1.851282E+07 -6.705909E+02 -2.234115E+03  6.306984E+05 -1.907424E+04 -1.745562E+02
      3848   1 -1.851254E+07 -1.243129E+03  2.167764E+02  6.575690E+05 -2.135555E+04 -6.476427E+02
      3849   1 -1.851150E+07  3.729981E+02  6.091470E+02  7.010049E+05 -1.675857E+04  1.626475E+03
      3850   1 -1.851230E+07  2.020540E+03 -2.098024E+03  7.642125E+05 -6.638643E+03 -1.614578E+02
      3851   1 -2.468003E+07  3.407293E+03  5.642647E+03  5.227929E+05  1.216536E+04 -1.522723E+03
      3852   1 -2.468382E+07 -2.182860E+03 -1.999930E+03  4.661068E+05  3.334418E+04  1.488668E+03
      3853   1 -2.468376E+07 -4.908568E+02 -2.016992E+03  4.350940E+05  4.073889E+04  1.064663E+03
      3854   1 -2.468353E+07 -1.532702E+02 -3.009088E+03  4.171022E+05  3.372889E+04  3.140717E+02
      3855   1 -2.468368E+07 -4.091504E+02 -1.972403E+03  4.071879E+05  1.883928E+04  2.613323E+02
      3856   1 -2.468349E+07  8.376189E+01 -3.083426E+03  4.041599E+05  1.127083E-03  6.388233E-06
      3857   1 -2.468368E+07 -4.091504E+02 -1.972403E+03  4.071879E+05 -1.883928E+04 -2.613323E+02
      3858   1 -2.468353E+07 -1.532702E+02 -3.009088E+03  4.171022E+05 -3.372889E+04 -3.140716E+02
      3859   1 -2.468376E+07 -4.908567E+02 -2.016992E+03  4.350940E+05 -4.073889E+04 -1.064663E+03
      3860   1 -2.468382E+07 -2.182860E+03 -1.999930E+03  4.661068E+05 -3.334418E+04 -1.488668E+03
      3861   1 -2.468003E+07  3.407293E+03  5.642647E+03  5.227929E+05 -1.216536E+04  1.522723E+03
      3862   1 -3.085575E+07  2.493171E+03 -8.534309E+03  1.919776E+05  3.280955E+04  2.335917E+03
      3863   1 -3.085643E+07 -3.145086E+03 -7.086017E+03  1.650106E+05  7.095191E+04  1.454059E+03
      3864   1 -3.085417E+07  1.746580E+03 -3.399554E+03  1.546615E+05  7.221990E+04  2.786266E+02
      3865   1 -3.085519E+07 -1.644688E+03 -4.646549E+03  1.478600E+05  5.633473E+04  3.415703E+02
      3866   1 -3.085398E+07  1.235690E+03 -2.450269E+03  1.445831E+05  3.039273E+04  4.654947E+01
      3867   1 -3.085495E+07 -1.325954E+03 -4.196383E+03  1.433958E+05  1.522713E-03 -2.606989E-06
      3868   1 -3.085398E+07  1.235690E+03 -2.450269E+03  1.445831E+05 -3.039273E+04 -4.654946E+01
      3869   1 -3.085519E+07 -1.644688E+03 -4.646549E+03  1.478600E+05 -5.633473E+04 -3.415703E+02
      3870   1 -3.085417E+07  1.746580E+03 -3.399554E+03  1.546615E+05 -7.221990E+04 -2.786266E+02
      3871   1 -3.085643E+07 -3.145086E+03 -7.086017E+03  1.650106E+05 -7.095191E+04 -1.454059E+03
      3872   1 -3.085575E+07  2.493171E+03 -8.534309E+03  1.919776E+05 -3.280955E+04 -2.335917E+03
      3873   1  3.053770E+07 -1.886502E+03  1.008943E+04  1.920201E+05 -3.281787E+04  2.335107E+03
      3874   1  3.053816E+07  2.467346E+03  5.392967E+03  1.649860E+05 -7.093535E+04  1.425438E+03
      3875   1  3.053632E+07 -1.183290E+03  4.919336E+03  1.546785E+05 -7.224310E+04  2.843790E+02
      3876   1  3.053681E+07  9.609761E+02  3.017634E+03  1.478465E+05 -5.631881E+04  3.325885E+02
      3877   1  3.053621E+07 -6.609530E+02  3.958853E+03  1.445943E+05 -3.040343E+04  4.843382E+01
      3878   1  3.053654E+07  6.365403E+02  2.580573E+03  1.433853E+05 -1.522545E-03 -1.399744E-06
      3879   1  3.053621E+07 -6.609530E+02  3.958853E+03  1.445943E+05  3.040343E+04 -4.843381E+01
      3880   1  3.053681E+07  9.609762E+02  3.017634E+03  1.478465E+05  5.631881E+04 -3.325885E+02
      3881   1  3.053632E+07 -1.183290E+03  4.919335E+03  1.546785E+05  7.224310E+04 -2.843790E+02
      3882   1  3.053816E+07  2.467346E+03  5.392967E+03  1.649860E+05  7.093534E+04 -1.425438E+03
      3883   1  3.053770E+07 -1.886502E+03  1.008943E+04  1.920201E+05  3.281787E+04 -2.335107E+03
      3884   1  2.442564E+07 -2.909782E+03 -4.183581E+03  5.227514E+05 -1.217594E+04 -1.513353E+03
      3885   1  2.442922E+07  1.699488E+03  6.200867E+02  4.661154E+05 -3.332601E+04  1.472971E+03
      3886   1  2.442949E+07  1.039218E+03  3.366687E+03  4.350890E+05 -4.076128E+04  1.053542E+03
      3887   1  2.442883E+07 -3.347017E+02  1.645766E+03  4.171043E+05 -3.371416E+04  3.098040E+02
      3888   1  2.442948E+07  9.737383E+02  3.306686E+03  4.071867E+05 -1.884913E+04  2.586370E+02
      3889   1  2.442876E+07 -5.770901E+02  1.725793E+03  4.041608E+05 -1.126832E-03  6.320738E-06
      3890   1  2.442948E+07  9.737384E+02  3.306686E+03  4.071867E+05  1.884913E+04 -2.586371E+02
      3891   1  2.442883E+07 -3.347017E+02  1.645766E+03  4.171043E+05  3.371415E+04 -3.098040E+02
      3892   1  2.442949E+07  1.039218E+03  3.366687E+03  4.350890E+05  4.076128E+04 -1.053542E+03
      3893   1  2.442922E+07  1.699488E+03  6.200866E+02  4.661154E+05  3.332600E+04 -1.472971E+03
      3894   1  2.442564E+07 -2.909782E+03 -4.183581E+03  5.227514E+05  1.217593E+04  1.513353E+03
      3895   1  1.832149E+07 -1.614169E+03  3.162217E+03  7.642411E+05 -6.642992E+03  1.627796E+02
      3896   1  1.832054E+07 -7.730703E+02 -1.669017E+03  7.010136E+05 -1.674766E+04 -1.608819E+03
      3897   1  1.832183E+07  1.596289E+03  8.134277E+02  6.575667E+05 -2.137172E+04  6.390682E+02
      3898   1  1.832177E+07  2.403095E+02  1.169281E+03  6.307069E+05 -1.906343E+04  1.726340E+02
      3899   1  1.832178E+07  4.456457E+02  1.752163E+03  6.158909E+05 -1.089250E+04  1.393544E+02
      3900   1  1.832186E+07  2.800792E+02  1.437636E+03  6.110979E+05 -7.895776E-04 -1.610535E-05
      3901   1  1.832178E+07  4.456457E+02  1.752163E+03  6.158909E+05  1.089250E+04 -1.393544E+02
      3902   1  1.832177E+07  2.403095E+02  1.169281E+03  6.307069E+05  1.906343E+04 -1.726341E+02
      3903   1  1.832183E+07  1.596289E+03  8.134276E+02  6.575667E+05  2.137172E+04 -6.390682E+02
      3904   1  1.832054E+07 -7.730703E+02 -1.669017E+03  7.010136E+05  1.674766E+04  1.608819E+03
      3905   1  1.832149E+07 -1.614169E+03  3.162217E+03  7.642411E+05  6.642991E+03 -1.627797E+02
      3906   1  1.221321E+07 -1.184999E+03 -1.187092E+03  9.328978E+05 -3.076986E+03 -6.416043E+02
      3907   1  1.221435E+07 -1.795557E+02  5.359026E+02  8.659390E+05 -8.487930E+03  5.219368E+01
      3908   1  1.221417E+07  1.504530E+02  2.918586E+02  8.176698E+05 -1.088686E+04 -1.220043E+03
      3909   1  1.221442E+07  7.271330E+02 -6.851899E+01  7.853643E+05 -9.827303E+03  1.906968E+02
      3910   1  1.221463E+07  4.216134E+02  1.392926E+03  7.671521E+05 -5.812766E+03 -1.843270E+02
      3911   1  1.221440E+07  2.909088E+02  3.372603E+02  7.612514E+05 -4.984150E-04  1.510657E-05
      3912   1  1.221463E+07  4.216134E+02  1.392926E+03  7.671521E+05  5.812765E+03  1.843270E+02
      3913   1  1.221442E+07  7.271330E+02 -6.851902E+01  7.853643E+05  9.827302E+03 -1.906968E+02
      3914   1  1.221417E+07  1.504529E+02  2.918587E+02  8.176698E+05  1.088686E+04  1.220043E+03
      3915   1  1.221435E+07 -1.795557E+02  5.359026E+02  8.659390E+05  8.487930E+03 -5.219369E+01
      3916   1  1.221321E+07 -1.184999E+03 -1.187092E+03  9.328978E+05  3.076986E+03  6.416043E+02
      3917   1  6.107094E+06 -5.272684E+02  8.373730E+02  1.032783E+06 -1.354567E+03 -8.339893E+01
      3918   1  6.106813E+06 -3.251340E+02 -5.940590E+02  9.644362E+05 -3.493161E+03 -1.237645E+03
      3919   1  6.107234E+06  3.348094E+02  3.426227E+02  9.135278E+05 -4.586188E+03 -8.464565E+01
      3920   1  6.107142E+06  4.255791E+01  7.540684E+01  8.788931E+05 -4.173654E+03 -9.618571E+02
      3921   1  6.107264E+06  4.495439E+02  3.008341E+02  8.587669E+05 -2.460303E+03  1.753230E+01
      3922   1  6.107250E+06  8.248087E+01  3.758883E+02  8.522449E+05 -2.406235E-04 -9.985772E-06
      3923   1  6.107264E+06  4.495439E+02  3.008341E+02  8.587669E+05  2.460302E+03 -1.753228E+01
      3924   1  6.107142E+06  4.255790E+01  7.540685E+01  8.788931E+05  4.173653E+03  9.618571E+02
      3925   1  6.107234E+06  3.348094E+02  3.426227E+02  9.135278E+05  4.586188E+03  8.464564E+01
      3926   1  6.106813E+06 -3.251340E+02 -5.940589E+02  9.644362E+05  3.493161E+03  1.237645E+03
      3927   1  6.107094E+06 -5.272684E+02  8.373730E+02  1.032783E+06  1.354567E+03  8.339893E+01
      3928   1  6.681361E-03 -2.896244E-06 -5.196964E-06  1.065896E+06 -8.089610E-07 -4.983878E+02
      3929   1  6.681036E-03  5.035716E-06 -1.321713E-05  9.970599E+05 -3.758776E-06 -2.087575E+02
      3930   1  6.684131E-03  4.900555E-06  5.724941E-06  9.455694E+05 -4.622883E-06 -1.323861E+03
      3931   1  6.679669E-03 -3.367478E-06 -8.848688E-07  9.100668E+05 -4.723301E-06 -7.944010E+01
      3932   1  6.681178E-03  4.752662E-06  3.445701E-06  8.894798E+05 -2.648338E-06 -5.498311E+02
      3933   1  6.677850E-03 -2.909865E-06  1.585104E-06  8.826873E+05 -5.759880E-07  1.130374E-05
      3934   1  6.679110E-03  4.821165E-06  3.146001E-06  8.894798E+05  2.704532E-06  5.498311E+02
      3935   1  6.674156E-03 -4.497921E-06 -1.005381E-06  9.100668E+05  4.407023E-06  7.944011E+01
      3936   1  6.676327E-03  3.418858E-06  5.727514E-06  9.455694E+05  4.896296E-06  1.323861E+03
      3937   1  6.669790E-03  4.790808E-06 -1.448766E-05  9.970599E+05  3.606042E-06  2.087575E+02
      3938   1  6.668334E-03 -4.547959E-06 -4.902286E-06  1.065896E+06  1.703784E-06  4.983878E+02
      3939   1 -6.107094E+06  5.272684E+02 -8.373730E+02  1.032783E+06  1.354567E+03 -8.339894E+01
      3940   1 -6.106813E+06  3.251340E+02  5.940590E+02  9.644362E+05  3.493161E+03 -1.237645E+03
      3941   1 -6.107234E+06 -3.348094E+02 -3.426227E+02  9.135278E+05  4.586188E+03 -8.464565E+01
      3942   1 -6.107142E+06 -4.255791E+01 -7.540684E+01  8.788931E+05  4.173654E+03 -9.618571E+02
      3943   1 -6.107264E+06 -4.495439E+02 -3.008341E+02  8.587669E+05  2.460303E+03  1.753230E+01
      3944   1 -6.107250E+06 -8.248088E+01 -3.758883E+02  8.522449E+05  2.409023E-04 -1.060922E-05
      3945   1 -6.107264E+06 -4.495439E+02 -3.008341E+02  8.587669E+05 -2.460302E+03 -1.753227E+01
      3946   1 -6.107142E+06 -4.255790E+01 -7.540685E+01  8.788931E+05 -4.173653E+03  9.618571E+02
      3947   1 -6.107234E+06 -3.348094E+02 -3.426227E+02  9.135278E+05 -4.586188E+03  8.464564E+01
      3948   1 -6.106813E+06  3.251340E+02  5.940590E+02  9.644362E+05 -3.493161E+03  1.237645E+03
      3949   1 -6.107094E+06  5.272684E+02 -8.373730E+02  1.032783E+06 -1.354567E+03  8.339894E+01
      3950   1 -1.221321E+07  1.184999E+03  1.187092E+03  9.328978E+05  3.076986E+03 -6.416043E+02
      3951   1 -1.221435E+07  1.795557E+02 -5.359026E+02  8.659390E+05  8.487930E+03  5.219369E+01
      3952   1 -1.221417E+07 -1.504530E+02 -2.918586E+02  8.176698E+05  1.088686E+04 -1.220043E+03
      3953   1 -1.221442E+07 -7.271330E+02  6.851899E+01  7.853643E+05  9.827303E+03  1.906968E+02
      3954   1 -1.221463E+07 -4.216134E+02 -1.392926E+03  7.671521E+05  5.812766E+03 -1.843270E+02
      3955   1 -1.221440E+07 -2.909088E+02 -3.372603E+02  7.612514E+05  4.982761E-04  1.753933E-05
      3956   1 -1.221463E+07 -4.216134E+02 -1.392926E+03  7.671521E+05 -5.812765E+03  1.843270E+02
      3957   1 -1.221442E+07 -7.271330E+02  6.851902E+01  7.853643E+05 -9.827302E+03 -1.906968E+02
      3958   1 -1.221417E+07 -1.504529E+02 -2.918587E+02  8.176698E+05 -1.088686E+04  1.220043E+03
      3959   1 -1.221435E+07  1.795557E+02 -5.359026E+02  8.659390E+05 -8.487930E+03 -5.219369E+01
      3960   1 -1.221321E+07  1.184999E+03  1.187092E+03  9.328978E+05 -3.076986E+03  6.416043E+02
      3961   1 -1.832149E+07  1.614169E+03 -3.162217E+03  7.642411E+05  6.642992E+03  1.627797E+02
      3962   1 -1.832054E+07  7.730703E+02  1.669017E+03  7.010136E+05  1.674766E+04 -1.608819E+03
      3963   1 -1.832183E+07 -1.596289E+03 -8.134276E+02  6.575667E+05  2.137172E+04  6.390682E+02
      3964   1 -1.832177E+07 -2.403095E+02 -1.169281E+03  6.307069E+05  1.906343E+04  1.726340E+02
      3965   1 -1.832178E+07 -4.456457E+02 -1.752163E+03  6.158909E+05  1.089250E+04  1.393544E+02
      3966   1 -1.832186E+07 -2.800792E+02 -1.437636E+03  6.110979E+05  7.897696E-04 -1.607432E-05
      3967   1 -1.832178E+07 -4.456457E+02 -1.752163E+03  6.158909E+05 -1.089250E+04 -1.393544E+02
      3968   1 -1.832177E+07 -2.403095E+02 -1.169281E+03  6.307069E+05 -1.906343E+04 -1.726341E+02
      3969   1 -1.832183E+07 -1.596289E+03 -8.134276E+02  6.575667E+05 -2.137172E+04 -6.390682E+02
      3970   1 -1.832054E+07  7.730703E+02  1.669017E+03  7.010136E+05 -1.674766E+04  1.608819E+03
      3971   1 -1.832149E+07  1.614169E+03 -3.162217E+03  7.642411E+05 -6.642991E+03 -1.627797E+02
      3972   1 -2.442564E+07  2.909782E+03  4.183581E+03  5.227514E+05  1.217594E+04 -1.513353E+03
      3973   1 -2.442922E+07 -1.699488E+03 -6.200867E+02  4.661154E+05  3.332601E+04  1.472971E+03
      3974   1 -2.442949E+07 -1.039218E+03 -3.366687E+03  4.350890E+05  4.076128E+04  1.053542E+03
      3975   1 -2.442883E+07  3.347017E+02 -1.645766E+03  4.171043E+05  3.371416E+04  3.098040E+02
      3976   1 -2.442948E+07 -9.737383E+02 -3.306686E+03  4.071867E+05  1.884913E+04  2.586370E+02
      3977   1 -2.442876E+07  5.770901E+02 -1.725793E+03  4.041608E+05  1.126974E-03  6.060833E-06
      3978   1 -2.442948E+07 -9.737384E+02 -3.306686E+03  4.071867E+05 -1.884913E+04 -2.586371E+02
      3979   1 -2.442883E+07  3.347017E+02 -1.645766E+03  4.171043E+05 -3.371415E+04 -3.098040E+02
      3980   1 -2.442949E+07 -1.039218E+03 -3.366687E+03  4.350890E+05 -4.076128E+04 -1.053542E+03
      3981   1 -2.442922E+07 -1.699488E+03 -6.200867E+02  4.661154E+05 -3.332600E+04 -1.472971E+03
      3982   1 -2.442564E+07  2.909782E+03  4.183581E+03  5.227514E+05 -1.217593E+04  1.513353E+03
      3983   1 -3.053770E+07  1.886502E+03 -1.008943E+04  1.920201E+05  3.281787E+04  2.335107E+03
      3984   1 -3.053816E+07 -2.467346E+03 -5.392967E+03  1.649860E+05  7.093535E+04  1.425438E+03
      3985   1 -3.053632E+07  1.183290E+03 -4.919336E+03  1.546785E+05  7.224310E+04  2.843790E+02
      3986   1 -3.053681E+07 -9.609761E+02 -3.017634E+03  1.478465E+05  5.631881E+04  3.325885E+02
      3987   1 -3.053621E+07  6.609530E+02 -3.958853E+03  1.445943E+05  3.040343E+04  4.843382E+01
      3988   1 -3.053654E+07 -6.365404E+02 -2.580573E+03  1.433853E+05  1.522611E-03 -2.389703E-06
      3989   1 -3.053621E+07  6.609530E+02 -3.958853E+03  1.445943E+05 -3.040343E+04 -4.843381E+01
      3990   1 -3.053681E+07 -9.609762E+02 -3.017634E+03  1.478465E+05 -5.631881E+04 -3.325885E+02
      3991   1 -3.053632E+07  1.183290E+03 -4.919335E+03  1.546785E+05 -7.224310E+04 -2.843790E+02
      3992   1 -3.053816E+07 -2.467346E+03 -5.392967E+03  1.649860E+05 -7.093534E+04 -1.425438E+03
      3993   1 -3.053770E+07  1.886502E+03 -1.008943E+04  1.920201E+05 -3.281787E+04 -2.335107E+03
      3994   1  3.021955E+07 -2.339586E+03  8.644785E+03  1.919859E+05 -3.281192E+04  2.291969E+03
      3995   1  3.022018E+07  2.968135E+03  6.657074E+03  1.650064E+05 -7.095157E+04  1.421428E+03
      3996   1  3.021804E+07 -1.615317E+03  3.598940E+03  1.546652E+05 -7.222692E+04  2.741513E+02
      3997   1  3.021895E+07  1.494949E+03  4.273985E+03  1.478582E+05 -5.633443E+04  3.332687E+02
      3998   1  3.021787E+07 -1.112040E+03  2.664692E+03  1.445861E+05 -3.039602E+04  4.585003E+01
      3999   1  3.021872E+07  1.181258E+03  3.834358E+03  1.433949E+05 -1.522937E-03 -2.504275E-06
      4000   1  3.021787E+07 -1.112040E+03  2.664692E+03  1.445861E+05  3.039602E+04 -4.585003E+01
      4001   1  3.021895E+07  1.494949E+03  4.273985E+03  1.478582E+05  5.633443E+04 -3.332688E+02
      4002   1  3.021804E+07 -1.615318E+03  3.598939E+03  1.546652E+05  7.222691E+04 -2.741513E+02
      4003   1  3.022018E+07  2.968135E+03  6.657074E+03  1.650064E+05  7.095157E+04 -1.421428E+03
      4004   1  3.021955E+07 -2.339586E+03  8.644785E+03  1.919859E+05  3.281192E+04 -2.291969E+03
      4005   1  2.417117E+07 -3.259457E+03 -5.285123E+03  5.227826E+05 -1.216834E+04 -1.492726E+03
      4006   1  2.417485E+07  2.056885E+03  1.723519E+03  4.661062E+05 -3.334316E+04  1.457316E+03
      4007   1  2.417486E+07  5.748567E+02  2.210753E+03  4.350913E+05 -4.074571E+04  1.041880E+03
      4008   1  2.417456E+07  6.471378E+01  2.715536E+03  4.171013E+05 -3.372862E+04  3.066530E+02
      4009   1  2.417479E+07  4.972833E+02  2.163392E+03  4.071867E+05 -1.884240E+04  2.554961E+02
      4010   1  2.417451E+07 -1.688558E+02  2.789027E+03  4.041593E+05 -1.127125E-03  6.203536E-06
      4011   1  2.417479E+07  4.972833E+02  2.163392E+03  4.071867E+05  1.884240E+04 -2.554961E+02
      4012   1  2.417456E+07  6.471376E+01  2.715536E+03  4.171013E+05  3.372862E+04 -3.066530E+02
      4013   1  2.417486E+07  5.748567E+02  2.210754E+03  4.350913E+05  4.074571E+04 -1.041880E+03
      4014   1  2.417485E+07  2.056885E+03  1.723519E+03  4.661062E+05  3.334316E+04 -1.457316E+03
      4015   1  2.417117E+07 -3.259457E+03 -5.285123E+03  5.227826E+05  1.216834E+04  1.492726E+03
      4016   1  1.813061E+07 -1.910158E+03  2.241599E+03  7.642197E+05 -6.640069E+03  1.582925E+02
      4017   1  1.812980E+07 -4.323266E+02 -7.796155E+02  7.010086E+05 -1.675864E+04 -1.593747E+03
      4018   1  1.813086E+07  1.282432E+03 -3.654859E+01  6.575714E+05 -2.136074E+04  6.326835E+02
      4019   1  1.813108E+07  5.864090E+02  2.008471E+03  6.307037E+05 -1.907431E+04  1.698009E+02
      4020   1  1.813077E+07  1.324943E+02  9.023024E+02  6.158952E+05 -1.088750E+04  1.379003E+02
      4021   1  1.813119E+07  6.311728E+02  2.269526E+03  6.110952E+05 -7.900471E-04 -1.520812E-05
      4022   1  1.813077E+07  1.324943E+02  9.023023E+02  6.158952E+05  1.088750E+04 -1.379002E+02
      4023   1  1.813108E+07  5.864090E+02  2.008471E+03  6.307037E+05  1.907431E+04 -1.698009E+02
      4024   1  1.813086E+07  1.282432E+03 -3.654865E+01  6.575714E+05  2.136074E+04 -6.326835E+02
      4025   1  1.812980E+07 -4.323266E+02 -7.796155E+02  7.010086E+05  1.675864E+04  1.593747E+03
      4026   1  1.813061E+07 -1.910158E+03  2.241599E+03  7.642197E+05  6.640069E+03 -1.582926E+02
      4027   1  1.208596E+07 -1.367798E+03 -1.766673E+03  9.329269E+05 -3.073235E+03 -6.331572E+02
      4028   1  1.208717E+07  2.200056E+01  1.105253E+03  8.659398E+05 -8.496250E+03  5.211295E+01
      4029   1  1.208685E+07 -8.230257E+01 -2.904524E+02  8.176725E+05 -1.087959E+04 -1.208200E+03
      4030   1  1.208729E+07  9.275498E+02  4.943904E+02  7.853633E+05 -9.834383E+03  1.880403E+02
      4031   1  1.208728E+07  1.805896E+02  8.059571E+02  7.671566E+05 -5.809577E+03 -1.827442E+02
      4032   1  1.208728E+07  4.988315E+02  8.926665E+02  7.612511E+05 -4.985451E-04  1.481120E-05
      4033   1  1.208728E+07  1.805896E+02  8.059571E+02  7.671566E+05  5.809576E+03  1.827441E+02
      4034   1  1.208729E+07  9.275498E+02  4.943903E+02  7.853633E+05  9.834382E+03 -1.880403E+02
      4035   1  1.208685E+07 -8.230259E+01 -2.904524E+02  8.176725E+05  1.087959E+04  1.208200E+03
      4036   1  1.208717E+07  2.200058E+01  1.105253E+03  8.659398E+05  8.496249E+03 -5.211296E+01
      4037   1  1.208596E+07 -1.367798E+03 -1.766673E+03  9.329268E+05  3.073235E+03  6.331572E+02
      4038   1  6.043468E+06 -6.283232E+02  5.279358E+02  1.032761E+06 -1.353560E+03 -8.419151E+01
      4039   1  6.043232E+06 -2.108563E+02 -2.928340E+02  9.644240E+05 -3.497056E+03 -1.226812E+03
      4040   1  6.043577E+06  2.294976E+02  5.383539E+01  9.135302E+05 -4.582379E+03 -8.413391E+01
      4041   1  6.043579E+06  1.591023E+02  3.629399E+02  8.788876E+05 -4.177450E+03 -9.526935E+02
      4042   1  6.043594E+06  3.389148E+02  1.561566E+01  8.587677E+05 -2.458595E+03  1.704056E+01
      4043   1  6.043693E+06  2.004676E+02  6.588477E+02  8.522402E+05 -2.416413E-04 -1.105138E-05
      4044   1  6.043594E+06  3.389148E+02  1.561565E+01  8.587677E+05  2.458594E+03 -1.704054E+01
      4045   1  6.043579E+06  1.591023E+02  3.629399E+02  8.788876E+05  4.177449E+03  9.526935E+02
      4046   1  6.043577E+06  2.294976E+02  5.383538E+01  9.135302E+05  4.582379E+03  8.413390E+01
      4047   1  6.043232E+06 -2.108563E+02 -2.928340E+02  9.644240E+05  3.497056E+03  1.226812E+03
      4048   1  6.043468E+06 -6.283232E+02  5.279358E+02  1.032761E+06  1.353560E+03  8.419151E+01
      4049   1  6.610995E-03 -5.208597E-06 -1.028081E-05  1.065925E+06 -6.707609E-07 -4.919892E+02
      4050   1  6.612122E-03  4.920136E-06 -1.052038E-05  9.970638E+05 -3.817979E-06 -2.062197E+02
      4051   1  6.615889E-03  1.291615E-06  3.051036E-06  9.455739E+05 -5.302293E-06 -1.310867E+03
      4052   1  6.609535E-03 -6.183756E-06 -3.685183E-07  9.100671E+05 -4.377823E-06 -7.956858E+01
      4053   1  6.610606E-03 -1.580738E-06 -1.105731E-06  8.894867E+05 -2.881300E-06 -5.444248E+02
      4054   1  6.606417E-03 -9.124814E-06  1.196572E-06  8.826884E+05  1.729730E-07  1.127044E-05
      4055   1  6.606880E-03 -2.861288E-06 -2.732360E-06  8.894867E+05  2.753392E-06  5.444248E+02
      4056   1  6.604490E-03 -7.117720E-06  7.427456E-07  9.100671E+05  4.594931E-06  7.956859E+01
      4057   1  6.606498E-03 -1.437368E-06  8.607664E-07  9.455739E+05  4.862014E-06  1.310867E+03
      4058   1  6.601742E-03  1.854855E-06 -1.163615E-05  9.970638E+05  3.742013E-06  2.062197E+02
      4059   1  6.598673E-03 -7.296494E-06 -8.333262E-06  1.065925E+06  5.403179E-07  4.919892E+02
      4060   1 -6.043468E+06  6.283232E+02 -5.279359E+02  1.032761E+06  1.353560E+03 -8.419152E+01
      4061   1 -6.043232E+06  2.108563E+02  2.928341E+02  9.644240E+05  3.497056E+03 -1.226812E+03
      4062   1 -6.043577E+06 -2.294976E+02 -5.383540E+01  9.135302E+05  4.582379E+03 -8.413391E+01
      4063   1 -6.043579E+06 -1.591023E+02 -3.629399E+02  8.788876E+05  4.177450E+03 -9.526935E+02
      4064   1 -6.043594E+06 -3.389148E+02 -1.561565E+01  8.587677E+05  2.458595E+03  1.704056E+01
      4065   1 -6.043693E+06 -2.004676E+02 -6.588477E+02  8.522402E+05  2.408318E-04 -9.409600E-06
      4066   1 -6.043594E+06 -3.389148E+02 -1.561564E+01  8.587677E+05 -2.458594E+03 -1.704054E+01
      4067   1 -6.043579E+06 -1.591023E+02 -3.629399E+02  8.788876E+05 -4.177449E+03  9.526935E+02
      4068   1 -6.043577E+06 -2.294976E+02 -5.383539E+01  9.135302E+05 -4.582379E+03  8.413390E+01
      4069   1 -6.043232E+06  2.108563E+02  2.928341E+02  9.644240E+05 -3.497056E+03  1.226812E+03
      4070   1 -6.043468E+06  6.283232E+02 -5.279359E+02  1.032761E+06 -1.353560E+03  8.419152E+01
      4071   1 -1.208596E+07  1.367798E+03  1.766673E+03  9.329269E+05  3.073235E+03 -6.331572E+02
      4072   1 -1.208717E+07 -2.200058E+01 -1.105253E+03  8.659398E+05  8.496250E+03  5.211296E+01
      4073   1 -1.208685E+07  8.230257E+01  2.904524E+02  8.176725E+05  1.087959E+04 -1.208200E+03
      4074   1 -1.208729E+07 -9.275498E+02 -4.943904E+02  7.853633E+05  9.834383E+03  1.880403E+02
      4075   1 -1.208728E+07 -1.805896E+02 -8.059571E+02  7.671566E+05  5.809577E+03 -1.827442E+02
      4076   1 -1.208728E+07 -4.988315E+02 -8.926665E+02  7.612511E+05  4.982412E-04  1.617311E-05
      4077   1 -1.208728E+07 -1.805896E+02 -8.059571E+02  7.671566E+05 -5.809576E+03  1.827441E+02
      4078   1 -1.208729E+07 -9.275498E+02 -4.943903E+02  7.853633E+05 -9.834382E+03 -1.880403E+02
      4079   1 -1.208685E+07  8.230258E+01  2.904524E+02  8.176725E+05 -1.087959E+04  1.208200E+03
      4080   1 -1.208717E+07 -2.200059E+01 -1.105253E+03  8.659398E+05 -8.496249E+03 -5.211296E+01
      4081   1 -1.208596E+07  1.367798E+03  1.766673E+03  9.329268E+05 -3.073235E+03  6.331572E+02
      4082   1 -1.813061E+07  1.910158E+03 -2.241599E+03  7.642197E+05  6.640069E+03  1.582926E+02
      4083   1 -1.812980E+07  4.323266E+02  7.796155E+02  7.010086E+05  1.675864E+04 -1.593747E+03
      4084   1 -1.813086E+07 -1.282432E+03  3.654859E+01  6.575714E+05  2.136074E+04  6.326835E+02
      4085   1 -1.813108E+07 -5.864090E+02 -2.008471E+03  6.307037E+05  1.907431E+04  1.698009E+02
      4086   1 -1.813077E+07 -1.324943E+02 -9.023024E+02  6.158952E+05  1.088750E+04  1.379003E+02
      4087   1 -1.813119E+07 -6.311728E+02 -2.269526E+03  6.110952E+05  7.895158E-04 -1.393949E-05
      4088   1 -1.813077E+07 -1.324943E+02 -9.023023E+02  6.158952E+05 -1.088750E+04 -1.379002E+02
      4089   1 -1.813108E+07 -5.864090E+02 -2.008471E+03  6.307037E+05 -1.907431E+04 -1.698009E+02
      4090   1 -1.813086E+07 -1.282432E+03  3.654865E+01  6.575714E+05 -2.136074E+04 -6.326835E+02
      4091   1 -1.812980E+07  4.323266E+02  7.796155E+02  7.010086E+05 -1.675864E+04  1.593747E+03
      4092   1 -1.813061E+07  1.910158E+03 -2.241599E+03  7.642197E+05 -6.640069E+03 -1.582926E+02
      4093   1 -2.417117E+07  3.259457E+03  5.285123E+03  5.227826E+05  1.216834E+04 -1.492726E+03
      4094   1 -2.417485E+07 -2.056885E+03 -1.723519E+03  4.661062E+05  3.334316E+04  1.457316E+03
      4095   1 -2.417486E+07 -5.748567E+02 -2.210753E+03  4.350913E+05  4.074571E+04  1.041880E+03
      4096   1 -2.417456E+07 -6.471378E+01 -2.715536E+03  4.171013E+05  3.372862E+04  3.066530E+02
      4097   1 -2.417479E+07 -4.972833E+02 -2.163392E+03  4.071867E+05  1.884240E+04  2.554961E+02
      4098   1 -2.417451E+07  1.688558E+02 -2.789027E+03  4.041593E+05  1.126720E-03  7.636047E-06
      4099   1 -2.417479E+07 -4.972834E+02 -2.163392E+03  4.071867E+05 -1.884240E+04 -2.554961E+02
      4100   1 -2.417456E+07 -6.471376E+01 -2.715536E+03  4.171013E+05 -3.372862E+04 -3.066530E+02
      4101   1 -2.417486E+07 -5.748567E+02 -2.210754E+03  4.350913E+05 -4.074571E+04 -1.041880E+03
      4102   1 -2.417485E+07 -2.056885E+03 -1.723519E+03  4.661062E+05 -3.334316E+04 -1.457316E+03
      4103   1 -2.417117E+07  3.259457E+03  5.285123E+03  5.227826E+05 -1.216834E+04  1.492726E+03
      4104   1 -3.021955E+07  2.339586E+03 -8.644785E+03  1.919859E+05  3.281192E+04  2.291969E+03
      4105   1 -3.022018E+07 -2.968135E+03 -6.657074E+03  1.650064E+05  7.095157E+04  1.421428E+03
      4106   1 -3.021804E+07  1.615317E+03 -3.598940E+03  1.546652E+05  7.222692E+04  2.741513E+02
      4107   1 -3.021895E+07 -1.494949E+03 -4.273985E+03  1.478582E+05  5.633443E+04  3.332687E+02
      4108   1 -3.021787E+07  1.112040E+03 -2.664692E+03  1.445861E+05  3.039602E+04  4.585003E+01
      4109   1 -3.021872E+07 -1.181258E+03 -3.834358E+03  1.433949E+05  1.523099E-03 -1.372907E-06
      4110   1 -3.021787E+07  1.112040E+03 -2.664692E+03  1.445861E+05 -3.039602E+04 -4.585003E+01
      4111   1 -3.021895E+07 -1.494949E+03 -4.273985E+03  1.478582E+05 -5.633443E+04 -3.332688E+02
      4112   1 -3.021804E+07  1.615318E+03 -3.598939E+03  1.546652E+05 -7.222691E+04 -2.741513E+02
      4113   1 -3.022018E+07 -2.968135E+03 -6.657074E+03  1.650064E+05 -7.095157E+04 -1.421428E+03
      4114   1 -3.021955E+07  2.339586E+03 -8.644785E+03  1.919859E+05 -3.281192E+04 -2.291969E+03
      4115   1  2.990149E+07 -1.929614E+03  9.645946E+03  1.920133E+05 -3.281754E+04  2.283000E+03
      4116   1  2.990197E+07  2.507978E+03  5.510152E+03  1.649893E+05 -7.093983E+04  1.397579E+03
      4117   1  2.990012E+07 -1.235533E+03  4.595388E+03  1.546757E+05 -7.224221E+04  2.769791E+02
      4118   1  2.990067E+07  1.036037E+03  3.177621E+03  1.478484E+05 -5.632327E+04  3.262345E+02
      4119   1  2.989999E+07 -7.264636E+02  3.657234E+03  1.445926E+05 -3.040308E+04  4.695021E+01
      4120   1  2.990041E+07  7.196167E+02  2.748022E+03  1.433870E+05 -1.523346E-03 -2.581489E-06
      4121   1  2.989999E+07 -7.264636E+02  3.657234E+03  1.445926E+05  3.040308E+04 -4.695021E+01
      4122   1  2.990067E+07  1.036037E+03  3.177621E+03  1.478484E+05  5.632327E+04 -3.262345E+02
      4123   1  2.990012E+07 -1.235533E+03  4.595388E+03  1.546757E+05  7.224221E+04 -2.769791E+02
      4124   1  2.990197E+07  2.507978E+03  5.510152E+03  1.649893E+05  7.093983E+04 -1.397578E+03
      4125   1  2.990149E+07 -1.929614E+03  9.645946E+03  1.920133E+05  3.281753E+04 -2.283000E+03
      4126   1  2.391677E+07 -2.913625E+03 -4.293842E+03  5.227581E+05 -1.217507E+04 -1.481036E+03
      4127   1  2.392029E+07  1.729487E+03  7.982421E+02  4.661146E+05 -3.333065E+04  1.441882E+03
      4128   1  2.392052E+07  9.399753E+02  3.102396E+03  4.350906E+05 -4.076030E+04  1.030975E+03
      4129   1  2.391993E+07 -2.587851E+02  1.797709E+03  4.171052E+05 -3.371835E+04  3.028986E+02
      4130   1  2.392050E+07  8.736990E+02  3.045066E+03  4.071884E+05 -1.884884E+04  2.528866E+02
      4131   1  2.391987E+07 -4.950393E+02  1.874662E+03  4.041623E+05 -1.126472E-03  5.878587E-06
      4132   1  2.392050E+07  8.736990E+02  3.045066E+03  4.071884E+05  1.884883E+04 -2.528866E+02
      4133   1  2.391993E+07 -2.587851E+02  1.797709E+03  4.171052E+05  3.371835E+04 -3.028986E+02
      4134   1  2.392052E+07  9.399752E+02  3.102396E+03  4.350906E+05  4.076030E+04 -1.030975E+03
      4135   1  2.392029E+07  1.729487E+03  7.982421E+02  4.661146E+05  3.333065E+04 -1.441882E+03
      4136   1  2.391677E+07 -2.913625E+03 -4.293842E+03  5.227581E+05  1.217507E+04  1.481036E+03
      4137   1  1.793978E+07 -1.635625E+03  2.943742E+03  7.642344E+05 -6.643062E+03  1.586591E+02
      4138   1  1.793888E+07 -7.008637E+02 -1.485056E+03  7.010103E+05 -1.675086E+04 -1.576210E+03
      4139   1  1.794011E+07  1.511229E+03  6.515165E+02  6.575655E+05 -2.137131E+04  6.250408E+02
      4140   1  1.794010E+07  2.940967E+02  1.289775E+03  6.307047E+05 -1.906671E+04  1.681538E+02
      4141   1  1.794005E+07  3.825019E+02  1.571831E+03  6.158904E+05 -1.089238E+04  1.360389E+02
      4142   1  1.794019E+07  3.338839E+02  1.551382E+03  6.110963E+05 -7.896906E-04 -1.507786E-05
      4143   1  1.794005E+07  3.825019E+02  1.571831E+03  6.158904E+05  1.089238E+04 -1.360388E+02
      4144   1  1.794010E+07  2.940967E+02  1.289775E+03  6.307047E+05  1.906671E+04 -1.681538E+02
      4145   1  1.794011E+07  1.511229E+03  6.515165E+02  6.575655E+05  2.137131E+04 -6.250408E+02
      4146   1  1.793888E+07 -7.008637E+02 -1.485056E+03  7.010103E+05  1.675086E+04  1.576210E+03
      4147   1  1.793978E+07 -1.635625E+03  2.943742E+03  7.642344E+05  6.643062E+03 -1.586591E+02
      4148   1  1.195876E+07 -1.192487E+03 -1.263670E+03  9.329049E+05 -3.076619E+03 -6.282417E+02
      4149   1  1.195989E+07 -1.404272E+02  6.231889E+02  8.659411E+05 -8.490344E+03  5.042562E+01
      4150   1  1.195969E+07  1.087843E+02  1.861091E+02  8.176726E+05 -1.088668E+04 -1.195778E+03
      4151   1  1.195997E+07  7.487642E+02  2.862796E+01  7.853671E+05 -9.829512E+03  1.857167E+02
      4152   1  1.196014E+07  3.733924E+02  1.265029E+03  7.671565E+05 -5.812752E+03 -1.810682E+02
      4153   1  1.195996E+07  3.221233E+02  4.251243E+02  7.612551E+05 -4.984095E-04  1.519047E-05
      4154   1  1.196014E+07  3.733924E+02  1.265029E+03  7.671565E+05  5.812752E+03  1.810682E+02
      4155   1  1.195997E+07  7.487642E+02  2.862793E+01  7.853671E+05  9.829511E+03 -1.857167E+02
      4156   1  1.195969E+07  1.087843E+02  1.861091E+02  8.176726E+05  1.088668E+04  1.195778E+03
      4157   1  1.195989E+07 -1.404272E+02  6.231889E+02  8.659411E+05  8.490344E+03 -5.042563E+01
      4158   1  1.195876E+07 -1.192487E+03 -1.263670E+03  9.329049E+05  3.076619E+03  6.282417E+02
      4159   1  5.979860E+06 -5.352739E+02  7.681779E+02  1.032775E+06 -1.354610E+03 -8.227118E+01
      4160   1  5.979593E+06 -2.998751E+02 -5.312587E+02  9.644300E+05 -3.494331E+03 -1.213155E+03
      4161   1  5.979993E+06  3.098812E+02  2.862652E+02  9.135250E+05 -4.586086E+03 -8.407258E+01
      4162   1  5.979920E+06  6.119910E+01  1.228189E+02  8.788894E+05 -4.174836E+03 -9.429651E+02
      4163   1  5.980021E+06  4.214518E+02  2.456692E+02  8.587648E+05 -2.460284E+03  1.653182E+01
      4164   1  5.980027E+06  1.005677E+02  4.166544E+02  8.522420E+05 -2.412860E-04 -1.140366E-05
      4165   1  5.980021E+06  4.214518E+02  2.456692E+02  8.587648E+05  2.460283E+03 -1.653179E+01
      4166   1  5.979920E+06  6.119909E+01  1.228189E+02  8.788894E+05  4.174836E+03  9.429651E+02
      4167   1  5.979993E+06  3.098812E+02  2.862652E+02  9.135250E+05  4.586086E+03  8.407257E+01
      4168   1  5.979593E+06 -2.998751E+02 -5.312587E+02  9.644300E+05  3.494330E+03  1.213155E+03
      4169   1  5.979860E+06 -5.352739E+02  7.681779E+02  1.032775E+06  1.354610E+03  8.227118E+01
      4170   1  6.541192E-03 -4.547733E-06 -6.549227E-06  1.065903E+06 -1.338580E-06 -4.881947E+02
      4171   1  6.542476E-03  7.136788E-06 -1.290321E-05  9.970629E+05 -3.632077E-06 -2.052633E+02
      4172   1  6.546482E-03  8.241132E-06  7.779633E-06  9.455731E+05 -5.025402E-06 -1.297610E+03
      4173   1  6.542795E-03  2.987312E-06  1.065974E-06  9.100705E+05 -4.819818E-06 -7.900574E+01
      4174   1  6.543186E-03  7.817407E-06  5.008846E-06  8.894853E+05 -3.157009E-06 -5.390429E+02
      4175   1  6.539322E-03  2.330540E-07  2.816482E-06  8.826920E+05 -6.945169E-07  1.141303E-05
      4176   1  6.540319E-03  8.254571E-06  4.416754E-06  8.894853E+05  2.713381E-06  5.390429E+02
      4177   1  6.536421E-03 -1.399702E-07  1.275288E-06  9.100705E+05  4.375148E-06  7.900575E+01
      4178   1  6.538857E-03  7.169387E-06  6.637806E-06  9.455731E+05  5.366667E-06  1.297610E+03
      4179   1  6.532267E-03  6.371838E-06 -1.273972E-05  9.970629E+05  3.779104E-06  2.052634E+02
      4180   1  6.529021E-03 -4.421570E-06 -4.667120E-06  1.065903E+06  8.313405E-07  4.881947E+02
      4181   1 -5.979860E+06  5.352739E+02 -7.681779E+02  1.032775E+06  1.354610E+03 -8.227119E+01
      4182   1 -5.979593E+06  2.998751E+02  5.312588E+02  9.644300E+05  3.494331E+03 -1.213155E+03
      4183   1 -5.979993E+06 -3.098812E+02 -2.862652E+02  9.135250E+05  4.586086E+03 -8.407258E+01
      4184   1 -5.979920E+06 -6.119910E+01 -1.228189E+02  8.788894E+05  4.174836E+03 -9.429651E+02
      4185   1 -5.980021E+06 -4.214518E+02 -2.456692E+02  8.587648E+05  2.460284E+03  1.653182E+01
      4186   1 -5.980027E+06 -1.005678E+02 -4.166544E+02  8.522420E+05  2.409996E-04 -9.521163E-06
      4187   1 -5.980021E+06 -4.214518E+02 -2.456692E+02  8.587648E+05 -2.460283E+03 -1.653179E+01
      4188   1 -5.979920E+06 -6.119909E+01 -1.228189E+02  8.788894E+05 -4.174836E+03  9.429651E+02
      4189   1 -5.979993E+06 -3.098813E+02 -2.862652E+02  9.135250E+05 -4.586086E+03  8.407257E+01
      4190   1 -5.979593E+06  2.998751E+02  5.312587E+02  9.644300E+05 -3.494330E+03  1.213155E+03
      4191   1 -5.979860E+06  5.352739E+02 -7.681779E+02  1.032775E+06 -1.354610E+03  8.227119E+01
      4192   1 -1.195876E+07  1.192487E+03  1.263670E+03  9.329049E+05  3.076619E+03 -6.282417E+02
      4193   1 -1.195989E+07  1.404272E+02 -6.231889E+02  8.659411E+05  8.490344E+03  5.042563E+01
      4194   1 -1.195969E+07 -1.087843E+02 -1.861091E+02  8.176726E+05  1.088668E+04 -1.195778E+03
      4195   1 -1.195997E+07 -7.487642E+02 -2.862796E+01  7.853671E+05  9.829512E+03  1.857167E+02
      4196   1 -1.196014E+07 -3.733924E+02 -1.265029E+03  7.671565E+05  5.812752E+03 -1.810682E+02
      4197   1 -1.195996E+07 -3.221232E+02 -4.251243E+02  7.612551E+05  4.976365E-04  1.623093E-05
      4198   1 -1.196014E+07 -3.733923E+02 -1.265029E+03  7.671565E+05 -5.812752E+03  1.810682E+02
      4199   1 -1.195997E+07 -7.487642E+02 -2.862793E+01  7.853671E+05 -9.829511E+03 -1.857167E+02
      4200   1 -1.195969E+07 -1.087843E+02 -1.861091E+02  8.176726E+05 -1.088668E+04  1.195778E+03
      4201   1 -1.195989E+07  1.404272E+02 -6.231889E+02  8.659411E+05 -8.490344E+03 -5.042563E+01
      4202   1 -1.195876E+07  1.192487E+03  1.263670E+03  9.329049E+05 -3.076619E+03  6.282417E+02
      4203   1 -1.793978E+07  1.635625E+03 -2.943742E+03  7.642344E+05  6.643062E+03  1.586591E+02
      4204   1 -1.793888E+07  7.008637E+02  1.485056E+03  7.010103E+05  1.675086E+04 -1.576210E+03
      4205   1 -1.794011E+07 -1.511229E+03 -6.515165E+02  6.575655E+05  2.137131E+04  6.250408E+02
      4206   1 -1.794010E+07 -2.940967E+02 -1.289775E+03  6.307047E+05  1.906671E+04  1.681538E+02
      4207   1 -1.794005E+07 -3.825019E+02 -1.571831E+03  6.158904E+05  1.089238E+04  1.360389E+02
      4208   1 -1.794019E+07 -3.338839E+02 -1.551382E+03  6.110963E+05  7.899544E-04 -1.460740E-05
      4209   1 -1.794005E+07 -3.825019E+02 -1.571831E+03  6.158904E+05 -1.089238E+04 -1.360388E+02
      4210   1 -1.794010E+07 -2.940967E+02 -1.289775E+03  6.307047E+05 -1.906671E+04 -1.681538E+02
      4211   1 -1.794011E+07 -1.511229E+03 -6.515165E+02  6.575655E+05 -2.137131E+04 -6.250408E+02
      4212   1 -1.793888E+07  7.008637E+02  1.485056E+03  7.010103E+05 -1.675086E+04  1.576210E+03
      4213   1 -1.793978E+07  1.635625E+03 -2.943742E+03  7.642344E+05 -6.643062E+03 -1.586591E+02
      4214   1 -2.391677E+07  2.913625E+03  4.293842E+03  5.227581E+05  1.217507E+04 -1.481036E+03
      4215   1 -2.392029E+07 -1.729487E+03 -7.982422E+02  4.661146E+05  3.333065E+04  1.441882E+03
      4216   1 -2.392052E+07 -9.399752E+02 -3.102396E+03  4.350906E+05  4.076030E+04  1.030975E+03
      4217   1 -2.391993E+07  2.587851E+02 -1.797709E+03  4.171052E+05  3.371835E+04  3.028986E+02
      4218   1 -2.392050E+07 -8.736990E+02 -3.045066E+03  4.071884E+05  1.884884E+04  2.528866E+02
      4219   1 -2.391987E+07  4.950393E+02 -1.874662E+03  4.041623E+05  1.126389E-03  6.188155E-06
      4220   1 -2.392050E+07 -8.736990E+02 -3.045066E+03  4.071884E+05 -1.884883E+04 -2.528866E+02
      4221   1 -2.391993E+07  2.587851E+02 -1.797709E+03  4.171052E+05 -3.371835E+04 -3.028986E+02
      4222   1 -2.392052E+07 -9.399752E+02 -3.102396E+03  4.350906E+05 -4.076030E+04 -1.030975E+03
      4223   1 -2.392029E+07 -1.729487E+03 -7.982421E+02  4.661146E+05 -3.333065E+04 -1.441882E+03
      4224   1 -2.391677E+07  2.913625E+03  4.293842E+03  5.227581E+05 -1.217507E+04  1.481036E+03
      4225   1 -2.990149E+07  1.929614E+03 -9.645946E+03  1.920133E+05  3.281754E+04  2.283000E+03
      4226   1 -2.990197E+07 -2.507978E+03 -5.510152E+03  1.649893E+05  7.093983E+04  1.397579E+03
      4227   1 -2.990012E+07  1.235533E+03 -4.595388E+03  1.546757E+05  7.224221E+04  2.769791E+02
      4228   1 -2.990067E+07 -1.036037E+03 -3.177621E+03  1.478484E+05  5.632327E+04  3.262345E+02
      4229   1 -2.989999E+07  7.264636E+02 -3.657234E+03  1.445926E+05  3.040308E+04  4.695021E+01
      4230   1 -2.990041E+07 -7.196167E+02 -2.748022E+03  1.433870E+05  1.523488E-03 -1.521360E-06
      4231   1 -2.989999E+07  7.264636E+02 -3.657234E+03  1.445926E+05 -3.040308E+04 -4.695021E+01
      4232   1 -2.990067E+07 -1.036037E+03 -3.177621E+03  1.478484E+05 -5.632327E+04 -3.262345E+02
      4233   1 -2.990012E+07  1.235533E+03 -4.595388E+03  1.546757E+05 -7.224221E+04 -2.769791E+02
      4234   1 -2.990197E+07 -2.507978E+03 -5.510152E+03  1.649893E+05 -7.093983E+04 -1.397578E+03
      4235   1 -2.990149E+07  1.929614E+03 -9.645946E+03  1.920133E+05 -3.281753E+04 -2.283000E+03
      4236   1  2.958336E+07 -2.223656E+03  8.652487E+03  1.919912E+05 -3.281331E+04  2.246441E+03
      4237   1  2.958395E+07  2.830379E+03  6.329068E+03  1.650034E+05 -7.095053E+04  1.389853E+03
      4238   1  2.958190E+07 -1.518954E+03  3.701958E+03  1.546674E+05 -7.223091E+04  2.693012E+02
      4239   1  2.958273E+07  1.385695E+03  4.000013E+03  1.478567E+05 -5.633354E+04  3.255250E+02
      4240   1  2.958174E+07 -1.024356E+03  2.784380E+03  1.445877E+05 -3.039792E+04  4.510673E+01
      4241   1  2.958250E+07  1.077560E+03  3.570345E+03  1.433938E+05 -1.522619E-03 -3.219795E-06
      4242   1  2.958174E+07 -1.024356E+03  2.784380E+03  1.445877E+05  3.039791E+04 -4.510672E+01
      4243   1  2.958273E+07  1.385695E+03  4.000013E+03  1.478567E+05  5.633354E+04 -3.255251E+02
      4244   1  2.958190E+07 -1.518954E+03  3.701957E+03  1.546674E+05  7.223091E+04 -2.693011E+02
      4245   1  2.958395E+07  2.830379E+03  6.329068E+03  1.650034E+05  7.095053E+04 -1.389853E+03
      4246   1  2.958336E+07 -2.223656E+03  8.652488E+03  1.919912E+05  3.281331E+04 -2.246441E+03
      4247   1  2.366231E+07 -3.137546E+03 -5.012606E+03  5.227771E+05 -1.216998E+04 -1.462111E+03
      4248   1  2.366589E+07  1.960842E+03  1.530717E+03  4.661069E+05 -3.334182E+04  1.426416E+03
      4249   1  2.366594E+07  6.267795E+02  2.321544E+03  4.350904E+05 -4.074953E+04  1.019672E+03
      4250   1  2.366559E+07  7.691621E+00  2.504323E+03  4.171015E+05 -3.372780E+04  2.998274E+02
      4251   1  2.366588E+07  5.525838E+02  2.272797E+03  4.071866E+05 -1.884416E+04  2.499665E+02
      4252   1  2.366555E+07 -2.218685E+02  2.576710E+03  4.041595E+05 -1.127654E-03  5.825848E-06
      4253   1  2.366588E+07  5.525838E+02  2.272797E+03  4.071866E+05  1.884416E+04 -2.499665E+02
      4254   1  2.366559E+07  7.691605E+00  2.504323E+03  4.171015E+05  3.372780E+04 -2.998274E+02
      4255   1  2.366594E+07  6.267794E+02  2.321544E+03  4.350904E+05  4.074953E+04 -1.019672E+03
      4256   1  2.366589E+07  1.960842E+03  1.530717E+03  4.661069E+05  3.334182E+04 -1.426417E+03
      4257   1  2.366231E+07 -3.137546E+03 -5.012606E+03  5.227771E+05  1.216998E+04  1.462111E+03
      4258   1  1.774891E+07 -1.825593E+03  2.318870E+03  7.642235E+05 -6.640863E+03  1.552030E+02
      4259   1  1.774810E+07 -4.694928E+02 -8.857872E+02  7.010099E+05 -1.675807E+04 -1.560391E+03
      4260   1  1.774917E+07  1.297420E+03  8.153607E+01  6.575715E+05 -2.136361E+04  6.187328E+02
      4261   1  1.774935E+07  5.255411E+02  1.845888E+03  6.307053E+05 -1.907381E+04  1.658305E+02
      4262   1  1.774909E+07  1.732581E+02  9.986470E+02  6.158960E+05 -1.088887E+04  1.346727E+02
      4263   1  1.774945E+07  5.685931E+02  2.101772E+03  6.110971E+05 -7.896840E-04 -1.442983E-05
      4264   1  1.774909E+07  1.732581E+02  9.986470E+02  6.158960E+05  1.088887E+04 -1.346727E+02
      4265   1  1.774935E+07  5.255411E+02  1.845888E+03  6.307053E+05  1.907381E+04 -1.658305E+02
      4266   1  1.774917E+07  1.297420E+03  8.153601E+01  6.575715E+05  2.136361E+04 -6.187328E+02
      4267   1  1.774810E+07 -4.694928E+02 -8.857871E+02  7.010099E+05  1.675807E+04  1.560391E+03
      4268   1  1.774891E+07 -1.825593E+03  2.318870E+03  7.642234E+05  6.640862E+03 -1.552030E+02
      4269   1  1.183152E+07 -1.312127E+03 -1.646629E+03  9.329205E+05 -3.074108E+03 -6.203014E+02
      4270   1  1.183269E+07 -6.699481E+00  1.001239E+03  8.659379E+05 -8.495758E+03  5.034194E+01
      4271   1  1.183240E+07 -4.837166E+01 -2.035700E+02  8.176707E+05 -1.088156E+04 -1.183397E+03
      4272   1  1.183280E+07  8.786337E+02  4.045788E+02  7.853625E+05 -9.834141E+03  1.834908E+02
      4273   1  1.183283E+07  2.096757E+02  8.683783E+02  7.671553E+05 -5.810500E+03 -1.792509E+02
      4274   1  1.183280E+07  4.584893E+02  7.947110E+02  7.612506E+05 -4.983250E-04  1.551381E-05
      4275   1  1.183283E+07  2.096757E+02  8.683783E+02  7.671553E+05  5.810499E+03  1.792509E+02
      4276   1  1.183280E+07  8.786337E+02  4.045788E+02  7.853625E+05  9.834140E+03 -1.834907E+02
      4277   1  1.183240E+07 -4.837168E+01 -2.035699E+02  8.176707E+05  1.088156E+04  1.183397E+03
      4278   1  1.183269E+07 -6.699469E+00  1.001239E+03  8.659379E+05  8.495758E+03 -5.034195E+01
      4279   1  1.183152E+07 -1.312127E+03 -1.646629E+03  9.329205E+05  3.074108E+03  6.203014E+02
      4280   1  5.916237E+06 -5.998517E+02  5.590013E+02  1.032765E+06 -1.353846E+03 -8.245874E+01
      4281   1  5.916001E+06 -2.216830E+02 -3.281326E+02  9.644266E+05 -3.496873E+03 -1.201364E+03
      4282   1  5.916349E+06  2.392091E+02  9.245963E+01  9.135310E+05 -4.583415E+03 -8.318603E+01
      4283   1  5.916338E+06  1.396250E+02  3.145449E+02  8.788902E+05 -4.177302E+03 -9.333003E+02
      4284   1  5.916368E+06  3.468962E+02  5.439417E+01  8.587697E+05 -2.459084E+03  1.626748E+01
      4285   1  5.916449E+06  1.798500E+02  6.043118E+02  8.522432E+05 -2.412400E-04 -9.294738E-06
      4286   1  5.916368E+06  3.468962E+02  5.439416E+01  8.587697E+05  2.459084E+03 -1.626746E+01
      4287   1  5.916338E+06  1.396250E+02  3.145449E+02  8.788902E+05  4.177302E+03  9.333003E+02
      4288   1  5.916349E+06  2.392091E+02  9.245962E+01  9.135310E+05  4.583414E+03  8.318603E+01
      4289   1  5.916001E+06 -2.216830E+02 -3.281326E+02  9.644266E+05  3.496872E+03  1.201364E+03
      4290   1  5.916237E+06 -5.998517E+02  5.590013E+02  1.032765E+06  1.353846E+03  8.245875E+01
      4291   1  6.471832E-03 -7.197619E-06 -9.246547E-06  1.065918E+06 -1.014389E-06 -4.820631E+02
      4292   1  6.471617E-03  2.205666E-06 -1.144663E-05  9.970610E+05 -3.757929E-06 -2.026646E+02
      4293   1  6.476441E-03  1.945139E-06  1.338663E-06  9.455715E+05 -5.101367E-06 -1.284063E+03
      4294   1  6.470133E-03 -6.722221E-06  5.162548E-07  9.100658E+05 -4.513928E-06 -7.856785E+01
      4295   1  6.470455E-03 -2.731399E-06 -3.166807E-06  8.894848E+05 -2.568527E-06 -5.333908E+02
      4296   1  6.467995E-03 -1.088669E-05  1.074535E-06  8.826875E+05 -2.725384E-07  1.201085E-05
      4297   1  6.468727E-03 -4.102733E-06 -1.914668E-06  8.894848E+05  2.775950E-06  5.333907E+02
      4298   1  6.465314E-03 -7.949069E-06 -5.903138E-07  9.100658E+05  4.321250E-06  7.856786E+01
      4299   1  6.465393E-03 -7.012004E-06 -7.727589E-07  9.455715E+05  5.065792E-06  1.284063E+03
      4300   1  6.461023E-03  1.058125E-06 -1.168910E-05  9.970610E+05  3.637962E-06  2.026646E+02
      4301   1  6.458142E-03 -1.015633E-05 -1.188232E-05  1.065918E+06  1.009752E-06  4.820631E+02
      4302   1 -5.916237E+06  5.998517E+02 -5.590013E+02  1.032765E+06  1.353846E+03 -8.245876E+01
      4303   1 -5.916001E+06  2.216830E+02  3.281326E+02  9.644266E+05  3.496873E+03 -1.201364E+03
      4304   1 -5.916349E+06 -2.392091E+02 -9.245964E+01  9.135310E+05  4.583415E+03 -8.318603E+01
      4305   1 -5.916338E+06 -1.396250E+02 -3.145449E+02  8.788902E+05  4.177302E+03 -9.333003E+02
      4306   1 -5.916368E+06 -3.468961E+02 -5.439417E+01  8.587697E+05  2.459084E+03  1.626748E+01
      4307   1 -5.916449E+06 -1.798499E+02 -6.043118E+02  8.522432E+05  2.411629E-04 -8.844562E-06
      4308   1 -5.916368E+06 -3.468961E+02 -5.439416E+01  8.587697E+05 -2.459084E+03 -1.626746E+01
      4309   1 -5.916338E+06 -1.396250E+02 -3.145449E+02  8.788902E+05 -4.177302E+03  9.333003E+02
      4310   1 -5.916349E+06 -2.392091E+02 -9.245963E+01  9.135310E+05 -4.583414E+03  8.318602E+01
      4311   1 -5.916001E+06  2.216830E+02  3.281326E+02  9.644266E+05 -3.496872E+03  1.201364E+03
      4312   1 -5.916237E+06  5.998517E+02 -5.590013E+02  1.032765E+06 -1.353846E+03  8.245876E+01
      4313   1 -1.183152E+07  1.312127E+03  1.646629E+03  9.329205E+05  3.074108E+03 -6.203014E+02
      4314   1 -1.183269E+07  6.699464E+00 -1.001239E+03  8.659379E+05  8.495758E+03  5.034195E+01
      4315   1 -1.183240E+07  4.837165E+01  2.035700E+02  8.176707E+05  1.088156E+04 -1.183397E+03
      4316   1 -1.183280E+07 -8.786337E+02 -4.045788E+02  7.853625E+05  9.834141E+03  1.834908E+02
      4317   1 -1.183283E+07 -2.096757E+02 -8.683783E+02  7.671553E+05  5.810500E+03 -1.792509E+02
      4318   1 -1.183280E+07 -4.584893E+02 -7.947110E+02  7.612506E+05  4.978339E-04  1.603473E-05
      4319   1 -1.183283E+07 -2.096757E+02 -8.683783E+02  7.671553E+05 -5.810499E+03  1.792509E+02
      4320   1 -1.183280E+07 -8.786337E+02 -4.045788E+02  7.853625E+05 -9.834140E+03 -1.834907E+02
      4321   1 -1.183240E+07  4.837167E+01  2.035699E+02  8.176707E+05 -1.088156E+04  1.183397E+03
      4322   1 -1.183269E+07  6.699452E+00 -1.001239E+03  8.659379E+05 -8.495758E+03 -5.034195E+01
      4323   1 -1.183152E+07  1.312127E+03  1.646629E+03  9.329205E+05 -3.074107E+03  6.203014E+02
      4324   1 -1.774891E+07  1.825593E+03 -2.318870E+03  7.642235E+05  6.640863E+03  1.552030E+02
      4325   1 -1.774810E+07  4.694928E+02  8.857872E+02  7.010099E+05  1.675807E+04 -1.560391E+03
      4326   1 -1.774917E+07 -1.297420E+03 -8.153608E+01  6.575715E+05  2.136361E+04  6.187328E+02
      4327   1 -1.774935E+07 -5.255411E+02 -1.845888E+03  6.307053E+05  1.907381E+04  1.658305E+02
      4328   1 -1.774909E+07 -1.732581E+02 -9.986470E+02  6.158960E+05  1.088887E+04  1.346727E+02
      4329   1 -1.774945E+07 -5.685931E+02 -2.101772E+03  6.110971E+05  7.894274E-04 -1.569458E-05
      4330   1 -1.774909E+07 -1.732581E+02 -9.986470E+02  6.158960E+05 -1.088887E+04 -1.346727E+02
      4331   1 -1.774935E+07 -5.255411E+02 -1.845888E+03  6.307053E+05 -1.907381E+04 -1.658305E+02
      4332   1 -1.774917E+07 -1.297420E+03 -8.153602E+01  6.575715E+05 -2.136361E+04 -6.187328E+02
      4333   1 -1.774810E+07  4.694928E+02  8.857871E+02  7.010099E+05 -1.675807E+04  1.560391E+03
      4334   1 -1.774891E+07  1.825593E+03 -2.318870E+03  7.642234E+05 -6.640862E+03 -1.552030E+02
      4335   1 -2.366231E+07  3.137546E+03  5.012606E+03  5.227771E+05  1.216998E+04 -1.462111E+03
      4336   1 -2.366589E+07 -1.960842E+03 -1.530717E+03  4.661069E+05  3.334182E+04  1.426416E+03
      4337   1 -2.366594E+07 -6.267795E+02 -2.321544E+03  4.350904E+05  4.074953E+04  1.019672E+03
      4338   1 -2.366559E+07 -7.691621E+00 -2.504323E+03  4.171015E+05  3.372780E+04  2.998274E+02
      4339   1 -2.366588E+07 -5.525838E+02 -2.272797E+03  4.071866E+05  1.884416E+04  2.499665E+02
      4340   1 -2.366555E+07  2.218684E+02 -2.576710E+03  4.041595E+05  1.127021E-03  4.591186E-06
      4341   1 -2.366588E+07 -5.525838E+02 -2.272797E+03  4.071866E+05 -1.884416E+04 -2.499665E+02
      4342   1 -2.366559E+07 -7.691610E+00 -2.504323E+03  4.171015E+05 -3.372780E+04 -2.998274E+02
      4343   1 -2.366594E+07 -6.267794E+02 -2.321544E+03  4.350904E+05 -4.074953E+04 -1.019672E+03
      4344   1 -2.366589E+07 -1.960842E+03 -1.530717E+03  4.661069E+05 -3.334182E+04 -1.426417E+03
      4345   1 -2.366231E+07  3.137546E+03  5.012606E+03  5.227771E+05 -1.216998E+04  1.462111E+03
      4346   1 -2.958336E+07  2.223656E+03 -8.652487E+03  1.919912E+05  3.281331E+04  2.246441E+03
      4347   1 -2.958395E+07 -2.830379E+03 -6.329068E+03  1.650034E+05  7.095053E+04  1.389853E+03
      4348   1 -2.958190E+07  1.518954E+03 -3.701958E+03  1.546674E+05  7.223091E+04  2.693012E+02
      4349   1 -2.958273E+07 -1.385695E+03 -4.000013E+03  1.478567E+05  5.633354E+04  3.255250E+02
      4350   1 -2.958174E+07  1.024356E+03 -2.784380E+03  1.445877E+05  3.039792E+04  4.510673E+01
      4351   1 -2.958250E+07 -1.077560E+03 -3.570345E+03  1.433938E+05  1.523710E-03 -2.387028E-06
      4352   1 -2.958174E+07  1.024356E+03 -2.784380E+03  1.445877E+05 -3.039791E+04 -4.510672E+01
      4353   1 -2.958273E+07 -1.385695E+03 -4.000013E+03  1.478567E+05 -5.633354E+04 -3.255251E+02
      4354   1 -2.958190E+07  1.518954E+03 -3.701957E+03  1.546674E+05 -7.223091E+04 -2.693012E+02
      4355   1 -2.958395E+07 -2.830379E+03 -6.329068E+03  1.650034E+05 -7.095053E+04 -1.389853E+03
      4356   1 -2.958336E+07  2.223656E+03 -8.652488E+03  1.919912E+05 -3.281331E+04 -2.246441E+03
      4357   1  2.926528E+07 -1.942660E+03  9.286112E+03  1.920090E+05 -3.281703E+04  2.232211E+03
      4358   1  2.926577E+07  2.516079E+03  5.545433E+03  1.649918E+05 -7.094239E+04  1.369080E+03
      4359   1  2.926392E+07 -1.259912E+03  4.350797E+03  1.546740E+05 -7.224097E+04  2.701901E+02
      4360   1  2.926451E+07  1.077505E+03  3.258284E+03  1.478499E+05 -5.632582E+04  3.197284E+02
      4361   1  2.926380E+07 -7.632383E+02  3.434108E+03  1.445916E+05 -3.040255E+04  4.567820E+01
      4362   1  2.926427E+07  7.686754E+02  2.836779E+03  1.433881E+05 -1.522973E-03 -7.498471E-07
      4363   1  2.926380E+07 -7.632383E+02  3.434108E+03  1.445916E+05  3.040255E+04 -4.567819E+01
      4364   1  2.926451E+07  1.077505E+03  3.258284E+03  1.478499E+05  5.632581E+04 -3.197284E+02
      4365   1  2.926392E+07 -1.259912E+03  4.350797E+03  1.546740E+05  7.224097E+04 -2.701901E+02
      4366   1  2.926577E+07  2.516080E+03  5.545433E+03  1.649918E+05  7.094239E+04 -1.369080E+03
      4367   1  2.926528E+07 -1.942660E+03  9.286112E+03  1.920090E+05  3.281703E+04 -2.232211E+03
      4368   1  2.340789E+07 -2.895539E+03 -4.334339E+03  5.227620E+05 -1.217433E+04 -1.448978E+03
      4369   1  2.341136E+07  1.735520E+03  9.085809E+02  4.661135E+05 -3.333327E+04  1.411077E+03
      4370   1  2.341155E+07  8.674719E+02  2.906896E+03  4.350910E+05 -4.075907E+04  1.008819E+03
      4371   1  2.341102E+07 -2.080777E+02  1.883692E+03  4.171050E+05 -3.372071E+04  2.963253E+02
      4372   1  2.341152E+07  8.011278E+02  2.851785E+03  4.071887E+05 -1.884837E+04  2.473685E+02
      4373   1  2.341096E+07 -4.385907E+02  1.958125E+03  4.041624E+05 -1.127139E-03  7.412430E-06
      4374   1  2.341152E+07  8.011279E+02  2.851785E+03  4.071887E+05  1.884836E+04 -2.473685E+02
      4375   1  2.341102E+07 -2.080777E+02  1.883692E+03  4.171050E+05  3.372071E+04 -2.963253E+02
      4376   1  2.341155E+07  8.674719E+02  2.906896E+03  4.350910E+05  4.075907E+04 -1.008819E+03
      4377   1  2.341136E+07  1.735520E+03  9.085808E+02  4.661135E+05  3.333327E+04 -1.411077E+03
      4378   1  2.340789E+07 -2.895539E+03 -4.334339E+03  5.227620E+05  1.217433E+04  1.448978E+03
      4379   1  1.755808E+07 -1.636656E+03  2.779384E+03  7.642314E+05 -6.642888E+03  1.548966E+02
      4380   1  1.755721E+07 -6.476570E+02 -1.353538E+03  7.010093E+05 -1.675262E+04 -1.543036E+03
      4381   1  1.755839E+07  1.445209E+03  5.409966E+02  6.575658E+05 -2.137054E+04  6.115499E+02
      4382   1  1.755841E+07  3.279717E+02  1.359517E+03  6.307042E+05 -1.906852E+04  1.642428E+02
      4383   1  1.755833E+07  3.391855E+02  1.442553E+03  6.158909E+05 -1.089207E+04  1.330158E+02
      4384   1  1.755851E+07  3.675207E+02  1.614853E+03  6.110959E+05 -7.895893E-04 -1.474372E-05
      4385   1  1.755833E+07  3.391855E+02  1.442553E+03  6.158909E+05  1.089207E+04 -1.330158E+02
      4386   1  1.755841E+07  3.279716E+02  1.359517E+03  6.307042E+05  1.906852E+04 -1.642428E+02
      4387   1  1.755839E+07  1.445209E+03  5.409966E+02  6.575658E+05  2.137054E+04 -6.115499E+02
      4388   1  1.755721E+07 -6.476570E+02 -1.353538E+03  7.010093E+05  1.675262E+04  1.543036E+03
      4389   1  1.755808E+07 -1.636656E+03  2.779384E+03  7.642314E+05  6.642888E+03 -1.548966E+02
      4390   1  1.170431E+07 -1.189411E+03 -1.304639E+03  9.329088E+05 -3.076276E+03 -6.147504E+02
      4391   1  1.170543E+07 -1.145494E+02  6.756232E+02  8.659414E+05 -8.491674E+03  4.919168E+01
      4392   1  1.170522E+07  7.998388E+01  1.154978E+02  8.176732E+05 -1.088620E+04 -1.170734E+03
      4393   1  1.170552E+07  7.566593E+02  9.198963E+01  7.853675E+05 -9.830725E+03  1.814135E+02
      4394   1  1.170566E+07  3.383342E+02  1.172021E+03  7.671576E+05 -5.812576E+03 -1.774192E+02
      4395   1  1.170550E+07  3.394261E+02  4.795388E+02  7.612557E+05 -4.983114E-04  1.565477E-05
      4396   1  1.170566E+07  3.383342E+02  1.172021E+03  7.671576E+05  5.812575E+03  1.774192E+02
      4397   1  1.170552E+07  7.566593E+02  9.198960E+01  7.853675E+05  9.830724E+03 -1.814135E+02
      4398   1  1.170522E+07  7.998387E+01  1.154978E+02  8.176732E+05  1.088620E+04  1.170734E+03
      4399   1  1.170543E+07 -1.145493E+02  6.756231E+02  8.659413E+05  8.491673E+03 -4.919168E+01
      4400   1  1.170431E+07 -1.189411E+03 -1.304639E+03  9.329088E+05  3.076276E+03  6.147504E+02
      4401   1  5.852628E+06 -5.361366E+02  7.173714E+02  1.032771E+06 -1.354556E+03 -8.080540E+01
      4402   1  5.852371E+06 -2.807757E+02 -4.861719E+02  9.644278E+05 -3.494968E+03 -1.187846E+03
      4403   1  5.852755E+06  2.916472E+02  2.474016E+02  9.135247E+05 -4.585833E+03 -8.266680E+01
      4404   1  5.852694E+06  7.332333E+01  1.530848E+02  8.788884E+05 -4.175484E+03 -9.233130E+02
      4405   1  5.852781E+06  4.003589E+02  2.079123E+02  8.587647E+05 -2.460185E+03  1.595872E+01
      4406   1  5.852800E+06  1.120601E+02  4.404346E+02  8.522412E+05 -2.408364E-04 -6.998275E-06
      4407   1  5.852781E+06  4.003588E+02  2.079123E+02  8.587647E+05  2.460185E+03 -1.595870E+01
      4408   1  5.852694E+06  7.332332E+01  1.530848E+02  8.788884E+05  4.175483E+03  9.233130E+02
      4409   1  5.852755E+06  2.916472E+02  2.474016E+02  9.135247E+05  4.585833E+03  8.266679E+01
      4410   1  5.852371E+06 -2.807757E+02 -4.861719E+02  9.644278E+05  3.494968E+03  1.187846E+03
      4411   1  5.852628E+06 -5.361366E+02  7.173714E+02  1.032771E+06  1.354556E+03  8.080540E+01
      4412   1  6.402830E-03 -2.759350E-06 -4.069131E-06  1.065907E+06 -1.650644E-06 -4.777720E+02
      4413   1  6.402841E-03  5.600647E-06 -1.333678E-05  9.970636E+05 -3.923412E-06 -2.011185E+02
      4414   1  6.407659E-03  8.035896E-06  7.623703E-06  9.455740E+05 -5.124059E-06 -1.270452E+03
      4415   1  6.402048E-03  6.097510E-07 -4.369143E-07  9.100711E+05 -4.995221E-06 -7.776396E+01
      4416   1  6.404997E-03  1.106031E-05  6.203558E-06  8.894868E+05 -2.460575E-06 -5.278058E+02
      4417   1  6.401586E-03  3.871512E-06  4.021280E-06  8.826929E+05  1.359321E-07  1.230847E-05
      4418   1  6.403048E-03  1.231780E-05  6.811999E-06  8.894868E+05  2.499460E-06  5.278057E+02
      4419   1  6.400510E-03  6.901341E-06  3.239306E-06  9.100711E+05  4.660509E-06  7.776398E+01
      4420   1  6.402056E-03  1.165142E-05  1.093590E-05  9.455740E+05  5.538258E-06  1.270452E+03
      4421   1  6.392524E-03  2.864566E-06 -1.425477E-05  9.970636E+05  3.543094E-06  2.011185E+02
      4422   1  6.389829E-03 -2.506725E-06 -5.022145E-06  1.065907E+06  1.242820E-06  4.777720E+02
      4423   1 -5.852628E+06  5.361366E+02 -7.173714E+02  1.032771E+06  1.354556E+03 -8.080541E+01
      4424   1 -5.852371E+06  2.807757E+02  4.861719E+02  9.644278E+05  3.494968E+03 -1.187846E+03
      4425   1 -5.852755E+06 -2.916472E+02 -2.474016E+02  9.135247E+05  4.585833E+03 -8.266679E+01
      4426   1 -5.852694E+06 -7.332333E+01 -1.530848E+02  8.788884E+05  4.175484E+03 -9.233130E+02
      4427   1 -5.852781E+06 -4.003589E+02 -2.079123E+02  8.587647E+05  2.460185E+03  1.595872E+01
      4428   1 -5.852800E+06 -1.120601E+02 -4.404346E+02  8.522412E+05  2.406728E-04 -9.543074E-06
      4429   1 -5.852781E+06 -4.003589E+02 -2.079123E+02  8.587647E+05 -2.460185E+03 -1.595870E+01
      4430   1 -5.852694E+06 -7.332333E+01 -1.530848E+02  8.788884E+05 -4.175483E+03  9.233130E+02
      4431   1 -5.852755E+06 -2.916472E+02 -2.474016E+02  9.135247E+05 -4.585833E+03  8.266679E+01
      4432   1 -5.852371E+06  2.807757E+02  4.861719E+02  9.644278E+05 -3.494968E+03  1.187846E+03
      4433   1 -5.852628E+06  5.361366E+02 -7.173714E+02  1.032771E+06 -1.354556E+03  8.080541E+01
      4434   1 -1.170431E+07  1.189411E+03  1.304639E+03  9.329088E+05  3.076276E+03 -6.147504E+02
      4435   1 -1.170543E+07  1.145493E+02 -6.756232E+02  8.659414E+05  8.491674E+03  4.919168E+01
      4436   1 -1.170522E+07 -7.998386E+01 -1.154978E+02  8.176732E+05  1.088620E+04 -1.170734E+03
      4437   1 -1.170552E+07 -7.566593E+02 -9.198963E+01  7.853675E+05  9.830725E+03  1.814135E+02
      4438   1 -1.170566E+07 -3.383342E+02 -1.172021E+03  7.671576E+05  5.812576E+03 -1.774192E+02
      4439   1 -1.170550E+07 -3.394260E+02 -4.795388E+02  7.612557E+05  4.980515E-04  1.583234E-05
      4440   1 -1.170566E+07 -3.383341E+02 -1.172021E+03  7.671576E+05 -5.812575E+03  1.774192E+02
      4441   1 -1.170552E+07 -7.566593E+02 -9.198960E+01  7.853675E+05 -9.830724E+03 -1.814135E+02
      4442   1 -1.170522E+07 -7.998384E+01 -1.154978E+02  8.176732E+05 -1.088620E+04  1.170734E+03
      4443   1 -1.170543E+07  1.145493E+02 -6.756232E+02  8.659413E+05 -8.491673E+03 -4.919169E+01
      4444   1 -1.170431E+07  1.189411E+03  1.304639E+03  9.329088E+05 -3.076276E+03  6.147504E+02
      4445   1 -1.755808E+07  1.636656E+03 -2.779384E+03  7.642314E+05  6.642888E+03  1.548966E+02
      4446   1 -1.755721E+07  6.476570E+02  1.353538E+03  7.010093E+05  1.675262E+04 -1.543036E+03
      4447   1 -1.755839E+07 -1.445209E+03 -5.409966E+02  6.575658E+05  2.137054E+04  6.115499E+02
      4448   1 -1.755841E+07 -3.279717E+02 -1.359517E+03  6.307042E+05  1.906852E+04  1.642428E+02
      4449   1 -1.755833E+07 -3.391856E+02 -1.442553E+03  6.158909E+05  1.089207E+04  1.330158E+02
      4450   1 -1.755851E+07 -3.675207E+02 -1.614853E+03  6.110959E+05  7.904704E-04 -1.483797E-05
      4451   1 -1.755833E+07 -3.391856E+02 -1.442553E+03  6.158909E+05 -1.089207E+04 -1.330158E+02
      4452   1 -1.755841E+07 -3.279717E+02 -1.359517E+03  6.307042E+05 -1.906852E+04 -1.642428E+02
      4453   1 -1.755839E+07 -1.445209E+03 -5.409966E+02  6.575658E+05 -2.137054E+04 -6.115499E+02
      4454   1 -1.755721E+07  6.476570E+02  1.353538E+03  7.010093E+05 -1.675262E+04  1.543036E+03
      4455   1 -1.755808E+07  1.636656E+03 -2.779384E+03  7.642314E+05 -6.642888E+03 -1.548966E+02
      4456   1 -2.340789E+07  2.895539E+03  4.334339E+03  5.227620E+05  1.217433E+04 -1.448978E+03
      4457   1 -2.341136E+07 -1.735520E+03 -9.085809E+02  4.661135E+05  3.333327E+04  1.411077E+03
      4458   1 -2.341155E+07 -8.674719E+02 -2.906896E+03  4.350910E+05  4.075907E+04  1.008819E+03
      4459   1 -2.341102E+07  2.080777E+02 -1.883692E+03  4.171050E+05  3.372071E+04  2.963253E+02
      4460   1 -2.341152E+07 -8.011278E+02 -2.851785E+03  4.071887E+05  1.884837E+04  2.473685E+02
      4461   1 -2.341096E+07  4.385907E+02 -1.958125E+03  4.041624E+05  1.126799E-03  4.617934E-06
      4462   1 -2.341152E+07 -8.011278E+02 -2.851785E+03  4.071887E+05 -1.884836E+04 -2.473685E+02
      4463   1 -2.341102E+07  2.080777E+02 -1.883692E+03  4.171050E+05 -3.372071E+04 -2.963253E+02
      4464   1 -2.341155E+07 -8.674719E+02 -2.906896E+03  4.350910E+05 -4.075907E+04 -1.008819E+03
      4465   1 -2.341136E+07 -1.735520E+03 -9.085809E+02  4.661135E+05 -3.333327E+04 -1.411077E+03
      4466   1 -2.340789E+07  2.895539E+03  4.334339E+03  5.227620E+05 -1.217433E+04  1.448978E+03
      4467   1 -2.926528E+07  1.942660E+03 -9.286112E+03  1.920090E+05  3.281703E+04  2.232211E+03
      4468   1 -2.926577E+07 -2.516079E+03 -5.545433E+03  1.649918E+05  7.094239E+04  1.369080E+03
      4469   1 -2.926392E+07  1.259912E+03 -4.350797E+03  1.546740E+05  7.224097E+04  2.701901E+02
      4470   1 -2.926451E+07 -1.077505E+03 -3.258284E+03  1.478499E+05  5.632582E+04  3.197284E+02
      4471   1 -2.926380E+07  7.632383E+02 -3.434107E+03  1.445916E+05  3.040255E+04  4.567820E+01
      4472   1 -2.926427E+07 -7.686754E+02 -2.836779E+03  1.433881E+05  1.523461E-03 -3.226215E-06
      4473   1 -2.926380E+07  7.632383E+02 -3.434107E+03  1.445916E+05 -3.040255E+04 -4.567819E+01
      4474   1 -2.926451E+07 -1.077505E+03 -3.258284E+03  1.478499E+05 -5.632581E+04 -3.197284E+02
      4475   1 -2.926392E+07  1.259912E+03 -4.350797E+03  1.546740E+05 -7.224097E+04 -2.701901E+02
      4476   1 -2.926577E+07 -2.516080E+03 -5.545433E+03  1.649918E+05 -7.094239E+04 -1.369080E+03
      4477   1 -2.926528E+07  1.942660E+03 -9.286112E+03  1.920090E+05 -3.281703E+04 -2.232211E+03
      4478   1  2.894716E+07 -2.131833E+03  8.592264E+03  1.919946E+05 -3.281413E+04  2.199900E+03
      4479   1  2.894772E+07  2.719435E+03  6.068331E+03  1.650013E+05 -7.094943E+04  1.358915E+03
      4480   1  2.894575E+07 -1.444999E+03  3.741201E+03  1.546687E+05 -7.223321E+04  2.641522E+02
      4481   1  2.894652E+07  1.304148E+03  3.791977E+03  1.478555E+05 -5.633256E+04  3.180888E+02
      4482   1  2.894560E+07 -9.597688E+02  2.841482E+03  1.445885E+05 -3.039900E+04  4.430522E+01
      4483   1  2.894629E+07  1.001933E+03  3.372020E+03  1.433928E+05 -1.523365E-03 -1.585824E-06
      4484   1  2.894560E+07 -9.597689E+02  2.841482E+03  1.445885E+05  3.039900E+04 -4.430522E+01
      4485   1  2.894652E+07  1.304148E+03  3.791977E+03  1.478555E+05  5.633256E+04 -3.180889E+02
      4486   1  2.894575E+07 -1.444999E+03  3.741201E+03  1.546687E+05  7.223321E+04 -2.641522E+02
      4487   1  2.894772E+07  2.719435E+03  6.068331E+03  1.650013E+05  7.094943E+04 -1.358915E+03
      4488   1  2.894716E+07 -2.131833E+03  8.592264E+03  1.919946E+05  3.281413E+04 -2.199900E+03
      4489   1  2.315344E+07 -3.034012E+03 -4.797171E+03  5.227740E+05 -1.217091E+04 -1.431156E+03
      4490   1  2.315694E+07  1.883885E+03  1.393553E+03  4.661078E+05 -3.334059E+04  1.395684E+03
      4491   1  2.315701E+07  6.563479E+02  2.376688E+03  4.350903E+05 -4.075170E+04  9.976807E+02
      4492   1  2.315664E+07 -2.920545E+01  2.347986E+03  4.171019E+05 -3.372691E+04  2.932463E+02
      4493   1  2.315695E+07  5.849514E+02  2.327526E+03  4.071868E+05 -1.884515E+04  2.445557E+02
      4494   1  2.315659E+07 -2.544186E+02  2.419156E+03  4.041598E+05 -1.126995E-03  4.737990E-06
      4495   1  2.315695E+07  5.849514E+02  2.327526E+03  4.071868E+05  1.884515E+04 -2.445557E+02
      4496   1  2.315664E+07 -2.920546E+01  2.347986E+03  4.171019E+05  3.372691E+04 -2.932462E+02
      4497   1  2.315701E+07  6.563479E+02  2.376688E+03  4.350903E+05  4.075170E+04 -9.976807E+02
      4498   1  2.315694E+07  1.883885E+03  1.393553E+03  4.661078E+05  3.334059E+04 -1.395684E+03
      4499   1  2.315344E+07 -3.034012E+03 -4.797171E+03  5.227740E+05  1.217091E+04  1.431156E+03
      4500   1  1.736722E+07 -1.757286E+03  2.352053E+03  7.642254E+05 -6.641314E+03  1.520787E+02
      4501   1  1.736641E+07 -4.908413E+02 -9.486904E+02  7.010102E+05 -1.675738E+04 -1.526823E+03
      4502   1  1.736748E+07  1.297087E+03  1.582377E+02  6.575709E+05 -2.136522E+04  6.051963E+02
      4503   1  1.736763E+07  4.812833E+02  1.725843E+03  6.307056E+05 -1.907319E+04  1.621675E+02
      4504   1  1.736741E+07  1.981384E+02  1.054413E+03  6.158957E+05 -1.088964E+04  1.316596E+02
      4505   1  1.736773E+07  5.228874E+02  1.976478E+03  6.110975E+05 -7.901360E-04 -1.496730E-05
      4506   1  1.736741E+07  1.981384E+02  1.054413E+03  6.158957E+05  1.088964E+04 -1.316595E+02
      4507   1  1.736763E+07  4.812833E+02  1.725843E+03  6.307056E+05  1.907319E+04 -1.621675E+02
      4508   1  1.736748E+07  1.297087E+03  1.582377E+02  6.575709E+05  2.136522E+04 -6.051963E+02
      4509   1  1.736641E+07 -4.908413E+02 -9.486904E+02  7.010102E+05  1.675738E+04  1.526823E+03
      4510   1  1.736722E+07 -1.757286E+03  2.352053E+03  7.642254E+05  6.641314E+03 -1.520787E+02
      4511   1  1.157708E+07 -1.265464E+03 -1.555747E+03  9.329176E+05 -3.074592E+03 -6.072044E+02
      4512   1  1.157822E+07 -2.502577E+01  9.258542E+02  8.659378E+05 -8.495221E+03  4.901237E+01
      4513   1  1.157795E+07 -2.543830E+01 -1.450730E+02  8.176705E+05 -1.088266E+04 -1.158135E+03
      4514   1  1.157833E+07  8.405003E+02  3.429881E+02  7.853628E+05 -9.833762E+03  1.793587E+02
      4515   1  1.157837E+07  2.275626E+02  9.029872E+02  7.671552E+05 -5.811009E+03 -1.755125E+02
      4516   1  1.157832E+07  4.291080E+02  7.249209E+02  7.612510E+05 -4.982836E-04  1.680874E-05
      4517   1  1.157837E+07  2.275626E+02  9.029872E+02  7.671552E+05  5.811008E+03  1.755125E+02
      4518   1  1.157833E+07  8.405003E+02  3.429881E+02  7.853628E+05  9.833761E+03 -1.793586E+02
      4519   1  1.157795E+07 -2.543833E+01 -1.450730E+02  8.176705E+05  1.088266E+04  1.158135E+03
      4520   1  1.157822E+07 -2.502577E+01  9.258541E+02  8.659378E+05  8.495220E+03 -4.901238E+01
      4521   1  1.157708E+07 -1.265464E+03 -1.555747E+03  9.329175E+05  3.074592E+03  6.072044E+02
      4522   1  5.789007E+06 -5.770492E+02  5.751022E+02  1.032767E+06 -1.354006E+03 -8.061350E+01
      4523   1  5.788772E+06 -2.273768E+02 -3.487962E+02  9.644275E+05 -3.496637E+03 -1.175569E+03
      4524   1  5.789120E+06  2.435261E+02  1.170412E+02  9.135306E+05 -4.583988E+03 -8.167213E+01
      4525   1  5.789100E+06  1.255835E+02  2.805672E+02  8.788907E+05 -4.177095E+03 -9.134334E+02
      4526   1  5.789139E+06  3.492751E+02  7.939696E+01  8.587697E+05 -2.459354E+03  1.577813E+01
      4527   1  5.789208E+06  1.647617E+02  5.641762E+02  8.522438E+05 -2.412832E-04 -1.037492E-05
      4528   1  5.789139E+06  3.492751E+02  7.939695E+01  8.587697E+05  2.459354E+03 -1.577810E+01
      4529   1  5.789100E+06  1.255835E+02  2.805672E+02  8.788907E+05  4.177094E+03  9.134333E+02
      4530   1  5.789120E+06  2.435261E+02  1.170412E+02  9.135306E+05  4.583987E+03  8.167212E+01
      4531   1  5.788772E+06 -2.273768E+02 -3.487962E+02  9.644275E+05  3.496637E+03  1.175569E+03
      4532   1  5.789007E+06 -5.770492E+02  5.751022E+02  1.032767E+06  1.354006E+03  8.061350E+01
      4533   1  6.335599E-03 -5.468434E-06 -8.339073E-06  1.065915E+06 -1.174612E-06 -4.719041E+02
      4534   1  6.333172E-03 -7.490866E-08 -1.164636E-05  9.970605E+05 -3.119622E-06 -1.985898E+02
      4535   1  6.334697E-03 -6.778529E-06 -1.839703E-06  9.455710E+05 -5.663218E-06 -1.256698E+03
      4536   1  6.330660E-03 -1.348632E-05 -1.938367E-06  9.100660E+05 -4.522888E-06 -7.708534E+01
      4537   1  6.330149E-03 -1.080747E-05 -6.556623E-06  8.894844E+05 -2.600558E-06 -5.220653E+02
      4538   1  6.328759E-03 -1.320221E-05  1.559935E-06  8.826878E+05 -1.904542E-07  1.215458E-05
      4539   1  6.329751E-03 -5.039478E-06 -4.870918E-06  8.894844E+05  3.082732E-06  5.220653E+02
      4540   1  6.325108E-03 -1.365976E-05 -5.920078E-07  9.100660E+05  4.742537E-06  7.708535E+01
      4541   1  6.328002E-03 -4.546254E-06 -8.909947E-07  9.455710E+05  5.172563E-06  1.256698E+03
      4542   1  6.320268E-03 -2.222321E-06 -1.260926E-05  9.970605E+05  3.597928E-06  1.985898E+02
      4543   1  6.318406E-03 -1.257589E-05 -1.194748E-05  1.065915E+06  7.673227E-07  4.719041E+02
      4544   1 -5.789007E+06  5.770492E+02 -5.751023E+02  1.032767E+06  1.354006E+03 -8.061351E+01
      4545   1 -5.788772E+06  2.273769E+02  3.487963E+02  9.644275E+05  3.496637E+03 -1.175569E+03
      4546   1 -5.789120E+06 -2.435261E+02 -1.170412E+02  9.135306E+05  4.583988E+03 -8.167213E+01
      4547   1 -5.789100E+06 -1.255835E+02 -2.805672E+02  8.788907E+05  4.177095E+03 -9.134334E+02
      4548   1 -5.789139E+06 -3.492750E+02 -7.939695E+01  8.587697E+05  2.459354E+03  1.577812E+01
      4549   1 -5.789208E+06 -1.647616E+02 -5.641762E+02  8.522438E+05  2.413218E-04 -9.062628E-06
      4550   1 -5.789139E+06 -3.492750E+02 -7.939695E+01  8.587697E+05 -2.459354E+03 -1.577810E+01
      4551   1 -5.789100E+06 -1.255835E+02 -2.805672E+02  8.788907E+05 -4.177094E+03  9.134333E+02
      4552   1 -5.789120E+06 -2.435261E+02 -1.170412E+02  9.135306E+05 -4.583987E+03  8.167212E+01
      4553   1 -5.788772E+06  2.273768E+02  3.487963E+02  9.644275E+05 -3.496637E+03  1.175569E+03
      4554   1 -5.789007E+06  5.770492E+02 -5.751023E+02  1.032767E+06 -1.354006E+03  8.061351E+01
      4555   1 -1.157708E+07  1.265464E+03  1.555747E+03  9.329176E+05  3.074592E+03 -6.072044E+02
      4556   1 -1.157822E+07  2.502576E+01 -9.258541E+02  8.659378E+05  8.495221E+03  4.901238E+01
      4557   1 -1.157795E+07  2.543830E+01  1.450730E+02  8.176705E+05  1.088266E+04 -1.158135E+03
      4558   1 -1.157833E+07 -8.405003E+02 -3.429881E+02  7.853628E+05  9.833762E+03  1.793587E+02
      4559   1 -1.157837E+07 -2.275626E+02 -9.029872E+02  7.671552E+05  5.811009E+03 -1.755125E+02
      4560   1 -1.157832E+07 -4.291080E+02 -7.249209E+02  7.612510E+05  4.982035E-04  1.439978E-05
      4561   1 -1.157837E+07 -2.275626E+02 -9.029872E+02  7.671552E+05 -5.811008E+03  1.755125E+02
      4562   1 -1.157833E+07 -8.405003E+02 -3.429881E+02  7.853628E+05 -9.833761E+03 -1.793586E+02
      4563   1 -1.157795E+07  2.543831E+01  1.450730E+02  8.176705E+05 -1.088266E+04  1.158135E+03
      4564   1 -1.157822E+07  2.502574E+01 -9.258541E+02  8.659378E+05 -8.495220E+03 -4.901238E+01
      4565   1 -1.157708E+07  1.265464E+03  1.555747E+03  9.329176E+05 -3.074592E+03  6.072044E+02
      4566   1 -1.736722E+07  1.757286E+03 -2.352053E+03  7.642254E+05  6.641314E+03  1.520787E+02
      4567   1 -1.736641E+07  4.908413E+02  9.486904E+02  7.010102E+05  1.675738E+04 -1.526823E+03
      4568   1 -1.736748E+07 -1.297087E+03 -1.582378E+02  6.575709E+05  2.136522E+04  6.051963E+02
      4569   1 -1.736763E+07 -4.812832E+02 -1.725843E+03  6.307056E+05  1.907319E+04  1.621675E+02
      4570   1 -1.736741E+07 -1.981384E+02 -1.054413E+03  6.158957E+05  1.088964E+04  1.316596E+02
      4571   1 -1.736773E+07 -5.228874E+02 -1.976478E+03  6.110975E+05  7.900862E-04 -1.324871E-05
      4572   1 -1.736741E+07 -1.981384E+02 -1.054413E+03  6.158957E+05 -1.088964E+04 -1.316595E+02
      4573   1 -1.736763E+07 -4.812832E+02 -1.725843E+03  6.307056E+05 -1.907319E+04 -1.621675E+02
      4574   1 -1.736748E+07 -1.297087E+03 -1.582377E+02  6.575709E+05 -2.136522E+04 -6.051963E+02
      4575   1 -1.736641E+07  4.908413E+02  9.486904E+02  7.010102E+05 -1.675738E+04  1.526823E+03
      4576   1 -1.736722E+07  1.757286E+03 -2.352053E+03  7.642254E+05 -6.641314E+03 -1.520787E+02
      4577   1 -2.315344E+07  3.034012E+03  4.797171E+03  5.227740E+05  1.217091E+04 -1.431156E+03
      4578   1 -2.315694E+07 -1.883885E+03 -1.393553E+03  4.661078E+05  3.334059E+04  1.395684E+03
      4579   1 -2.315701E+07 -6.563480E+02 -2.376688E+03  4.350903E+05  4.075170E+04  9.976807E+02
      4580   1 -2.315664E+07  2.920545E+01 -2.347986E+03  4.171019E+05  3.372691E+04  2.932463E+02
      4581   1 -2.315695E+07 -5.849514E+02 -2.327526E+03  4.071868E+05  1.884515E+04  2.445557E+02
      4582   1 -2.315659E+07  2.544186E+02 -2.419156E+03  4.041598E+05  1.126964E-03  5.456586E-06
      4583   1 -2.315695E+07 -5.849514E+02 -2.327526E+03  4.071868E+05 -1.884515E+04 -2.445557E+02
      4584   1 -2.315664E+07  2.920546E+01 -2.347986E+03  4.171019E+05 -3.372691E+04 -2.932462E+02
      4585   1 -2.315701E+07 -6.563479E+02 -2.376688E+03  4.350903E+05 -4.075170E+04 -9.976807E+02
      4586   1 -2.315694E+07 -1.883885E+03 -1.393553E+03  4.661078E+05 -3.334059E+04 -1.395684E+03
      4587   1 -2.315344E+07  3.034012E+03  4.797171E+03  5.227740E+05 -1.217091E+04  1.431156E+03
      4588   1 -2.894716E+07  2.131833E+03 -8.592264E+03  1.919946E+05  3.281413E+04  2.199900E+03
      4589   1 -2.894772E+07 -2.719435E+03 -6.068331E+03  1.650013E+05  7.094943E+04  1.358915E+03
      4590   1 -2.894575E+07  1.444999E+03 -3.741201E+03  1.546687E+05  7.223321E+04  2.641522E+02
      4591   1 -2.894652E+07 -1.304148E+03 -3.791977E+03  1.478555E+05  5.633256E+04  3.180888E+02
      4592   1 -2.894560E+07  9.597689E+02 -2.841482E+03  1.445885E+05  3.039900E+04  4.430522E+01
      4593   1 -2.894629E+07 -1.001933E+03 -3.372020E+03  1.433928E+05  1.523332E-03 -3.666494E-06
      4594   1 -2.894560E+07  9.597689E+02 -2.841482E+03  1.445885E+05 -3.039900E+04 -4.430522E+01
      4595   1 -2.894652E+07 -1.304148E+03 -3.791977E+03  1.478555E+05 -5.633256E+04 -3.180889E+02
      4596   1 -2.894575E+07  1.444999E+03 -3.741201E+03  1.546687E+05 -7.223321E+04 -2.641522E+02
      4597   1 -2.894772E+07 -2.719435E+03 -6.068331E+03  1.650013E+05 -7.094943E+04 -1.358915E+03
      4598   1 -2.894716E+07  2.131833E+03 -8.592264E+03  1.919946E+05 -3.281413E+04 -2.199900E+03
      4599   1  2.862908E+07 -1.936281E+03  8.981639E+03  1.920063E+05 -3.281657E+04  2.182253E+03
      4600   1  2.862957E+07  2.502136E+03  5.526157E+03  1.649935E+05 -7.094389E+04  1.340142E+03
      4601   1  2.862773E+07 -1.266216E+03  4.158802E+03  1.546730E+05 -7.223983E+04  2.637561E+02
      4602   1  2.862835E+07  1.096195E+03  3.286055E+03  1.478509E+05 -5.632730E+04  3.130872E+02
      4603   1  2.862761E+07 -7.813757E+02  3.263084E+03  1.445910E+05 -3.040205E+04  4.452137E+01
      4604   1  2.862811E+07  7.946541E+02  2.873074E+03  1.433890E+05 -1.523043E-03 -2.591564E-06
      4605   1  2.862761E+07 -7.813757E+02  3.263084E+03  1.445910E+05  3.040205E+04 -4.452137E+01
      4606   1  2.862835E+07  1.096195E+03  3.286055E+03  1.478509E+05  5.632729E+04 -3.130872E+02
      4607   1  2.862773E+07 -1.266216E+03  4.158801E+03  1.546730E+05  7.223983E+04 -2.637561E+02
      4608   1  2.862957E+07  2.502136E+03  5.526157E+03  1.649935E+05  7.094389E+04 -1.340142E+03
      4609   1  2.862908E+07 -1.936281E+03  8.981639E+03  1.920063E+05  3.281657E+04 -2.182253E+03
      4610   1  2.289902E+07 -2.862129E+03 -4.328054E+03  5.227644E+05 -1.217377E+04 -1.417110E+03
      4611   1  2.290243E+07  1.726163E+03  9.737480E+02  4.661126E+05 -3.333480E+04  1.380369E+03
      4612   1  2.290259E+07  8.134446E+02  2.757479E+03  4.350910E+05 -4.075798E+04  9.868169E+02
      4613   1  2.290210E+07 -1.735944E+02  1.925717E+03  4.171045E+05 -3.372207E+04  2.898671E+02
      4614   1  2.290256E+07  7.475462E+02  2.704310E+03  4.071885E+05 -1.884792E+04  2.419422E+02
      4615   1  2.290204E+07 -3.986217E+02  1.997999E+03  4.041621E+05 -1.126633E-03  5.548957E-06
      4616   1  2.290256E+07  7.475463E+02  2.704310E+03  4.071885E+05  1.884792E+04 -2.419422E+02
      4617   1  2.290210E+07 -1.735944E+02  1.925717E+03  4.171045E+05  3.372207E+04 -2.898670E+02
      4618   1  2.290259E+07  8.134446E+02  2.757479E+03  4.350910E+05  4.075797E+04 -9.868169E+02
      4619   1  2.290243E+07  1.726163E+03  9.737480E+02  4.661126E+05  3.333480E+04 -1.380369E+03
      4620   1  2.289902E+07 -2.862129E+03 -4.328054E+03  5.227644E+05  1.217377E+04  1.417110E+03
      4621   1  1.717638E+07 -1.624680E+03  2.651062E+03  7.642299E+05 -6.642674E+03  1.513106E+02
      4622   1  1.717554E+07 -6.077403E+02 -1.257276E+03  7.010091E+05 -1.675363E+04 -1.509638E+03
      4623   1  1.717667E+07  1.391380E+03  4.647366E+02  6.575665E+05 -2.136979E+04  5.982411E+02
      4624   1  1.717672E+07  3.479140E+02  1.395083E+03  6.307042E+05 -1.906956E+04  1.605556E+02
      4625   1  1.717662E+07  3.085469E+02  1.347313E+03  6.158915E+05 -1.089174E+04  1.300995E+02
      4626   1  1.717681E+07  3.870253E+02  1.644449E+03  6.110960E+05 -7.905172E-04 -1.488219E-05
      4627   1  1.717662E+07  3.085469E+02  1.347313E+03  6.158915E+05  1.089174E+04 -1.300995E+02
      4628   1  1.717672E+07  3.479140E+02  1.395083E+03  6.307042E+05  1.906956E+04 -1.605556E+02
      4629   1  1.717667E+07  1.391380E+03  4.647366E+02  6.575665E+05  2.136979E+04 -5.982411E+02
      4630   1  1.717554E+07 -6.077403E+02 -1.257276E+03  7.010091E+05  1.675363E+04  1.509638E+03
      4631   1  1.717638E+07 -1.624680E+03  2.651062E+03  7.642299E+05  6.642673E+03 -1.513106E+02
      4632   1  1.144987E+07 -1.178750E+03 -1.321670E+03  9.329108E+05 -3.076005E+03 -6.012554E+02
      4633   1  1.145097E+07 -9.702658E+01  7.048367E+02  8.659410E+05 -8.492432E+03  4.812857E+01
      4634   1  1.145075E+07  6.029413E+01  6.847961E+01  8.176731E+05 -1.088571E+04 -1.145396E+03
      4635   1  1.145105E+07  7.558735E+02  1.328149E+02  7.853670E+05 -9.831407E+03  1.773686E+02
      4636   1  1.145118E+07  3.125989E+02  1.102453E+03  7.671576E+05 -5.812374E+03 -1.736198E+02
      4637   1  1.145104E+07  3.479312E+02  5.116342E+02  7.612553E+05 -4.980439E-04  1.426176E-05
      4638   1  1.145118E+07  3.125989E+02  1.102453E+03  7.671576E+05  5.812373E+03  1.736198E+02
      4639   1  1.145105E+07  7.558736E+02  1.328149E+02  7.853670E+05  9.831406E+03 -1.773686E+02
      4640   1  1.145075E+07  6.029412E+01  6.847964E+01  8.176731E+05  1.088571E+04  1.145396E+03
      4641   1  1.145097E+07 -9.702657E+01  7.048367E+02  8.659410E+05  8.492432E+03 -4.812857E+01
      4642   1  1.144987E+07 -1.178750E+03 -1.321670E+03  9.329108E+05  3.076004E+03  6.012554E+02
      4643   1  5.725396E+06 -5.324993E+02  6.787903E+02  1.032770E+06 -1.354484E+03 -7.919170E+01
      4644   1  5.725148E+06 -2.660417E+02 -4.529995E+02  9.644272E+05 -3.495329E+03 -1.162215E+03
      4645   1  5.725518E+06  2.776536E+02  2.201758E+02  9.135253E+05 -4.585576E+03 -8.095642E+01
      4646   1  5.725465E+06  8.083268E+01  1.717962E+02  8.788883E+05 -4.175847E+03 -9.033665E+02
      4647   1  5.725543E+06  3.836906E+02  1.817346E+02  8.587652E+05 -2.460076E+03  1.555054E+01
      4648   1  5.725569E+06  1.188724E+02  4.527621E+02  8.522413E+05 -2.408990E-04 -7.491700E-06
      4649   1  5.725543E+06  3.836906E+02  1.817346E+02  8.587652E+05  2.460076E+03 -1.555052E+01
      4650   1  5.725465E+06  8.083268E+01  1.717962E+02  8.788883E+05  4.175846E+03  9.033664E+02
      4651   1  5.725518E+06  2.776536E+02  2.201758E+02  9.135253E+05  4.585576E+03  8.095641E+01
      4652   1  5.725148E+06 -2.660417E+02 -4.529995E+02  9.644272E+05  3.495329E+03  1.162215E+03
      4653   1  5.725396E+06 -5.324993E+02  6.787903E+02  1.032770E+06  1.354484E+03  7.919170E+01
      4654   1  6.265801E-03  5.511966E-06 -9.393936E-07  1.065909E+06 -1.247501E-06 -4.672988E+02
      4655   1  6.264800E-03  9.079092E-06 -1.194337E-05  9.970635E+05 -4.258079E-06 -1.967577E+02
      4656   1  6.270483E-03  1.400921E-05  1.056000E-05  9.455739E+05 -4.852964E-06 -1.242954E+03
      4657   1  6.265560E-03  7.767328E-06  2.456476E-06  9.100706E+05 -5.178091E-06 -7.620823E+01
      4658   1  6.266587E-03  1.580765E-05  8.867155E-06  8.894870E+05 -2.915030E-06 -5.163952E+02
      4659   1  6.264057E-03  9.317943E-06  5.713807E-06  8.826925E+05 -7.472279E-08  1.138193E-05
      4660   1  6.262969E-03  1.445786E-05  8.394934E-06  8.894870E+05  2.784665E-06  5.163952E+02
      4661   1  6.260563E-03  9.609772E-06  2.733024E-06  9.100706E+05  4.981802E-06  7.620824E+01
      4662   1  6.261884E-03  1.405531E-05  1.120330E-05  9.455739E+05  5.106539E-06  1.242954E+03
      4663   1  6.253949E-03  8.411166E-06 -1.268379E-05  9.970635E+05  3.688026E-06  1.967578E+02
      4664   1  6.251356E-03 -1.654017E-06 -3.058486E-06  1.065909E+06  1.416417E-06  4.672988E+02
      4665   1 -5.725396E+06  5.324993E+02 -6.787903E+02  1.032770E+06  1.354484E+03 -7.919171E+01
      4666   1 -5.725148E+06  2.660417E+02  4.529995E+02  9.644272E+05  3.495329E+03 -1.162215E+03
      4667   1 -5.725518E+06 -2.776536E+02 -2.201758E+02  9.135253E+05  4.585576E+03 -8.095642E+01
      4668   1 -5.725465E+06 -8.083271E+01 -1.717962E+02  8.788883E+05  4.175846E+03 -9.033665E+02
      4669   1 -5.725543E+06 -3.836906E+02 -1.817346E+02  8.587652E+05  2.460076E+03  1.555054E+01
      4670   1 -5.725569E+06 -1.188724E+02 -4.527621E+02  8.522413E+05  2.412760E-04 -8.785894E-06
      4671   1 -5.725543E+06 -3.836906E+02 -1.817346E+02  8.587652E+05 -2.460076E+03 -1.555052E+01
      4672   1 -5.725465E+06 -8.083270E+01 -1.717962E+02  8.788883E+05 -4.175846E+03  9.033665E+02
      4673   1 -5.725518E+06 -2.776537E+02 -2.201758E+02  9.135253E+05 -4.585576E+03  8.095641E+01
      4674   1 -5.725148E+06  2.660417E+02  4.529995E+02  9.644272E+05 -3.495329E+03  1.162215E+03
      4675   1 -5.725396E+06  5.324993E+02 -6.787903E+02  1.032770E+06 -1.354484E+03  7.919171E+01
      4676   1 -1.144987E+07  1.178750E+03  1.321670E+03  9.329108E+05  3.076004E+03 -6.012554E+02
      4677   1 -1.145097E+07  9.702656E+01 -7.048367E+02  8.659411E+05  8.492432E+03  4.812857E+01
      4678   1 -1.145075E+07 -6.029411E+01 -6.847959E+01  8.176731E+05  1.088571E+04 -1.145396E+03
      4679   1 -1.145105E+07 -7.558735E+02 -1.328149E+02  7.853670E+05  9.831407E+03  1.773686E+02
      4680   1 -1.145118E+07 -3.125989E+02 -1.102453E+03  7.671576E+05  5.812374E+03 -1.736198E+02
      4681   1 -1.145104E+07 -3.479311E+02 -5.116342E+02  7.612553E+05  4.984194E-04  1.469303E-05
      4682   1 -1.145118E+07 -3.125989E+02 -1.102453E+03  7.671576E+05 -5.812373E+03  1.736198E+02
      4683   1 -1.145105E+07 -7.558735E+02 -1.328149E+02  7.853670E+05 -9.831406E+03 -1.773686E+02
      4684   1 -1.145075E+07 -6.029409E+01 -6.847961E+01  8.176731E+05 -1.088571E+04  1.145396E+03
      4685   1 -1.145097E+07  9.702655E+01 -7.048367E+02  8.659410E+05 -8.492432E+03 -4.812858E+01
      4686   1 -1.144987E+07  1.178750E+03  1.321670E+03  9.329108E+05 -3.076004E+03  6.012554E+02
      4687   1 -1.717638E+07  1.624680E+03 -2.651062E+03  7.642299E+05  6.642674E+03  1.513106E+02
      4688   1 -1.717554E+07  6.077403E+02  1.257276E+03  7.010091E+05  1.675363E+04 -1.509638E+03
      4689   1 -1.717667E+07 -1.391380E+03 -4.647366E+02  6.575665E+05  2.136979E+04  5.982411E+02
      4690   1 -1.717672E+07 -3.479140E+02 -1.395083E+03  6.307042E+05  1.906956E+04  1.605556E+02
      4691   1 -1.717662E+07 -3.085469E+02 -1.347313E+03  6.158915E+05  1.089174E+04  1.300995E+02
      4692   1 -1.717681E+07 -3.870254E+02 -1.644449E+03  6.110960E+05  7.892038E-04 -1.520286E-05
      4693   1 -1.717662E+07 -3.085469E+02 -1.347313E+03  6.158915E+05 -1.089174E+04 -1.300995E+02
      4694   1 -1.717672E+07 -3.479140E+02 -1.395083E+03  6.307042E+05 -1.906956E+04 -1.605556E+02
      4695   1 -1.717667E+07 -1.391380E+03 -4.647366E+02  6.575665E+05 -2.136979E+04 -5.982411E+02
      4696   1 -1.717554E+07  6.077403E+02  1.257276E+03  7.010091E+05 -1.675363E+04  1.509638E+03
      4697   1 -1.717638E+07  1.624680E+03 -2.651062E+03  7.642299E+05 -6.642673E+03 -1.513106E+02
      4698   1 -2.289902E+07  2.862129E+03  4.328054E+03  5.227644E+05  1.217377E+04 -1.417110E+03
      4699   1 -2.290243E+07 -1.726163E+03 -9.737481E+02  4.661126E+05  3.333480E+04  1.380369E+03
      4700   1 -2.290259E+07 -8.134446E+02 -2.757479E+03  4.350910E+05  4.075798E+04  9.868169E+02
      4701   1 -2.290210E+07  1.735944E+02 -1.925717E+03  4.171045E+05  3.372207E+04  2.898671E+02
      4702   1 -2.290256E+07 -7.475462E+02 -2.704310E+03  4.071885E+05  1.884792E+04  2.419422E+02
      4703   1 -2.290204E+07  3.986217E+02 -1.997999E+03  4.041621E+05  1.127203E-03  5.744845E-06
      4704   1 -2.290256E+07 -7.475462E+02 -2.704310E+03  4.071885E+05 -1.884792E+04 -2.419422E+02
      4705   1 -2.290210E+07  1.735944E+02 -1.925717E+03  4.171045E+05 -3.372207E+04 -2.898670E+02
      4706   1 -2.290259E+07 -8.134446E+02 -2.757479E+03  4.350910E+05 -4.075797E+04 -9.868169E+02
      4707   1 -2.290243E+07 -1.726163E+03 -9.737480E+02  4.661126E+05 -3.333480E+04 -1.380369E+03
      4708   1 -2.289902E+07  2.862129E+03  4.328054E+03  5.227644E+05 -1.217377E+04  1.417110E+03
      4709   1 -2.862908E+07  1.936281E+03 -8.981639E+03  1.920063E+05  3.281657E+04  2.182253E+03
      4710   1 -2.862957E+07 -2.502136E+03 -5.526157E+03  1.649935E+05  7.094389E+04  1.340142E+03
      4711   1 -2.862773E+07  1.266216E+03 -4.158802E+03  1.546730E+05  7.223983E+04  2.637561E+02
      4712   1 -2.862835E+07 -1.096195E+03 -3.286055E+03  1.478509E+05  5.632730E+04  3.130872E+02
      4713   1 -2.862761E+07  7.813757E+02 -3.263084E+03  1.445910E+05  3.040205E+04  4.452137E+01
      4714   1 -2.862811E+07 -7.946541E+02 -2.873074E+03  1.433890E+05  1.523324E-03 -2.499371E-06
      4715   1 -2.862761E+07  7.813757E+02 -3.263084E+03  1.445910E+05 -3.040205E+04 -4.452137E+01
      4716   1 -2.862835E+07 -1.096195E+03 -3.286055E+03  1.478509E+05 -5.632729E+04 -3.130872E+02
      4717   1 -2.862773E+07  1.266216E+03 -4.158801E+03  1.546730E+05 -7.223983E+04 -2.637561E+02
      4718   1 -2.862957E+07 -2.502136E+03 -5.526158E+03  1.649935E+05 -7.094389E+04 -1.340142E+03
      4719   1 -2.862908E+07  1.936281E+03 -8.981639E+03  1.920063E+05 -3.281657E+04 -2.182253E+03
      4720   1  2.831096E+07 -2.055721E+03  8.487010E+03  1.919968E+05 -3.281463E+04  2.152704E+03
      4721   1  2.831150E+07  2.626541E+03  5.852309E+03  1.649999E+05 -7.094853E+04  1.328372E+03
      4722   1  2.830959E+07 -1.385699E+03  3.738052E+03  1.546695E+05 -7.223458E+04  2.587826E+02
      4723   1  2.831032E+07  1.241255E+03  3.627784E+03  1.478547E+05 -5.633174E+04  3.108270E+02
      4724   1  2.830945E+07 -9.102885E+02  2.856948E+03  1.445890E+05 -3.039964E+04  4.345101E+01
      4725   1  2.831009E+07  9.452136E+02  3.217395E+03  1.433921E+05 -1.522853E-03 -1.261945E-06
      4726   1  2.830945E+07 -9.102885E+02  2.856948E+03  1.445890E+05  3.039964E+04 -4.345101E+01
      4727   1  2.831032E+07  1.241255E+03  3.627784E+03  1.478547E+05  5.633174E+04 -3.108271E+02
      4728   1  2.830959E+07 -1.385699E+03  3.738052E+03  1.546695E+05  7.223458E+04 -2.587825E+02
      4729   1  2.831150E+07  2.626541E+03  5.852310E+03  1.649999E+05  7.094853E+04 -1.328372E+03
      4730   1  2.831096E+07 -2.055721E+03  8.487010E+03  1.919968E+05  3.281463E+04 -2.152704E+03
      4731   1  2.264458E+07 -2.943182E+03 -4.619973E+03  5.227721E+05 -1.217147E+04 -1.400006E+03
      4732   1  2.264799E+07  1.819322E+03  1.293452E+03  4.661086E+05 -3.333963E+04  1.365004E+03
      4733   1  2.264807E+07  6.706351E+02  2.394536E+03  4.350903E+05 -4.075299E+04  9.757550E+02
      4734   1  2.264769E+07 -5.302126E+01  2.228164E+03  4.171023E+05 -3.372615E+04  2.867554E+02
      4735   1  2.264802E+07  6.016219E+02  2.345559E+03  4.071870E+05 -1.884573E+04  2.391821E+02
      4736   1  2.264764E+07 -2.736738E+02  2.298034E+03  4.041602E+05 -1.127562E-03  4.612406E-06
      4737   1  2.264802E+07  6.016219E+02  2.345559E+03  4.071870E+05  1.884573E+04 -2.391822E+02
      4738   1  2.264769E+07 -5.302128E+01  2.228164E+03  4.171023E+05  3.372615E+04 -2.867554E+02
      4739   1  2.264807E+07  6.706351E+02  2.394537E+03  4.350903E+05  4.075299E+04 -9.757550E+02
      4740   1  2.264799E+07  1.819322E+03  1.293452E+03  4.661086E+05  3.333963E+04 -1.365004E+03
      4741   1  2.264458E+07 -2.943182E+03 -4.619973E+03  5.227721E+05  1.217147E+04  1.400006E+03
      4742   1  1.698552E+07 -1.699434E+03  2.355834E+03  7.642264E+05 -6.641584E+03  1.488945E+02
      4743   1  1.698473E+07 -5.012000E+02 -9.825698E+02  7.010101E+05 -1.675679E+04 -1.493209E+03
      4744   1  1.698579E+07  1.286886E+03  2.072625E+02  6.575702E+05 -2.136616E+04  5.918130E+02
      4745   1  1.698591E+07  4.485526E+02  1.634314E+03  6.307055E+05 -1.907264E+04  1.586028E+02
      4746   1  1.698572E+07  2.127798E+02  1.083000E+03  6.158950E+05 -1.089008E+04  1.287267E+02
      4747   1  1.698601E+07  4.888915E+02  1.879641E+03  6.110974E+05 -7.894094E-04 -1.668624E-05
      4748   1  1.698572E+07  2.127798E+02  1.083000E+03  6.158950E+05  1.089008E+04 -1.287266E+02
      4749   1  1.698591E+07  4.485526E+02  1.634314E+03  6.307055E+05  1.907263E+04 -1.586029E+02
      4750   1  1.698579E+07  1.286886E+03  2.072625E+02  6.575702E+05  2.136615E+04 -5.918130E+02
      4751   1  1.698473E+07 -5.012000E+02 -9.825697E+02  7.010101E+05  1.675679E+04  1.493209E+03
      4752   1  1.698552E+07 -1.699434E+03  2.355834E+03  7.642264E+05  6.641584E+03 -1.488945E+02
      4753   1  1.132264E+07 -1.225159E+03 -1.484454E+03  9.329161E+05 -3.074875E+03 -5.939945E+02
      4754   1  1.132375E+07 -3.670085E+01  8.695437E+02  8.659381E+05 -8.494773E+03  4.784570E+01
      4755   1  1.132349E+07 -1.014325E+01 -1.056656E+02  8.176707E+05 -1.088329E+04 -1.132717E+03
      4756   1  1.132385E+07  8.092863E+02  3.001769E+02  7.853633E+05 -9.833412E+03  1.753734E+02
      4757   1  1.132391E+07  2.376483E+02  9.188533E+02  7.671554E+05 -5.811300E+03 -1.716857E+02
      4758   1  1.132384E+07  4.067528E+02  6.738648E+02  7.612516E+05 -4.981553E-04  1.428427E-05
      4759   1  1.132391E+07  2.376483E+02  9.188533E+02  7.671554E+05  5.811299E+03  1.716857E+02
      4760   1  1.132385E+07  8.092863E+02  3.001768E+02  7.853633E+05  9.833412E+03 -1.753734E+02
      4761   1  1.132349E+07 -1.014326E+01 -1.056655E+02  8.176707E+05  1.088329E+04  1.132717E+03
      4762   1  1.132375E+07 -3.670084E+01  8.695437E+02  8.659381E+05  8.494773E+03 -4.784571E+01
      4763   1  1.132264E+07 -1.225159E+03 -1.484454E+03  9.329161E+05  3.074875E+03  5.939945E+02
      4764   1  5.661777E+06 -5.578508E+02  5.812366E+02  1.032768E+06 -1.354102E+03 -7.875843E+01
      4765   1  5.661544E+06 -2.294546E+02 -3.596436E+02  9.644277E+05 -3.496432E+03 -1.149682E+03
      4766   1  5.661889E+06  2.444134E+02  1.322417E+02  9.135298E+05 -4.584318E+03 -7.995589E+01
      4767   1  5.661864E+06  1.153637E+02  2.562503E+02  8.788905E+05 -4.176907E+03 -8.934006E+02
      4768   1  5.661909E+06  3.480880E+02  9.518324E+01  8.587692E+05 -2.459509E+03  1.539261E+01
      4769   1  5.661969E+06  1.535590E+02  5.336870E+02  8.522436E+05 -2.410599E-04 -6.743291E-06
      4770   1  5.661909E+06  3.480880E+02  9.518324E+01  8.587692E+05  2.459508E+03 -1.539259E+01
      4771   1  5.661864E+06  1.153637E+02  2.562503E+02  8.788905E+05  4.176906E+03  8.934006E+02
      4772   1  5.661889E+06  2.444134E+02  1.322417E+02  9.135298E+05  4.584318E+03  7.995588E+01
      4773   1  5.661544E+06 -2.294546E+02 -3.596436E+02  9.644277E+05  3.496432E+03  1.149682E+03
      4774   1  5.661777E+06 -5.578508E+02  5.812366E+02  1.032768E+06  1.354101E+03  7.875843E+01
      4775   1  6.195420E-03 -4.296253E-06 -1.179642E-05  1.065914E+06 -1.137342E-06 -4.616427E+02
      4776   1  6.193482E-03 -4.537527E-08 -8.752428E-06  9.970607E+05 -3.311854E-06 -1.943238E+02
      4777   1  6.196548E-03 -5.633645E-06 -2.257996E-06  9.455713E+05 -4.862861E-06 -1.229138E+03
      4778   1  6.192662E-03 -1.135129E-05 -9.794192E-07  9.100666E+05 -4.639556E-06 -7.543431E+01
      4779   1  6.189417E-03 -1.692384E-05 -8.734011E-06  8.894846E+05 -2.971570E-06 -5.106329E+02
      4780   1  6.187089E-03 -2.167193E-05 -2.394976E-06  8.826884E+05  7.641129E-08  1.184875E-05
      4781   1  6.187817E-03 -1.835071E-05 -9.249117E-06  8.894846E+05  2.265055E-06  5.106328E+02
      4782   1  6.185690E-03 -1.642824E-05 -2.033228E-06  9.100666E+05  4.291470E-06  7.543432E+01
      4783   1  6.187578E-03 -7.698520E-06 -3.961321E-06  9.455713E+05  4.744544E-06  1.229138E+03
      4784   1  6.181916E-03 -6.062456E-06 -1.173981E-05  9.970607E+05  3.825067E-06  1.943238E+02
      4785   1  6.181419E-03 -8.895891E-06 -1.099796E-05  1.065914E+06  1.310850E-06  4.616427E+02
      4786   1 -5.661777E+06  5.578508E+02 -5.812366E+02  1.032768E+06  1.354102E+03 -7.875844E+01
      4787   1 -5.661544E+06  2.294546E+02  3.596436E+02  9.644277E+05  3.496432E+03 -1.149682E+03
      4788   1 -5.661889E+06 -2.444134E+02 -1.322417E+02  9.135298E+05  4.584318E+03 -7.995588E+01
      4789   1 -5.661864E+06 -1.153637E+02 -2.562503E+02  8.788905E+05  4.176907E+03 -8.934006E+02
      4790   1 -5.661909E+06 -3.480879E+02 -9.518324E+01  8.587692E+05  2.459509E+03  1.539261E+01
      4791   1 -5.661969E+06 -1.535590E+02 -5.336869E+02  8.522436E+05  2.403159E-04 -8.436448E-06
      4792   1 -5.661909E+06 -3.480879E+02 -9.518323E+01  8.587692E+05 -2.459508E+03 -1.539259E+01
      4793   1 -5.661864E+06 -1.153637E+02 -2.562503E+02  8.788905E+05 -4.176906E+03  8.934006E+02
      4794   1 -5.661889E+06 -2.444134E+02 -1.322417E+02  9.135298E+05 -4.584318E+03  7.995588E+01
      4795   1 -5.661544E+06  2.294546E+02  3.596436E+02  9.644277E+05 -3.496432E+03  1.149682E+03
      4796   1 -5.661777E+06  5.578508E+02 -5.812366E+02  1.032768E+06 -1.354101E+03  7.875844E+01
      4797   1 -1.132264E+07  1.225159E+03  1.484454E+03  9.329161E+05  3.074875E+03 -5.939945E+02
      4798   1 -1.132375E+07  3.670083E+01 -8.695437E+02  8.659381E+05  8.494773E+03  4.784570E+01
      4799   1 -1.132349E+07  1.014322E+01  1.056655E+02  8.176707E+05  1.088329E+04 -1.132717E+03
      4800   1 -1.132385E+07 -8.092863E+02 -3.001768E+02  7.853633E+05  9.833412E+03  1.753734E+02
      4801   1 -1.132391E+07 -2.376484E+02 -9.188534E+02  7.671554E+05  5.811300E+03 -1.716857E+02
      4802   1 -1.132384E+07 -4.067528E+02 -6.738648E+02  7.612516E+05  4.978973E-04  1.691391E-05
      4803   1 -1.132391E+07 -2.376484E+02 -9.188534E+02  7.671554E+05 -5.811299E+03  1.716857E+02
      4804   1 -1.132385E+07 -8.092863E+02 -3.001768E+02  7.853633E+05 -9.833412E+03 -1.753734E+02
      4805   1 -1.132349E+07  1.014324E+01  1.056655E+02  8.176707E+05 -1.088329E+04  1.132717E+03
      4806   1 -1.132375E+07  3.670081E+01 -8.695437E+02  8.659381E+05 -8.494773E+03 -4.784571E+01
      4807   1 -1.132264E+07  1.225159E+03  1.484454E+03  9.329161E+05 -3.074875E+03  5.939945E+02
      4808   1 -1.698552E+07  1.699434E+03 -2.355834E+03  7.642264E+05  6.641584E+03  1.488945E+02
      4809   1 -1.698473E+07  5.012000E+02  9.825698E+02  7.010101E+05  1.675679E+04 -1.493209E+03
      4810   1 -1.698579E+07 -1.286886E+03 -2.072625E+02  6.575702E+05  2.136616E+04  5.918130E+02
      4811   1 -1.698591E+07 -4.485525E+02 -1.634314E+03  6.307055E+05  1.907264E+04  1.586028E+02
      4812   1 -1.698572E+07 -2.127798E+02 -1.083000E+03  6.158950E+05  1.089008E+04  1.287267E+02
      4813   1 -1.698601E+07 -4.888914E+02 -1.879641E+03  6.110974E+05  7.903899E-04 -1.322526E-05
      4814   1 -1.698572E+07 -2.127798E+02 -1.083000E+03  6.158950E+05 -1.089008E+04 -1.287266E+02
      4815   1 -1.698591E+07 -4.485525E+02 -1.634314E+03  6.307055E+05 -1.907263E+04 -1.586029E+02
      4816   1 -1.698579E+07 -1.286886E+03 -2.072625E+02  6.575702E+05 -2.136615E+04 -5.918130E+02
      4817   1 -1.698473E+07  5.012000E+02  9.825698E+02  7.010101E+05 -1.675679E+04  1.493209E+03
      4818   1 -1.698552E+07  1.699434E+03 -2.355834E+03  7.642264E+05 -6.641584E+03 -1.488945E+02
      4819   1 -2.264458E+07  2.943182E+03  4.619973E+03  5.227721E+05  1.217147E+04 -1.400006E+03
      4820   1 -2.264799E+07 -1.819322E+03 -1.293452E+03  4.661086E+05  3.333963E+04  1.365004E+03
      4821   1 -2.264807E+07 -6.706352E+02 -2.394537E+03  4.350903E+05  4.075299E+04  9.757550E+02
      4822   1 -2.264769E+07  5.302125E+01 -2.228164E+03  4.171023E+05  3.372615E+04  2.867554E+02
      4823   1 -2.264802E+07 -6.016220E+02 -2.345559E+03  4.071870E+05  1.884573E+04  2.391821E+02
      4824   1 -2.264764E+07  2.736738E+02 -2.298034E+03  4.041602E+05  1.126124E-03  5.385792E-06
      4825   1 -2.264802E+07 -6.016220E+02 -2.345559E+03  4.071870E+05 -1.884573E+04 -2.391822E+02
      4826   1 -2.264769E+07  5.302126E+01 -2.228164E+03  4.171023E+05 -3.372615E+04 -2.867554E+02
      4827   1 -2.264807E+07 -6.706351E+02 -2.394537E+03  4.350903E+05 -4.075299E+04 -9.757550E+02
      4828   1 -2.264799E+07 -1.819322E+03 -1.293452E+03  4.661086E+05 -3.333963E+04 -1.365004E+03
      4829   1 -2.264458E+07  2.943182E+03  4.619973E+03  5.227721E+05 -1.217147E+04  1.400006E+03
      4830   1 -2.831096E+07  2.055721E+03 -8.487010E+03  1.919968E+05  3.281463E+04  2.152704E+03
      4831   1 -2.831150E+07 -2.626541E+03 -5.852309E+03  1.649999E+05  7.094853E+04  1.328372E+03
      4832   1 -2.830959E+07  1.385699E+03 -3.738052E+03  1.546695E+05  7.223458E+04  2.587826E+02
      4833   1 -2.831032E+07 -1.241255E+03 -3.627784E+03  1.478547E+05  5.633174E+04  3.108270E+02
      4834   1 -2.830945E+07  9.102885E+02 -2.856948E+03  1.445890E+05  3.039964E+04  4.345101E+01
      4835   1 -2.831009E+07 -9.452136E+02 -3.217395E+03  1.433921E+05  1.523445E-03 -2.060697E-06
      4836   1 -2.830945E+07  9.102885E+02 -2.856948E+03  1.445890E+05 -3.039964E+04 -4.345101E+01
      4837   1 -2.831032E+07 -1.241255E+03 -3.627784E+03  1.478547E+05 -5.633174E+04 -3.108271E+02
      4838   1 -2.830959E+07  1.385699E+03 -3.738052E+03  1.546695E+05 -7.223458E+04 -2.587825E+02
      4839   1 -2.831150E+07 -2.626541E+03 -5.852309E+03  1.649999E+05 -7.094853E+04 -1.328372E+03
      4840   1 -2.831096E+07  2.055721E+03 -8.487010E+03  1.919968E+05 -3.281463E+04 -2.152704E+03
      4841   1  2.799287E+07 -1.917157E+03  8.713887E+03  1.920046E+05 -3.281623E+04  2.132825E+03
      4842   1  2.799336E+07  2.473436E+03  5.470576E+03  1.649947E+05 -7.094481E+04  1.310907E+03
      4843   1  2.799155E+07 -1.260614E+03  4.001692E+03  1.546723E+05 -7.223894E+04  2.575356E+02
      4844   1  2.799217E+07  1.099635E+03  3.278554E+03  1.478516E+05 -5.632819E+04  3.063414E+02
      4845   1  2.799143E+07 -7.872385E+02  3.126611E+03  1.445906E+05 -3.040165E+04  4.342969E+01
      4846   1  2.799194E+07  8.051754E+02  2.874359E+03  1.433896E+05 -1.522914E-03 -1.558585E-06
      4847   1  2.799143E+07 -7.872385E+02  3.126611E+03  1.445906E+05  3.040165E+04 -4.342969E+01
      4848   1  2.799217E+07  1.099635E+03  3.278554E+03  1.478516E+05  5.632819E+04 -3.063414E+02
      4849   1  2.799155E+07 -1.260614E+03  4.001692E+03  1.546723E+05  7.223894E+04 -2.575356E+02
      4850   1  2.799336E+07  2.473436E+03  5.470576E+03  1.649947E+05  7.094480E+04 -1.310907E+03
      4851   1  2.799287E+07 -1.917157E+03  8.713887E+03  1.920046E+05  3.281623E+04 -2.132825E+03
      4852   1  2.239015E+07 -2.818234E+03 -4.290469E+03  5.227659E+05 -1.217337E+04 -1.385376E+03
      4853   1  2.239349E+07  1.706741E+03  1.008765E+03  4.661119E+05 -3.333574E+04  1.349690E+03
      4854   1  2.239364E+07  7.719671E+02  2.638831E+03  4.350909E+05 -4.075713E+04  9.648663E+02
      4855   1  2.239317E+07 -1.497333E+02  1.938347E+03  4.171041E+05 -3.372288E+04  2.834387E+02
      4856   1  2.239360E+07  7.068668E+02  2.587389E+03  4.071883E+05 -1.884756E+04  2.365486E+02
      4857   1  2.239312E+07 -3.694430E+02  2.008702E+03  4.041618E+05 -1.126397E-03  2.442041E-06
      4858   1  2.239360E+07  7.068668E+02  2.587389E+03  4.071883E+05  1.884756E+04 -2.365487E+02
      4859   1  2.239317E+07 -1.497333E+02  1.938347E+03  4.171041E+05  3.372288E+04 -2.834386E+02
      4860   1  2.239364E+07  7.719671E+02  2.638831E+03  4.350909E+05  4.075713E+04 -9.648663E+02
      4861   1  2.239349E+07  1.706741E+03  1.008765E+03  4.661119E+05  3.333574E+04 -1.349690E+03
      4862   1  2.239015E+07 -2.818234E+03 -4.290469E+03  5.227659E+05  1.217337E+04  1.385376E+03
      4863   1  1.679468E+07 -1.604267E+03  2.546790E+03  7.642292E+05 -6.642493E+03  1.478165E+02
      4864   1  1.679387E+07 -5.769402E+02 -1.184676E+03  7.010092E+05 -1.675424E+04 -1.476155E+03
      4865   1  1.679496E+07  1.345501E+03  4.113350E+02  6.575671E+05 -2.136919E+04  5.849765E+02
      4866   1  1.679502E+07  3.582998E+02  1.407651E+03  6.307043E+05 -1.907017E+04  1.569475E+02
      4867   1  1.679490E+07  2.861684E+02  1.274752E+03  6.158921E+05 -1.089147E+04  1.272139E+02
      4868   1  1.679511E+07  3.968285E+02  1.651225E+03  6.110961E+05 -7.901340E-04 -1.430304E-05
      4869   1  1.679490E+07  2.861684E+02  1.274752E+03  6.158921E+05  1.089147E+04 -1.272139E+02
      4870   1  1.679502E+07  3.582998E+02  1.407651E+03  6.307043E+05  1.907017E+04 -1.569475E+02
      4871   1  1.679496E+07  1.345501E+03  4.113350E+02  6.575671E+05  2.136919E+04 -5.849765E+02
      4872   1  1.679387E+07 -5.769402E+02 -1.184676E+03  7.010092E+05  1.675424E+04  1.476155E+03
      4873   1  1.679468E+07 -1.604267E+03  2.546790E+03  7.642292E+05  6.642493E+03 -1.478165E+02
      4874   1  1.119543E+07 -1.162797E+03 -1.322640E+03  9.329119E+05 -3.075807E+03 -5.877919E+02
      4875   1  1.119651E+07 -8.488819E+01  7.185346E+02  8.659406E+05 -8.492887E+03  4.710045E+01
      4876   1  1.119628E+07  4.690211E+01  3.725470E+01  8.176727E+05 -1.088531E+04 -1.119965E+03
      4877   1  1.119659E+07  7.494844E+02  1.585453E+02  7.853664E+05 -9.831809E+03  1.734077E+02
      4878   1  1.119670E+07  2.933096E+02  1.048558E+03  7.671573E+05 -5.812203E+03 -1.697712E+02
      4879   1  1.119658E+07  3.507551E+02  5.287632E+02  7.612547E+05 -4.979864E-04  1.508900E-05
      4880   1  1.119670E+07  2.933096E+02  1.048558E+03  7.671573E+05  5.812202E+03  1.697712E+02
      4881   1  1.119659E+07  7.494844E+02  1.585453E+02  7.853664E+05  9.831808E+03 -1.734077E+02
      4882   1  1.119628E+07  4.690210E+01  3.725472E+01  8.176727E+05  1.088531E+04  1.119965E+03
      4883   1  1.119651E+07 -8.488817E+01  7.185346E+02  8.659406E+05  8.492887E+03 -4.710045E+01
      4884   1  1.119543E+07 -1.162797E+03 -1.322640E+03  9.329119E+05  3.075807E+03  5.877919E+02
      4885   1  5.598165E+06 -5.259701E+02  6.483575E+02  1.032769E+06 -1.354421E+03 -7.751159E+01
      4886   1  5.597924E+06 -2.543292E+02 -4.278260E+02  9.644272E+05 -3.495544E+03 -1.136466E+03
      4887   1  5.598282E+06  2.664001E+02  2.007012E+02  9.135260E+05 -4.585369E+03 -7.915568E+01
      4888   1  5.598235E+06  8.515110E+01  1.827289E+02  8.788886E+05 -4.176060E+03 -8.833215E+02
      4889   1  5.598306E+06  3.698772E+02  1.632569E+02  8.587658E+05 -2.459986E+03  1.519589E+01
      4890   1  5.598338E+06  1.224447E+02  4.573697E+02  8.522416E+05 -2.406927E-04 -1.018207E-05
      4891   1  5.598306E+06  3.698772E+02  1.632569E+02  8.587658E+05  2.459985E+03 -1.519587E+01
      4892   1  5.598235E+06  8.515109E+01  1.827289E+02  8.788886E+05  4.176059E+03  8.833215E+02
      4893   1  5.598282E+06  2.664001E+02  2.007012E+02  9.135260E+05  4.585368E+03  7.915567E+01
      4894   1  5.597924E+06 -2.543292E+02 -4.278259E+02  9.644272E+05  3.495544E+03  1.136466E+03
      4895   1  5.598165E+06 -5.259701E+02  6.483575E+02  1.032769E+06  1.354421E+03  7.751159E+01
      4896   1  6.125981E-03  4.573036E-06 -1.146222E-07  1.065910E+06 -1.057588E-06 -4.568353E+02
      4897   1  6.125622E-03  7.103502E-06 -1.342911E-05  9.970631E+05 -3.224565E-06 -1.923473E+02
      4898   1  6.133345E-03  2.329841E-05  1.541146E-05  9.455735E+05 -5.757729E-06 -1.215350E+03
      4899   1  6.125613E-03  1.227624E-05  2.254457E-06  9.100700E+05 -4.745770E-06 -7.454698E+01
      4900   1  6.129407E-03  2.185407E-05  1.276484E-05  8.894867E+05 -2.865574E-06 -5.049283E+02
      4901   1  6.125296E-03  1.491241E-05  6.144047E-06  8.826919E+05  7.428813E-08  1.154094E-05
      4902   1  6.127804E-03  2.865347E-05  1.510179E-05  8.894867E+05  2.438942E-06  5.049282E+02
      4903   1  6.121208E-03  1.194814E-05  3.457662E-06  9.100700E+05  4.361774E-06  7.454699E+01
      4904   1  6.122193E-03  1.438611E-05  1.059568E-05  9.455735E+05  5.280448E-06  1.215350E+03
      4905   1  6.115161E-03  1.014106E-05 -1.216221E-05  9.970631E+05  3.983373E-06  1.923473E+02
      4906   1  6.113255E-03  2.012634E-06  1.173091E-06  1.065910E+06  5.770523E-07  4.568353E+02
      4907   1 -5.598165E+06  5.259701E+02 -6.483576E+02  1.032769E+06  1.354421E+03 -7.751160E+01
      4908   1 -5.597924E+06  2.543292E+02  4.278260E+02  9.644272E+05  3.495544E+03 -1.136466E+03
      4909   1 -5.598282E+06 -2.664001E+02 -2.007012E+02  9.135260E+05  4.585369E+03 -7.915568E+01
      4910   1 -5.598235E+06 -8.515112E+01 -1.827290E+02  8.788886E+05  4.176060E+03 -8.833215E+02
      4911   1 -5.598306E+06 -3.698772E+02 -1.632569E+02  8.587658E+05  2.459986E+03  1.519589E+01
      4912   1 -5.598338E+06 -1.224448E+02 -4.573697E+02  8.522416E+05  2.404519E-04 -7.753182E-06
      4913   1 -5.598306E+06 -3.698772E+02 -1.632569E+02  8.587658E+05 -2.459985E+03 -1.519587E+01
      4914   1 -5.598235E+06 -8.515112E+01 -1.827290E+02  8.788886E+05 -4.176059E+03  8.833215E+02
      4915   1 -5.598282E+06 -2.664001E+02 -2.007012E+02  9.135260E+05 -4.585368E+03  7.915567E+01
      4916   1 -5.597924E+06  2.543292E+02  4.278259E+02  9.644272E+05 -3.495544E+03  1.136466E+03
      4917   1 -5.598165E+06  5.259701E+02 -6.483575E+02  1.032769E+06 -1.354421E+03  7.751160E+01
      4918   1 -1.119543E+07  1.162797E+03  1.322640E+03  9.329119E+05  3.075807E+03 -5.877919E+02
      4919   1 -1.119651E+07  8.488818E+01 -7.185346E+02  8.659406E+05  8.492887E+03  4.710045E+01
      4920   1 -1.119628E+07 -4.690207E+01 -3.725466E+01  8.176727E+05  1.088531E+04 -1.119965E+03
      4921   1 -1.119659E+07 -7.494844E+02 -1.585453E+02  7.853664E+05  9.831809E+03  1.734077E+02
      4922   1 -1.119670E+07 -2.933096E+02 -1.048558E+03  7.671573E+05  5.812203E+03 -1.697712E+02
      4923   1 -1.119658E+07 -3.507550E+02 -5.287632E+02  7.612547E+05  4.980723E-04  1.434250E-05
      4924   1 -1.119670E+07 -2.933096E+02 -1.048558E+03  7.671573E+05 -5.812202E+03  1.697712E+02
      4925   1 -1.119659E+07 -7.494844E+02 -1.585453E+02  7.853664E+05 -9.831808E+03 -1.734077E+02
      4926   1 -1.119628E+07 -4.690206E+01 -3.725468E+01  8.176727E+05 -1.088531E+04  1.119965E+03
      4927   1 -1.119651E+07  8.488817E+01 -7.185346E+02  8.659406E+05 -8.492887E+03 -4.710046E+01
      4928   1 -1.119543E+07  1.162797E+03  1.322640E+03  9.329119E+05 -3.075807E+03  5.877919E+02
      4929   1 -1.679468E+07  1.604267E+03 -2.546790E+03  7.642292E+05  6.642493E+03  1.478165E+02
      4930   1 -1.679387E+07  5.769402E+02  1.184676E+03  7.010092E+05  1.675424E+04 -1.476155E+03
      4931   1 -1.679496E+07 -1.345501E+03 -4.113350E+02  6.575671E+05  2.136919E+04  5.849765E+02
      4932   1 -1.679502E+07 -3.582998E+02 -1.407651E+03  6.307043E+05  1.907017E+04  1.569475E+02
      4933   1 -1.679490E+07 -2.861685E+02 -1.274752E+03  6.158921E+05  1.089147E+04  1.272139E+02
      4934   1 -1.679511E+07 -3.968285E+02 -1.651225E+03  6.110961E+05  7.898477E-04 -1.326989E-05
      4935   1 -1.679490E+07 -2.861685E+02 -1.274752E+03  6.158921E+05 -1.089147E+04 -1.272139E+02
      4936   1 -1.679502E+07 -3.582998E+02 -1.407652E+03  6.307043E+05 -1.907017E+04 -1.569475E+02
      4937   1 -1.679496E+07 -1.345501E+03 -4.113350E+02  6.575671E+05 -2.136919E+04 -5.849765E+02
      4938   1 -1.679387E+07  5.769402E+02  1.184676E+03  7.010092E+05 -1.675424E+04  1.476155E+03
      4939   1 -1.679468E+07  1.604267E+03 -2.546790E+03  7.642292E+05 -6.642493E+03 -1.478165E+02
      4940   1 -2.239015E+07  2.818234E+03  4.290469E+03  5.227659E+05  1.217337E+04 -1.385376E+03
      4941   1 -2.239349E+07 -1.706741E+03 -1.008765E+03  4.661119E+05  3.333574E+04  1.349690E+03
      4942   1 -2.239364E+07 -7.719671E+02 -2.638831E+03  4.350909E+05  4.075713E+04  9.648663E+02
      4943   1 -2.239317E+07  1.497333E+02 -1.938347E+03  4.171041E+05  3.372288E+04  2.834387E+02
      4944   1 -2.239360E+07 -7.068667E+02 -2.587389E+03  4.071883E+05  1.884756E+04  2.365486E+02
      4945   1 -2.239312E+07  3.694431E+02 -2.008702E+03  4.041618E+05  1.126557E-03  4.903429E-06
      4946   1 -2.239360E+07 -7.068667E+02 -2.587389E+03  4.071883E+05 -1.884756E+04 -2.365487E+02
      4947   1 -2.239317E+07  1.497333E+02 -1.938347E+03  4.171041E+05 -3.372288E+04 -2.834386E+02
      4948   1 -2.239364E+07 -7.719671E+02 -2.638831E+03  4.350909E+05 -4.075713E+04 -9.648663E+02
      4949   1 -2.239349E+07 -1.706741E+03 -1.008765E+03  4.661119E+05 -3.333574E+04 -1.349690E+03
      4950   1 -2.239015E+07  2.818234E+03  4.290469E+03  5.227659E+05 -1.217337E+04  1.385376E+03
      4951   1 -2.799287E+07  1.917157E+03 -8.713887E+03  1.920046E+05  3.281623E+04  2.132825E+03
      4952   1 -2.799336E+07 -2.473436E+03 -5.470576E+03  1.649947E+05  7.094481E+04  1.310907E+03
      4953   1 -2.799155E+07  1.260614E+03 -4.001692E+03  1.546723E+05  7.223894E+04  2.575356E+02
      4954   1 -2.799217E+07 -1.099635E+03 -3.278554E+03  1.478516E+05  5.632819E+04  3.063414E+02
      4955   1 -2.799143E+07  7.872385E+02 -3.126611E+03  1.445906E+05  3.040165E+04  4.342970E+01
      4956   1 -2.799194E+07 -8.051754E+02 -2.874359E+03  1.433896E+05  1.523080E-03 -2.259795E-06
      4957   1 -2.799143E+07  7.872385E+02 -3.126611E+03  1.445906E+05 -3.040165E+04 -4.342969E+01
      4958   1 -2.799217E+07 -1.099635E+03 -3.278554E+03  1.478516E+05 -5.632819E+04 -3.063414E+02
      4959   1 -2.799155E+07  1.260614E+03 -4.001692E+03  1.546723E+05 -7.223894E+04 -2.575356E+02
      4960   1 -2.799336E+07 -2.473436E+03 -5.470576E+03  1.649947E+05 -7.094480E+04 -1.310907E+03
      4961   1 -2.799287E+07  1.917157E+03 -8.713887E+03  1.920046E+05 -3.281623E+04 -2.132825E+03
      4962   1  2.767476E+07 -1.989974E+03  8.351849E+03  1.919982E+05 -3.281494E+04  2.105085E+03
      4963   1  2.767528E+07  2.545682E+03  5.665990E+03  1.649989E+05 -7.094787E+04  1.298079E+03
      4964   1  2.767343E+07 -1.336102E+03  3.706677E+03  1.546700E+05 -7.223542E+04  2.532583E+02
      4965   1  2.767413E+07  1.190801E+03  3.492689E+03  1.478541E+05 -5.633112E+04  3.036688E+02
      4966   1  2.767329E+07 -8.708111E+02  2.844649E+03  1.445893E+05 -3.040004E+04  4.255614E+01
      4967   1  2.767390E+07  9.011024E+02  3.091765E+03  1.433916E+05 -1.522543E-03 -3.097198E-06
      4968   1  2.767329E+07 -8.708111E+02  2.844649E+03  1.445893E+05  3.040003E+04 -4.255613E+01
      4969   1  2.767413E+07  1.190801E+03  3.492689E+03  1.478541E+05  5.633112E+04 -3.036688E+02
      4970   1  2.767343E+07 -1.336102E+03  3.706677E+03  1.546700E+05  7.223542E+04 -2.532583E+02
      4971   1  2.767528E+07  2.545682E+03  5.665990E+03  1.649989E+05  7.094787E+04 -1.298079E+03
      4972   1  2.767476E+07 -1.989974E+03  8.351849E+03  1.919982E+05  3.281494E+04 -2.105085E+03
      4973   1  2.213571E+07 -2.860977E+03 -4.468347E+03  5.227710E+05 -1.217182E+04 -1.368739E+03
      4974   1  2.213904E+07  1.762936E+03  1.218067E+03  4.661093E+05 -3.333894E+04  1.334336E+03
      4975   1  2.213913E+07  6.746206E+02  2.387425E+03  4.350904E+05 -4.075378E+04  9.538421E+02
      4976   1  2.213874E+07 -6.820383E+01  2.132653E+03  4.171026E+05 -3.372559E+04  2.802948E+02
      4977   1  2.213909E+07  6.077029E+02  2.338989E+03  4.071873E+05 -1.884609E+04  2.338162E+02
      4978   1  2.213870E+07 -2.841570E+02  2.201148E+03  4.041605E+05 -1.125893E-03  6.604004E-06
      4979   1  2.213909E+07  6.077029E+02  2.338989E+03  4.071873E+05  1.884609E+04 -2.338162E+02
      4980   1  2.213874E+07 -6.820384E+01  2.132653E+03  4.171026E+05  3.372559E+04 -2.802947E+02
      4981   1  2.213913E+07  6.746206E+02  2.387425E+03  4.350904E+05  4.075378E+04 -9.538421E+02
      4982   1  2.213904E+07  1.762936E+03  1.218067E+03  4.661093E+05  3.333894E+04 -1.334336E+03
      4983   1  2.213571E+07 -2.860977E+03 -4.468347E+03  5.227710E+05  1.217182E+04  1.368739E+03
      4984   1  1.660383E+07 -1.648419E+03  2.339967E+03  7.642270E+05 -6.641754E+03  1.456571E+02
      4985   1  1.660304E+07 -5.040586E+02 -9.970156E+02  7.010100E+05 -1.675634E+04 -1.459601E+03
      4986   1  1.660409E+07  1.270214E+03  2.377413E+02  6.575696E+05 -2.136673E+04  5.784818E+02
      4987   1  1.660420E+07  4.236831E+02  1.561851E+03  6.307053E+05 -1.907221E+04  1.550593E+02
      4988   1  1.660402E+07  2.207060E+02  1.093338E+03  6.158945E+05 -1.089035E+04  1.258208E+02
      4989   1  1.660429E+07  4.628810E+02  1.801816E+03  6.110972E+05 -7.893534E-04 -1.515235E-05
      4990   1  1.660402E+07  2.207060E+02  1.093338E+03  6.158945E+05  1.089035E+04 -1.258207E+02
      4991   1  1.660420E+07  4.236830E+02  1.561851E+03  6.307053E+05  1.907221E+04 -1.550593E+02
      4992   1  1.660409E+07  1.270214E+03  2.377412E+02  6.575696E+05  2.136673E+04 -5.784818E+02
      4993   1  1.660304E+07 -5.040586E+02 -9.970156E+02  7.010100E+05  1.675634E+04  1.459601E+03
      4994   1  1.660383E+07 -1.648419E+03  2.339967E+03  7.642270E+05  6.641754E+03 -1.456571E+02
      4995   1  1.106820E+07 -1.189243E+03 -1.426300E+03  9.329153E+05 -3.075049E+03 -5.807280E+02
      4996   1  1.106928E+07 -4.403515E+01  8.259669E+02  8.659386E+05 -8.494442E+03  4.673488E+01
      4997   1  1.106904E+07 -6.423884E-02 -7.907746E+01  8.176711E+05 -1.088367E+04 -1.107258E+03
      4998   1  1.106938E+07  7.825920E+02  2.698786E+02  7.853639E+05 -9.833141E+03  1.714304E+02
      4999   1  1.106944E+07  2.423983E+02  9.221041E+02  7.671557E+05 -5.811475E+03 -1.678323E+02
      5000   1  1.106937E+07  3.889837E+02  6.352805E+02  7.612521E+05 -4.981523E-04  1.548974E-05
      5001   1  1.106944E+07  2.423983E+02  9.221041E+02  7.671557E+05  5.811475E+03  1.678322E+02
      5002   1  1.106938E+07  7.825921E+02  2.698786E+02  7.853639E+05  9.833140E+03 -1.714304E+02
      5003   1  1.106904E+07 -6.426237E-02 -7.907744E+01  8.176711E+05  1.088367E+04  1.107258E+03
      5004   1  1.106928E+07 -4.403514E+01  8.259669E+02  8.659386E+05  8.494441E+03 -4.673488E+01
      5005   1  1.106820E+07 -1.189243E+03 -1.426300E+03  9.329153E+05  3.075049E+03  5.807280E+02
      5006   1  5.534547E+06 -5.409871E+02  5.807184E+02  1.032768E+06 -1.354161E+03 -7.692261E+01
      5007   1  5.534317E+06 -2.290415E+02 -3.639191E+02  9.644277E+05 -3.496278E+03 -1.123790E+03
      5008   1  5.534657E+06  2.430760E+02  1.411618E+02  9.135292E+05 -4.584519E+03 -7.817751E+01
      5009   1  5.534629E+06  1.077730E+02  2.383896E+02  8.788902E+05 -4.176762E+03 -8.733212E+02
      5010   1  5.534677E+06  3.445865E+02  1.047867E+02  8.587686E+05 -2.459601E+03  1.503941E+01
      5011   1  5.534732E+06  1.450286E+02  5.096386E+02  8.522433E+05 -2.412707E-04 -8.068318E-06
      5012   1  5.534677E+06  3.445865E+02  1.047867E+02  8.587686E+05  2.459601E+03 -1.503939E+01
      5013   1  5.534629E+06  1.077730E+02  2.383896E+02  8.788902E+05  4.176762E+03  8.733212E+02
      5014   1  5.534657E+06  2.430760E+02  1.411618E+02  9.135292E+05  4.584519E+03  7.817750E+01
      5015   1  5.534317E+06 -2.290415E+02 -3.639191E+02  9.644277E+05  3.496277E+03  1.123790E+03
      5016   1  5.534547E+06 -5.409871E+02  5.807184E+02  1.032768E+06  1.354161E+03  7.692261E+01
      5017   1  6.055774E-03 -8.323216E-06 -1.167114E-05  1.065913E+06 -1.388287E-06 -4.513335E+02
      5018   1  6.053069E-03 -2.033508E-07 -8.646575E-06  9.970611E+05 -3.489152E-06 -1.899935E+02
      5019   1  6.057125E-03 -7.051806E-06 -6.225905E-06  9.455716E+05 -5.693488E-06 -1.201523E+03
      5020   1  6.051686E-03 -2.102162E-05 -4.351088E-07  9.100671E+05 -4.262359E-06 -7.373614E+01
      5021   1  6.048054E-03 -2.376927E-05 -1.469646E-05  8.894849E+05 -2.726894E-06 -4.991668E+02
      5022   1  6.046950E-03 -2.749243E-05 -2.796508E-06  8.826890E+05 -4.078687E-07  1.168699E-05
      5023   1  6.045353E-03 -2.692676E-05 -1.494013E-05  8.894849E+05  2.847747E-06  4.991667E+02
      5024   1  6.045142E-03 -2.297733E-05 -3.497625E-06  9.100671E+05  4.192011E-06  7.373615E+01
      5025   1  6.046533E-03 -1.734125E-05 -8.415571E-06  9.455716E+05  5.453332E-06  1.201523E+03
      5026   1  6.044103E-03 -4.883226E-06 -1.091892E-05  9.970611E+05  3.244493E-06  1.899935E+02
      5027   1  6.039862E-03 -1.848288E-05 -1.550721E-05  1.065913E+06  1.243979E-06  4.513335E+02
      5028   1 -5.534547E+06  5.409872E+02 -5.807184E+02  1.032768E+06  1.354161E+03 -7.692262E+01
      5029   1 -5.534317E+06  2.290415E+02  3.639191E+02  9.644277E+05  3.496278E+03 -1.123790E+03
      5030   1 -5.534657E+06 -2.430760E+02 -1.411618E+02  9.135292E+05  4.584519E+03 -7.817751E+01
      5031   1 -5.534629E+06 -1.077729E+02 -2.383895E+02  8.788902E+05  4.176762E+03 -8.733212E+02
      5032   1 -5.534677E+06 -3.445864E+02 -1.047866E+02  8.587686E+05  2.459601E+03  1.503941E+01
      5033   1 -5.534731E+06 -1.450285E+02 -5.096386E+02  8.522433E+05  2.417985E-04 -8.554409E-06
      5034   1 -5.534677E+06 -3.445864E+02 -1.047866E+02  8.587686E+05 -2.459601E+03 -1.503939E+01
      5035   1 -5.534629E+06 -1.077729E+02 -2.383895E+02  8.788902E+05 -4.176762E+03  8.733212E+02
      5036   1 -5.534657E+06 -2.430760E+02 -1.411618E+02  9.135292E+05 -4.584519E+03  7.817750E+01
      5037   1 -5.534317E+06  2.290415E+02  3.639191E+02  9.644277E+05 -3.496277E+03  1.123790E+03
      5038   1 -5.534547E+06  5.409872E+02 -5.807184E+02  1.032768E+06 -1.354161E+03  7.692262E+01
      5039   1 -1.106820E+07  1.189243E+03  1.426300E+03  9.329153E+05  3.075049E+03 -5.807280E+02
      5040   1 -1.106928E+07  4.403513E+01 -8.259669E+02  8.659386E+05  8.494442E+03  4.673488E+01
      5041   1 -1.106904E+07  6.421059E-02  7.907743E+01  8.176711E+05  1.088367E+04 -1.107258E+03
      5042   1 -1.106938E+07 -7.825921E+02 -2.698786E+02  7.853639E+05  9.833141E+03  1.714304E+02
      5043   1 -1.106944E+07 -2.423983E+02 -9.221041E+02  7.671557E+05  5.811475E+03 -1.678323E+02
      5044   1 -1.106937E+07 -3.889837E+02 -6.352805E+02  7.612521E+05  4.983111E-04  1.307097E-05
      5045   1 -1.106944E+07 -2.423983E+02 -9.221041E+02  7.671557E+05 -5.811475E+03  1.678322E+02
      5046   1 -1.106938E+07 -7.825921E+02 -2.698785E+02  7.853639E+05 -9.833140E+03 -1.714304E+02
      5047   1 -1.106904E+07  6.422458E-02  7.907741E+01  8.176711E+05 -1.088367E+04  1.107258E+03
      5048   1 -1.106928E+07  4.403511E+01 -8.259669E+02  8.659386E+05 -8.494441E+03 -4.673489E+01
      5049   1 -1.106820E+07  1.189243E+03  1.426300E+03  9.329153E+05 -3.075049E+03  5.807280E+02
      5050   1 -1.660383E+07  1.648419E+03 -2.339967E+03  7.642270E+05  6.641754E+03  1.456571E+02
      5051   1 -1.660304E+07  5.040586E+02  9.970156E+02  7.010100E+05  1.675634E+04 -1.459601E+03
      5052   1 -1.660409E+07 -1.270214E+03 -2.377413E+02  6.575696E+05  2.136673E+04  5.784818E+02
      5053   1 -1.660420E+07 -4.236830E+02 -1.561851E+03  6.307053E+05  1.907221E+04  1.550593E+02
      5054   1 -1.660402E+07 -2.207060E+02 -1.093338E+03  6.158945E+05  1.089035E+04  1.258208E+02
      5055   1 -1.660429E+07 -4.628809E+02 -1.801815E+03  6.110972E+05  7.889617E-04 -1.424255E-05
      5056   1 -1.660402E+07 -2.207060E+02 -1.093338E+03  6.158945E+05 -1.089035E+04 -1.258207E+02
      5057   1 -1.660420E+07 -4.236830E+02 -1.561851E+03  6.307053E+05 -1.907221E+04 -1.550593E+02
      5058   1 -1.660409E+07 -1.270214E+03 -2.377413E+02  6.575696E+05 -2.136673E+04 -5.784818E+02
      5059   1 -1.660304E+07  5.040586E+02  9.970156E+02  7.010100E+05 -1.675634E+04  1.459601E+03
      5060   1 -1.660383E+07  1.648419E+03 -2.339967E+03  7.642270E+05 -6.641754E+03 -1.456571E+02
      5061   1 -2.213571E+07  2.860977E+03  4.468347E+03  5.227710E+05  1.217182E+04 -1.368739E+03
      5062   1 -2.213904E+07 -1.762936E+03 -1.218067E+03  4.661093E+05  3.333894E+04  1.334336E+03
      5063   1 -2.213913E+07 -6.746207E+02 -2.387425E+03  4.350904E+05  4.075378E+04  9.538421E+02
      5064   1 -2.213874E+07  6.820381E+01 -2.132653E+03  4.171026E+05  3.372559E+04  2.802948E+02
      5065   1 -2.213909E+07 -6.077030E+02 -2.338989E+03  4.071873E+05  1.884609E+04  2.338162E+02
      5066   1 -2.213870E+07  2.841570E+02 -2.201148E+03  4.041605E+05  1.127331E-03  4.686009E-06
      5067   1 -2.213909E+07 -6.077030E+02 -2.338989E+03  4.071873E+05 -1.884609E+04 -2.338162E+02
      5068   1 -2.213874E+07  6.820382E+01 -2.132653E+03  4.171026E+05 -3.372559E+04 -2.802947E+02
      5069   1 -2.213913E+07 -6.746206E+02 -2.387425E+03  4.350904E+05 -4.075378E+04 -9.538421E+02
      5070   1 -2.213904E+07 -1.762936E+03 -1.218067E+03  4.661093E+05 -3.333894E+04 -1.334336E+03
      5071   1 -2.213571E+07  2.860977E+03  4.468347E+03  5.227710E+05 -1.217182E+04  1.368739E+03
      5072   1 -2.767476E+07  1.989974E+03 -8.351849E+03  1.919982E+05  3.281494E+04  2.105085E+03
      5073   1 -2.767528E+07 -2.545682E+03 -5.665990E+03  1.649989E+05  7.094787E+04  1.298079E+03
      5074   1 -2.767343E+07  1.336102E+03 -3.706677E+03  1.546700E+05  7.223542E+04  2.532583E+02
      5075   1 -2.767413E+07 -1.190800E+03 -3.492689E+03  1.478541E+05  5.633112E+04  3.036688E+02
      5076   1 -2.767329E+07  8.708112E+02 -2.844649E+03  1.445893E+05  3.040004E+04  4.255613E+01
      5077   1 -2.767390E+07 -9.011024E+02 -3.091765E+03  1.433916E+05  1.522829E-03 -5.974703E-07
      5078   1 -2.767329E+07  8.708112E+02 -2.844649E+03  1.445893E+05 -3.040003E+04 -4.255613E+01
      5079   1 -2.767413E+07 -1.190800E+03 -3.492689E+03  1.478541E+05 -5.633112E+04 -3.036688E+02
      5080   1 -2.767343E+07  1.336102E+03 -3.706677E+03  1.546700E+05 -7.223542E+04 -2.532583E+02
      5081   1 -2.767528E+07 -2.545682E+03 -5.665990E+03  1.649989E+05 -7.094787E+04 -1.298079E+03
      5082   1 -2.767476E+07  1.989974E+03 -8.351850E+03  1.919982E+05 -3.281494E+04 -2.105085E+03
      5083   1  2.735667E+07 -1.889584E+03  8.470535E+03  1.920034E+05 -3.281599E+04  2.083740E+03
      5084   1  2.735715E+07  2.434936E+03  5.390852E+03  1.649955E+05 -7.094538E+04  1.281475E+03
      5085   1  2.735537E+07 -1.247088E+03  3.867750E+03  1.546719E+05 -7.223831E+04  2.514484E+02
      5086   1  2.735600E+07  1.092946E+03  3.247552E+03  1.478520E+05 -5.632875E+04  2.995210E+02
      5087   1  2.735525E+07 -7.849317E+02  3.013066E+03  1.445904E+05 -3.040137E+04  4.237684E+01
      5088   1  2.735577E+07  8.054297E+02  2.852300E+03  1.433899E+05 -1.522021E-03 -2.455549E-06
      5089   1  2.735525E+07 -7.849317E+02  3.013066E+03  1.445904E+05  3.040136E+04 -4.237684E+01
      5090   1  2.735600E+07  1.092946E+03  3.247553E+03  1.478520E+05  5.632874E+04 -2.995210E+02
      5091   1  2.735537E+07 -1.247088E+03  3.867750E+03  1.546719E+05  7.223831E+04 -2.514484E+02
      5092   1  2.735715E+07  2.434936E+03  5.390852E+03  1.649955E+05  7.094538E+04 -1.281475E+03
      5093   1  2.735667E+07 -1.889584E+03  8.470535E+03  1.920034E+05  3.281599E+04 -2.083740E+03
      5094   1  2.188129E+07 -2.767263E+03 -4.231972E+03  5.227669E+05 -1.217309E+04 -1.353730E+03
      5095   1  2.188455E+07  1.680651E+03  1.023640E+03  4.661114E+05 -3.333633E+04  1.319016E+03
      5096   1  2.188469E+07  7.389177E+02  2.540698E+03  4.350908E+05 -4.075653E+04  9.429305E+02
      5097   1  2.188424E+07 -1.329145E+02  1.931304E+03  4.171038E+05 -3.372339E+04  2.770125E+02
      5098   1  2.188465E+07  6.748535E+02  2.490814E+03  4.071881E+05 -1.884730E+04  2.311658E+02
      5099   1  2.188419E+07 -3.474185E+02  1.999861E+03  4.041615E+05 -1.126448E-03  6.329565E-06
      5100   1  2.188465E+07  6.748535E+02  2.490814E+03  4.071881E+05  1.884730E+04 -2.311658E+02
      5101   1  2.188424E+07 -1.329145E+02  1.931304E+03  4.171038E+05  3.372339E+04 -2.770124E+02
      5102   1  2.188469E+07  7.389177E+02  2.540698E+03  4.350908E+05  4.075653E+04 -9.429305E+02
      5103   1  2.188455E+07  1.680651E+03  1.023640E+03  4.661114E+05  3.333633E+04 -1.319016E+03
      5104   1  2.188129E+07 -2.767263E+03 -4.231972E+03  5.227669E+05  1.217309E+04  1.353730E+03
      5105   1  1.641299E+07 -1.578300E+03  2.458595E+03  7.642288E+05 -6.642359E+03  1.443739E+02
      5106   1  1.641219E+07 -5.523116E+02 -1.127935E+03  7.010094E+05 -1.675463E+04 -1.442640E+03
      5107   1  1.641326E+07  1.304883E+03  3.732041E+02  6.575676E+05 -2.136875E+04  5.717123E+02
      5108   1  1.641332E+07  3.622182E+02  1.404773E+03  6.307045E+05 -1.907055E+04  1.533650E+02
      5109   1  1.641320E+07  2.692509E+02  1.217321E+03  6.158925E+05 -1.089128E+04  1.243330E+02
      5110   1  1.641341E+07  4.000632E+02  1.642656E+03  6.110963E+05 -7.896244E-04 -1.520304E-05
      5111   1  1.641320E+07  2.692509E+02  1.217321E+03  6.158925E+05  1.089128E+04 -1.243330E+02
      5112   1  1.641332E+07  3.622182E+02  1.404773E+03  6.307045E+05  1.907055E+04 -1.533650E+02
      5113   1  1.641326E+07  1.304883E+03  3.732041E+02  6.575676E+05  2.136875E+04 -5.717123E+02
      5114   1  1.641219E+07 -5.523116E+02 -1.127935E+03  7.010094E+05  1.675463E+04  1.442640E+03
      5115   1  1.641299E+07 -1.578300E+03  2.458595E+03  7.642288E+05  6.642359E+03 -1.443739E+02
      5116   1  1.094099E+07 -1.143222E+03 -1.312848E+03  9.329126E+05 -3.075670E+03 -5.743617E+02
      5117   1  1.094204E+07 -7.628082E+01  7.218480E+02  8.659403E+05 -8.493174E+03  4.606688E+01
      5118   1  1.094182E+07  3.779411E+01  1.658870E+01  8.176724E+05 -1.088502E+04 -1.094510E+03
      5119   1  1.094213E+07  7.394166E+02  1.741498E+02  7.853659E+05 -9.832058E+03  1.694681E+02
      5120   1  1.094223E+07  2.784062E+02  1.005127E+03  7.671570E+05 -5.812076E+03 -1.659103E+02
      5121   1  1.094212E+07  3.498484E+02  5.358407E+02  7.612542E+05 -4.982015E-04  1.384845E-05
      5122   1  1.094223E+07  2.784062E+02  1.005127E+03  7.671570E+05  5.812075E+03  1.659102E+02
      5123   1  1.094213E+07  7.394166E+02  1.741498E+02  7.853659E+05  9.832057E+03 -1.694681E+02
      5124   1  1.094182E+07  3.779410E+01  1.658873E+01  8.176724E+05  1.088502E+04  1.094510E+03
      5125   1  1.094204E+07 -7.628081E+01  7.218480E+02  8.659403E+05  8.493174E+03 -4.606689E+01
      5126   1  1.094099E+07 -1.143222E+03 -1.312848E+03  9.329126E+05  3.075670E+03  5.743617E+02
      5127   1  5.470933E+06 -5.175519E+02  6.233662E+02  1.032769E+06 -1.354375E+03 -7.579887E+01
      5128   1  5.470700E+06 -2.446750E+02 -4.080138E+02  9.644273E+05 -3.495679E+03 -1.110674E+03
      5129   1  5.471047E+06  2.569454E+02  1.863981E+02  9.135266E+05 -4.585218E+03 -7.733824E+01
      5130   1  5.471004E+06  8.729777E+01  1.884354E+02  8.788889E+05 -4.176192E+03 -8.632496E+02
      5131   1  5.471069E+06  3.579362E+02  1.499077E+02  8.587663E+05 -2.459918E+03  1.485428E+01
      5132   1  5.471105E+06  1.238106E+02  4.567844E+02  8.522419E+05 -2.412686E-04 -9.853746E-06
      5133   1  5.471069E+06  3.579362E+02  1.499077E+02  8.587663E+05  2.459918E+03 -1.485426E+01
      5134   1  5.471004E+06  8.729776E+01  1.884354E+02  8.788889E+05  4.176191E+03  8.632496E+02
      5135   1  5.471047E+06  2.569454E+02  1.863981E+02  9.135266E+05  4.585217E+03  7.733823E+01
      5136   1  5.470700E+06 -2.446750E+02 -4.080137E+02  9.644273E+05  3.495679E+03  1.110674E+03
      5137   1  5.470933E+06 -5.175519E+02  6.233662E+02  1.032769E+06  1.354375E+03  7.579887E+01
      5138   1  5.988373E-03  1.328971E-06  3.288560E-06  1.065911E+06 -8.807359E-07 -4.463946E+02
      5139   1  5.987300E-03  9.459541E-06 -1.589216E-05  9.970628E+05 -4.198252E-06 -1.879386E+02
      5140   1  5.994033E-03  2.127208E-05  1.758517E-05  9.455732E+05 -4.572551E-06 -1.187721E+03
      5141   1  5.990825E-03  2.089989E-05  4.946696E-06  9.100695E+05 -4.645953E-06 -7.285660E+01
      5142   1  5.993557E-03  3.656795E-05  2.025611E-05  8.894863E+05 -3.207875E-06 -4.934478E+02
      5143   1  5.987041E-03  2.351840E-05  7.834234E-06  8.826914E+05  1.255782E-07  9.653127E-06
      5144   1  5.988694E-03  3.168246E-05  1.767369E-05  8.894863E+05  2.405373E-06  4.934477E+02
      5145   1  5.985004E-03  2.162947E-05  4.883454E-06  9.100695E+05  4.542415E-06  7.285662E+01
      5146   1  5.986894E-03  2.730896E-05  1.799569E-05  9.455732E+05  4.794519E-06  1.187721E+03
      5147   1  5.977721E-03  1.585883E-05 -1.047212E-05  9.970628E+05  3.462582E-06  1.879386E+02
      5148   1  5.974160E-03  7.658500E-06  2.828807E-06  1.065911E+06  1.581366E-06  4.463946E+02
      5149   1 -5.470933E+06  5.175519E+02 -6.233662E+02  1.032769E+06  1.354375E+03 -7.579887E+01
      5150   1 -5.470700E+06  2.446750E+02  4.080137E+02  9.644273E+05  3.495679E+03 -1.110674E+03
      5151   1 -5.471047E+06 -2.569454E+02 -1.863981E+02  9.135266E+05  4.585218E+03 -7.733824E+01
      5152   1 -5.471004E+06 -8.729782E+01 -1.884354E+02  8.788889E+05  4.176192E+03 -8.632496E+02
      5153   1 -5.471069E+06 -3.579363E+02 -1.499077E+02  8.587663E+05  2.459918E+03  1.485428E+01
      5154   1 -5.471105E+06 -1.238107E+02 -4.567844E+02  8.522419E+05  2.399022E-04 -9.772375E-06
      5155   1 -5.471069E+06 -3.579363E+02 -1.499077E+02  8.587663E+05 -2.459918E+03 -1.485426E+01
      5156   1 -5.471004E+06 -8.729781E+01 -1.884354E+02  8.788889E+05 -4.176191E+03  8.632496E+02
      5157   1 -5.471047E+06 -2.569454E+02 -1.863981E+02  9.135266E+05 -4.585217E+03  7.733823E+01
      5158   1 -5.470700E+06  2.446750E+02  4.080137E+02  9.644273E+05 -3.495679E+03  1.110674E+03
      5159   1 -5.470933E+06  5.175519E+02 -6.233662E+02  1.032769E+06 -1.354375E+03  7.579888E+01
      5160   1 -1.094099E+07  1.143222E+03  1.312848E+03  9.329126E+05  3.075670E+03 -5.743617E+02
      5161   1 -1.094204E+07  7.628082E+01 -7.218480E+02  8.659403E+05  8.493174E+03  4.606688E+01
      5162   1 -1.094182E+07 -3.779406E+01 -1.658865E+01  8.176724E+05  1.088502E+04 -1.094510E+03
      5163   1 -1.094213E+07 -7.394166E+02 -1.741499E+02  7.853659E+05  9.832058E+03  1.694681E+02
      5164   1 -1.094223E+07 -2.784061E+02 -1.005127E+03  7.671570E+05  5.812076E+03 -1.659103E+02
      5165   1 -1.094212E+07 -3.498484E+02 -5.358407E+02  7.612542E+05  4.975392E-04  1.378475E-05
      5166   1 -1.094223E+07 -2.784061E+02 -1.005127E+03  7.671570E+05 -5.812075E+03  1.659102E+02
      5167   1 -1.094213E+07 -7.394166E+02 -1.741498E+02  7.853659E+05 -9.832057E+03 -1.694681E+02
      5168   1 -1.094182E+07 -3.779404E+01 -1.658867E+01  8.176724E+05 -1.088502E+04  1.094510E+03
      5169   1 -1.094204E+07  7.628081E+01 -7.218480E+02  8.659403E+05 -8.493174E+03 -4.606689E+01
      5170   1 -1.094099E+07  1.143222E+03  1.312848E+03  9.329126E+05 -3.075670E+03  5.743617E+02
      5171   1 -1.641299E+07  1.578300E+03 -2.458595E+03  7.642288E+05  6.642359E+03  1.443739E+02
      5172   1 -1.641219E+07  5.523116E+02  1.127935E+03  7.010094E+05  1.675463E+04 -1.442640E+03
      5173   1 -1.641326E+07 -1.304883E+03 -3.732041E+02  6.575676E+05  2.136875E+04  5.717123E+02
      5174   1 -1.641332E+07 -3.622183E+02 -1.404773E+03  6.307045E+05  1.907055E+04  1.533650E+02
      5175   1 -1.641320E+07 -2.692509E+02 -1.217321E+03  6.158925E+05  1.089128E+04  1.243330E+02
      5176   1 -1.641341E+07 -4.000633E+02 -1.642656E+03  6.110963E+05  7.897436E-04 -1.323431E-05
      5177   1 -1.641320E+07 -2.692509E+02 -1.217321E+03  6.158925E+05 -1.089128E+04 -1.243330E+02
      5178   1 -1.641332E+07 -3.622183E+02 -1.404773E+03  6.307045E+05 -1.907055E+04 -1.533650E+02
      5179   1 -1.641326E+07 -1.304883E+03 -3.732040E+02  6.575676E+05 -2.136875E+04 -5.717123E+02
      5180   1 -1.641219E+07  5.523116E+02  1.127935E+03  7.010094E+05 -1.675463E+04  1.442640E+03
      5181   1 -1.641299E+07  1.578300E+03 -2.458595E+03  7.642288E+05 -6.642359E+03 -1.443739E+02
      5182   1 -2.188129E+07  2.767263E+03  4.231972E+03  5.227669E+05  1.217309E+04 -1.353730E+03
      5183   1 -2.188455E+07 -1.680651E+03 -1.023640E+03  4.661114E+05  3.333633E+04  1.319016E+03
      5184   1 -2.188469E+07 -7.389176E+02 -2.540698E+03  4.350908E+05  4.075653E+04  9.429305E+02
      5185   1 -2.188424E+07  1.329145E+02 -1.931304E+03  4.171038E+05  3.372339E+04  2.770125E+02
      5186   1 -2.188465E+07 -6.748534E+02 -2.490814E+03  4.071881E+05  1.884730E+04  2.311658E+02
      5187   1 -2.188419E+07  3.474185E+02 -1.999861E+03  4.041615E+05  1.125199E-03  3.880704E-06
      5188   1 -2.188465E+07 -6.748535E+02 -2.490814E+03  4.071881E+05 -1.884730E+04 -2.311658E+02
      5189   1 -2.188424E+07  1.329145E+02 -1.931304E+03  4.171038E+05 -3.372339E+04 -2.770124E+02
      5190   1 -2.188469E+07 -7.389176E+02 -2.540698E+03  4.350908E+05 -4.075653E+04 -9.429305E+02
      5191   1 -2.188455E+07 -1.680651E+03 -1.023640E+03  4.661114E+05 -3.333633E+04 -1.319016E+03
      5192   1 -2.188129E+07  2.767263E+03  4.231972E+03  5.227669E+05 -1.217309E+04  1.353730E+03
      5193   1 -2.735667E+07  1.889584E+03 -8.470535E+03  1.920034E+05  3.281599E+04  2.083740E+03
      5194   1 -2.735715E+07 -2.434936E+03 -5.390852E+03  1.649955E+05  7.094538E+04  1.281475E+03
      5195   1 -2.735537E+07  1.247088E+03 -3.867750E+03  1.546719E+05  7.223831E+04  2.514484E+02
      5196   1 -2.735600E+07 -1.092946E+03 -3.247553E+03  1.478520E+05  5.632875E+04  2.995210E+02
      5197   1 -2.735525E+07  7.849317E+02 -3.013066E+03  1.445904E+05  3.040137E+04  4.237684E+01
      5198   1 -2.735577E+07 -8.054298E+02 -2.852300E+03  1.433899E+05  1.522063E-03 -2.367145E-06
      5199   1 -2.735525E+07  7.849317E+02 -3.013066E+03  1.445904E+05 -3.040136E+04 -4.237684E+01
      5200   1 -2.735600E+07 -1.092946E+03 -3.247553E+03  1.478520E+05 -5.632874E+04 -2.995210E+02
      5201   1 -2.735537E+07  1.247088E+03 -3.867750E+03  1.546719E+05 -7.223831E+04 -2.514484E+02
      5202   1 -2.735715E+07 -2.434936E+03 -5.390852E+03  1.649955E+05 -7.094538E+04 -1.281475E+03
      5203   1 -2.735667E+07  1.889584E+03 -8.470535E+03  1.920034E+05 -3.281599E+04 -2.083740E+03
      5204   1  2.703856E+07 -1.931130E+03  8.196796E+03  1.919992E+05 -3.281514E+04  2.057189E+03
      5205   1  2.703906E+07  2.472791E+03  5.499387E+03  1.649983E+05 -7.094741E+04  1.267947E+03
      5206   1  2.703726E+07 -1.292990E+03  3.656488E+03  1.546704E+05 -7.223596E+04  2.476292E+02
      5207   1  2.703793E+07  1.148581E+03  3.376889E+03  1.478537E+05 -5.633069E+04  2.965747E+02
      5208   1  2.703713E+07 -8.380188E+02  2.813816E+03  1.445895E+05 -3.040029E+04  4.163234E+01
      5209   1  2.703771E+07  8.653397E+02  2.985353E+03  1.433913E+05 -1.522823E-03 -1.070917E-06
      5210   1  2.703713E+07 -8.380188E+02  2.813816E+03  1.445895E+05  3.040028E+04 -4.163234E+01
      5211   1  2.703793E+07  1.148581E+03  3.376889E+03  1.478537E+05  5.633069E+04 -2.965747E+02
      5212   1  2.703726E+07 -1.292990E+03  3.656487E+03  1.546704E+05  7.223596E+04 -2.476292E+02
      5213   1  2.703906E+07  2.472791E+03  5.499387E+03  1.649983E+05  7.094741E+04 -1.267947E+03
      5214   1  2.703856E+07 -1.931130E+03  8.196796E+03  1.919992E+05  3.281514E+04 -2.057189E+03
      5215   1  2.162685E+07 -2.784567E+03 -4.333800E+03  5.227702E+05 -1.217205E+04 -1.337399E+03
      5216   1  2.163009E+07  1.711994E+03  1.159177E+03  4.661097E+05 -3.333846E+04  1.303667E+03
      5217   1  2.163019E+07  6.717162E+02  2.363632E+03  4.350905E+05 -4.075429E+04  9.319271E+02
      5218   1  2.162980E+07 -7.763653E+01  2.053342E+03  4.171029E+05 -3.372519E+04  2.738436E+02
      5219   1  2.163015E+07  6.066989E+02  2.315953E+03  4.071874E+05 -1.884631E+04  2.284490E+02
      5220   1  2.162976E+07 -2.887989E+02  2.120401E+03  4.041607E+05 -1.126205E-03  4.445808E-06
      5221   1  2.163015E+07  6.066989E+02  2.315953E+03  4.071874E+05  1.884631E+04 -2.284490E+02
      5222   1  2.162980E+07 -7.763654E+01  2.053342E+03  4.171029E+05  3.372519E+04 -2.738435E+02
      5223   1  2.163019E+07  6.717162E+02  2.363632E+03  4.350905E+05  4.075428E+04 -9.319271E+02
      5224   1  2.163009E+07  1.711994E+03  1.159177E+03  4.661097E+05  3.333846E+04 -1.303667E+03
      5225   1  2.162685E+07 -2.784567E+03 -4.333800E+03  5.227702E+05  1.217205E+04  1.337399E+03
      5226   1  1.622213E+07 -1.601930E+03  2.310956E+03  7.642274E+05 -6.641864E+03  1.423804E+02
      5227   1  1.622136E+07 -5.018592E+02 -9.984621E+02  7.010098E+05 -1.675603E+04 -1.426009E+03
      5228   1  1.622239E+07  1.249246E+03  2.557852E+02  6.575692E+05 -2.136710E+04  5.651676E+02
      5229   1  1.622249E+07  4.041123E+02  1.502122E+03  6.307051E+05 -1.907192E+04  1.515137E+02
      5230   1  1.622232E+07  2.241715E+02  1.091420E+03  6.158941E+05 -1.089052E+04  1.229231E+02
      5231   1  1.622258E+07  4.422531E+02  1.736678E+03  6.110970E+05 -7.896405E-04 -1.504669E-05
      5232   1  1.622232E+07  2.241715E+02  1.091420E+03  6.158941E+05  1.089052E+04 -1.229230E+02
      5233   1  1.622249E+07  4.041123E+02  1.502122E+03  6.307051E+05  1.907191E+04 -1.515137E+02
      5234   1  1.622239E+07  1.249246E+03  2.557851E+02  6.575692E+05  2.136710E+04 -5.651676E+02
      5235   1  1.622136E+07 -5.018592E+02 -9.984621E+02  7.010098E+05  1.675603E+04  1.426009E+03
      5236   1  1.622213E+07 -1.601930E+03  2.310956E+03  7.642273E+05  6.641864E+03 -1.423804E+02
      5237   1  1.081376E+07 -1.156310E+03 -1.376949E+03  9.329148E+05 -3.075161E+03 -5.674301E+02
      5238   1  1.081482E+07 -4.849709E+01  7.909045E+02  8.659389E+05 -8.494210E+03  4.564272E+01
      5239   1  1.081458E+07  6.494310E+00 -6.108513E+01  8.176713E+05 -1.088392E+04 -1.081794E+03
      5240   1  1.081491E+07  7.588908E+02  2.479332E+02  7.853643E+05 -9.832946E+03  1.674952E+02
      5241   1  1.081498E+07  2.435438E+02  9.168805E+02  7.671560E+05 -5.811586E+03 -1.639729E+02
      5242   1  1.081490E+07  3.742503E+02  6.050146E+02  7.612525E+05 -4.979031E-04  1.055546E-05
      5243   1  1.081498E+07  2.435438E+02  9.168805E+02  7.671560E+05  5.811585E+03  1.639729E+02
      5244   1  1.081491E+07  7.588908E+02  2.479332E+02  7.853643E+05  9.832945E+03 -1.674952E+02
      5245   1  1.081458E+07  6.494290E+00 -6.108511E+01  8.176713E+05  1.088392E+04  1.081794E+03
      5246   1  1.081482E+07 -4.849709E+01  7.909045E+02  8.659389E+05  8.494210E+03 -4.564272E+01
      5247   1  1.081376E+07 -1.156310E+03 -1.376949E+03  9.329148E+05  3.075161E+03  5.674301E+02
      5248   1  5.407316E+06 -5.256584E+02  5.757529E+02  1.032769E+06 -1.354200E+03 -7.510843E+01
      5249   1  5.407091E+06 -2.269381E+02 -3.637992E+02  9.644276E+05 -3.496169E+03 -1.097913E+03
      5250   1  5.407425E+06  2.402725E+02  1.458738E+02  9.135287E+05 -4.584647E+03 -7.638396E+01
      5251   1  5.407395E+06  1.019646E+02  2.248394E+02  8.788899E+05 -4.176659E+03 -8.532345E+02
      5252   1  5.407445E+06  3.395596E+02  1.102401E+02  8.587681E+05 -2.459660E+03  1.469392E+01
      5253   1  5.407495E+06  1.383095E+02  4.898873E+02  8.522430E+05 -2.406864E-04 -1.185833E-05
      5254   1  5.407445E+06  3.395597E+02  1.102401E+02  8.587681E+05  2.459659E+03 -1.469390E+01
      5255   1  5.407395E+06  1.019646E+02  2.248395E+02  8.788899E+05  4.176659E+03  8.532345E+02
      5256   1  5.407425E+06  2.402725E+02  1.458738E+02  9.135287E+05  4.584646E+03  7.638395E+01
      5257   1  5.407091E+06 -2.269381E+02 -3.637992E+02  9.644276E+05  3.496168E+03  1.097913E+03
      5258   1  5.407316E+06 -5.256584E+02  5.757529E+02  1.032769E+06  1.354200E+03  7.510843E+01
      5259   1  5.916356E-03 -8.118475E-06 -1.587792E-05  1.065913E+06 -1.024375E-06 -4.409992E+02
      5260   1  5.914843E-03 -3.485208E-06 -8.420646E-06  9.970614E+05 -2.843267E-06 -1.856426E+02
      5261   1  5.914767E-03 -2.043482E-05 -1.113484E-05  9.455719E+05 -5.164850E-06 -1.173896E+03
      5262   1  5.909518E-03 -2.970750E-05 -5.282368E-06  9.100676E+05 -4.443847E-06 -7.203062E+01
      5263   1  5.908534E-03 -3.873720E-05 -1.988622E-05  8.894852E+05 -3.159645E-06 -4.876924E+02
      5264   1  5.908195E-03 -3.651414E-05 -4.715215E-06  8.826894E+05 -2.070327E-07  1.091863E-05
      5265   1  5.905434E-03 -3.503530E-05 -1.955122E-05  8.894852E+05  2.727468E-06  4.876923E+02
      5266   1  5.906283E-03 -2.891390E-05 -4.058124E-06  9.100676E+05  4.918364E-06  7.203064E+01
      5267   1  5.905134E-03 -2.599375E-05 -1.540308E-05  9.455719E+05  4.795856E-06  1.173896E+03
      5268   1  5.902063E-03 -1.558143E-05 -1.095253E-05  9.970614E+05  3.709469E-06  1.856426E+02
      5269   1  5.903245E-03 -1.955777E-05 -1.756073E-05  1.065913E+06  8.906329E-07  4.409992E+02
      5270   1 -5.407316E+06  5.256584E+02 -5.757530E+02  1.032769E+06  1.354200E+03 -7.510844E+01
      5271   1 -5.407091E+06  2.269382E+02  3.637993E+02  9.644276E+05  3.496168E+03 -1.097913E+03
      5272   1 -5.407425E+06 -2.402725E+02 -1.458738E+02  9.135287E+05  4.584647E+03 -7.638395E+01
      5273   1 -5.407395E+06 -1.019645E+02 -2.248394E+02  8.788899E+05  4.176659E+03 -8.532345E+02
      5274   1 -5.407445E+06 -3.395596E+02 -1.102401E+02  8.587681E+05  2.459660E+03  1.469392E+01
      5275   1 -5.407495E+06 -1.383095E+02 -4.898872E+02  8.522430E+05  2.406671E-04 -1.034056E-05
      5276   1 -5.407445E+06 -3.395596E+02 -1.102401E+02  8.587681E+05 -2.459659E+03 -1.469390E+01
      5277   1 -5.407395E+06 -1.019645E+02 -2.248394E+02  8.788899E+05 -4.176659E+03  8.532345E+02
      5278   1 -5.407425E+06 -2.402725E+02 -1.458738E+02  9.135287E+05 -4.584646E+03  7.638395E+01
      5279   1 -5.407091E+06  2.269382E+02  3.637992E+02  9.644276E+05 -3.496168E+03  1.097913E+03
      5280   1 -5.407316E+06  5.256584E+02 -5.757530E+02  1.032769E+06 -1.354200E+03  7.510844E+01
      5281   1 -1.081376E+07  1.156310E+03  1.376949E+03  9.329148E+05  3.075161E+03 -5.674301E+02
      5282   1 -1.081482E+07  4.849707E+01 -7.909045E+02  8.659389E+05  8.494210E+03  4.564272E+01
      5283   1 -1.081458E+07 -6.494359E+00  6.108509E+01  8.176713E+05  1.088392E+04 -1.081794E+03
      5284   1 -1.081491E+07 -7.588908E+02 -2.479332E+02  7.853643E+05  9.832946E+03  1.674952E+02
      5285   1 -1.081498E+07 -2.435439E+02 -9.168806E+02  7.671560E+05  5.811586E+03 -1.639729E+02
      5286   1 -1.081490E+07 -3.742504E+02 -6.050146E+02  7.612525E+05  4.976162E-04  1.404046E-05
      5287   1 -1.081498E+07 -2.435439E+02 -9.168806E+02  7.671560E+05 -5.811585E+03  1.639729E+02
      5288   1 -1.081491E+07 -7.588908E+02 -2.479332E+02  7.853643E+05 -9.832945E+03 -1.674952E+02
      5289   1 -1.081458E+07 -6.494353E+00  6.108506E+01  8.176713E+05 -1.088392E+04  1.081794E+03
      5290   1 -1.081482E+07  4.849705E+01 -7.909044E+02  8.659389E+05 -8.494210E+03 -4.564273E+01
      5291   1 -1.081376E+07  1.156310E+03  1.376949E+03  9.329148E+05 -3.075161E+03  5.674301E+02
      5292   1 -1.622213E+07  1.601930E+03 -2.310956E+03  7.642274E+05  6.641864E+03  1.423804E+02
      5293   1 -1.622136E+07  5.018593E+02  9.984622E+02  7.010098E+05  1.675603E+04 -1.426009E+03
      5294   1 -1.622239E+07 -1.249246E+03 -2.557852E+02  6.575692E+05  2.136710E+04  5.651676E+02
      5295   1 -1.622249E+07 -4.041122E+02 -1.502122E+03  6.307051E+05  1.907192E+04  1.515137E+02
      5296   1 -1.622232E+07 -2.241715E+02 -1.091420E+03  6.158941E+05  1.089052E+04  1.229231E+02
      5297   1 -1.622258E+07 -4.422530E+02 -1.736678E+03  6.110970E+05  7.889539E-04 -1.328250E-05
      5298   1 -1.622232E+07 -2.241714E+02 -1.091420E+03  6.158941E+05 -1.089052E+04 -1.229230E+02
      5299   1 -1.622249E+07 -4.041122E+02 -1.502122E+03  6.307051E+05 -1.907191E+04 -1.515137E+02
      5300   1 -1.622239E+07 -1.249246E+03 -2.557852E+02  6.575692E+05 -2.136710E+04 -5.651676E+02
      5301   1 -1.622136E+07  5.018593E+02  9.984622E+02  7.010098E+05 -1.675603E+04  1.426009E+03
      5302   1 -1.622213E+07  1.601930E+03 -2.310956E+03  7.642274E+05 -6.641864E+03 -1.423805E+02
      5303   1 -2.162685E+07  2.784567E+03  4.333799E+03  5.227702E+05  1.217205E+04 -1.337399E+03
      5304   1 -2.163009E+07 -1.711994E+03 -1.159177E+03  4.661097E+05  3.333846E+04  1.303667E+03
      5305   1 -2.163019E+07 -6.717163E+02 -2.363632E+03  4.350905E+05  4.075429E+04  9.319271E+02
      5306   1 -2.162980E+07  7.763650E+01 -2.053342E+03  4.171029E+05  3.372519E+04  2.738436E+02
      5307   1 -2.163015E+07 -6.066990E+02 -2.315954E+03  4.071874E+05  1.884631E+04  2.284490E+02
      5308   1 -2.162976E+07  2.887988E+02 -2.120401E+03  4.041607E+05  1.126011E-03  6.187442E-06
      5309   1 -2.163015E+07 -6.066990E+02 -2.315954E+03  4.071874E+05 -1.884631E+04 -2.284490E+02
      5310   1 -2.162980E+07  7.763652E+01 -2.053342E+03  4.171029E+05 -3.372519E+04 -2.738435E+02
      5311   1 -2.163019E+07 -6.717163E+02 -2.363632E+03  4.350905E+05 -4.075428E+04 -9.319271E+02
      5312   1 -2.163009E+07 -1.711994E+03 -1.159177E+03  4.661097E+05 -3.333846E+04 -1.303667E+03
      5313   1 -2.162685E+07  2.784567E+03  4.333799E+03  5.227702E+05 -1.217205E+04  1.337399E+03
      5314   1 -2.703856E+07  1.931130E+03 -8.196796E+03  1.919992E+05  3.281514E+04  2.057189E+03
      5315   1 -2.703906E+07 -2.472791E+03 -5.499387E+03  1.649983E+05  7.094741E+04  1.267947E+03
      5316   1 -2.703726E+07  1.292990E+03 -3.656488E+03  1.546704E+05  7.223596E+04  2.476292E+02
      5317   1 -2.703793E+07 -1.148581E+03 -3.376889E+03  1.478537E+05  5.633069E+04  2.965747E+02
      5318   1 -2.703713E+07  8.380188E+02 -2.813816E+03  1.445895E+05  3.040029E+04  4.163234E+01
      5319   1 -2.703771E+07 -8.653396E+02 -2.985353E+03  1.433913E+05  1.522116E-03 -1.527602E-06
      5320   1 -2.703713E+07  8.380189E+02 -2.813816E+03  1.445895E+05 -3.040028E+04 -4.163234E+01
      5321   1 -2.703793E+07 -1.148581E+03 -3.376889E+03  1.478537E+05 -5.633069E+04 -2.965747E+02
      5322   1 -2.703726E+07  1.292990E+03 -3.656487E+03  1.546704E+05 -7.223596E+04 -2.476292E+02
      5323   1 -2.703906E+07 -2.472791E+03 -5.499387E+03  1.649983E+05 -7.094741E+04 -1.267947E+03
      5324   1 -2.703856E+07  1.931130E+03 -8.196796E+03  1.919992E+05 -3.281514E+04 -2.057189E+03
      5325   1  2.672047E+07 -1.856369E+03  8.243413E+03  1.920026E+05 -3.281582E+04  2.034878E+03
      5326   1  2.672094E+07  2.389958E+03  5.295077E+03  1.649960E+05 -7.094576E+04  1.251912E+03
      5327   1  2.671920E+07 -1.228253E+03  3.749212E+03  1.546716E+05 -7.223787E+04  2.454465E+02
      5328   1  2.671981E+07  1.079562E+03  3.200907E+03  1.478524E+05 -5.632911E+04  2.926494E+02
      5329   1  2.671907E+07 -7.771528E+02  2.914753E+03  1.445902E+05 -3.040117E+04  4.134817E+01
      5330   1  2.671959E+07  7.988970E+02  2.814691E+03  1.433902E+05 -1.521904E-03 -2.257075E-06
      5331   1  2.671907E+07 -7.771528E+02  2.914753E+03  1.445902E+05  3.040117E+04 -4.134817E+01
      5332   1  2.671981E+07  1.079562E+03  3.200907E+03  1.478524E+05  5.632910E+04 -2.926494E+02
      5333   1  2.671920E+07 -1.228253E+03  3.749212E+03  1.546716E+05  7.223787E+04 -2.454465E+02
      5334   1  2.672094E+07  2.389958E+03  5.295077E+03  1.649960E+05  7.094576E+04 -1.251912E+03
      5335   1  2.672047E+07 -1.856369E+03  8.243413E+03  1.920026E+05  3.281582E+04 -2.034878E+03
      5336   1  2.137242E+07 -2.711560E+03 -4.159518E+03  5.227675E+05 -1.217290E+04 -1.322144E+03
      5337   1  2.137561E+07  1.650104E+03  1.025052E+03  4.661110E+05 -3.333672E+04  1.288342E+03
      5338   1  2.137574E+07  7.114865E+02  2.456235E+03  4.350907E+05 -4.075612E+04  9.209984E+02
      5339   1  2.137531E+07 -1.208043E+02  1.911093E+03  4.171036E+05 -3.372372E+04  2.705819E+02
      5340   1  2.137570E+07  6.486180E+02  2.407781E+03  4.071879E+05 -1.884712E+04  2.257863E+02
      5341   1  2.137526E+07 -3.301772E+02  1.977930E+03  4.041613E+05 -1.125988E-03  2.805997E-06
      5342   1  2.137570E+07  6.486181E+02  2.407781E+03  4.071879E+05  1.884712E+04 -2.257864E+02
      5343   1  2.137531E+07 -1.208043E+02  1.911093E+03  4.171036E+05  3.372372E+04 -2.705819E+02
      5344   1  2.137574E+07  7.114865E+02  2.456235E+03  4.350907E+05  4.075612E+04 -9.209984E+02
      5345   1  2.137561E+07  1.650104E+03  1.025052E+03  4.661110E+05  3.333672E+04 -1.288342E+03
      5346   1  2.137242E+07 -2.711560E+03 -4.159518E+03  5.227675E+05  1.217290E+04  1.322144E+03
      5347   1  1.603129E+07 -1.548638E+03  2.381157E+03  7.642286E+05 -6.642267E+03  1.409624E+02
      5348   1  1.603051E+07 -5.318224E+02 -1.081809E+03  7.010095E+05 -1.675488E+04 -1.409112E+03
      5349   1  1.603155E+07  1.267779E+03  3.452864E+02  6.575679E+05 -2.136845E+04  5.584390E+02
      5350   1  1.603162E+07  3.618000E+02  1.391538E+03  6.307046E+05 -1.907080E+04  1.497902E+02
      5351   1  1.603149E+07  2.559817E+02  1.169996E+03  6.158929E+05 -1.089114E+04  1.214497E+02
      5352   1  1.603171E+07  3.988926E+02  1.623791E+03  6.110965E+05 -7.894975E-04 -1.488464E-05
      5353   1  1.603149E+07  2.559817E+02  1.169995E+03  6.158929E+05  1.089114E+04 -1.214497E+02
      5354   1  1.603162E+07  3.618000E+02  1.391538E+03  6.307046E+05  1.907080E+04 -1.497903E+02
      5355   1  1.603155E+07  1.267780E+03  3.452863E+02  6.575679E+05  2.136845E+04 -5.584390E+02
      5356   1  1.603051E+07 -5.318224E+02 -1.081809E+03  7.010095E+05  1.675488E+04  1.409112E+03
      5357   1  1.603129E+07 -1.548638E+03  2.381157E+03  7.642286E+05  6.642266E+03 -1.409624E+02
      5358   1  1.068654E+07 -1.121199E+03 -1.295851E+03  9.329130E+05 -3.075577E+03 -5.609570E+02
      5359   1  1.068758E+07 -7.001903E+01  7.182049E+02  8.659400E+05 -8.493361E+03  4.502095E+01
      5360   1  1.068736E+07  3.156938E+01  2.979349E+00  8.176722E+05 -1.088482E+04 -1.069053E+03
      5361   1  1.068766E+07  7.269036E+02  1.829598E+02  7.853656E+05 -9.832219E+03  1.655311E+02
      5362   1  1.068775E+07  2.664551E+02  9.686806E+02  7.671567E+05 -5.811987E+03 -1.620482E+02
      5363   1  1.068765E+07  3.464617E+02  5.361677E+02  7.612539E+05 -4.978468E-04  1.077776E-05
      5364   1  1.068775E+07  2.664551E+02  9.686806E+02  7.671567E+05  5.811986E+03  1.620482E+02
      5365   1  1.068766E+07  7.269036E+02  1.829598E+02  7.853656E+05  9.832218E+03 -1.655311E+02
      5366   1  1.068736E+07  3.156937E+01  2.979374E+00  8.176722E+05  1.088482E+04  1.069053E+03
      5367   1  1.068758E+07 -7.001902E+01  7.182049E+02  8.659400E+05  8.493360E+03 -4.502095E+01
      5368   1  1.068654E+07 -1.121199E+03 -1.295851E+03  9.329130E+05  3.075576E+03  5.609570E+02
      5369   1  5.343702E+06 -5.078839E+02  6.020132E+02  1.032769E+06 -1.354342E+03 -7.406773E+01
      5370   1  5.343475E+06 -2.364076E+02 -3.917908E+02  9.644274E+05 -3.495767E+03 -1.084866E+03
      5371   1  5.343813E+06  2.486860E+02  1.755511E+02  9.135270E+05 -4.585113E+03 -7.552403E+01
      5372   1  5.343773E+06  8.798223E+01  1.906372E+02  8.788891E+05 -4.176277E+03 -8.431730E+02
      5373   1  5.343834E+06  3.472386E+02  1.399810E+02  8.587666E+05 -2.459871E+03  1.451356E+01
      5374   1  5.343871E+06  1.236905E+02  4.527140E+02  8.522421E+05 -2.411049E-04 -1.033904E-05
      5375   1  5.343834E+06  3.472386E+02  1.399810E+02  8.587666E+05  2.459871E+03 -1.451354E+01
      5376   1  5.343773E+06  8.798222E+01  1.906372E+02  8.788891E+05  4.176276E+03  8.431730E+02
      5377   1  5.343813E+06  2.486860E+02  1.755511E+02  9.135270E+05  4.585113E+03  7.552402E+01
      5378   1  5.343475E+06 -2.364076E+02 -3.917908E+02  9.644274E+05  3.495766E+03  1.084866E+03
      5379   1  5.343702E+06 -5.078839E+02  6.020132E+02  1.032769E+06  1.354342E+03  7.406773E+01
      5380   1  5.845718E-03  5.925237E-06  9.083943E-07  1.065911E+06 -9.999001E-07 -4.359740E+02
      5381   1  5.848446E-03  1.350933E-05 -1.342686E-05  9.970625E+05 -4.091793E-06 -1.835418E+02
      5382   1  5.856007E-03  3.292247E-05  2.091306E-05  9.455729E+05 -4.933789E-06 -1.160091E+03
      5383   1  5.850803E-03  2.543066E-05  4.150117E-06  9.100691E+05 -4.704867E-06 -7.116094E+01
      5384   1  5.853324E-03  4.281655E-05  2.487599E-05  8.894861E+05 -3.227781E-06 -4.819665E+02
      5385   1  5.853018E-03  4.049596E-05  1.152666E-05  8.826910E+05 -5.932964E-07  9.087360E-06
      5386   1  5.853379E-03  3.966477E-05  2.483724E-05  8.894861E+05  2.423406E-06  4.819665E+02
      5387   1  5.848007E-03  3.144461E-05  5.300360E-06  9.100691E+05  3.769430E-06  7.116095E+01
      5388   1  5.850728E-03  3.623180E-05  2.518088E-05  9.455729E+05  4.771337E-06  1.160090E+03
      5389   1  5.840145E-03  1.902930E-05 -1.268504E-05  9.970625E+05  3.830684E-06  1.835418E+02
      5390   1  5.835413E-03  8.459436E-06  7.853674E-06  1.065911E+06  1.091959E-06  4.359739E+02
      5391   1 -5.343702E+06  5.078839E+02 -6.020132E+02  1.032769E+06  1.354342E+03 -7.406774E+01
      5392   1 -5.343475E+06  2.364076E+02  3.917908E+02  9.644274E+05  3.495767E+03 -1.084866E+03
      5393   1 -5.343813E+06 -2.486860E+02 -1.755511E+02  9.135270E+05  4.585113E+03 -7.552402E+01
      5394   1 -5.343773E+06 -8.798229E+01 -1.906373E+02  8.788891E+05  4.176277E+03 -8.431730E+02
      5395   1 -5.343834E+06 -3.472387E+02 -1.399810E+02  8.587666E+05  2.459871E+03  1.451356E+01
      5396   1 -5.343871E+06 -1.236906E+02 -4.527141E+02  8.522421E+05  2.406056E-04 -1.255000E-05
      5397   1 -5.343834E+06 -3.472387E+02 -1.399810E+02  8.587666E+05 -2.459871E+03 -1.451354E+01
      5398   1 -5.343773E+06 -8.798230E+01 -1.906373E+02  8.788891E+05 -4.176276E+03  8.431730E+02
      5399   1 -5.343813E+06 -2.486860E+02 -1.755511E+02  9.135270E+05 -4.585113E+03  7.552402E+01
      5400   1 -5.343475E+06  2.364076E+02  3.917907E+02  9.644274E+05 -3.495766E+03  1.084866E+03
      5401   1 -5.343702E+06  5.078838E+02 -6.020132E+02  1.032769E+06 -1.354342E+03  7.406774E+01
      5402   1 -1.068654E+07  1.121199E+03  1.295851E+03  9.329130E+05  3.075577E+03 -5.609570E+02
      5403   1 -1.068758E+07  7.001903E+01 -7.182049E+02  8.659400E+05  8.493361E+03  4.502095E+01
      5404   1 -1.068736E+07 -3.156931E+01 -2.979276E+00  8.176722E+05  1.088482E+04 -1.069053E+03
      5405   1 -1.068766E+07 -7.269036E+02 -1.829598E+02  7.853656E+05  9.832219E+03  1.655311E+02
      5406   1 -1.068775E+07 -2.664550E+02 -9.686805E+02  7.671567E+05  5.811987E+03 -1.620482E+02
      5407   1 -1.068765E+07 -3.464616E+02 -5.361677E+02  7.612539E+05  4.969122E-04  1.370508E-05
      5408   1 -1.068775E+07 -2.664550E+02 -9.686806E+02  7.671567E+05 -5.811986E+03  1.620482E+02
      5409   1 -1.068766E+07 -7.269036E+02 -1.829598E+02  7.853656E+05 -9.832218E+03 -1.655311E+02
      5410   1 -1.068736E+07 -3.156929E+01 -2.979294E+00  8.176722E+05 -1.088482E+04  1.069053E+03
      5411   1 -1.068758E+07  7.001903E+01 -7.182049E+02  8.659400E+05 -8.493360E+03 -4.502096E+01
      5412   1 -1.068654E+07  1.121199E+03  1.295851E+03  9.329130E+05 -3.075576E+03  5.609570E+02
      5413   1 -1.603129E+07  1.548638E+03 -2.381156E+03  7.642286E+05  6.642267E+03  1.409624E+02
      5414   1 -1.603051E+07  5.318223E+02  1.081809E+03  7.010095E+05  1.675488E+04 -1.409112E+03
      5415   1 -1.603155E+07 -1.267780E+03 -3.452863E+02  6.575679E+05  2.136845E+04  5.584390E+02
      5416   1 -1.603162E+07 -3.618001E+02 -1.391538E+03  6.307046E+05  1.907080E+04  1.497902E+02
      5417   1 -1.603149E+07 -2.559817E+02 -1.169995E+03  6.158929E+05  1.089114E+04  1.214497E+02
      5418   1 -1.603171E+07 -3.988927E+02 -1.623791E+03  6.110965E+05  7.885472E-04 -1.422266E-05
      5419   1 -1.603149E+07 -2.559817E+02 -1.169995E+03  6.158929E+05 -1.089114E+04 -1.214497E+02
      5420   1 -1.603162E+07 -3.618001E+02 -1.391538E+03  6.307046E+05 -1.907080E+04 -1.497903E+02
      5421   1 -1.603155E+07 -1.267780E+03 -3.452863E+02  6.575679E+05 -2.136845E+04 -5.584390E+02
      5422   1 -1.603051E+07  5.318223E+02  1.081809E+03  7.010095E+05 -1.675488E+04  1.409112E+03
      5423   1 -1.603129E+07  1.548638E+03 -2.381156E+03  7.642286E+05 -6.642266E+03 -1.409624E+02
      5424   1 -2.137242E+07  2.711560E+03  4.159518E+03  5.227675E+05  1.217290E+04 -1.322144E+03
      5425   1 -2.137561E+07 -1.650104E+03 -1.025052E+03  4.661110E+05  3.333672E+04  1.288342E+03
      5426   1 -2.137574E+07 -7.114864E+02 -2.456235E+03  4.350907E+05  4.075612E+04  9.209984E+02
      5427   1 -2.137531E+07  1.208044E+02 -1.911093E+03  4.171036E+05  3.372372E+04  2.705819E+02
      5428   1 -2.137570E+07 -6.486179E+02 -2.407781E+03  4.071879E+05  1.884712E+04  2.257863E+02
      5429   1 -2.137526E+07  3.301773E+02 -1.977930E+03  4.041613E+05  1.125466E-03  4.263696E-06
      5430   1 -2.137570E+07 -6.486179E+02 -2.407781E+03  4.071879E+05 -1.884712E+04 -2.257864E+02
      5431   1 -2.137531E+07  1.208044E+02 -1.911093E+03  4.171036E+05 -3.372372E+04 -2.705819E+02
      5432   1 -2.137574E+07 -7.114864E+02 -2.456235E+03  4.350907E+05 -4.075612E+04 -9.209984E+02
      5433   1 -2.137561E+07 -1.650104E+03 -1.025052E+03  4.661110E+05 -3.333672E+04 -1.288342E+03
      5434   1 -2.137242E+07  2.711560E+03  4.159518E+03  5.227675E+05 -1.217290E+04  1.322144E+03
      5435   1 -2.672047E+07  1.856369E+03 -8.243413E+03  1.920026E+05  3.281582E+04  2.034878E+03
      5436   1 -2.672094E+07 -2.389958E+03 -5.295077E+03  1.649960E+05  7.094576E+04  1.251912E+03
      5437   1 -2.671920E+07  1.228253E+03 -3.749212E+03  1.546716E+05  7.223787E+04  2.454465E+02
      5438   1 -2.671981E+07 -1.079562E+03 -3.200907E+03  1.478524E+05  5.632911E+04  2.926494E+02
      5439   1 -2.671907E+07  7.771527E+02 -2.914752E+03  1.445902E+05  3.040117E+04  4.134817E+01
      5440   1 -2.671959E+07 -7.988972E+02 -2.814691E+03  1.433902E+05  1.521553E-03 -1.685863E-06
      5441   1 -2.671907E+07  7.771527E+02 -2.914752E+03  1.445902E+05 -3.040117E+04 -4.134817E+01
      5442   1 -2.671981E+07 -1.079562E+03 -3.200907E+03  1.478524E+05 -5.632910E+04 -2.926494E+02
      5443   1 -2.671920E+07  1.228253E+03 -3.749212E+03  1.546716E+05 -7.223787E+04 -2.454465E+02
      5444   1 -2.672094E+07 -2.389958E+03 -5.295077E+03  1.649960E+05 -7.094576E+04 -1.251912E+03
      5445   1 -2.672047E+07  1.856369E+03 -8.243413E+03  1.920026E+05 -3.281582E+04 -2.034878E+03
      5446   1  2.640236E+07 -1.876901E+03  8.028507E+03  1.919998E+05 -3.281527E+04  2.009113E+03
      5447   1  2.640285E+07  2.405165E+03  5.345885E+03  1.649978E+05 -7.094710E+04  1.237920E+03
      5448   1  2.640110E+07 -1.254228E+03  3.593765E+03  1.546706E+05 -7.223631E+04  2.419300E+02
      5449   1  2.640174E+07  1.111802E+03  3.273897E+03  1.478534E+05 -5.633040E+04  2.895218E+02
      5450   1  2.640097E+07 -8.097092E+02  2.770623E+03  1.445896E+05 -3.040045E+04  4.068883E+01
      5451   1  2.640153E+07  8.350915E+02  2.891691E+03  1.433911E+05 -1.522073E-03 -4.551688E-08
      5452   1  2.640097E+07 -8.097092E+02  2.770623E+03  1.445896E+05  3.040045E+04 -4.068883E+01
      5453   1  2.640174E+07  1.111802E+03  3.273897E+03  1.478534E+05  5.633039E+04 -2.895218E+02
      5454   1  2.640110E+07 -1.254228E+03  3.593765E+03  1.546706E+05  7.223631E+04 -2.419300E+02
      5455   1  2.640285E+07  2.405165E+03  5.345885E+03  1.649978E+05  7.094710E+04 -1.237920E+03
      5456   1  2.640236E+07 -1.876901E+03  8.028507E+03  1.919998E+05  3.281527E+04 -2.009113E+03
      5457   1  2.111798E+07 -2.712014E+03 -4.210651E+03  5.227697E+05 -1.217220E+04 -1.306014E+03
      5458   1  2.112115E+07  1.664708E+03  1.111303E+03  4.661099E+05 -3.333814E+04  1.272996E+03
      5459   1  2.112125E+07  6.642382E+02  2.328705E+03  4.350906E+05 -4.075462E+04  9.100078E+02
      5460   1  2.112086E+07 -8.320637E+01  1.984838E+03  4.171030E+05 -3.372492E+04  2.673954E+02
      5461   1  2.112121E+07  6.009907E+02  2.281916E+03  4.071875E+05 -1.884646E+04  2.230792E+02
      5462   1  2.112082E+07 -2.895169E+02  2.050415E+03  4.041608E+05 -1.125926E-03  5.366310E-06
      5463   1  2.112121E+07  6.009907E+02  2.281916E+03  4.071875E+05  1.884646E+04 -2.230792E+02
      5464   1  2.112086E+07 -8.320638E+01  1.984838E+03  4.171030E+05  3.372492E+04 -2.673954E+02
      5465   1  2.112125E+07  6.642381E+02  2.328705E+03  4.350906E+05  4.075462E+04 -9.100078E+02
      5466   1  2.112115E+07  1.664708E+03  1.111303E+03  4.661099E+05  3.333814E+04 -1.272997E+03
      5467   1  2.111798E+07 -2.712014E+03 -4.210651E+03  5.227697E+05  1.217220E+04  1.306014E+03
      5468   1  1.584044E+07 -1.558463E+03  2.273145E+03  7.642276E+05 -6.641937E+03  1.390772E+02
      5469   1  1.583968E+07 -4.962758E+02 -9.912186E+02  7.010098E+05 -1.675582E+04 -1.392432E+03
      5470   1  1.584069E+07  1.225397E+03  2.654913E+02  6.575689E+05 -2.136734E+04  5.518596E+02
      5471   1  1.584078E+07  3.880859E+02  1.450896E+03  6.307050E+05 -1.907171E+04  1.479619E+02
      5472   1  1.584062E+07  2.246483E+02  1.081274E+03  6.158938E+05 -1.089063E+04  1.200278E+02
      5473   1  1.584087E+07  4.252257E+02  1.680010E+03  6.110968E+05 -7.882337E-04 -1.536411E-05
      5474   1  1.584062E+07  2.246483E+02  1.081274E+03  6.158938E+05  1.089063E+04 -1.200278E+02
      5475   1  1.584078E+07  3.880858E+02  1.450896E+03  6.307050E+05  1.907171E+04 -1.479620E+02
      5476   1  1.584069E+07  1.225397E+03  2.654913E+02  6.575689E+05  2.136734E+04 -5.518596E+02
      5477   1  1.583968E+07 -4.962758E+02 -9.912186E+02  7.010098E+05  1.675582E+04  1.392432E+03
      5478   1  1.584044E+07 -1.558463E+03  2.273145E+03  7.642276E+05  6.641937E+03 -1.390772E+02
      5479   1  1.055932E+07 -1.125383E+03 -1.333493E+03  9.329145E+05 -3.075235E+03 -5.541132E+02
      5480   1  1.056035E+07 -5.103952E+01  7.615422E+02  8.659391E+05 -8.494053E+03  4.455770E+01
      5481   1  1.056012E+07  1.069497E+01 -4.884950E+01  8.176715E+05 -1.088408E+04 -1.056333E+03
      5482   1  1.056044E+07  7.371908E+02  2.315731E+02  7.853645E+05 -9.832812E+03  1.635589E+02
      5483   1  1.056051E+07  2.422743E+02  9.059750E+02  7.671561E+05 -5.811658E+03 -1.601134E+02
      5484   1  1.056043E+07  3.615465E+02  5.803075E+02  7.612528E+05 -4.969283E-04  1.264732E-05
      5485   1  1.056051E+07  2.422743E+02  9.059750E+02  7.671561E+05  5.811657E+03  1.601134E+02
      5486   1  1.056044E+07  7.371908E+02  2.315730E+02  7.853645E+05  9.832811E+03 -1.635589E+02
      5487   1  1.056012E+07  1.069495E+01 -4.884948E+01  8.176715E+05  1.088408E+04  1.056333E+03
      5488   1  1.056035E+07 -5.103953E+01  7.615421E+02  8.659391E+05  8.494053E+03 -4.455771E+01
      5489   1  1.055932E+07 -1.125383E+03 -1.333493E+03  9.329145E+05  3.075235E+03  5.541132E+02
      5490   1  5.280085E+06 -5.113496E+02  5.678119E+02  1.032769E+06 -1.354225E+03 -7.331097E+01
      5491   1  5.279865E+06 -2.236991E+02 -3.607411E+02  9.644275E+05 -3.496094E+03 -1.072052E+03
      5492   1  5.280192E+06  2.364921E+02  1.477654E+02  9.135283E+05 -4.584730E+03 -7.458809E+01
      5493   1  5.280161E+06  9.735311E+01  2.141674E+02  8.788897E+05 -4.176589E+03 -8.331503E+02
      5494   1  5.280212E+06  3.335166E+02  1.129086E+02  8.587678E+05 -2.459698E+03  1.434919E+01
      5495   1  5.280258E+06  1.328069E+02  4.730029E+02  8.522428E+05 -2.408756E-04 -1.223315E-05
      5496   1  5.280212E+06  3.335166E+02  1.129086E+02  8.587678E+05  2.459698E+03 -1.434917E+01
      5497   1  5.280161E+06  9.735311E+01  2.141674E+02  8.788897E+05  4.176588E+03  8.331503E+02
      5498   1  5.280192E+06  2.364921E+02  1.477653E+02  9.135283E+05  4.584730E+03  7.458808E+01
      5499   1  5.279865E+06 -2.236991E+02 -3.607411E+02  9.644275E+05  3.496094E+03  1.072052E+03
      5500   1  5.280085E+06 -5.113496E+02  5.678119E+02  1.032769E+06  1.354225E+03  7.331097E+01
      5501   1  5.776104E-03 -1.067706E-05 -2.026441E-05  1.065913E+06 -8.532742E-07 -4.306500E+02
      5502   1  5.771825E-03 -1.326131E-05 -9.097561E-06  9.970617E+05 -3.587942E-06 -1.812848E+02
      5503   1  5.772379E-03 -3.228551E-05 -1.946455E-05  9.455722E+05 -5.044170E-06 -1.146271E+03
      5504   1  5.768276E-03 -3.836839E-05 -7.300785E-06  9.100679E+05 -4.286054E-06 -7.032762E+01
      5505   1  5.764434E-03 -5.321758E-05 -2.858618E-05  8.894854E+05 -3.711197E-06 -4.762169E+02
      5506   1  5.765291E-03 -5.058063E-05 -8.940942E-06  8.826897E+05  3.771470E-07  4.920453E-06
      5507   1  5.762666E-03 -4.927953E-05 -2.813139E-05  8.894854E+05  2.223172E-06  4.762169E+02
      5508   1  5.764387E-03 -4.215466E-05 -6.789966E-06  9.100679E+05  3.886053E-06  7.032763E+01
      5509   1  5.766766E-03 -3.472601E-05 -1.903896E-05  9.455721E+05  4.892507E-06  1.146271E+03
      5510   1  5.763893E-03 -1.756925E-05 -9.804810E-06  9.970617E+05  3.613621E-06  1.812848E+02
      5511   1  5.760082E-03 -3.113222E-05 -2.648744E-05  1.065912E+06  5.822237E-07  4.306500E+02
      5512   1 -5.280085E+06  5.113496E+02 -5.678119E+02  1.032769E+06  1.354225E+03 -7.331097E+01
      5513   1 -5.279865E+06  2.236992E+02  3.607411E+02  9.644275E+05  3.496094E+03 -1.072052E+03
      5514   1 -5.280192E+06 -2.364920E+02 -1.477654E+02  9.135283E+05  4.584730E+03 -7.458809E+01
      5515   1 -5.280161E+06 -9.735301E+01 -2.141673E+02  8.788897E+05  4.176589E+03 -8.331503E+02
      5516   1 -5.280212E+06 -3.335165E+02 -1.129086E+02  8.587678E+05  2.459698E+03  1.434919E+01
      5517   1 -5.280258E+06 -1.328067E+02 -4.730029E+02  8.522428E+05  2.401252E-04 -1.069945E-05
      5518   1 -5.280212E+06 -3.335165E+02 -1.129086E+02  8.587678E+05 -2.459698E+03 -1.434918E+01
      5519   1 -5.280161E+06 -9.735300E+01 -2.141673E+02  8.788897E+05 -4.176588E+03  8.331503E+02
      5520   1 -5.280192E+06 -2.364920E+02 -1.477654E+02  9.135283E+05 -4.584730E+03  7.458808E+01
      5521   1 -5.279865E+06  2.236992E+02  3.607411E+02  9.644275E+05 -3.496094E+03  1.072052E+03
      5522   1 -5.280085E+06  5.113497E+02 -5.678119E+02  1.032769E+06 -1.354225E+03  7.331097E+01
      5523   1 -1.055932E+07  1.125383E+03  1.333493E+03  9.329145E+05  3.075235E+03 -5.541133E+02
      5524   1 -1.056035E+07  5.103949E+01 -7.615421E+02  8.659391E+05  8.494053E+03  4.455770E+01
      5525   1 -1.056012E+07 -1.069505E+01  4.884942E+01  8.176715E+05  1.088408E+04 -1.056333E+03
      5526   1 -1.056044E+07 -7.371909E+02 -2.315730E+02  7.853645E+05  9.832812E+03  1.635589E+02
      5527   1 -1.056051E+07 -2.422744E+02 -9.059751E+02  7.671561E+05  5.811658E+03 -1.601134E+02
      5528   1 -1.056043E+07 -3.615466E+02 -5.803075E+02  7.612528E+05  4.980161E-04  1.244853E-05
      5529   1 -1.056051E+07 -2.422744E+02 -9.059751E+02  7.671561E+05 -5.811657E+03  1.601134E+02
      5530   1 -1.056044E+07 -7.371909E+02 -2.315730E+02  7.853645E+05 -9.832811E+03 -1.635589E+02
      5531   1 -1.056012E+07 -1.069505E+01  4.884940E+01  8.176715E+05 -1.088408E+04  1.056333E+03
      5532   1 -1.056035E+07  5.103948E+01 -7.615421E+02  8.659391E+05 -8.494053E+03 -4.455771E+01
      5533   1 -1.055932E+07  1.125383E+03  1.333493E+03  9.329145E+05 -3.075235E+03  5.541133E+02
      5534   1 -1.584044E+07  1.558463E+03 -2.273145E+03  7.642276E+05  6.641937E+03  1.390772E+02
      5535   1 -1.583968E+07  4.962759E+02  9.912187E+02  7.010098E+05  1.675582E+04 -1.392432E+03
      5536   1 -1.584069E+07 -1.225397E+03 -2.654914E+02  6.575689E+05  2.136734E+04  5.518596E+02
      5537   1 -1.584078E+07 -3.880857E+02 -1.450896E+03  6.307050E+05  1.907171E+04  1.479619E+02
      5538   1 -1.584062E+07 -2.246483E+02 -1.081274E+03  6.158938E+05  1.089063E+04  1.200278E+02
      5539   1 -1.584087E+07 -4.252255E+02 -1.680009E+03  6.110968E+05  7.878776E-04 -1.547810E-05
      5540   1 -1.584062E+07 -2.246483E+02 -1.081274E+03  6.158938E+05 -1.089063E+04 -1.200278E+02
      5541   1 -1.584078E+07 -3.880857E+02 -1.450896E+03  6.307050E+05 -1.907171E+04 -1.479620E+02
      5542   1 -1.584069E+07 -1.225397E+03 -2.654913E+02  6.575689E+05 -2.136734E+04 -5.518596E+02
      5543   1 -1.583968E+07  4.962759E+02  9.912187E+02  7.010098E+05 -1.675582E+04  1.392432E+03
      5544   1 -1.584044E+07  1.558463E+03 -2.273145E+03  7.642276E+05 -6.641937E+03 -1.390772E+02
      5545   1 -2.111798E+07  2.712014E+03  4.210650E+03  5.227697E+05  1.217220E+04 -1.306014E+03
      5546   1 -2.112115E+07 -1.664708E+03 -1.111303E+03  4.661099E+05  3.333814E+04  1.272996E+03
      5547   1 -2.112125E+07 -6.642383E+02 -2.328705E+03  4.350906E+05  4.075462E+04  9.100078E+02
      5548   1 -2.112086E+07  8.320632E+01 -1.984838E+03  4.171030E+05  3.372492E+04  2.673954E+02
      5549   1 -2.112121E+07 -6.009908E+02 -2.281917E+03  4.071875E+05  1.884646E+04  2.230792E+02
      5550   1 -2.112082E+07  2.895168E+02 -2.050415E+03  4.041608E+05  1.124779E-03  3.995276E-06
      5551   1 -2.112121E+07 -6.009909E+02 -2.281917E+03  4.071875E+05 -1.884646E+04 -2.230792E+02
      5552   1 -2.112086E+07  8.320633E+01 -1.984838E+03  4.171030E+05 -3.372492E+04 -2.673954E+02
      5553   1 -2.112125E+07 -6.642383E+02 -2.328705E+03  4.350906E+05 -4.075462E+04 -9.100078E+02
      5554   1 -2.112115E+07 -1.664708E+03 -1.111303E+03  4.661099E+05 -3.333814E+04 -1.272997E+03
      5555   1 -2.111798E+07  2.712014E+03  4.210650E+03  5.227697E+05 -1.217220E+04  1.306014E+03
      5556   1 -2.640236E+07  1.876901E+03 -8.028507E+03  1.919998E+05  3.281527E+04  2.009113E+03
      5557   1 -2.640285E+07 -2.405165E+03 -5.345885E+03  1.649978E+05  7.094710E+04  1.237920E+03
      5558   1 -2.640110E+07  1.254228E+03 -3.593765E+03  1.546706E+05  7.223631E+04  2.419300E+02
      5559   1 -2.640174E+07 -1.111802E+03 -3.273897E+03  1.478534E+05  5.633040E+04  2.895218E+02
      5560   1 -2.640097E+07  8.097093E+02 -2.770623E+03  1.445896E+05  3.040045E+04  4.068884E+01
      5561   1 -2.640153E+07 -8.350913E+02 -2.891691E+03  1.433911E+05  1.521502E-03 -3.087391E-06
      5562   1 -2.640097E+07  8.097093E+02 -2.770623E+03  1.445896E+05 -3.040045E+04 -4.068883E+01
      5563   1 -2.640174E+07 -1.111802E+03 -3.273897E+03  1.478534E+05 -5.633039E+04 -2.895218E+02
      5564   1 -2.640110E+07  1.254228E+03 -3.593765E+03  1.546706E+05 -7.223631E+04 -2.419300E+02
      5565   1 -2.640285E+07 -2.405165E+03 -5.345885E+03  1.649978E+05 -7.094710E+04 -1.237920E+03
      5566   1 -2.640236E+07  1.876901E+03 -8.028507E+03  1.919998E+05 -3.281527E+04 -2.009113E+03
      5567   1  2.608426E+07 -1.819370E+03  8.027098E+03  1.920021E+05 -3.281572E+04  1.986163E+03
      5568   1  2.608473E+07  2.340712E+03  5.188637E+03  1.649963E+05 -7.094601E+04  1.222262E+03
      5569   1  2.608302E+07 -1.205846E+03  3.640927E+03  1.546714E+05 -7.223758E+04  2.395004E+02
      5570   1  2.608363E+07  1.061767E+03  3.143857E+03  1.478526E+05 -5.632934E+04  2.857437E+02
      5571   1  2.608290E+07 -7.656923E+02  2.826571E+03  1.445901E+05 -3.040103E+04  4.033515E+01
      5572   1  2.608342E+07  7.878931E+02  2.766735E+03  1.433904E+05 -1.521252E-03 -2.417209E-06
      5573   1  2.608290E+07 -7.656923E+02  2.826571E+03  1.445901E+05  3.040103E+04 -4.033515E+01
      5574   1  2.608363E+07  1.061767E+03  3.143857E+03  1.478526E+05  5.632934E+04 -2.857437E+02
      5575   1  2.608302E+07 -1.205846E+03  3.640927E+03  1.546714E+05  7.223758E+04 -2.395004E+02
      5576   1  2.608473E+07  2.340712E+03  5.188637E+03  1.649963E+05  7.094600E+04 -1.222262E+03
      5577   1  2.608426E+07 -1.819370E+03  8.027098E+03  1.920021E+05  3.281572E+04 -1.986163E+03
      5578   1  2.086355E+07 -2.652711E+03 -4.077756E+03  5.227679E+05 -1.217278E+04 -1.290596E+03
      5579   1  2.086667E+07  1.616562E+03  1.017466E+03  4.661108E+05 -3.333698E+04  1.257668E+03
      5580   1  2.086679E+07  6.877828E+02  2.380878E+03  4.350906E+05 -4.075584E+04  8.990673E+02
      5581   1  2.086638E+07 -1.118592E+02  1.882073E+03  4.171035E+05 -3.372394E+04  2.641471E+02
      5582   1  2.086675E+07  6.262163E+02  2.333763E+03  4.071878E+05 -1.884700E+04  2.204081E+02
      5583   1  2.086633E+07 -3.161512E+02  1.947238E+03  4.041612E+05 -1.125406E-03  4.988846E-06
      5584   1  2.086675E+07  6.262163E+02  2.333763E+03  4.071878E+05  1.884699E+04 -2.204082E+02
      5585   1  2.086638E+07 -1.118592E+02  1.882073E+03  4.171035E+05  3.372394E+04 -2.641470E+02
      5586   1  2.086679E+07  6.877828E+02  2.380878E+03  4.350906E+05  4.075584E+04 -8.990673E+02
      5587   1  2.086667E+07  1.616562E+03  1.017466E+03  4.661108E+05  3.333697E+04 -1.257668E+03
      5588   1  2.086355E+07 -2.652711E+03 -4.077756E+03  5.227679E+05  1.217277E+04  1.290596E+03
      5589   1  1.564959E+07 -1.516500E+03  2.310920E+03  7.642284E+05 -6.642204E+03  1.375705E+02
      5590   1  1.564884E+07 -5.140944E+02 -1.042783E+03  7.010096E+05 -1.675505E+04 -1.375576E+03
      5591   1  1.564984E+07  1.233041E+03  3.242053E+02  6.575681E+05 -2.136825E+04  5.451574E+02
      5592   1  1.564992E+07  3.584899E+02  1.371370E+03  6.307047E+05 -1.907096E+04  1.462184E+02
      5593   1  1.564979E+07  2.451652E+02  1.129430E+03  6.158931E+05 -1.089105E+04  1.185635E+02
      5594   1  1.565000E+07  3.947840E+02  1.598029E+03  6.110966E+05 -7.878808E-04 -1.634421E-05
      5595   1  1.564979E+07  2.451652E+02  1.129430E+03  6.158931E+05  1.089104E+04 -1.185635E+02
      5596   1  1.564992E+07  3.584899E+02  1.371370E+03  6.307047E+05  1.907096E+04 -1.462184E+02
      5597   1  1.564984E+07  1.233041E+03  3.242053E+02  6.575681E+05  2.136825E+04 -5.451574E+02
      5598   1  1.564884E+07 -5.140944E+02 -1.042783E+03  7.010096E+05  1.675505E+04  1.375576E+03
      5599   1  1.564959E+07 -1.516500E+03  2.310920E+03  7.642284E+05  6.642204E+03 -1.375705E+02
      5600   1  1.043210E+07 -1.097534E+03 -1.274032E+03  9.329133E+05 -3.075514E+03 -5.475701E+02
      5601   1  1.043311E+07 -6.532880E+01  7.098994E+02  8.659398E+05 -8.493485E+03  4.396500E+01
      5602   1  1.043289E+07  2.727194E+01 -5.914365E+00  8.176720E+05 -1.088468E+04 -1.043597E+03
      5603   1  1.043320E+07  7.127515E+02  1.872109E+02  7.853654E+05 -9.832325E+03  1.615926E+02
      5604   1  1.043328E+07  2.564780E+02  9.368983E+02  7.671566E+05 -5.811926E+03 -1.581873E+02
      5605   1  1.043319E+07  3.414125E+02  5.319627E+02  7.612536E+05 -4.964846E-04  1.054052E-05
      5606   1  1.043328E+07  2.564780E+02  9.368983E+02  7.671566E+05  5.811925E+03  1.581873E+02
      5607   1  1.043320E+07  7.127515E+02  1.872108E+02  7.853654E+05  9.832324E+03 -1.615925E+02
      5608   1  1.043289E+07  2.727193E+01 -5.914342E+00  8.176720E+05  1.088468E+04  1.043597E+03
      5609   1  1.043311E+07 -6.532877E+01  7.098994E+02  8.659398E+05  8.493484E+03 -4.396501E+01
      5610   1  1.043210E+07 -1.097534E+03 -1.274032E+03  9.329133E+05  3.075514E+03  5.475701E+02
      5611   1  5.216471E+06 -4.973819E+02  5.830955E+02  1.032769E+06 -1.354320E+03 -7.232539E+01
      5612   1  5.216250E+06 -2.290683E+02 -3.779686E+02  9.644274E+05 -3.495825E+03 -1.059050E+03
      5613   1  5.216578E+06  2.412270E+02  1.670164E+02  9.135273E+05 -4.585042E+03 -7.371568E+01
      5614   1  5.216541E+06  8.768873E+01  1.904927E+02  8.788892E+05 -4.176333E+03 -8.230968E+02
      5615   1  5.216599E+06  3.373733E+02  1.323422E+02  8.587669E+05 -2.459839E+03  1.417123E+01
      5616   1  5.216637E+06  1.225763E+02  4.463090E+02  8.522423E+05 -2.401157E-04 -1.300318E-05
      5617   1  5.216599E+06  3.373733E+02  1.323422E+02  8.587669E+05  2.459839E+03 -1.417122E+01
      5618   1  5.216541E+06  8.768872E+01  1.904927E+02  8.788892E+05  4.176332E+03  8.230968E+02
      5619   1  5.216578E+06  2.412270E+02  1.670164E+02  9.135273E+05  4.585042E+03  7.371567E+01
      5620   1  5.216250E+06 -2.290684E+02 -3.779686E+02  9.644274E+05  3.495825E+03  1.059050E+03
      5621   1  5.216471E+06 -4.973819E+02  5.830955E+02  1.032769E+06  1.354320E+03  7.232539E+01
      5622   1  5.709659E-03  1.024790E-05  1.023685E-05  1.065911E+06 -1.620196E-06 -4.255681E+02
      5623   1  5.711196E-03  2.143425E-05 -1.406972E-05  9.970623E+05 -3.622760E-06 -1.791553E+02
      5624   1  5.719391E-03  4.492806E-05  3.052993E-05  9.455727E+05 -5.134446E-06 -1.132464E+03
      5625   1  5.718476E-03  5.137983E-05  1.051896E-05  9.100688E+05 -5.130635E-06 -6.946564E+01
      5626   1  5.723290E-03  7.061402E-05  3.970395E-05  8.894859E+05 -2.248421E-06 -4.704872E+02
      5627   1  5.717990E-03  6.084574E-05  1.613928E-05  8.826907E+05  1.894679E-10  6.272524E-06
      5628   1  5.721071E-03  7.095653E-05  3.928178E-05  8.894859E+05  2.121394E-06  4.704872E+02
      5629   1  5.711243E-03  5.036086E-05  1.098462E-05  9.100688E+05  4.579016E-06  6.946565E+01
      5630   1  5.714638E-03  5.646110E-05  3.564201E-05  9.455727E+05  4.824076E-06  1.132464E+03
      5631   1  5.706383E-03  3.965211E-05 -6.303171E-06  9.970623E+05  3.864120E-06  1.791553E+02
      5632   1  5.698678E-03  2.313094E-05  1.462869E-05  1.065911E+06  1.685328E-06  4.255681E+02
      5633   1 -5.216471E+06  4.973819E+02 -5.830955E+02  1.032769E+06  1.354320E+03 -7.232540E+01
      5634   1 -5.216250E+06  2.290683E+02  3.779686E+02  9.644274E+05  3.495825E+03 -1.059050E+03
      5635   1 -5.216578E+06 -2.412271E+02 -1.670164E+02  9.135273E+05  4.585042E+03 -7.371567E+01
      5636   1 -5.216541E+06 -8.768885E+01 -1.904928E+02  8.788892E+05  4.176333E+03 -8.230968E+02
      5637   1 -5.216599E+06 -3.373734E+02 -1.323423E+02  8.587669E+05  2.459839E+03  1.417123E+01
      5638   1 -5.216637E+06 -1.225765E+02 -4.463090E+02  8.522423E+05  2.408071E-04 -1.166705E-05
      5639   1 -5.216599E+06 -3.373734E+02 -1.323423E+02  8.587669E+05 -2.459839E+03 -1.417122E+01
      5640   1 -5.216541E+06 -8.768884E+01 -1.904928E+02  8.788892E+05 -4.176332E+03  8.230968E+02
      5641   1 -5.216578E+06 -2.412271E+02 -1.670164E+02  9.135273E+05 -4.585042E+03  7.371567E+01
      5642   1 -5.216250E+06  2.290683E+02  3.779686E+02  9.644274E+05 -3.495825E+03  1.059050E+03
      5643   1 -5.216471E+06  4.973819E+02 -5.830955E+02  1.032769E+06 -1.354320E+03  7.232539E+01
      5644   1 -1.043210E+07  1.097534E+03  1.274032E+03  9.329133E+05  3.075514E+03 -5.475701E+02
      5645   1 -1.043311E+07  6.532880E+01 -7.098994E+02  8.659398E+05  8.493485E+03  4.396501E+01
      5646   1 -1.043289E+07 -2.727183E+01  5.914470E+00  8.176720E+05  1.088468E+04 -1.043597E+03
      5647   1 -1.043320E+07 -7.127514E+02 -1.872109E+02  7.853654E+05  9.832325E+03  1.615926E+02
      5648   1 -1.043328E+07 -2.564778E+02 -9.368981E+02  7.671566E+05  5.811926E+03 -1.581873E+02
      5649   1 -1.043319E+07 -3.414124E+02 -5.319627E+02  7.612536E+05  4.962351E-04  9.599157E-06
      5650   1 -1.043328E+07 -2.564778E+02 -9.368982E+02  7.671566E+05 -5.811925E+03  1.581873E+02
      5651   1 -1.043320E+07 -7.127514E+02 -1.872109E+02  7.853654E+05 -9.832324E+03 -1.615925E+02
      5652   1 -1.043289E+07 -2.727181E+01  5.914453E+00  8.176720E+05 -1.088468E+04  1.043597E+03
      5653   1 -1.043311E+07  6.532881E+01 -7.098994E+02  8.659398E+05 -8.493484E+03 -4.396501E+01
      5654   1 -1.043210E+07  1.097534E+03  1.274032E+03  9.329133E+05 -3.075514E+03  5.475701E+02
      5655   1 -1.564959E+07  1.516500E+03 -2.310920E+03  7.642284E+05  6.642204E+03  1.375705E+02
      5656   1 -1.564884E+07  5.140943E+02  1.042783E+03  7.010096E+05  1.675505E+04 -1.375576E+03
      5657   1 -1.564984E+07 -1.233041E+03 -3.242052E+02  6.575681E+05  2.136825E+04  5.451574E+02
      5658   1 -1.564992E+07 -3.584901E+02 -1.371370E+03  6.307047E+05  1.907096E+04  1.462184E+02
      5659   1 -1.564979E+07 -2.451653E+02 -1.129430E+03  6.158931E+05  1.089105E+04  1.185635E+02
      5660   1 -1.565000E+07 -3.947842E+02 -1.598029E+03  6.110966E+05  7.872005E-04 -1.446389E-05
      5661   1 -1.564979E+07 -2.451653E+02 -1.129430E+03  6.158931E+05 -1.089104E+04 -1.185635E+02
      5662   1 -1.564992E+07 -3.584901E+02 -1.371370E+03  6.307047E+05 -1.907096E+04 -1.462184E+02
      5663   1 -1.564984E+07 -1.233041E+03 -3.242052E+02  6.575681E+05 -2.136825E+04 -5.451574E+02
      5664   1 -1.564884E+07  5.140943E+02  1.042783E+03  7.010096E+05 -1.675505E+04  1.375576E+03
      5665   1 -1.564959E+07  1.516500E+03 -2.310920E+03  7.642284E+05 -6.642204E+03 -1.375705E+02
      5666   1 -2.086355E+07  2.652711E+03  4.077756E+03  5.227679E+05  1.217278E+04 -1.290596E+03
      5667   1 -2.086667E+07 -1.616562E+03 -1.017466E+03  4.661108E+05  3.333698E+04  1.257668E+03
      5668   1 -2.086679E+07 -6.877827E+02 -2.380878E+03  4.350906E+05  4.075584E+04  8.990673E+02
      5669   1 -2.086638E+07  1.118593E+02 -1.882073E+03  4.171035E+05  3.372394E+04  2.641471E+02
      5670   1 -2.086675E+07 -6.262161E+02 -2.333762E+03  4.071878E+05  1.884700E+04  2.204081E+02
      5671   1 -2.086633E+07  3.161512E+02 -1.947238E+03  4.041612E+05  1.123537E-03  3.521963E-06
      5672   1 -2.086675E+07 -6.262161E+02 -2.333762E+03  4.071878E+05 -1.884699E+04 -2.204082E+02
      5673   1 -2.086638E+07  1.118593E+02 -1.882073E+03  4.171035E+05 -3.372394E+04 -2.641470E+02
      5674   1 -2.086679E+07 -6.877826E+02 -2.380878E+03  4.350906E+05 -4.075584E+04 -8.990673E+02
      5675   1 -2.086667E+07 -1.616562E+03 -1.017466E+03  4.661108E+05 -3.333697E+04 -1.257668E+03
      5676   1 -2.086355E+07  2.652711E+03  4.077756E+03  5.227679E+05 -1.217277E+04  1.290596E+03
      5677   1 -2.608426E+07  1.819370E+03 -8.027098E+03  1.920021E+05  3.281572E+04  1.986163E+03
      5678   1 -2.608473E+07 -2.340712E+03 -5.188637E+03  1.649963E+05  7.094601E+04  1.222262E+03
      5679   1 -2.608302E+07  1.205846E+03 -3.640927E+03  1.546714E+05  7.223758E+04  2.395004E+02
      5680   1 -2.608363E+07 -1.061768E+03 -3.143857E+03  1.478526E+05  5.632934E+04  2.857437E+02
      5681   1 -2.608290E+07  7.656922E+02 -2.826571E+03  1.445901E+05  3.040103E+04  4.033515E+01
      5682   1 -2.608342E+07 -7.878933E+02 -2.766736E+03  1.433904E+05  1.519740E-03 -1.338580E-06
      5683   1 -2.608290E+07  7.656922E+02 -2.826571E+03  1.445901E+05 -3.040103E+04 -4.033515E+01
      5684   1 -2.608363E+07 -1.061768E+03 -3.143857E+03  1.478526E+05 -5.632934E+04 -2.857437E+02
      5685   1 -2.608302E+07  1.205846E+03 -3.640927E+03  1.546714E+05 -7.223758E+04 -2.395004E+02
      5686   1 -2.608473E+07 -2.340712E+03 -5.188637E+03  1.649963E+05 -7.094600E+04 -1.222262E+03
      5687   1 -2.608426E+07  1.819370E+03 -8.027098E+03  1.920021E+05 -3.281572E+04 -1.986163E+03
      5688   1  2.576616E+07 -1.825778E+03  7.851395E+03  1.920002E+05 -3.281536E+04  1.960917E+03
      5689   1  2.576663E+07  2.340999E+03  5.201075E+03  1.649976E+05 -7.094689E+04  1.207963E+03
      5690   1  2.576493E+07 -1.218401E+03  3.522678E+03  1.546707E+05 -7.223655E+04  2.361846E+02
      5691   1  2.576555E+07  1.078597E+03  3.179396E+03  1.478533E+05 -5.633020E+04  2.824958E+02
      5692   1  2.576480E+07 -7.844254E+02  2.719176E+03  1.445897E+05 -3.040056E+04  3.973219E+01
      5693   1  2.576534E+07  8.084668E+02  2.806481E+03  1.433910E+05 -1.520947E-03 -8.501536E-07
      5694   1  2.576480E+07 -7.844254E+02  2.719176E+03  1.445897E+05  3.040055E+04 -3.973219E+01
      5695   1  2.576555E+07  1.078597E+03  3.179396E+03  1.478533E+05  5.633020E+04 -2.824958E+02
      5696   1  2.576493E+07 -1.218401E+03  3.522678E+03  1.546707E+05  7.223654E+04 -2.361846E+02
      5697   1  2.576663E+07  2.340999E+03  5.201075E+03  1.649976E+05  7.094689E+04 -1.207963E+03
      5698   1  2.576616E+07 -1.825778E+03  7.851395E+03  1.920002E+05  3.281536E+04 -1.960917E+03
      5699   1  2.060911E+07 -2.642024E+03 -4.095100E+03  5.227694E+05 -1.217231E+04 -1.274598E+03
      5700   1  2.061220E+07  1.619881E+03  1.070790E+03  4.661101E+05 -3.333793E+04  1.242324E+03
      5701   1  2.061230E+07  6.537257E+02  2.286352E+03  4.350906E+05 -4.075484E+04  8.880851E+02
      5702   1  2.061192E+07 -8.618012E+01  1.923549E+03  4.171031E+05 -3.372474E+04  2.609487E+02
      5703   1  2.061227E+07  5.921611E+02  2.240539E+03  4.071876E+05 -1.884656E+04  2.177073E+02
      5704   1  2.061188E+07 -2.875977E+02  1.987611E+03  4.041609E+05 -1.124031E-03  6.531516E-07
      5705   1  2.061227E+07  5.921612E+02  2.240539E+03  4.071876E+05  1.884655E+04 -2.177073E+02
      5706   1  2.061192E+07 -8.618014E+01  1.923549E+03  4.171031E+05  3.372474E+04 -2.609487E+02
      5707   1  2.061230E+07  6.537256E+02  2.286352E+03  4.350906E+05  4.075484E+04 -8.880851E+02
      5708   1  2.061220E+07  1.619881E+03  1.070790E+03  4.661101E+05  3.333792E+04 -1.242324E+03
      5709   1  2.060911E+07 -2.642024E+03 -4.095100E+03  5.227694E+05  1.217231E+04  1.274598E+03
      5710   1  1.545874E+07 -1.517026E+03  2.229441E+03  7.642277E+05 -6.641985E+03  1.357563E+02
      5711   1  1.545800E+07 -4.884389E+02 -9.781683E+02  7.010097E+05 -1.675568E+04 -1.358864E+03
      5712   1  1.545899E+07  1.199609E+03  2.696074E+02  6.575688E+05 -2.136751E+04  5.385546E+02
      5713   1  1.545907E+07  3.744189E+02  1.405348E+03  6.307049E+05 -1.907157E+04  1.444050E+02
      5714   1  1.545892E+07  2.231121E+02  1.065608E+03  6.158937E+05 -1.089071E+04  1.171334E+02
      5715   1  1.545916E+07  4.105951E+02  1.628993E+03  6.110968E+05 -7.886631E-04 -1.709607E-05
      5716   1  1.545892E+07  2.231121E+02  1.065608E+03  6.158937E+05  1.089071E+04 -1.171334E+02
      5717   1  1.545907E+07  3.744189E+02  1.405348E+03  6.307049E+05  1.907157E+04 -1.444050E+02
      5718   1  1.545899E+07  1.199609E+03  2.696074E+02  6.575688E+05  2.136750E+04 -5.385546E+02
      5719   1  1.545800E+07 -4.884389E+02 -9.781682E+02  7.010097E+05  1.675568E+04  1.358864E+03
      5720   1  1.545874E+07 -1.517026E+03  2.229441E+03  7.642277E+05  6.641985E+03 -1.357563E+02
      5721   1  1.030488E+07 -1.095797E+03 -1.293979E+03  9.329143E+05 -3.075285E+03 -5.407839E+02
      5722   1  1.030588E+07 -5.229228E+01  7.359986E+02  8.659393E+05 -8.493948E+03  4.347618E+01
      5723   1  1.030566E+07  1.332328E+01 -4.046556E+01  8.176717E+05 -1.088419E+04 -1.030875E+03
      5724   1  1.030597E+07  7.168361E+02  2.189522E+02  7.853647E+05 -9.832722E+03  1.596205E+02
      5725   1  1.030604E+07  2.393939E+02  8.912651E+02  7.671563E+05 -5.811706E+03 -1.562545E+02
      5726   1  1.030596E+07  3.502069E+02  5.593208E+02  7.612530E+05 -4.964465E-04  1.127325E-05
      5727   1  1.030604E+07  2.393939E+02  8.912651E+02  7.671563E+05  5.811705E+03  1.562545E+02
      5728   1  1.030597E+07  7.168361E+02  2.189522E+02  7.853647E+05  9.832721E+03 -1.596205E+02
      5729   1  1.030566E+07  1.332325E+01 -4.046554E+01  8.176716E+05  1.088419E+04  1.030875E+03
      5730   1  1.030588E+07 -5.229230E+01  7.359986E+02  8.659393E+05  8.493948E+03 -4.347618E+01
      5731   1  1.030488E+07 -1.095797E+03 -1.293979E+03  9.329143E+05  3.075284E+03  5.407839E+02
      5732   1  5.152854E+06 -4.977234E+02  5.578781E+02  1.032769E+06 -1.354242E+03 -7.152499E+01
      5733   1  5.152639E+06 -2.197017E+02 -3.557192E+02  9.644275E+05 -3.496044E+03 -1.046202E+03
      5734   1  5.152959E+06  2.320558E+02  1.477663E+02  9.135281E+05 -4.584786E+03 -7.279241E+01
      5735   1  5.152928E+06  9.354052E+01  2.054171E+02  8.788896E+05 -4.176541E+03 -8.130694E+02
      5736   1  5.152979E+06  3.267915E+02  1.137091E+02  8.587676E+05 -2.459723E+03  1.400391E+01
      5737   1  5.153023E+06  1.281160E+02  4.580323E+02  8.522427E+05 -2.406829E-04 -1.136132E-05
      5738   1  5.152979E+06  3.267915E+02  1.137091E+02  8.587676E+05  2.459723E+03 -1.400390E+01
      5739   1  5.152928E+06  9.354052E+01  2.054171E+02  8.788896E+05  4.176541E+03  8.130693E+02
      5740   1  5.152959E+06  2.320558E+02  1.477663E+02  9.135281E+05  4.584786E+03  7.279240E+01
      5741   1  5.152639E+06 -2.197017E+02 -3.557192E+02  9.644275E+05  3.496044E+03  1.046202E+03
      5742   1  5.152854E+06 -4.977234E+02  5.578781E+02  1.032769E+06  1.354242E+03  7.152499E+01
      5743   1  5.639408E-03 -1.459767E-05 -2.276779E-05  1.065912E+06 -2.634718E-08 -4.202911E+02
      5744   1  5.633802E-03 -1.755087E-05 -5.503834E-06  9.970618E+05 -3.381846E-06 -1.769237E+02
      5745   1  5.631200E-03 -4.656688E-05 -2.827454E-05  9.455723E+05 -4.263942E-06 -1.118647E+03
      5746   1  5.626462E-03 -6.019502E-05 -1.258227E-05  9.100681E+05 -4.358163E-06 -6.862804E+01
      5747   1  5.620206E-03 -8.161359E-05 -4.326433E-05  8.894855E+05 -3.389230E-06 -4.647418E+02
      5748   1  5.623680E-03 -7.348238E-05 -1.473971E-05  8.826899E+05  4.083981E-07  6.041396E-06
      5749   1  5.618620E-03 -8.076854E-05 -4.206150E-05  8.894855E+05  2.609307E-06  4.647417E+02
      5750   1  5.619556E-03 -6.829401E-05 -1.476349E-05  9.100681E+05  4.164259E-06  6.862804E+01
      5751   1  5.619568E-03 -6.407093E-05 -3.509554E-05  9.455723E+05  5.470094E-06  1.118647E+03
      5752   1  5.622348E-03 -3.242270E-05 -1.188634E-05  9.970618E+05  3.115476E-06  1.769238E+02
      5753   1  5.620026E-03 -4.069064E-05 -3.314688E-05  1.065912E+06  7.811427E-07  4.202911E+02
      5754   1 -5.152854E+06  4.977234E+02 -5.578782E+02  1.032769E+06  1.354242E+03 -7.152500E+01
      5755   1 -5.152639E+06  2.197018E+02  3.557193E+02  9.644275E+05  3.496044E+03 -1.046202E+03
      5756   1 -5.152959E+06 -2.320557E+02 -1.477663E+02  9.135281E+05  4.584786E+03 -7.279240E+01
      5757   1 -5.152928E+06 -9.354037E+01 -2.054170E+02  8.788896E+05  4.176541E+03 -8.130694E+02
      5758   1 -5.152979E+06 -3.267914E+02 -1.137090E+02  8.587676E+05  2.459723E+03  1.400391E+01
      5759   1 -5.153023E+06 -1.281159E+02 -4.580322E+02  8.522427E+05  2.403857E-04 -1.252543E-05
      5760   1 -5.152979E+06 -3.267914E+02 -1.137090E+02  8.587676E+05 -2.459723E+03 -1.400389E+01
      5761   1 -5.152928E+06 -9.354035E+01 -2.054170E+02  8.788896E+05 -4.176541E+03  8.130693E+02
      5762   1 -5.152959E+06 -2.320557E+02 -1.477663E+02  9.135281E+05 -4.584786E+03  7.279240E+01
      5763   1 -5.152639E+06  2.197018E+02  3.557193E+02  9.644275E+05 -3.496044E+03  1.046202E+03
      5764   1 -5.152854E+06  4.977235E+02 -5.578782E+02  1.032769E+06 -1.354242E+03  7.152500E+01
      5765   1 -1.030488E+07  1.095797E+03  1.293979E+03  9.329143E+05  3.075285E+03 -5.407839E+02
      5766   1 -1.030588E+07  5.229226E+01 -7.359985E+02  8.659393E+05  8.493948E+03  4.347618E+01
      5767   1 -1.030566E+07 -1.332339E+01  4.046544E+01  8.176717E+05  1.088419E+04 -1.030875E+03
      5768   1 -1.030597E+07 -7.168362E+02 -2.189521E+02  7.853647E+05  9.832722E+03  1.596205E+02
      5769   1 -1.030604E+07 -2.393941E+02 -8.912652E+02  7.671563E+05  5.811706E+03 -1.562545E+02
      5770   1 -1.030596E+07 -3.502070E+02 -5.593207E+02  7.612530E+05  4.957108E-04  9.222227E-06
      5771   1 -1.030604E+07 -2.393941E+02 -8.912652E+02  7.671563E+05 -5.811705E+03  1.562545E+02
      5772   1 -1.030597E+07 -7.168362E+02 -2.189521E+02  7.853647E+05 -9.832721E+03 -1.596205E+02
      5773   1 -1.030566E+07 -1.332339E+01  4.046542E+01  8.176717E+05 -1.088419E+04  1.030875E+03
      5774   1 -1.030588E+07  5.229223E+01 -7.359985E+02  8.659393E+05 -8.493948E+03 -4.347619E+01
      5775   1 -1.030488E+07  1.095797E+03  1.293979E+03  9.329143E+05 -3.075284E+03  5.407839E+02
      5776   1 -1.545874E+07  1.517026E+03 -2.229441E+03  7.642277E+05  6.641985E+03  1.357564E+02
      5777   1 -1.545800E+07  4.884391E+02  9.781684E+02  7.010097E+05  1.675568E+04 -1.358864E+03
      5778   1 -1.545899E+07 -1.199609E+03 -2.696075E+02  6.575688E+05  2.136751E+04  5.385546E+02
      5779   1 -1.545907E+07 -3.744187E+02 -1.405348E+03  6.307049E+05  1.907157E+04  1.444050E+02
      5780   1 -1.545892E+07 -2.231120E+02 -1.065608E+03  6.158937E+05  1.089071E+04  1.171334E+02
      5781   1 -1.545916E+07 -4.105949E+02 -1.628992E+03  6.110968E+05  7.867763E-04 -1.786718E-05
      5782   1 -1.545892E+07 -2.231120E+02 -1.065608E+03  6.158937E+05 -1.089071E+04 -1.171334E+02
      5783   1 -1.545907E+07 -3.744187E+02 -1.405348E+03  6.307049E+05 -1.907157E+04 -1.444050E+02
      5784   1 -1.545899E+07 -1.199609E+03 -2.696075E+02  6.575688E+05 -2.136750E+04 -5.385546E+02
      5785   1 -1.545800E+07  4.884391E+02  9.781684E+02  7.010097E+05 -1.675568E+04  1.358864E+03
      5786   1 -1.545874E+07  1.517026E+03 -2.229441E+03  7.642277E+05 -6.641985E+03 -1.357564E+02
      5787   1 -2.060911E+07  2.642024E+03  4.095100E+03  5.227694E+05  1.217231E+04 -1.274598E+03
      5788   1 -2.061220E+07 -1.619881E+03 -1.070790E+03  4.661101E+05  3.333793E+04  1.242324E+03
      5789   1 -2.061230E+07 -6.537259E+02 -2.286352E+03  4.350906E+05  4.075484E+04  8.880851E+02
      5790   1 -2.061192E+07  8.618007E+01 -1.923549E+03  4.171031E+05  3.372474E+04  2.609487E+02
      5791   1 -2.061227E+07 -5.921614E+02 -2.240539E+03  4.071876E+05  1.884656E+04  2.177073E+02
      5792   1 -2.061188E+07  2.875977E+02 -1.987611E+03  4.041609E+05  1.122924E-03  3.323534E-06
      5793   1 -2.061227E+07 -5.921614E+02 -2.240539E+03  4.071876E+05 -1.884655E+04 -2.177073E+02
      5794   1 -2.061192E+07  8.618007E+01 -1.923549E+03  4.171031E+05 -3.372474E+04 -2.609487E+02
      5795   1 -2.061230E+07 -6.537258E+02 -2.286352E+03  4.350906E+05 -4.075484E+04 -8.880851E+02
      5796   1 -2.061220E+07 -1.619881E+03 -1.070790E+03  4.661101E+05 -3.333792E+04 -1.242324E+03
      5797   1 -2.060911E+07  2.642024E+03  4.095100E+03  5.227694E+05 -1.217231E+04  1.274598E+03
      5798   1 -2.576616E+07  1.825777E+03 -7.851396E+03  1.920002E+05  3.281536E+04  1.960917E+03
      5799   1 -2.576663E+07 -2.340999E+03 -5.201074E+03  1.649976E+05  7.094689E+04  1.207963E+03
      5800   1 -2.576493E+07  1.218401E+03 -3.522678E+03  1.546707E+05  7.223655E+04  2.361846E+02
      5801   1 -2.576555E+07 -1.078597E+03 -3.179396E+03  1.478533E+05  5.633020E+04  2.824958E+02
      5802   1 -2.576480E+07  7.844255E+02 -2.719176E+03  1.445897E+05  3.040056E+04  3.973219E+01
      5803   1 -2.576534E+07 -8.084665E+02 -2.806480E+03  1.433910E+05  1.518639E-03 -2.606008E-06
      5804   1 -2.576480E+07  7.844255E+02 -2.719176E+03  1.445897E+05 -3.040055E+04 -3.973219E+01
      5805   1 -2.576555E+07 -1.078597E+03 -3.179396E+03  1.478533E+05 -5.633020E+04 -2.824958E+02
      5806   1 -2.576493E+07  1.218401E+03 -3.522678E+03  1.546707E+05 -7.223654E+04 -2.361846E+02
      5807   1 -2.576663E+07 -2.340999E+03 -5.201074E+03  1.649976E+05 -7.094689E+04 -1.207963E+03
      5808   1 -2.576616E+07  1.825777E+03 -7.851396E+03  1.920002E+05 -3.281536E+04 -1.960917E+03
      5809   1  2.544806E+07 -1.779824E+03  7.817983E+03  1.920018E+05 -3.281565E+04  1.937544E+03
      5810   1  2.544852E+07  2.288658E+03  5.075113E+03  1.649966E+05 -7.094617E+04  1.192556E+03
      5811   1  2.544685E+07 -1.181029E+03  3.539473E+03  1.546713E+05 -7.223739E+04  2.335912E+02
      5812   1  2.544745E+07  1.041073E+03  3.079893E+03  1.478527E+05 -5.632950E+04  2.788154E+02
      5813   1  2.544673E+07 -7.517483E+02  2.745137E+03  1.445901E+05 -3.040095E+04  3.933241E+01
      5814   1  2.544724E+07  7.739493E+02  2.711903E+03  1.433905E+05 -1.519030E-03 -1.140552E-06
      5815   1  2.544673E+07 -7.517483E+02  2.745137E+03  1.445901E+05  3.040094E+04 -3.933241E+01
      5816   1  2.544745E+07  1.041073E+03  3.079893E+03  1.478527E+05  5.632950E+04 -2.788154E+02
      5817   1  2.544685E+07 -1.181029E+03  3.539473E+03  1.546713E+05  7.223739E+04 -2.335912E+02
      5818   1  2.544852E+07  2.288658E+03  5.075113E+03  1.649966E+05  7.094617E+04 -1.192556E+03
      5819   1  2.544806E+07 -1.779824E+03  7.817983E+03  1.920018E+05  3.281565E+04 -1.937544E+03
      5820   1  2.035468E+07 -2.591780E+03 -3.989789E+03  5.227682E+05 -1.217269E+04 -1.259073E+03
      5821   1  2.035773E+07  1.581000E+03  1.003865E+03  4.661107E+05 -3.333715E+04  1.226993E+03
      5822   1  2.035784E+07  6.665445E+02  2.311586E+03  4.350906E+05 -4.075566E+04  8.771367E+02
      5823   1  2.035745E+07 -1.050484E+02  1.847160E+03  4.171034E+05 -3.372408E+04  2.577092E+02
      5824   1  2.035781E+07  6.063505E+02  2.265744E+03  4.071878E+05 -1.884692E+04  2.150306E+02
      5825   1  2.035740E+07 -3.042932E+02  1.910682E+03  4.041611E+05 -1.123192E-03  1.511865E-06
      5826   1  2.035781E+07  6.063505E+02  2.265744E+03  4.071878E+05  1.884691E+04 -2.150306E+02
      5827   1  2.035745E+07 -1.050484E+02  1.847160E+03  4.171034E+05  3.372408E+04 -2.577091E+02
      5828   1  2.035784E+07  6.665445E+02  2.311586E+03  4.350906E+05  4.075565E+04 -8.771367E+02
      5829   1  2.035773E+07  1.581000E+03  1.003865E+03  4.661107E+05  3.333715E+04 -1.226993E+03
      5830   1  2.035468E+07 -2.591780E+03 -3.989789E+03  5.227682E+05  1.217269E+04  1.259073E+03
      5831   1  1.526789E+07 -1.482697E+03  2.245508E+03  7.642283E+05 -6.642163E+03  1.341916E+02
      5832   1  1.526716E+07 -4.982030E+02 -1.008503E+03  7.010096E+05 -1.675516E+04 -1.342035E+03
      5833   1  1.526814E+07  1.199896E+03  3.077032E+02  6.575683E+05 -2.136811E+04  5.318699E+02
      5834   1  1.526821E+07  3.532566E+02  1.346566E+03  6.307048E+05 -1.907107E+04  1.426480E+02
      5835   1  1.526808E+07  2.360022E+02  1.093390E+03  6.158932E+05 -1.089098E+04  1.156751E+02
      5836   1  1.526830E+07  3.887215E+02  1.567654E+03  6.110966E+05 -7.868567E-04 -1.699603E-05
      5837   1  1.526808E+07  2.360022E+02  1.093390E+03  6.158932E+05  1.089098E+04 -1.156751E+02
      5838   1  1.526821E+07  3.532565E+02  1.346566E+03  6.307048E+05  1.907107E+04 -1.426481E+02
      5839   1  1.526814E+07  1.199896E+03  3.077032E+02  6.575683E+05  2.136811E+04 -5.318700E+02
      5840   1  1.526716E+07 -4.982030E+02 -1.008503E+03  7.010096E+05  1.675516E+04  1.342035E+03
      5841   1  1.526789E+07 -1.482697E+03  2.245508E+03  7.642283E+05  6.642163E+03 -1.341916E+02
      5842   1  1.017766E+07 -1.072773E+03 -1.248989E+03  9.329134E+05 -3.075472E+03 -5.341949E+02
      5843   1  1.017865E+07 -6.169699E+01  6.984679E+02  8.659397E+05 -8.493568E+03  4.290248E+01
      5844   1  1.017843E+07  2.425747E+01 -1.165684E+01  8.176719E+05 -1.088459E+04 -1.018143E+03
      5845   1  1.017873E+07  6.974949E+02  1.884036E+02  7.853652E+05 -9.832396E+03  1.576525E+02
      5846   1  1.017881E+07  2.478150E+02  9.082308E+02  7.671565E+05 -5.811886E+03 -1.543276E+02
      5847   1  1.017872E+07  3.352433E+02  5.247164E+02  7.612535E+05 -4.962576E-04  8.514308E-06
      5848   1  1.017881E+07  2.478150E+02  9.082308E+02  7.671565E+05  5.811885E+03  1.543276E+02
      5849   1  1.017873E+07  6.974949E+02  1.884036E+02  7.853652E+05  9.832395E+03 -1.576525E+02
      5850   1  1.017843E+07  2.425746E+01 -1.165682E+01  8.176719E+05  1.088459E+04  1.018143E+03
      5851   1  1.017865E+07 -6.169697E+01  6.984679E+02  8.659397E+05  8.493567E+03 -4.290248E+01
      5852   1  1.017766E+07 -1.072773E+03 -1.248989E+03  9.329134E+05  3.075472E+03  5.341949E+02
      5853   1  5.089240E+06 -4.863207E+02  5.658085E+02  1.032769E+06 -1.354305E+03 -7.057543E+01
      5854   1  5.089024E+06 -2.223477E+02 -3.657514E+02  9.644275E+05 -3.495864E+03 -1.033230E+03
      5855   1  5.089344E+06  2.343066E+02  1.600303E+02  9.135275E+05 -4.584995E+03 -7.191172E+01
      5856   1  5.089309E+06  8.674358E+01  1.887787E+02  8.788893E+05 -4.176370E+03 -8.030214E+02
      5857   1  5.089364E+06  3.280677E+02  1.262349E+02  8.587670E+05 -2.459818E+03  1.382745E+01
      5858   1  5.089402E+06  1.207998E+02  4.383419E+02  8.522424E+05 -2.391484E-04 -1.487988E-05
      5859   1  5.089364E+06  3.280677E+02  1.262349E+02  8.587670E+05  2.459817E+03 -1.382744E+01
      5860   1  5.089309E+06  8.674357E+01  1.887787E+02  8.788893E+05  4.176370E+03  8.030214E+02
      5861   1  5.089344E+06  2.343066E+02  1.600303E+02  9.135275E+05  4.584995E+03  7.191170E+01
      5862   1  5.089024E+06 -2.223477E+02 -3.657514E+02  9.644275E+05  3.495864E+03  1.033230E+03
      5863   1  5.089240E+06 -4.863207E+02  5.658085E+02  1.032769E+06  1.354305E+03  7.057543E+01
      5864   1  5.569242E-03  7.918082E-06  1.259611E-05  1.065912E+06 -1.296005E-06 -4.151721E+02
      5865   1  5.575155E-03  3.004328E-05 -1.605645E-05  9.970622E+05 -3.908076E-06 -1.747757E+02
      5866   1  5.581930E-03  5.624760E-05  4.112151E-05  9.455726E+05 -6.053655E-06 -1.104840E+03
      5867   1  5.581094E-03  7.254194E-05  1.185248E-05  9.100687E+05 -4.506483E-06 -6.777126E+01
      5868   1  5.588980E-03  9.678879E-05  5.462672E-05  8.894858E+05 -2.181400E-06 -4.590096E+02
      5869   1  5.579699E-03  8.492812E-05  2.060728E-05  8.826905E+05  5.742549E-08  6.166054E-06
      5870   1  5.584673E-03  9.871819E-05  5.374185E-05  8.894858E+05  1.907563E-06  4.590096E+02
      5871   1  5.575369E-03  6.656663E-05  1.345263E-05  9.100687E+05  4.789882E-06  6.777126E+01
      5872   1  5.579808E-03  7.523399E-05  4.705347E-05  9.455726E+05  5.090445E-06  1.104840E+03
      5873   1  5.567807E-03  5.339476E-05 -7.860437E-06  9.970622E+05  3.902102E-06  1.747757E+02
      5874   1  5.560551E-03  3.506825E-05  2.481470E-05  1.065912E+06  1.076802E-06  4.151721E+02
      5875   1 -5.089240E+06  4.863207E+02 -5.658085E+02  1.032769E+06  1.354305E+03 -7.057544E+01
      5876   1 -5.089024E+06  2.223476E+02  3.657514E+02  9.644275E+05  3.495864E+03 -1.033230E+03
      5877   1 -5.089344E+06 -2.343067E+02 -1.600303E+02  9.135275E+05  4.584995E+03 -7.191171E+01
      5878   1 -5.089309E+06 -8.674376E+01 -1.887788E+02  8.788893E+05  4.176370E+03 -8.030214E+02
      5879   1 -5.089364E+06 -3.280679E+02 -1.262349E+02  8.587670E+05  2.459818E+03  1.382745E+01
      5880   1 -5.089402E+06 -1.208000E+02 -4.383420E+02  8.522424E+05  2.404395E-04 -1.013310E-05
      5881   1 -5.089364E+06 -3.280679E+02 -1.262349E+02  8.587670E+05 -2.459817E+03 -1.382745E+01
      5882   1 -5.089309E+06 -8.674375E+01 -1.887788E+02  8.788893E+05 -4.176370E+03  8.030214E+02
      5883   1 -5.089344E+06 -2.343067E+02 -1.600303E+02  9.135275E+05 -4.584995E+03  7.191170E+01
      5884   1 -5.089024E+06  2.223476E+02  3.657514E+02  9.644275E+05 -3.495864E+03  1.033230E+03
      5885   1 -5.089240E+06  4.863207E+02 -5.658085E+02  1.032769E+06 -1.354305E+03  7.057544E+01
      5886   1 -1.017766E+07  1.072774E+03  1.248989E+03  9.329134E+05  3.075472E+03 -5.341949E+02
      5887   1 -1.017865E+07  6.169701E+01 -6.984680E+02  8.659397E+05  8.493568E+03  4.290248E+01
      5888   1 -1.017843E+07 -2.425731E+01  1.165699E+01  8.176719E+05  1.088459E+04 -1.018143E+03
      5889   1 -1.017873E+07 -6.974948E+02 -1.884037E+02  7.853652E+05  9.832396E+03  1.576525E+02
      5890   1 -1.017881E+07 -2.478148E+02 -9.082306E+02  7.671565E+05  5.811886E+03 -1.543276E+02
      5891   1 -1.017872E+07 -3.352431E+02 -5.247164E+02  7.612535E+05  4.956416E-04  8.615105E-06
      5892   1 -1.017881E+07 -2.478148E+02 -9.082306E+02  7.671565E+05 -5.811885E+03  1.543276E+02
      5893   1 -1.017873E+07 -6.974948E+02 -1.884037E+02  7.853652E+05 -9.832395E+03 -1.576525E+02
      5894   1 -1.017843E+07 -2.425728E+01  1.165698E+01  8.176719E+05 -1.088459E+04  1.018143E+03
      5895   1 -1.017865E+07  6.169701E+01 -6.984680E+02  8.659397E+05 -8.493567E+03 -4.290249E+01
      5896   1 -1.017766E+07  1.072774E+03  1.248989E+03  9.329134E+05 -3.075472E+03  5.341949E+02
      5897   1 -1.526789E+07  1.482698E+03 -2.245508E+03  7.642283E+05  6.642163E+03  1.341916E+02
      5898   1 -1.526716E+07  4.982029E+02  1.008503E+03  7.010096E+05  1.675516E+04 -1.342035E+03
      5899   1 -1.526814E+07 -1.199896E+03 -3.077031E+02  6.575683E+05  2.136811E+04  5.318699E+02
      5900   1 -1.526821E+07 -3.532568E+02 -1.346566E+03  6.307048E+05  1.907107E+04  1.426480E+02
      5901   1 -1.526808E+07 -2.360023E+02 -1.093390E+03  6.158932E+05  1.089098E+04  1.156751E+02
      5902   1 -1.526830E+07 -3.887218E+02 -1.567654E+03  6.110966E+05  7.855789E-04 -1.967243E-05
      5903   1 -1.526808E+07 -2.360023E+02 -1.093390E+03  6.158932E+05 -1.089098E+04 -1.156751E+02
      5904   1 -1.526821E+07 -3.532568E+02 -1.346566E+03  6.307048E+05 -1.907107E+04 -1.426481E+02
      5905   1 -1.526814E+07 -1.199896E+03 -3.077031E+02  6.575683E+05 -2.136811E+04 -5.318700E+02
      5906   1 -1.526716E+07  4.982029E+02  1.008503E+03  7.010096E+05 -1.675516E+04  1.342035E+03
      5907   1 -1.526789E+07  1.482697E+03 -2.245508E+03  7.642283E+05 -6.642163E+03 -1.341916E+02
      5908   1 -2.035468E+07  2.591781E+03  3.989789E+03  5.227682E+05  1.217269E+04 -1.259073E+03
      5909   1 -2.035773E+07 -1.581000E+03 -1.003865E+03  4.661107E+05  3.333715E+04  1.226993E+03
      5910   1 -2.035784E+07 -6.665443E+02 -2.311586E+03  4.350906E+05  4.075566E+04  8.771367E+02
      5911   1 -2.035745E+07  1.050485E+02 -1.847160E+03  4.171034E+05  3.372408E+04  2.577092E+02
      5912   1 -2.035781E+07 -6.063502E+02 -2.265743E+03  4.071878E+05  1.884692E+04  2.150306E+02
      5913   1 -2.035740E+07  3.042933E+02 -1.910682E+03  4.041611E+05  1.122680E-03  1.731826E-06
      5914   1 -2.035781E+07 -6.063502E+02 -2.265743E+03  4.071878E+05 -1.884691E+04 -2.150306E+02
      5915   1 -2.035745E+07  1.050485E+02 -1.847160E+03  4.171034E+05 -3.372408E+04 -2.577091E+02
      5916   1 -2.035784E+07 -6.665443E+02 -2.311586E+03  4.350906E+05 -4.075565E+04 -8.771367E+02
      5917   1 -2.035773E+07 -1.581000E+03 -1.003865E+03  4.661107E+05 -3.333715E+04 -1.226993E+03
      5918   1 -2.035468E+07  2.591781E+03  3.989789E+03  5.227682E+05 -1.217269E+04  1.259073E+03
      5919   1 -2.544806E+07  1.779824E+03 -7.817983E+03  1.920018E+05  3.281565E+04  1.937544E+03
      5920   1 -2.544852E+07 -2.288658E+03 -5.075114E+03  1.649966E+05  7.094617E+04  1.192556E+03
      5921   1 -2.544685E+07  1.181029E+03 -3.539473E+03  1.546713E+05  7.223739E+04  2.335912E+02
      5922   1 -2.544745E+07 -1.041073E+03 -3.079894E+03  1.478527E+05  5.632950E+04  2.788154E+02
      5923   1 -2.544673E+07  7.517482E+02 -2.745137E+03  1.445901E+05  3.040095E+04  3.933241E+01
      5924   1 -2.544724E+07 -7.739497E+02 -2.711903E+03  1.433905E+05  1.518662E-03 -5.259272E-06
      5925   1 -2.544673E+07  7.517482E+02 -2.745137E+03  1.445901E+05 -3.040094E+04 -3.933240E+01
      5926   1 -2.544745E+07 -1.041073E+03 -3.079894E+03  1.478527E+05 -5.632950E+04 -2.788154E+02
      5927   1 -2.544685E+07  1.181029E+03 -3.539473E+03  1.546713E+05 -7.223739E+04 -2.335912E+02
      5928   1 -2.544852E+07 -2.288658E+03 -5.075114E+03  1.649966E+05 -7.094617E+04 -1.192556E+03
      5929   1 -2.544806E+07  1.779824E+03 -7.817983E+03  1.920018E+05 -3.281565E+04 -1.937544E+03
      5930   1  2.512996E+07 -1.776742E+03  7.668407E+03  1.920005E+05 -3.281541E+04  1.912643E+03
      5931   1  2.513042E+07  2.279111E+03  5.062040E+03  1.649974E+05 -7.094676E+04  1.178052E+03
      5932   1  2.512876E+07 -1.184553E+03  3.446018E+03  1.546708E+05 -7.223670E+04  2.304085E+02
      5933   1  2.512936E+07  1.047745E+03  3.090536E+03  1.478532E+05 -5.633007E+04  2.754876E+02
      5934   1  2.512864E+07 -7.611801E+02  2.662226E+03  1.445898E+05 -3.040063E+04  3.876687E+01
      5935   1  2.512916E+07  7.842271E+02  2.726882E+03  1.433909E+05 -1.517999E-03 -5.195878E-06
      5936   1  2.512864E+07 -7.611801E+02  2.662226E+03  1.445898E+05  3.040063E+04 -3.876686E+01
      5937   1  2.512936E+07  1.047745E+03  3.090536E+03  1.478532E+05  5.633007E+04 -2.754876E+02
      5938   1  2.512876E+07 -1.184553E+03  3.446017E+03  1.546708E+05  7.223670E+04 -2.304085E+02
      5939   1  2.513042E+07  2.279111E+03  5.062040E+03  1.649974E+05  7.094675E+04 -1.178052E+03
      5940   1  2.512996E+07 -1.776742E+03  7.668407E+03  1.920005E+05  3.281541E+04 -1.912643E+03
      5941   1  2.010025E+07 -2.573727E+03 -3.984615E+03  5.227692E+05 -1.217237E+04 -1.243163E+03
      5942   1  2.010326E+07  1.576714E+03  1.035195E+03  4.661102E+05 -3.333778E+04  1.211651E+03
      5943   1  2.010336E+07  6.412103E+02  2.239051E+03  4.350906E+05 -4.075499E+04  8.661603E+02
      5944   1  2.010299E+07 -8.739941E+01  1.867081E+03  4.171032E+05 -3.372462E+04  2.545030E+02
      5945   1  2.010332E+07  5.812711E+02  2.194268E+03  4.071876E+05 -1.884662E+04  2.123340E+02
      5946   1  2.010294E+07 -2.838965E+02  1.929604E+03  4.041609E+05 -1.121655E-03 -8.863085E-07
      5947   1  2.010332E+07  5.812711E+02  2.194268E+03  4.071876E+05  1.884662E+04 -2.123340E+02
      5948   1  2.010299E+07 -8.739942E+01  1.867081E+03  4.171032E+05  3.372461E+04 -2.545030E+02
      5949   1  2.010336E+07  6.412103E+02  2.239051E+03  4.350906E+05  4.075499E+04 -8.661603E+02
      5950   1  2.010326E+07  1.576714E+03  1.035194E+03  4.661102E+05  3.333778E+04 -1.211651E+03
      5951   1  2.010025E+07 -2.573727E+03 -3.984615E+03  5.227692E+05  1.217237E+04  1.243163E+03
      5952   1  1.507704E+07 -1.476956E+03  2.181789E+03  7.642278E+05 -6.642018E+03  1.324241E+02
      5953   1  1.507632E+07 -4.791062E+02 -9.612390E+02  7.010097E+05 -1.675558E+04 -1.325302E+03
      5954   1  1.507728E+07  1.172509E+03  2.699765E+02  6.575687E+05 -2.136761E+04  5.252518E+02
      5955   1  1.507737E+07  3.623182E+02  1.363591E+03  6.307049E+05 -1.907148E+04  1.408447E+02
      5956   1  1.507722E+07  2.202163E+02  1.046240E+03  6.158936E+05 -1.089076E+04  1.142396E+02
      5957   1  1.507745E+07  3.975556E+02  1.581748E+03  6.110967E+05 -7.858531E-04 -1.697202E-05
      5958   1  1.507722E+07  2.202163E+02  1.046240E+03  6.158936E+05  1.089076E+04 -1.142396E+02
      5959   1  1.507737E+07  3.623182E+02  1.363591E+03  6.307049E+05  1.907148E+04 -1.408447E+02
      5960   1  1.507728E+07  1.172510E+03  2.699765E+02  6.575687E+05  2.136761E+04 -5.252518E+02
      5961   1  1.507632E+07 -4.791062E+02 -9.612390E+02  7.010097E+05  1.675558E+04  1.325302E+03
      5962   1  1.507704E+07 -1.476955E+03  2.181789E+03  7.642278E+05  6.642018E+03 -1.324241E+02
      5963   1  1.005044E+07 -1.067105E+03 -1.257102E+03  9.329142E+05 -3.075318E+03 -5.274463E+02
      5964   1  1.005142E+07 -5.267560E+01  7.130146E+02  8.659394E+05 -8.493878E+03  4.239712E+01
      5965   1  1.005120E+07  1.490564E+01 -3.465734E+01  8.176717E+05 -1.088426E+04 -1.005420E+03
      5966   1  1.005150E+07  6.973886E+02  2.088367E+02  7.853648E+05 -9.832662E+03  1.556807E+02
      5967   1  1.005157E+07  2.354418E+02  8.740103E+02  7.671563E+05 -5.811738E+03 -1.523962E+02
      5968   1  1.005149E+07  3.397872E+02  5.408262E+02  7.612531E+05 -4.956357E-04  6.502137E-06
      5969   1  1.005157E+07  2.354418E+02  8.740103E+02  7.671563E+05  5.811737E+03  1.523962E+02
      5970   1  1.005150E+07  6.973886E+02  2.088367E+02  7.853648E+05  9.832661E+03 -1.556807E+02
      5971   1  1.005120E+07  1.490561E+01 -3.465733E+01  8.176717E+05  1.088426E+04  1.005420E+03
      5972   1  1.005142E+07 -5.267562E+01  7.130146E+02  8.659394E+05  8.493878E+03 -4.239713E+01
      5973   1  1.005044E+07 -1.067105E+03 -1.257102E+03  9.329142E+05  3.075318E+03  5.274463E+02
      5974   1  5.025624E+06 -4.845561E+02  5.466097E+02  1.032769E+06 -1.354254E+03 -6.974653E+01
      5975   1  5.025413E+06 -2.151998E+02 -3.493851E+02  9.644275E+05 -3.496011E+03 -1.020359E+03
      5976   1  5.025726E+06  2.271772E+02  1.464998E+02  9.135280E+05 -4.584824E+03 -7.099678E+01
      5977   1  5.025694E+06  9.025922E+01  1.979504E+02  8.788895E+05 -4.176510E+03 -7.929907E+02
      5978   1  5.025745E+06  3.196067E+02  1.132567E+02  8.587675E+05 -2.459740E+03  1.365817E+01
      5979   1  5.025787E+06  1.239652E+02  4.443395E+02  8.522426E+05 -2.399460E-04 -1.674270E-05
      5980   1  5.025745E+06  3.196067E+02  1.132567E+02  8.587675E+05  2.459740E+03 -1.365816E+01
      5981   1  5.025694E+06  9.025922E+01  1.979504E+02  8.788895E+05  4.176509E+03  7.929907E+02
      5982   1  5.025726E+06  2.271773E+02  1.464998E+02  9.135280E+05  4.584823E+03  7.099677E+01
      5983   1  5.025413E+06 -2.151998E+02 -3.493850E+02  9.644275E+05  3.496011E+03  1.020359E+03
      5984   1  5.025624E+06 -4.845561E+02  5.466097E+02  1.032769E+06  1.354254E+03  6.974653E+01
      5985   1  5.498652E-03 -2.324099E-05 -3.257788E-05  1.065912E+06 -1.719789E-06 -4.099256E+02
      5986   1  5.494123E-03 -2.682264E-05 -5.049082E-06  9.970619E+05 -3.852128E-06 -1.725606E+02
      5987   1  5.483979E-03 -7.879996E-05 -4.570010E-05  9.455724E+05 -5.051036E-06 -1.091026E+03
      5988   1  5.482310E-03 -9.150482E-05 -1.850377E-05  9.100682E+05 -3.871320E-06 -6.693075E+01
      5989   1  5.471624E-03 -1.226419E-04 -6.463980E-05  8.894856E+05 -2.402737E-06 -4.532669E+02
      5990   1  5.476920E-03 -1.110803E-04 -2.606954E-05  8.826901E+05 -1.047613E-06  3.249330E-06
      5991   1  5.471712E-03 -1.214018E-04 -6.391311E-05  8.894856E+05  3.521517E-06  4.532669E+02
      5992   1  5.474884E-03 -9.866229E-05 -1.952044E-05  9.100682E+05  3.382403E-06  6.693075E+01
      5993   1  5.476196E-03 -8.428904E-05 -4.866310E-05  9.455724E+05  3.968572E-06  1.091026E+03
      5994   1  5.475730E-03 -5.596687E-05 -1.756783E-05  9.970619E+05  3.021233E-06  1.725606E+02
      5995   1  5.476902E-03 -5.774431E-05 -4.546911E-05  1.065912E+06  1.726342E-06  4.099256E+02
      5996   1 -5.025624E+06  4.845561E+02 -5.466098E+02  1.032769E+06  1.354254E+03 -6.974653E+01
      5997   1 -5.025413E+06  2.152000E+02  3.493852E+02  9.644275E+05  3.496011E+03 -1.020359E+03
      5998   1 -5.025726E+06 -2.271771E+02 -1.464998E+02  9.135280E+05  4.584824E+03 -7.099678E+01
      5999   1 -5.025694E+06 -9.025900E+01 -1.979503E+02  8.788895E+05  4.176510E+03 -7.929907E+02
      6000   1 -5.025745E+06 -3.196065E+02 -1.132567E+02  8.587675E+05  2.459740E+03  1.365817E+01
      6001   1 -5.025787E+06 -1.239649E+02 -4.443393E+02  8.522426E+05  2.387419E-04 -1.438521E-05
      6002   1 -5.025745E+06 -3.196065E+02 -1.132567E+02  8.587675E+05 -2.459740E+03 -1.365817E+01
      6003   1 -5.025694E+06 -9.025898E+01 -1.979503E+02  8.788895E+05 -4.176509E+03  7.929907E+02
      6004   1 -5.025726E+06 -2.271771E+02 -1.464998E+02  9.135280E+05 -4.584823E+03  7.099676E+01
      6005   1 -5.025413E+06  2.152000E+02  3.493852E+02  9.644275E+05 -3.496011E+03  1.020359E+03
      6006   1 -5.025624E+06  4.845561E+02 -5.466098E+02  1.032769E+06 -1.354254E+03  6.974653E+01
      6007   1 -1.005044E+07  1.067105E+03  1.257102E+03  9.329142E+05  3.075318E+03 -5.274463E+02
      6008   1 -1.005142E+07  5.267556E+01 -7.130145E+02  8.659394E+05  8.493878E+03  4.239712E+01
      6009   1 -1.005120E+07 -1.490583E+01  3.465717E+01  8.176717E+05  1.088426E+04 -1.005420E+03
      6010   1 -1.005150E+07 -6.973888E+02 -2.088367E+02  7.853648E+05  9.832662E+03  1.556807E+02
      6011   1 -1.005157E+07 -2.354421E+02 -8.740105E+02  7.671563E+05  5.811738E+03 -1.523962E+02
      6012   1 -1.005149E+07 -3.397874E+02 -5.408262E+02  7.612531E+05  4.951686E-04  7.691550E-06
      6013   1 -1.005157E+07 -2.354420E+02 -8.740105E+02  7.671563E+05 -5.811737E+03  1.523962E+02
      6014   1 -1.005150E+07 -6.973888E+02 -2.088367E+02  7.853648E+05 -9.832661E+03 -1.556807E+02
      6015   1 -1.005120E+07 -1.490582E+01  3.465715E+01  8.176717E+05 -1.088426E+04  1.005420E+03
      6016   1 -1.005142E+07  5.267552E+01 -7.130145E+02  8.659394E+05 -8.493878E+03 -4.239713E+01
      6017   1 -1.005044E+07  1.067105E+03  1.257102E+03  9.329142E+05 -3.075318E+03  5.274463E+02
      6018   1 -1.507704E+07  1.476955E+03 -2.181789E+03  7.642278E+05  6.642018E+03  1.324241E+02
      6019   1 -1.507632E+07  4.791064E+02  9.612393E+02  7.010097E+05  1.675558E+04 -1.325302E+03
      6020   1 -1.507728E+07 -1.172509E+03 -2.699767E+02  6.575687E+05  2.136761E+04  5.252518E+02
      6021   1 -1.507737E+07 -3.623179E+02 -1.363591E+03  6.307049E+05  1.907148E+04  1.408447E+02
      6022   1 -1.507722E+07 -2.202161E+02 -1.046240E+03  6.158936E+05  1.089076E+04  1.142396E+02
      6023   1 -1.507745E+07 -3.975553E+02 -1.581748E+03  6.110967E+05  7.847046E-04 -1.777133E-05
      6024   1 -1.507722E+07 -2.202162E+02 -1.046240E+03  6.158936E+05 -1.089076E+04 -1.142396E+02
      6025   1 -1.507737E+07 -3.623179E+02 -1.363591E+03  6.307049E+05 -1.907148E+04 -1.408447E+02
      6026   1 -1.507728E+07 -1.172509E+03 -2.699766E+02  6.575687E+05 -2.136761E+04 -5.252518E+02
      6027   1 -1.507632E+07  4.791064E+02  9.612393E+02  7.010097E+05 -1.675558E+04  1.325302E+03
      6028   1 -1.507704E+07  1.476955E+03 -2.181789E+03  7.642278E+05 -6.642018E+03 -1.324241E+02
      6029   1 -2.010025E+07  2.573727E+03  3.984615E+03  5.227692E+05  1.217237E+04 -1.243163E+03
      6030   1 -2.010326E+07 -1.576714E+03 -1.035194E+03  4.661102E+05  3.333778E+04  1.211651E+03
      6031   1 -2.010336E+07 -6.412106E+02 -2.239052E+03  4.350906E+05  4.075499E+04  8.661603E+02
      6032   1 -2.010299E+07  8.739933E+01 -1.867081E+03  4.171032E+05  3.372462E+04  2.545030E+02
      6033   1 -2.010332E+07 -5.812714E+02 -2.194268E+03  4.071876E+05  1.884662E+04  2.123340E+02
      6034   1 -2.010294E+07  2.838964E+02 -1.929604E+03  4.041609E+05  1.120300E-03 -3.850879E-07
      6035   1 -2.010332E+07 -5.812714E+02 -2.194269E+03  4.071876E+05 -1.884662E+04 -2.123340E+02
      6036   1 -2.010299E+07  8.739933E+01 -1.867081E+03  4.171032E+05 -3.372461E+04 -2.545030E+02
      6037   1 -2.010336E+07 -6.412105E+02 -2.239052E+03  4.350906E+05 -4.075499E+04 -8.661603E+02
      6038   1 -2.010326E+07 -1.576714E+03 -1.035194E+03  4.661102E+05 -3.333778E+04 -1.211651E+03
      6039   1 -2.010025E+07  2.573727E+03  3.984615E+03  5.227692E+05 -1.217237E+04  1.243163E+03
      6040   1 -2.512996E+07  1.776742E+03 -7.668408E+03  1.920005E+05  3.281541E+04  1.912643E+03
      6041   1 -2.513042E+07 -2.279111E+03 -5.062040E+03  1.649974E+05  7.094676E+04  1.178052E+03
      6042   1 -2.512876E+07  1.184553E+03 -3.446018E+03  1.546708E+05  7.223670E+04  2.304085E+02
      6043   1 -2.512936E+07 -1.047744E+03 -3.090535E+03  1.478532E+05  5.633007E+04  2.754876E+02
      6044   1 -2.512864E+07  7.611802E+02 -2.662226E+03  1.445898E+05  3.040063E+04  3.876686E+01
      6045   1 -2.512916E+07 -7.842267E+02 -2.726882E+03  1.433909E+05  1.516282E-03 -2.258636E-06
      6046   1 -2.512864E+07  7.611802E+02 -2.662226E+03  1.445898E+05 -3.040063E+04 -3.876686E+01
      6047   1 -2.512936E+07 -1.047744E+03 -3.090535E+03  1.478532E+05 -5.633007E+04 -2.754876E+02
      6048   1 -2.512876E+07  1.184553E+03 -3.446018E+03  1.546708E+05 -7.223670E+04 -2.304085E+02
      6049   1 -2.513042E+07 -2.279111E+03 -5.062040E+03  1.649974E+05 -7.094675E+04 -1.178052E+03
      6050   1 -2.512996E+07  1.776742E+03 -7.668408E+03  1.920005E+05 -3.281541E+04 -1.912643E+03
      6051   1  2.481186E+07 -1.738565E+03  7.613666E+03  1.920015E+05 -3.281560E+04  1.888988E+03
      6052   1  2.481231E+07  2.234758E+03  4.956883E+03  1.649967E+05 -7.094628E+04  1.162811E+03
      6053   1  2.481068E+07 -1.154585E+03  3.442571E+03  1.546712E+05 -7.223726E+04  2.277065E+02
      6054   1  2.481126E+07  1.018471E+03  3.011335E+03  1.478528E+05 -5.632960E+04  2.718722E+02
      6055   1  2.481056E+07 -7.361291E+02  2.668199E+03  1.445900E+05 -3.040089E+04  3.833650E+01
      6056   1  2.481106E+07  7.580724E+02  2.652500E+03  1.433906E+05 -1.515676E-03 -1.760848E-06
      6057   1  2.481056E+07 -7.361291E+02  2.668199E+03  1.445900E+05  3.040088E+04 -3.833650E+01
      6058   1  2.481126E+07  1.018471E+03  3.011335E+03  1.478528E+05  5.632960E+04 -2.718722E+02
      6059   1  2.481068E+07 -1.154585E+03  3.442571E+03  1.546712E+05  7.223726E+04 -2.277065E+02
      6060   1  2.481231E+07  2.234758E+03  4.956883E+03  1.649967E+05  7.094628E+04 -1.162811E+03
      6061   1  2.481186E+07 -1.738565E+03  7.613666E+03  1.920015E+05  3.281560E+04 -1.888988E+03
      6062   1  1.984582E+07 -2.529473E+03 -3.897687E+03  5.227683E+05 -1.217263E+04 -1.227567E+03
      6063   1  1.984878E+07  1.544074E+03  9.862431E+02  4.661106E+05 -3.333726E+04  1.196317E+03
      6064   1  1.984889E+07  6.469352E+02  2.246333E+03  4.350906E+05 -4.075553E+04  8.552066E+02
      6065   1  1.984851E+07 -9.967802E+01  1.808307E+03  4.171034E+05 -3.372418E+04  2.512694E+02
      6066   1  1.984886E+07  5.881604E+02  2.201720E+03  4.071877E+05 -1.884686E+04  2.096536E+02
      6067   1  1.984847E+07 -2.938984E+02  1.870206E+03  4.041611E+05 -1.120250E-03  5.231989E-07
      6068   1  1.984886E+07  5.881604E+02  2.201720E+03  4.071877E+05  1.884686E+04 -2.096536E+02
      6069   1  1.984851E+07 -9.967801E+01  1.808307E+03  4.171034E+05  3.372418E+04 -2.512693E+02
      6070   1  1.984889E+07  6.469352E+02  2.246333E+03  4.350906E+05  4.075553E+04 -8.552066E+02
      6071   1  1.984878E+07  1.544074E+03  9.862431E+02  4.661106E+05  3.333726E+04 -1.196317E+03
      6072   1  1.984582E+07 -2.529473E+03 -3.897687E+03  5.227683E+05  1.217263E+04  1.227567E+03
      6073   1  1.488619E+07 -1.447773E+03  2.183326E+03  7.642282E+05 -6.642136E+03  1.308212E+02
      6074   1  1.488548E+07 -4.835301E+02 -9.773927E+02  7.010096E+05 -1.675524E+04 -1.308491E+03
      6075   1  1.488644E+07  1.167828E+03  2.942683E+02  6.575683E+05 -2.136802E+04  5.185789E+02
      6076   1  1.488651E+07  3.467474E+02  1.318664E+03  6.307048E+05 -1.907115E+04  1.390789E+02
      6077   1  1.488638E+07  2.279565E+02  1.060381E+03  6.158933E+05 -1.089094E+04  1.127853E+02
      6078   1  1.488659E+07  3.813628E+02  1.534197E+03  6.110967E+05 -7.843548E-04 -1.718937E-05
      6079   1  1.488638E+07  2.279565E+02  1.060381E+03  6.158933E+05  1.089094E+04 -1.127853E+02
      6080   1  1.488651E+07  3.467474E+02  1.318664E+03  6.307048E+05  1.907114E+04 -1.390789E+02
      6081   1  1.488644E+07  1.167828E+03  2.942683E+02  6.575683E+05  2.136802E+04 -5.185789E+02
      6082   1  1.488548E+07 -4.835302E+02 -9.773927E+02  7.010096E+05  1.675524E+04  1.308491E+03
      6083   1  1.488619E+07 -1.447773E+03  2.183326E+03  7.642282E+05  6.642136E+03 -1.308212E+02
      6084   1  9.923219E+06 -1.047285E+03 -1.221789E+03  9.329136E+05 -3.075444E+03 -5.208273E+02
      6085   1  9.924181E+06 -5.878016E+01  6.849409E+02  8.659396E+05 -8.493624E+03  4.183594E+01
      6086   1  9.923971E+06  2.209493E+01 -1.529319E+01  8.176719E+05 -1.088453E+04 -9.926889E+02
      6087   1  9.924260E+06  6.814922E+02  1.875454E+02  7.853651E+05 -9.832444E+03  1.537117E+02
      6088   1  9.924339E+06  2.400249E+02  8.816444E+02  7.671565E+05 -5.811859E+03 -1.504687E+02
      6089   1  9.924252E+06  3.283173E+02  5.154301E+02  7.612534E+05 -4.948676E-04  3.003623E-06
      6090   1  9.924339E+06  2.400249E+02  8.816445E+02  7.671565E+05  5.811858E+03  1.504687E+02
      6091   1  9.924260E+06  6.814922E+02  1.875453E+02  7.853651E+05  9.832443E+03 -1.537117E+02
      6092   1  9.923971E+06  2.209493E+01 -1.529316E+01  8.176719E+05  1.088453E+04  9.926889E+02
      6093   1  9.924181E+06 -5.878013E+01  6.849409E+02  8.659396E+05  8.493623E+03 -4.183595E+01
      6094   1  9.923219E+06 -1.047285E+03 -1.221789E+03  9.329136E+05  3.075444E+03  5.208273E+02
      6095   1  4.962009E+06 -4.748830E+02  5.496140E+02  1.032769E+06 -1.354296E+03 -6.882039E+01
      6096   1  4.961799E+06 -2.160382E+02 -3.546071E+02  9.644275E+05 -3.495891E+03 -1.007406E+03
      6097   1  4.962110E+06  2.277496E+02  1.540818E+02  9.135276E+05 -4.584963E+03 -7.011041E+01
      6098   1  4.962076E+06  8.536549E+01  1.860155E+02  8.788894E+05 -4.176395E+03 -7.829463E+02
      6099   1  4.962130E+06  3.191398E+02  1.211534E+02  8.587671E+05 -2.459803E+03  1.348277E+01
      6100   1  4.962168E+06  1.185832E+02  4.293305E+02  8.522424E+05 -2.389496E-04 -1.550530E-05
      6101   1  4.962130E+06  3.191398E+02  1.211534E+02  8.587671E+05  2.459803E+03 -1.348277E+01
      6102   1  4.962076E+06  8.536547E+01  1.860155E+02  8.788894E+05  4.176395E+03  7.829463E+02
      6103   1  4.962110E+06  2.277496E+02  1.540818E+02  9.135276E+05  4.584963E+03  7.011039E+01
      6104   1  4.961799E+06 -2.160383E+02 -3.546071E+02  9.644275E+05  3.495891E+03  1.007406E+03
      6105   1  4.962009E+06 -4.748831E+02  5.496140E+02  1.032769E+06  1.354296E+03  6.882039E+01
      6106   1  5.431007E-03  2.417101E-05  2.345549E-05  1.065912E+06 -1.096239E-07 -4.047824E+02
      6107   1  5.439412E-03  4.683557E-05 -1.341299E-05  9.970622E+05 -4.417009E-06 -1.704003E+02
      6108   1  5.455508E-03  9.927489E-05  6.316343E-05  9.455726E+05 -5.350729E-06 -1.077217E+03
      6109   1  5.448039E-03  1.027002E-04  2.213571E-05  9.100686E+05 -4.599523E-06 -6.607734E+01
      6110   1  5.460952E-03  1.512549E-04  7.982012E-05  8.894858E+05 -3.013587E-06 -4.475331E+02
      6111   1  5.452562E-03  1.361367E-04  3.503833E-05  8.826904E+05 -4.931738E-09  1.553492E-06
      6112   1  5.458335E-03  1.551253E-04  8.239129E-05  8.894858E+05  2.623662E-06  4.475331E+02
      6113   1  5.444546E-03  1.170389E-04  2.639524E-05  9.100686E+05  4.478508E-06  6.607734E+01
      6114   1  5.447889E-03  1.125129E-04  6.821258E-05  9.455726E+05  4.818057E-06  1.077217E+03
      6115   1  5.432141E-03  6.821635E-05 -6.115072E-06  9.970622E+05  3.979049E-06  1.704003E+02
      6116   1  5.425887E-03  5.368802E-05  4.001138E-05  1.065912E+06  1.061823E-06  4.047824E+02
      6117   1 -4.962008E+06  4.748830E+02 -5.496139E+02  1.032769E+06  1.354296E+03 -6.882040E+01
      6118   1 -4.961799E+06  2.160381E+02  3.546070E+02  9.644275E+05  3.495891E+03 -1.007406E+03
      6119   1 -4.962110E+06 -2.277497E+02 -1.540818E+02  9.135276E+05  4.584963E+03 -7.011041E+01
      6120   1 -4.962076E+06 -8.536575E+01 -1.860157E+02  8.788894E+05  4.176395E+03 -7.829463E+02
      6121   1 -4.962130E+06 -3.191400E+02 -1.211534E+02  8.587671E+05  2.459803E+03  1.348278E+01
      6122   1 -4.962168E+06 -1.185836E+02 -4.293307E+02  8.522424E+05  2.386369E-04 -1.675106E-05
      6123   1 -4.962130E+06 -3.191401E+02 -1.211534E+02  8.587671E+05 -2.459803E+03 -1.348277E+01
      6124   1 -4.962076E+06 -8.536575E+01 -1.860157E+02  8.788894E+05 -4.176395E+03  7.829463E+02
      6125   1 -4.962110E+06 -2.277497E+02 -1.540818E+02  9.135276E+05 -4.584963E+03  7.011039E+01
      6126   1 -4.961799E+06  2.160381E+02  3.546069E+02  9.644275E+05 -3.495891E+03  1.007406E+03
      6127   1 -4.962008E+06  4.748830E+02 -5.496140E+02  1.032769E+06 -1.354296E+03  6.882040E+01
      6128   1 -9.923219E+06  1.047285E+03  1.221789E+03  9.329136E+05  3.075444E+03 -5.208273E+02
      6129   1 -9.924181E+06  5.878019E+01 -6.849410E+02  8.659396E+05  8.493624E+03  4.183594E+01
      6130   1 -9.923971E+06 -2.209469E+01  1.529342E+01  8.176719E+05  1.088453E+04 -9.926889E+02
      6131   1 -9.924260E+06 -6.814921E+02 -1.875454E+02  7.853651E+05  9.832444E+03  1.537117E+02
      6132   1 -9.924339E+06 -2.400246E+02 -8.816442E+02  7.671565E+05  5.811859E+03 -1.504687E+02
      6133   1 -9.924252E+06 -3.283170E+02 -5.154301E+02  7.612534E+05  4.940344E-04  8.454994E-06
      6134   1 -9.924339E+06 -2.400246E+02 -8.816442E+02  7.671565E+05 -5.811858E+03  1.504686E+02
      6135   1 -9.924260E+06 -6.814921E+02 -1.875454E+02  7.853651E+05 -9.832443E+03 -1.537117E+02
      6136   1 -9.923971E+06 -2.209466E+01  1.529340E+01  8.176719E+05 -1.088453E+04  9.926889E+02
      6137   1 -9.924181E+06  5.878022E+01 -6.849410E+02  8.659396E+05 -8.493623E+03 -4.183595E+01
      6138   1 -9.923219E+06  1.047285E+03  1.221789E+03  9.329136E+05 -3.075444E+03  5.208273E+02
      6139   1 -1.488619E+07  1.447773E+03 -2.183325E+03  7.642282E+05  6.642136E+03  1.308212E+02
      6140   1 -1.488548E+07  4.835300E+02  9.773924E+02  7.010096E+05  1.675524E+04 -1.308491E+03
      6141   1 -1.488644E+07 -1.167828E+03 -2.942681E+02  6.575683E+05  2.136802E+04  5.185789E+02
      6142   1 -1.488651E+07 -3.467477E+02 -1.318664E+03  6.307048E+05  1.907115E+04  1.390789E+02
      6143   1 -1.488638E+07 -2.279567E+02 -1.060381E+03  6.158933E+05  1.089094E+04  1.127853E+02
      6144   1 -1.488659E+07 -3.813632E+02 -1.534197E+03  6.110967E+05  7.847221E-04 -1.544930E-05
      6145   1 -1.488638E+07 -2.279567E+02 -1.060381E+03  6.158933E+05 -1.089094E+04 -1.127853E+02
      6146   1 -1.488651E+07 -3.467477E+02 -1.318664E+03  6.307048E+05 -1.907114E+04 -1.390789E+02
      6147   1 -1.488644E+07 -1.167828E+03 -2.942681E+02  6.575683E+05 -2.136802E+04 -5.185789E+02
      6148   1 -1.488548E+07  4.835299E+02  9.773924E+02  7.010096E+05 -1.675524E+04  1.308491E+03
      6149   1 -1.488619E+07  1.447773E+03 -2.183325E+03  7.642282E+05 -6.642136E+03 -1.308212E+02
      6150   1 -1.984582E+07  2.529473E+03  3.897688E+03  5.227683E+05  1.217263E+04 -1.227567E+03
      6151   1 -1.984878E+07 -1.544074E+03 -9.862435E+02  4.661106E+05  3.333726E+04  1.196317E+03
      6152   1 -1.984889E+07 -6.469349E+02 -2.246332E+03  4.350906E+05  4.075553E+04  8.552066E+02
      6153   1 -1.984851E+07  9.967812E+01 -1.808308E+03  4.171034E+05  3.372418E+04  2.512694E+02
      6154   1 -1.984886E+07 -5.881600E+02 -2.201719E+03  4.071877E+05  1.884686E+04  2.096535E+02
      6155   1 -1.984847E+07  2.938985E+02 -1.870207E+03  4.041611E+05  1.118879E-03  2.760703E-06
      6156   1 -1.984886E+07 -5.881600E+02 -2.201719E+03  4.071877E+05 -1.884686E+04 -2.096536E+02
      6157   1 -1.984851E+07  9.967814E+01 -1.808308E+03  4.171034E+05 -3.372418E+04 -2.512693E+02
      6158   1 -1.984889E+07 -6.469348E+02 -2.246332E+03  4.350906E+05 -4.075553E+04 -8.552066E+02
      6159   1 -1.984878E+07 -1.544074E+03 -9.862434E+02  4.661106E+05 -3.333726E+04 -1.196317E+03
      6160   1 -1.984582E+07  2.529473E+03  3.897688E+03  5.227683E+05 -1.217263E+04  1.227567E+03
      6161   1 -2.481186E+07  1.738565E+03 -7.613666E+03  1.920015E+05  3.281560E+04  1.888988E+03
      6162   1 -2.481231E+07 -2.234758E+03 -4.956883E+03  1.649967E+05  7.094628E+04  1.162811E+03
      6163   1 -2.481068E+07  1.154585E+03 -3.442571E+03  1.546712E+05  7.223726E+04  2.277065E+02
      6164   1 -2.481126E+07 -1.018472E+03 -3.011335E+03  1.478528E+05  5.632960E+04  2.718722E+02
      6165   1 -2.481056E+07  7.361290E+02 -2.668199E+03  1.445900E+05  3.040089E+04  3.833650E+01
      6166   1 -2.481106E+07 -7.580729E+02 -2.652500E+03  1.433906E+05  1.515598E-03 -4.902716E-06
      6167   1 -2.481056E+07  7.361290E+02 -2.668199E+03  1.445900E+05 -3.040088E+04 -3.833650E+01
      6168   1 -2.481126E+07 -1.018472E+03 -3.011335E+03  1.478528E+05 -5.632960E+04 -2.718722E+02
      6169   1 -2.481068E+07  1.154585E+03 -3.442571E+03  1.546712E+05 -7.223726E+04 -2.277065E+02
      6170   1 -2.481231E+07 -2.234758E+03 -4.956883E+03  1.649967E+05 -7.094628E+04 -1.162811E+03
      6171   1 -2.481186E+07  1.738565E+03 -7.613666E+03  1.920015E+05 -3.281560E+04 -1.888988E+03
      6172   1  2.449376E+07 -1.729113E+03  7.481501E+03  1.920007E+05 -3.281545E+04  1.864317E+03
      6173   1  2.449420E+07  2.218718E+03  4.926841E+03  1.649973E+05 -7.094667E+04  1.148172E+03
      6174   1  2.449259E+07 -1.152041E+03  3.365638E+03  1.546709E+05 -7.223680E+04  2.246122E+02
      6175   1  2.449318E+07  1.018438E+03  3.005418E+03  1.478531E+05 -5.632998E+04  2.684913E+02
      6176   1  2.449247E+07 -7.393114E+02  2.601604E+03  1.445898E+05 -3.040068E+04  3.779582E+01
      6177   1  2.449297E+07  7.615542E+02  2.651008E+03  1.433908E+05 -1.513707E-03 -1.470494E-06
      6178   1  2.449247E+07 -7.393114E+02  2.601604E+03  1.445898E+05  3.040067E+04 -3.779582E+01
      6179   1  2.449318E+07  1.018438E+03  3.005418E+03  1.478531E+05  5.632998E+04 -2.684914E+02
      6180   1  2.449259E+07 -1.152042E+03  3.365638E+03  1.546709E+05  7.223680E+04 -2.246122E+02
      6181   1  2.449420E+07  2.218718E+03  4.926841E+03  1.649973E+05  7.094666E+04 -1.148172E+03
      6182   1  2.449376E+07 -1.729113E+03  7.481501E+03  1.920007E+05  3.281545E+04 -1.864317E+03
      6183   1  1.959138E+07 -2.506550E+03 -3.877505E+03  5.227690E+05 -1.217242E+04 -1.211714E+03
      6184   1  1.959431E+07  1.534665E+03  1.002885E+03  4.661103E+05 -3.333769E+04  1.180977E+03
      6185   1  1.959442E+07  6.273686E+02  2.188453E+03  4.350906E+05 -4.075509E+04  8.442341E+02
      6186   1  1.959405E+07 -8.743787E+01  1.813832E+03  4.171032E+05 -3.372454E+04  2.480581E+02
      6187   1  1.959438E+07  5.690165E+02  2.144736E+03  4.071877E+05 -1.884667E+04  2.069598E+02
      6188   1  1.959401E+07 -2.789958E+02  1.874801E+03  4.041610E+05 -1.118368E-03  2.108978E-06
      6189   1  1.959438E+07  5.690165E+02  2.144736E+03  4.071877E+05  1.884666E+04 -2.069598E+02
      6190   1  1.959405E+07 -8.743790E+01  1.813832E+03  4.171032E+05  3.372453E+04 -2.480581E+02
      6191   1  1.959442E+07  6.273686E+02  2.188453E+03  4.350906E+05  4.075509E+04 -8.442341E+02
      6192   1  1.959431E+07  1.534665E+03  1.002885E+03  4.661103E+05  3.333768E+04 -1.180977E+03
      6193   1  1.959138E+07 -2.506550E+03 -3.877505E+03  5.227690E+05  1.217242E+04  1.211714E+03
      6194   1  1.469534E+07 -1.437807E+03  2.131493E+03  7.642279E+05 -6.642040E+03  1.290844E+02
      6195   1  1.469464E+07 -4.687819E+02 -9.417184E+02  7.010097E+05 -1.675552E+04 -1.291743E+03
      6196   1  1.469558E+07  1.144523E+03  2.678354E+02  6.575686E+05 -2.136769E+04  5.119505E+02
      6197   1  1.469566E+07  3.512555E+02  1.324367E+03  6.307048E+05 -1.907142E+04  1.372822E+02
      6198   1  1.469552E+07  2.164009E+02  1.024391E+03  6.158935E+05 -1.089079E+04  1.113462E+02
      6199   1  1.469574E+07  3.855707E+02  1.537024E+03  6.110967E+05 -7.835510E-04 -1.348958E-05
      6200   1  1.469552E+07  2.164009E+02  1.024391E+03  6.158935E+05  1.089079E+04 -1.113462E+02
      6201   1  1.469566E+07  3.512555E+02  1.324367E+03  6.307048E+05  1.907142E+04 -1.372823E+02
      6202   1  1.469558E+07  1.144523E+03  2.678353E+02  6.575686E+05  2.136769E+04 -5.119505E+02
      6203   1  1.469464E+07 -4.687819E+02 -9.417184E+02  7.010097E+05  1.675552E+04  1.291743E+03
      6204   1  1.469534E+07 -1.437807E+03  2.131493E+03  7.642279E+05  6.642039E+03 -1.290844E+02
      6205   1  9.795998E+06 -1.039007E+03 -1.221988E+03  9.329141E+05 -3.075341E+03 -5.141032E+02
      6206   1  9.796949E+06 -5.247075E+01  6.917463E+02  8.659394E+05 -8.493831E+03  4.131983E+01
      6207   1  9.796738E+06  1.579445E+01 -3.057128E+01  8.176718E+05 -1.088431E+04 -9.799647E+02
      6208   1  9.797029E+06  6.785549E+02  2.004005E+02  7.853649E+05 -9.832622E+03  1.517401E+02
      6209   1  9.797101E+06  2.307789E+02  8.550538E+02  7.671564E+05 -5.811760E+03 -1.485381E+02
      6210   1  9.797021E+06  3.299901E+02  5.240018E+02  7.612532E+05 -4.935903E-04  7.748011E-06
      6211   1  9.797101E+06  2.307789E+02  8.550538E+02  7.671564E+05  5.811759E+03  1.485381E+02
      6212   1  9.797029E+06  6.785549E+02  2.004005E+02  7.853649E+05  9.832621E+03 -1.517401E+02
      6213   1  9.796738E+06  1.579441E+01 -3.057127E+01  8.176718E+05  1.088431E+04  9.799647E+02
      6214   1  9.796949E+06 -5.247077E+01  6.917463E+02  8.659394E+05  8.493831E+03 -4.131984E+01
      6215   1  9.795998E+06 -1.039007E+03 -1.221988E+03  9.329141E+05  3.075340E+03  5.141032E+02
      6216   1  4.898393E+06 -4.716981E+02  5.344471E+02  1.032769E+06 -1.354261E+03 -6.797290E+01
      6217   1  4.898187E+06 -2.103631E+02 -3.421739E+02  9.644274E+05 -3.495989E+03 -9.945204E+02
      6218   1  4.898492E+06  2.219998E+02  1.443839E+02  9.135279E+05 -4.584849E+03 -6.920096E+01
      6219   1  4.898461E+06  8.733053E+01  1.913414E+02  8.788895E+05 -4.176489E+03 -7.729134E+02
      6220   1  4.898511E+06  3.121114E+02  1.119645E+02  8.587674E+05 -2.459752E+03  1.331224E+01
      6221   1  4.898552E+06  1.201727E+02  4.315004E+02  8.522425E+05 -2.383706E-04 -1.200763E-05
      6222   1  4.898511E+06  3.121114E+02  1.119645E+02  8.587674E+05  2.459751E+03 -1.331224E+01
      6223   1  4.898461E+06  8.733054E+01  1.913414E+02  8.788895E+05  4.176488E+03  7.729134E+02
      6224   1  4.898492E+06  2.219998E+02  1.443839E+02  9.135279E+05  4.584848E+03  6.920094E+01
      6225   1  4.898187E+06 -2.103631E+02 -3.421739E+02  9.644274E+05  3.495989E+03  9.945204E+02
      6226   1  4.898393E+06 -4.716980E+02  5.344471E+02  1.032769E+06  1.354261E+03  6.797290E+01
      6227   1  5.362026E-03 -2.682362E-05 -4.001442E-05  1.065912E+06 -1.681895E-06 -3.995557E+02
      6228   1  5.351527E-03 -4.128296E-05 -2.680909E-06  9.970620E+05 -2.870193E-06 -1.681957E+02
      6229   1  5.339619E-03 -1.073780E-04 -6.595086E-05  9.455724E+05 -4.839946E-06 -1.063404E+03
      6230   1  5.332049E-03 -1.402444E-04 -2.844963E-05  9.100683E+05 -4.683825E-06 -6.523479E+01
      6231   1  5.321445E-03 -1.777938E-04 -9.630623E-05  8.894856E+05 -2.513364E-06 -4.417922E+02
      6232   1  5.324716E-03 -1.746831E-04 -4.305009E-05  8.826901E+05 -9.726446E-07  2.967290E-06
      6233   1  5.318398E-03 -1.831917E-04 -9.489792E-05  8.894856E+05  1.916635E-06  4.417921E+02
      6234   1  5.326172E-03 -1.495737E-04 -3.465255E-05  9.100683E+05  4.530400E-06  6.523479E+01
      6235   1  5.326865E-03 -1.358422E-04 -7.468817E-05  9.455724E+05  4.839188E-06  1.063404E+03
      6236   1  5.331930E-03 -7.837567E-05 -1.894784E-05  9.970620E+05  3.106426E-06  1.681957E+02
      6237   1  5.335924E-03 -7.781099E-05 -5.949992E-05  1.065912E+06  2.118474E-07  3.995557E+02
      6238   1 -4.898393E+06  4.716981E+02 -5.344472E+02  1.032769E+06  1.354261E+03 -6.797291E+01
      6239   1 -4.898187E+06  2.103632E+02  3.421740E+02  9.644274E+05  3.495989E+03 -9.945205E+02
      6240   1 -4.898492E+06 -2.219996E+02 -1.443839E+02  9.135279E+05  4.584849E+03 -6.920096E+01
      6241   1 -4.898461E+06 -8.733019E+01 -1.913412E+02  8.788895E+05  4.176489E+03 -7.729134E+02
      6242   1 -4.898511E+06 -3.121111E+02 -1.119645E+02  8.587674E+05  2.459752E+03  1.331224E+01
      6243   1 -4.898552E+06 -1.201723E+02 -4.315001E+02  8.522425E+05  2.392019E-04 -1.512500E-05
      6244   1 -4.898511E+06 -3.121111E+02 -1.119645E+02  8.587674E+05 -2.459751E+03 -1.331224E+01
      6245   1 -4.898461E+06 -8.733018E+01 -1.913412E+02  8.788895E+05 -4.176488E+03  7.729134E+02
      6246   1 -4.898492E+06 -2.219996E+02 -1.443839E+02  9.135279E+05 -4.584848E+03  6.920094E+01
      6247   1 -4.898187E+06  2.103633E+02  3.421740E+02  9.644274E+05 -3.495989E+03  9.945204E+02
      6248   1 -4.898393E+06  4.716981E+02 -5.344472E+02  1.032769E+06 -1.354261E+03  6.797291E+01
      6249   1 -9.795998E+06  1.039007E+03  1.221988E+03  9.329141E+05  3.075341E+03 -5.141032E+02
      6250   1 -9.796949E+06  5.247069E+01 -6.917461E+02  8.659394E+05  8.493831E+03  4.131983E+01
      6251   1 -9.796738E+06 -1.579472E+01  3.057101E+01  8.176718E+05  1.088431E+04 -9.799647E+02
      6252   1 -9.797029E+06 -6.785552E+02 -2.004004E+02  7.853649E+05  9.832622E+03  1.517401E+02
      6253   1 -9.797101E+06 -2.307793E+02 -8.550541E+02  7.671564E+05  5.811760E+03 -1.485381E+02
      6254   1 -9.797021E+06 -3.299904E+02 -5.240018E+02  7.612532E+05  4.930546E-04  7.833963E-06
      6255   1 -9.797101E+06 -2.307793E+02 -8.550541E+02  7.671564E+05 -5.811759E+03  1.485381E+02
      6256   1 -9.797029E+06 -6.785552E+02 -2.004004E+02  7.853649E+05 -9.832621E+03 -1.517401E+02
      6257   1 -9.796738E+06 -1.579473E+01  3.057099E+01  8.176718E+05 -1.088431E+04  9.799647E+02
      6258   1 -9.796949E+06  5.247064E+01 -6.917461E+02  8.659394E+05 -8.493831E+03 -4.131984E+01
      6259   1 -9.795998E+06  1.039007E+03  1.221988E+03  9.329141E+05 -3.075340E+03  5.141032E+02
      6260   1 -1.469534E+07  1.437807E+03 -2.131493E+03  7.642279E+05  6.642039E+03  1.290844E+02
      6261   1 -1.469464E+07  4.687821E+02  9.417188E+02  7.010097E+05  1.675552E+04 -1.291743E+03
      6262   1 -1.469558E+07 -1.144523E+03 -2.678356E+02  6.575686E+05  2.136769E+04  5.119505E+02
      6263   1 -1.469566E+07 -3.512551E+02 -1.324366E+03  6.307048E+05  1.907142E+04  1.372822E+02
      6264   1 -1.469552E+07 -2.164007E+02 -1.024391E+03  6.158935E+05  1.089079E+04  1.113462E+02
      6265   1 -1.469574E+07 -3.855702E+02 -1.537024E+03  6.110967E+05  7.819941E-04 -1.874123E-05
      6266   1 -1.469552E+07 -2.164007E+02 -1.024391E+03  6.158935E+05 -1.089079E+04 -1.113462E+02
      6267   1 -1.469566E+07 -3.512551E+02 -1.324366E+03  6.307048E+05 -1.907142E+04 -1.372823E+02
      6268   1 -1.469558E+07 -1.144523E+03 -2.678356E+02  6.575686E+05 -2.136769E+04 -5.119505E+02
      6269   1 -1.469464E+07  4.687822E+02  9.417188E+02  7.010097E+05 -1.675552E+04  1.291743E+03
      6270   1 -1.469534E+07  1.437807E+03 -2.131493E+03  7.642279E+05 -6.642039E+03 -1.290844E+02
      6271   1 -1.959138E+07  2.506550E+03  3.877505E+03  5.227690E+05  1.217242E+04 -1.211714E+03
      6272   1 -1.959431E+07 -1.534664E+03 -1.002885E+03  4.661103E+05  3.333769E+04  1.180977E+03
      6273   1 -1.959442E+07 -6.273690E+02 -2.188453E+03  4.350906E+05  4.075509E+04  8.442341E+02
      6274   1 -1.959405E+07  8.743775E+01 -1.813832E+03  4.171032E+05  3.372454E+04  2.480581E+02
      6275   1 -1.959438E+07 -5.690170E+02 -2.144737E+03  4.071877E+05  1.884667E+04  2.069598E+02
      6276   1 -1.959401E+07  2.789956E+02 -1.874801E+03  4.041610E+05  1.119589E-03 -1.978936E-07
      6277   1 -1.959438E+07 -5.690170E+02 -2.144737E+03  4.071877E+05 -1.884666E+04 -2.069598E+02
      6278   1 -1.959405E+07  8.743776E+01 -1.813832E+03  4.171032E+05 -3.372453E+04 -2.480581E+02
      6279   1 -1.959442E+07 -6.273690E+02 -2.188453E+03  4.350906E+05 -4.075509E+04 -8.442341E+02
      6280   1 -1.959431E+07 -1.534665E+03 -1.002885E+03  4.661103E+05 -3.333768E+04 -1.180977E+03
      6281   1 -1.959138E+07  2.506550E+03  3.877505E+03  5.227690E+05 -1.217242E+04  1.211714E+03
      6282   1 -2.449376E+07  1.729113E+03 -7.481502E+03  1.920007E+05  3.281545E+04  1.864317E+03
      6283   1 -2.449420E+07 -2.218718E+03 -4.926840E+03  1.649973E+05  7.094667E+04  1.148172E+03
      6284   1 -2.449259E+07  1.152041E+03 -3.365639E+03  1.546709E+05  7.223680E+04  2.246122E+02
      6285   1 -2.449318E+07 -1.018438E+03 -3.005418E+03  1.478531E+05  5.632998E+04  2.684913E+02
      6286   1 -2.449247E+07  7.393115E+02 -2.601604E+03  1.445898E+05  3.040068E+04  3.779582E+01
      6287   1 -2.449297E+07 -7.615536E+02 -2.651007E+03  1.433908E+05  1.512597E-03 -3.022838E-06
      6288   1 -2.449247E+07  7.393115E+02 -2.601604E+03  1.445898E+05 -3.040067E+04 -3.779582E+01
      6289   1 -2.449318E+07 -1.018438E+03 -3.005418E+03  1.478531E+05 -5.632998E+04 -2.684914E+02
      6290   1 -2.449259E+07  1.152042E+03 -3.365638E+03  1.546709E+05 -7.223680E+04 -2.246122E+02
      6291   1 -2.449420E+07 -2.218718E+03 -4.926840E+03  1.649973E+05 -7.094666E+04 -1.148172E+03
      6292   1 -2.449376E+07  1.729113E+03 -7.481502E+03  1.920007E+05 -3.281545E+04 -1.864317E+03
      6293   1  2.417566E+07 -1.696155E+03  7.412545E+03  1.920014E+05 -3.281557E+04  1.840475E+03
      6294   1  2.417610E+07  2.179641E+03  4.835522E+03  1.649968E+05 -7.094635E+04  1.133041E+03
      6295   1  2.417451E+07 -1.127048E+03  3.348702E+03  1.546712E+05 -7.223717E+04  2.218379E+02
      6296   1  2.417508E+07  9.946125E+02  2.939721E+03  1.478528E+05 -5.632967E+04  2.649190E+02
      6297   1  2.417439E+07 -7.193833E+02  2.594256E+03  1.445900E+05 -3.040085E+04  3.734510E+01
      6298   1  2.417488E+07  7.409210E+02  2.590057E+03  1.433906E+05 -1.509055E-03 -3.499762E-06
      6299   1  2.417439E+07 -7.193833E+02  2.594256E+03  1.445900E+05  3.040084E+04 -3.734510E+01
      6300   1  2.417508E+07  9.946125E+02  2.939721E+03  1.478528E+05  5.632967E+04 -2.649190E+02
      6301   1  2.417451E+07 -1.127048E+03  3.348702E+03  1.546712E+05  7.223717E+04 -2.218379E+02
      6302   1  2.417610E+07  2.179641E+03  4.835522E+03  1.649968E+05  7.094635E+04 -1.133041E+03
      6303   1  2.417566E+07 -1.696155E+03  7.412545E+03  1.920014E+05  3.281557E+04 -1.840475E+03
      6304   1  1.933695E+07 -2.466257E+03 -3.802829E+03  5.227685E+05 -1.217259E+04 -1.196071E+03
      6305   1  1.933984E+07  1.506228E+03  9.659364E+02  4.661105E+05 -3.333734E+04  1.165642E+03
      6306   1  1.933995E+07  6.284020E+02  2.183772E+03  4.350906E+05 -4.075545E+04  8.332770E+02
      6307   1  1.933958E+07 -9.527928E+01  1.766824E+03  4.171033E+05 -3.372424E+04  2.448284E+02
      6308   1  1.933991E+07  5.710777E+02  2.140358E+03  4.071877E+05 -1.884682E+04  2.042769E+02
      6309   1  1.933953E+07 -2.844906E+02  1.827112E+03  4.041610E+05 -1.116157E-03 -1.739048E-06
      6310   1  1.933991E+07  5.710777E+02  2.140358E+03  4.071877E+05  1.884682E+04 -2.042769E+02
      6311   1  1.933958E+07 -9.527927E+01  1.766824E+03  4.171033E+05  3.372424E+04 -2.448284E+02
      6312   1  1.933995E+07  6.284020E+02  2.183772E+03  4.350906E+05  4.075545E+04 -8.332770E+02
      6313   1  1.933984E+07  1.506228E+03  9.659364E+02  4.661105E+05  3.333734E+04 -1.165642E+03
      6314   1  1.933695E+07 -2.466256E+03 -3.802829E+03  5.227685E+05  1.217259E+04  1.196071E+03
      6315   1  1.450450E+07 -1.412091E+03  2.123306E+03  7.642282E+05 -6.642118E+03  1.274566E+02
      6316   1  1.450380E+07 -4.696634E+02 -9.484007E+02  7.010097E+05 -1.675529E+04 -1.274945E+03
      6317   1  1.450473E+07  1.136491E+03  2.828874E+02  6.575684E+05 -2.136796E+04  5.052856E+02
      6318   1  1.450481E+07  3.393942E+02  1.288692E+03  6.307048E+05 -1.907120E+04  1.355106E+02
      6319   1  1.450468E+07  2.206679E+02  1.029401E+03  6.158933E+05 -1.089091E+04  1.098947E+02
      6320   1  1.450489E+07  3.731466E+02  1.498680E+03  6.110967E+05 -7.806521E-04 -1.865728E-05
      6321   1  1.450468E+07  2.206679E+02  1.029401E+03  6.158933E+05  1.089091E+04 -1.098946E+02
      6322   1  1.450481E+07  3.393941E+02  1.288692E+03  6.307048E+05  1.907119E+04 -1.355106E+02
      6323   1  1.450473E+07  1.136491E+03  2.828873E+02  6.575684E+05  2.136796E+04 -5.052856E+02
      6324   1  1.450380E+07 -4.696634E+02 -9.484007E+02  7.010097E+05  1.675529E+04  1.274945E+03
      6325   1  1.450450E+07 -1.412091E+03  2.123306E+03  7.642282E+05  6.642118E+03 -1.274567E+02
      6326   1  9.668777E+06 -1.021314E+03 -1.193147E+03  9.329136E+05 -3.075426E+03 -5.074643E+02
      6327   1  9.669715E+06 -5.634705E+01  6.700091E+02  8.659396E+05 -8.493661E+03  4.076694E+01
      6328   1  9.669510E+06  2.049733E+01 -1.752158E+01  8.176718E+05 -1.088449E+04 -9.672355E+02
      6329   1  9.669793E+06  6.649847E+02  1.853121E+02  7.853651E+05 -9.832476E+03  1.497704E+02
      6330   1  9.669868E+06  2.328137E+02  8.564493E+02  7.671564E+05 -5.811841E+03 -1.466101E+02
      6331   1  9.669784E+06  3.208792E+02  5.047761E+02  7.612533E+05 -4.921876E-04  9.889422E-06
      6332   1  9.669868E+06  2.328137E+02  8.564493E+02  7.671564E+05  5.811840E+03  1.466101E+02
      6333   1  9.669793E+06  6.649847E+02  1.853121E+02  7.853651E+05  9.832475E+03 -1.497704E+02
      6334   1  9.669510E+06  2.049736E+01 -1.752154E+01  8.176718E+05  1.088449E+04  9.672355E+02
      6335   1  9.669715E+06 -5.634699E+01  6.700091E+02  8.659396E+05  8.493661E+03 -4.076696E+01
      6336   1  9.668777E+06 -1.021314E+03 -1.193147E+03  9.329136E+05  3.075425E+03  5.074643E+02
      6337   1  4.834777E+06 -4.631911E+02  5.341513E+02  1.032769E+06 -1.354289E+03 -6.706178E+01
      6338   1  4.834573E+06 -2.100012E+02 -3.441798E+02  9.644275E+05 -3.495908E+03 -9.815801E+02
      6339   1  4.834877E+06  2.214387E+02  1.488286E+02  9.135276E+05 -4.584942E+03 -6.831061E+01
      6340   1  4.834844E+06  8.370053E+01  1.825511E+02  8.788894E+05 -4.176412E+03 -7.628713E+02
      6341   1  4.834895E+06  3.104675E+02  1.167592E+02  8.587672E+05 -2.459794E+03  1.313761E+01
      6342   1  4.834933E+06  1.160751E+02  4.196211E+02  8.522425E+05 -2.379622E-04 -1.348281E-05
      6343   1  4.834895E+06  3.104675E+02  1.167592E+02  8.587672E+05  2.459793E+03 -1.313761E+01
      6344   1  4.834844E+06  8.370051E+01  1.825511E+02  8.788894E+05  4.176412E+03  7.628713E+02
      6345   1  4.834877E+06  2.214387E+02  1.488286E+02  9.135276E+05  4.584942E+03  6.831060E+01
      6346   1  4.834573E+06 -2.100012E+02 -3.441798E+02  9.644275E+05  3.495908E+03  9.815801E+02
      6347   1  4.834777E+06 -4.631911E+02  5.341512E+02  1.032769E+06  1.354289E+03  6.706179E+01
      6348   1  5.292026E-03  2.513200E-05  3.582254E-05  1.065912E+06 -1.453330E-07 -3.943965E+02
      6349   1  5.302017E-03  6.046469E-05 -1.870391E-05  9.970621E+05 -4.532161E-06 -1.660273E+02
      6350   1  5.324348E-03  1.438707E-04  8.954387E-05  9.455725E+05 -4.488160E-06 -1.049595E+03
      6351   1  5.321322E-03  1.629564E-04  3.707034E-05  9.100685E+05 -4.591610E-06 -6.438354E+01
      6352   1  5.339768E-03  2.326393E-04  1.208651E-04  8.894857E+05 -2.497053E-06 -4.360571E+02
      6353   1  5.325235E-03  2.073784E-04  5.443438E-05  8.826904E+05  9.340544E-07  3.913214E-06
      6354   1  5.334207E-03  2.225187E-04  1.178363E-04  8.894857E+05  2.058112E-06  4.360571E+02
      6355   1  5.315444E-03  1.701967E-04  3.986709E-05  9.100685E+05  4.763780E-06  6.438354E+01
      6356   1  5.319123E-03  1.694935E-04  9.881993E-05  9.455725E+05  4.858492E-06  1.049595E+03
      6357   1  5.300270E-03  1.036437E-04 -9.186872E-07  9.970621E+05  3.991531E-06  1.660273E+02
      6358   1  5.288352E-03  8.247497E-05  5.577203E-05  1.065912E+06  1.075732E-06  3.943965E+02
      6359   1 -4.834777E+06  4.631911E+02 -5.341512E+02  1.032769E+06  1.354289E+03 -6.706179E+01
      6360   1 -4.834573E+06  2.100010E+02  3.441796E+02  9.644275E+05  3.495908E+03 -9.815801E+02
      6361   1 -4.834877E+06 -2.214389E+02 -1.488286E+02  9.135276E+05  4.584942E+03 -6.831061E+01
      6362   1 -4.834844E+06 -8.370091E+01 -1.825513E+02  8.788894E+05  4.176412E+03 -7.628713E+02
      6363   1 -4.834895E+06 -3.104679E+02 -1.167593E+02  8.587672E+05  2.459794E+03  1.313761E+01
      6364   1 -4.834933E+06 -1.160756E+02 -4.196214E+02  8.522425E+05  2.372740E-04 -1.528168E-05
      6365   1 -4.834895E+06 -3.104679E+02 -1.167593E+02  8.587672E+05 -2.459793E+03 -1.313761E+01
      6366   1 -4.834844E+06 -8.370092E+01 -1.825513E+02  8.788894E+05 -4.176412E+03  7.628713E+02
      6367   1 -4.834877E+06 -2.214390E+02 -1.488286E+02  9.135276E+05 -4.584942E+03  6.831059E+01
      6368   1 -4.834573E+06  2.100009E+02  3.441796E+02  9.644275E+05 -3.495908E+03  9.815801E+02
      6369   1 -4.834777E+06  4.631910E+02 -5.341512E+02  1.032769E+06 -1.354289E+03  6.706179E+01
      6370   1 -9.668777E+06  1.021314E+03  1.193147E+03  9.329136E+05  3.075426E+03 -5.074643E+02
      6371   1 -9.669715E+06  5.634708E+01 -6.700093E+02  8.659396E+05  8.493661E+03  4.076695E+01
      6372   1 -9.669510E+06 -2.049699E+01  1.752191E+01  8.176718E+05  1.088449E+04 -9.672355E+02
      6373   1 -9.669793E+06 -6.649844E+02 -1.853122E+02  7.853651E+05  9.832476E+03  1.497704E+02
      6374   1 -9.669868E+06 -2.328132E+02 -8.564489E+02  7.671564E+05  5.811841E+03 -1.466101E+02
      6375   1 -9.669784E+06 -3.208789E+02 -5.047761E+02  7.612533E+05  4.914456E-04  5.715132E-06
      6376   1 -9.669868E+06 -2.328132E+02 -8.564489E+02  7.671564E+05 -5.811840E+03  1.466101E+02
      6377   1 -9.669793E+06 -6.649844E+02 -1.853122E+02  7.853651E+05 -9.832475E+03 -1.497704E+02
      6378   1 -9.669510E+06 -2.049696E+01  1.752190E+01  8.176718E+05 -1.088449E+04  9.672355E+02
      6379   1 -9.669715E+06  5.634712E+01 -6.700093E+02  8.659396E+05 -8.493661E+03 -4.076696E+01
      6380   1 -9.668777E+06  1.021314E+03  1.193147E+03  9.329136E+05 -3.075425E+03  5.074643E+02
      6381   1 -1.450450E+07  1.412091E+03 -2.123306E+03  7.642282E+05  6.642118E+03  1.274567E+02
      6382   1 -1.450380E+07  4.696631E+02  9.484003E+02  7.010097E+05  1.675529E+04 -1.274945E+03
      6383   1 -1.450473E+07 -1.136491E+03 -2.828871E+02  6.575684E+05  2.136796E+04  5.052856E+02
      6384   1 -1.450481E+07 -3.393947E+02 -1.288693E+03  6.307048E+05  1.907120E+04  1.355106E+02
      6385   1 -1.450468E+07 -2.206682E+02 -1.029401E+03  6.158933E+05  1.089091E+04  1.098946E+02
      6386   1 -1.450489E+07 -3.731472E+02 -1.498680E+03  6.110967E+05  7.803636E-04 -1.812851E-05
      6387   1 -1.450468E+07 -2.206682E+02 -1.029401E+03  6.158933E+05 -1.089091E+04 -1.098946E+02
      6388   1 -1.450481E+07 -3.393947E+02 -1.288693E+03  6.307048E+05 -1.907119E+04 -1.355106E+02
      6389   1 -1.450473E+07 -1.136491E+03 -2.828871E+02  6.575684E+05 -2.136796E+04 -5.052856E+02
      6390   1 -1.450380E+07  4.696631E+02  9.484002E+02  7.010097E+05 -1.675529E+04  1.274945E+03
      6391   1 -1.450450E+07  1.412091E+03 -2.123306E+03  7.642282E+05 -6.642118E+03 -1.274567E+02
      6392   1 -1.933695E+07  2.466257E+03  3.802830E+03  5.227685E+05  1.217259E+04 -1.196071E+03
      6393   1 -1.933984E+07 -1.506228E+03 -9.659369E+02  4.661105E+05  3.333734E+04  1.165642E+03
      6394   1 -1.933995E+07 -6.284016E+02 -2.183771E+03  4.350906E+05  4.075545E+04  8.332770E+02
      6395   1 -1.933958E+07  9.527943E+01 -1.766824E+03  4.171033E+05  3.372424E+04  2.448284E+02
      6396   1 -1.933991E+07 -5.710770E+02 -2.140357E+03  4.071877E+05  1.884682E+04  2.042769E+02
      6397   1 -1.933953E+07  2.844908E+02 -1.827113E+03  4.041610E+05  1.113444E-03 -3.549514E-07
      6398   1 -1.933991E+07 -5.710770E+02 -2.140358E+03  4.071877E+05 -1.884682E+04 -2.042769E+02
      6399   1 -1.933958E+07  9.527946E+01 -1.766824E+03  4.171033E+05 -3.372424E+04 -2.448284E+02
      6400   1 -1.933995E+07 -6.284015E+02 -2.183771E+03  4.350906E+05 -4.075545E+04 -8.332770E+02
      6401   1 -1.933984E+07 -1.506228E+03 -9.659369E+02  4.661105E+05 -3.333734E+04 -1.165642E+03
      6402   1 -1.933695E+07  2.466257E+03  3.802830E+03  5.227685E+05 -1.217259E+04  1.196071E+03
      6403   1 -2.417566E+07  1.696155E+03 -7.412545E+03  1.920014E+05  3.281557E+04  1.840475E+03
      6404   1 -2.417610E+07 -2.179641E+03 -4.835523E+03  1.649968E+05  7.094635E+04  1.133041E+03
      6405   1 -2.417451E+07  1.127048E+03 -3.348702E+03  1.546712E+05  7.223717E+04  2.218379E+02
      6406   1 -2.417508E+07 -9.946131E+02 -2.939722E+03  1.478528E+05  5.632967E+04  2.649190E+02
      6407   1 -2.417439E+07  7.193831E+02 -2.594255E+03  1.445900E+05  3.040085E+04  3.734510E+01
      6408   1 -2.417488E+07 -7.409217E+02 -2.590058E+03  1.433906E+05  1.510467E-03 -3.459015E-06
      6409   1 -2.417439E+07  7.193831E+02 -2.594255E+03  1.445900E+05 -3.040084E+04 -3.734510E+01
      6410   1 -2.417508E+07 -9.946132E+02 -2.939722E+03  1.478528E+05 -5.632967E+04 -2.649190E+02
      6411   1 -2.417451E+07  1.127048E+03 -3.348702E+03  1.546712E+05 -7.223717E+04 -2.218379E+02
      6412   1 -2.417610E+07 -2.179641E+03 -4.835523E+03  1.649968E+05 -7.094635E+04 -1.133041E+03
      6413   1 -2.417566E+07  1.696155E+03 -7.412545E+03  1.920014E+05 -3.281557E+04 -1.840475E+03
      6414   1  2.385756E+07 -1.682425E+03  7.291989E+03  1.920008E+05 -3.281547E+04  1.815956E+03
      6415   1  2.385799E+07  2.159318E+03  4.794198E+03  1.649972E+05 -7.094661E+04  1.118312E+03
      6416   1  2.385642E+07 -1.120424E+03  3.282788E+03  1.546710E+05 -7.223687E+04  2.188026E+02
      6417   1  2.385699E+07  9.901560E+02  2.922797E+03  1.478530E+05 -5.632992E+04  2.615030E+02
      6418   1  2.385630E+07 -7.183635E+02  2.538542E+03  1.445898E+05 -3.040071E+04  3.682099E+01
      6419   1  2.385679E+07  7.399194E+02  2.577616E+03  1.433908E+05 -1.509194E-03 -4.862415E-06
      6420   1  2.385630E+07 -7.183635E+02  2.538542E+03  1.445898E+05  3.040070E+04 -3.682099E+01
      6421   1  2.385699E+07  9.901560E+02  2.922797E+03  1.478530E+05  5.632992E+04 -2.615030E+02
      6422   1  2.385642E+07 -1.120424E+03  3.282787E+03  1.546710E+05  7.223687E+04 -2.188025E+02
      6423   1  2.385799E+07  2.159318E+03  4.794198E+03  1.649972E+05  7.094661E+04 -1.118312E+03
      6424   1  2.385756E+07 -1.682425E+03  7.291989E+03  1.920008E+05  3.281547E+04 -1.815956E+03
      6425   1  1.908251E+07 -2.440109E+03 -3.772647E+03  5.227689E+05 -1.217245E+04 -1.180257E+03
      6426   1  1.908537E+07  1.493375E+03  9.727696E+02  4.661104E+05 -3.333762E+04  1.150303E+03
      6427   1  1.908547E+07  6.126560E+02  2.135657E+03  4.350906E+05 -4.075515E+04  8.223072E+02
      6428   1  1.908511E+07 -8.667462E+01  1.762734E+03  4.171033E+05 -3.372448E+04  2.416137E+02
      6429   1  1.908544E+07  5.558656E+02  2.093030E+03  4.071877E+05 -1.884669E+04  2.015851E+02
      6430   1  1.908507E+07 -2.732808E+02  1.822139E+03  4.041610E+05 -1.112999E-03  5.127670E-07
      6431   1  1.908544E+07  5.558656E+02  2.093030E+03  4.071877E+05  1.884669E+04 -2.015851E+02
      6432   1  1.908511E+07 -8.667464E+01  1.762734E+03  4.171033E+05  3.372448E+04 -2.416137E+02
      6433   1  1.908547E+07  6.126559E+02  2.135657E+03  4.350906E+05  4.075515E+04 -8.223072E+02
      6434   1  1.908537E+07  1.493375E+03  9.727696E+02  4.661104E+05  3.333762E+04 -1.150303E+03
      6435   1  1.908251E+07 -2.440109E+03 -3.772647E+03  5.227689E+05  1.217245E+04  1.180257E+03
      6436   1  1.431365E+07 -1.399282E+03  2.079428E+03  7.642279E+05 -6.642054E+03  1.257401E+02
      6437   1  1.431296E+07 -4.578009E+02 -9.204668E+02  7.010096E+05 -1.675548E+04 -1.258188E+03
      6438   1  1.431388E+07  1.115938E+03  2.640133E+02  6.575685E+05 -2.136774E+04  4.986504E+02
      6439   1  1.431396E+07  3.408806E+02  1.286833E+03  6.307048E+05 -1.907138E+04  1.337185E+02
      6440   1  1.431382E+07  2.119639E+02  1.000882E+03  6.158935E+05 -1.089081E+04  1.084532E+02
      6441   1  1.431403E+07  3.742845E+02  1.493983E+03  6.110967E+05 -7.794144E-04 -2.080636E-05
      6442   1  1.431382E+07  2.119639E+02  1.000882E+03  6.158935E+05  1.089081E+04 -1.084532E+02
      6443   1  1.431396E+07  3.408806E+02  1.286833E+03  6.307048E+05  1.907138E+04 -1.337185E+02
      6444   1  1.431388E+07  1.115938E+03  2.640133E+02  6.575685E+05  2.136774E+04 -4.986505E+02
      6445   1  1.431296E+07 -4.578009E+02 -9.204668E+02  7.010096E+05  1.675548E+04  1.258188E+03
      6446   1  1.431365E+07 -1.399281E+03  2.079428E+03  7.642279E+05  6.642054E+03 -1.257401E+02
      6447   1  9.541556E+06 -1.011301E+03 -1.188055E+03  9.329140E+05 -3.075356E+03 -5.007565E+02
      6448   1  9.542483E+06 -5.186730E+01  6.716280E+02  8.659395E+05 -8.493800E+03  4.024394E+01
      6449   1  9.542278E+06  1.622383E+01 -2.763664E+01  8.176718E+05 -1.088434E+04 -9.545106E+02
      6450   1  9.542560E+06  6.601373E+02  1.930897E+02  7.853649E+05 -9.832595E+03  1.477991E+02
      6451   1  9.542631E+06  2.256453E+02  8.349595E+02  7.671564E+05 -5.811775E+03 -1.446801E+02
      6452   1  9.542552E+06  3.206148E+02  5.082969E+02  7.612532E+05 -4.919225E-04  3.090333E-06
      6453   1  9.542631E+06  2.256453E+02  8.349595E+02  7.671564E+05  5.811774E+03  1.446800E+02
      6454   1  9.542560E+06  6.601373E+02  1.930897E+02  7.853649E+05  9.832594E+03 -1.477991E+02
      6455   1  9.542278E+06  1.622378E+01 -2.763664E+01  8.176718E+05  1.088434E+04  9.545106E+02
      6456   1  9.542483E+06 -5.186735E+01  6.716279E+02  8.659395E+05  8.493800E+03 -4.024395E+01
      6457   1  9.541556E+06 -1.011301E+03 -1.188055E+03  9.329140E+05  3.075356E+03  5.007565E+02
      6458   1  4.771162E+06 -4.590489E+02  5.216855E+02  1.032769E+06 -1.354267E+03 -6.620227E+01
      6459   1  4.770961E+06 -2.053043E+02 -3.343765E+02  9.644274E+05 -3.495974E+03 -9.686844E+02
      6460   1  4.771259E+06  2.166202E+02  1.416987E+02  9.135278E+05 -4.584866E+03 -6.740474E+01
      6461   1  4.771228E+06  8.463563E+01  1.853057E+02  8.788894E+05 -4.176475E+03 -7.528369E+02
      6462   1  4.771277E+06  3.044059E+02  1.101095E+02  8.587674E+05 -2.459759E+03  1.296628E+01
      6463   1  4.771316E+06  1.166178E+02  4.192318E+02  8.522425E+05 -2.365547E-04 -2.062352E-05
      6464   1  4.771277E+06  3.044060E+02  1.101095E+02  8.587674E+05  2.459759E+03 -1.296628E+01
      6465   1  4.771228E+06  8.463563E+01  1.853057E+02  8.788894E+05  4.176474E+03  7.528369E+02
      6466   1  4.771259E+06  2.166202E+02  1.416988E+02  9.135278E+05  4.584865E+03  6.740472E+01
      6467   1  4.770961E+06 -2.053043E+02 -3.343765E+02  9.644274E+05  3.495974E+03  9.686844E+02
      6468   1  4.771162E+06 -4.590488E+02  5.216856E+02  1.032769E+06  1.354267E+03  6.620227E+01
      6469   1  5.219534E-03 -4.031853E-05 -5.616687E-05  1.065912E+06 -9.002177E-07 -3.891830E+02
      6470   1  5.212350E-03 -5.355132E-05  7.029193E-07  9.970620E+05 -2.700118E-06 -1.638296E+02
      6471   1  5.189089E-03 -1.679193E-04 -9.740727E-05  9.455725E+05 -5.172340E-06 -1.035784E+03
      6472   1  5.180971E-03 -2.062751E-04 -4.655517E-05  9.100684E+05 -4.412663E-06 -6.353952E+01
      6473   1  5.164157E-03 -2.658416E-04 -1.395946E-04  8.894857E+05 -3.201712E-06 -4.303174E+02
      6474   1  5.168429E-03 -2.596067E-04 -6.756931E-05  8.826902E+05  5.993315E-08 -2.738502E-06
      6475   1  5.158569E-03 -2.735411E-04 -1.426193E-04  8.894857E+05  2.625490E-06  4.303174E+02
      6476   1  5.172889E-03 -2.226715E-04 -5.136199E-05  9.100684E+05  3.374312E-06  6.353952E+01
      6477   1  5.171672E-03 -2.034198E-04 -1.139731E-04  9.455725E+05  3.929074E-06  1.035784E+03
      6478   1  5.186886E-03 -1.133394E-04 -2.106681E-05  9.970620E+05  3.201785E-06  1.638296E+02
      6479   1  5.190465E-03 -1.143941E-04 -8.377337E-05  1.065912E+06  1.069580E-06  3.891830E+02
      6480   1 -4.771162E+06  4.590489E+02 -5.216857E+02  1.032769E+06  1.354267E+03 -6.620228E+01
      6481   1 -4.770961E+06  2.053045E+02  3.343767E+02  9.644274E+05  3.495974E+03 -9.686844E+02
      6482   1 -4.771259E+06 -2.166199E+02 -1.416988E+02  9.135278E+05  4.584866E+03 -6.740474E+01
      6483   1 -4.771228E+06 -8.463513E+01 -1.853054E+02  8.788894E+05  4.176475E+03 -7.528369E+02
      6484   1 -4.771277E+06 -3.044055E+02 -1.101094E+02  8.587674E+05  2.459759E+03  1.296627E+01
      6485   1 -4.771316E+06 -1.166172E+02 -4.192314E+02  8.522425E+05  2.375710E-04 -1.902079E-05
      6486   1 -4.771277E+06 -3.044055E+02 -1.101094E+02  8.587674E+05 -2.459759E+03 -1.296628E+01
      6487   1 -4.771228E+06 -8.463511E+01 -1.853054E+02  8.788894E+05 -4.176474E+03  7.528369E+02
      6488   1 -4.771259E+06 -2.166199E+02 -1.416987E+02  9.135278E+05 -4.584865E+03  6.740472E+01
      6489   1 -4.770961E+06  2.053046E+02  3.343767E+02  9.644274E+05 -3.495974E+03  9.686844E+02
      6490   1 -4.771162E+06  4.590489E+02 -5.216857E+02  1.032769E+06 -1.354267E+03  6.620228E+01
      6491   1 -9.541556E+06  1.011301E+03  1.188054E+03  9.329140E+05  3.075356E+03 -5.007565E+02
      6492   1 -9.542483E+06  5.186723E+01 -6.716277E+02  8.659395E+05  8.493800E+03  4.024394E+01
      6493   1 -9.542278E+06 -1.622424E+01  2.763625E+01  8.176718E+05  1.088434E+04 -9.545106E+02
      6494   1 -9.542560E+06 -6.601376E+02 -1.930896E+02  7.853649E+05  9.832595E+03  1.477991E+02
      6495   1 -9.542631E+06 -2.256459E+02 -8.349600E+02  7.671564E+05  5.811775E+03 -1.446801E+02
      6496   1 -9.542552E+06 -3.206152E+02 -5.082969E+02  7.612532E+05  4.903585E-04  1.907607E-07
      6497   1 -9.542631E+06 -2.256459E+02 -8.349600E+02  7.671564E+05 -5.811774E+03  1.446800E+02
      6498   1 -9.542560E+06 -6.601376E+02 -1.930896E+02  7.853649E+05 -9.832594E+03 -1.477991E+02
      6499   1 -9.542278E+06 -1.622426E+01  2.763622E+01  8.176718E+05 -1.088434E+04  9.545106E+02
      6500   1 -9.542483E+06  5.186716E+01 -6.716278E+02  8.659395E+05 -8.493800E+03 -4.024396E+01
      6501   1 -9.541556E+06  1.011301E+03  1.188054E+03  9.329140E+05 -3.075356E+03  5.007565E+02
      6502   1 -1.431365E+07  1.399281E+03 -2.079429E+03  7.642279E+05  6.642054E+03  1.257401E+02
      6503   1 -1.431296E+07  4.578013E+02  9.204674E+02  7.010097E+05  1.675548E+04 -1.258188E+03
      6504   1 -1.431388E+07 -1.115938E+03 -2.640137E+02  6.575685E+05  2.136774E+04  4.986504E+02
      6505   1 -1.431396E+07 -3.408800E+02 -1.286833E+03  6.307048E+05  1.907138E+04  1.337185E+02
      6506   1 -1.431382E+07 -2.119636E+02 -1.000882E+03  6.158935E+05  1.089081E+04  1.084532E+02
      6507   1 -1.431403E+07 -3.742838E+02 -1.493982E+03  6.110967E+05  7.791440E-04 -2.057488E-05
      6508   1 -1.431382E+07 -2.119636E+02 -1.000882E+03  6.158935E+05 -1.089081E+04 -1.084532E+02
      6509   1 -1.431396E+07 -3.408800E+02 -1.286833E+03  6.307048E+05 -1.907138E+04 -1.337185E+02
      6510   1 -1.431388E+07 -1.115938E+03 -2.640136E+02  6.575685E+05 -2.136774E+04 -4.986505E+02
      6511   1 -1.431296E+07  4.578013E+02  9.204674E+02  7.010096E+05 -1.675548E+04  1.258188E+03
      6512   1 -1.431365E+07  1.399281E+03 -2.079429E+03  7.642279E+05 -6.642054E+03 -1.257401E+02
      6513   1 -1.908251E+07  2.440109E+03  3.772646E+03  5.227689E+05  1.217245E+04 -1.180257E+03
      6514   1 -1.908537E+07 -1.493375E+03 -9.727690E+02  4.661104E+05  3.333762E+04  1.150303E+03
      6515   1 -1.908547E+07 -6.126565E+02 -2.135657E+03  4.350906E+05  4.075515E+04  8.223072E+02
      6516   1 -1.908511E+07  8.667442E+01 -1.762734E+03  4.171033E+05  3.372448E+04  2.416137E+02
      6517   1 -1.908544E+07 -5.558664E+02 -2.093031E+03  4.071877E+05  1.884669E+04  2.015851E+02
      6518   1 -1.908507E+07  2.732805E+02 -1.822138E+03  4.041610E+05  1.112814E-03 -2.586883E-06
      6519   1 -1.908544E+07 -5.558664E+02 -2.093031E+03  4.071877E+05 -1.884669E+04 -2.015851E+02
      6520   1 -1.908511E+07  8.667443E+01 -1.762734E+03  4.171033E+05 -3.372448E+04 -2.416137E+02
      6521   1 -1.908547E+07 -6.126565E+02 -2.135657E+03  4.350906E+05 -4.075515E+04 -8.223072E+02
      6522   1 -1.908537E+07 -1.493375E+03 -9.727690E+02  4.661104E+05 -3.333762E+04 -1.150303E+03
      6523   1 -1.908251E+07  2.440109E+03  3.772646E+03  5.227689E+05 -1.217245E+04  1.180257E+03
      6524   1 -2.385756E+07  1.682425E+03 -7.291990E+03  1.920008E+05  3.281547E+04  1.815956E+03
      6525   1 -2.385799E+07 -2.159318E+03 -4.794197E+03  1.649972E+05  7.094661E+04  1.118312E+03
      6526   1 -2.385642E+07  1.120424E+03 -3.282788E+03  1.546710E+05  7.223687E+04  2.188026E+02
      6527   1 -2.385699E+07 -9.901552E+02 -2.922796E+03  1.478530E+05  5.632992E+04  2.615030E+02
      6528   1 -2.385630E+07  7.183637E+02 -2.538542E+03  1.445898E+05  3.040071E+04  3.682099E+01
      6529   1 -2.385679E+07 -7.399185E+02 -2.577615E+03  1.433908E+05  1.506529E-03 -5.700621E-06
      6530   1 -2.385630E+07  7.183637E+02 -2.538542E+03  1.445898E+05 -3.040070E+04 -3.682099E+01
      6531   1 -2.385699E+07 -9.901552E+02 -2.922796E+03  1.478530E+05 -5.632992E+04 -2.615030E+02
      6532   1 -2.385642E+07  1.120424E+03 -3.282788E+03  1.546710E+05 -7.223687E+04 -2.188026E+02
      6533   1 -2.385799E+07 -2.159318E+03 -4.794198E+03  1.649972E+05 -7.094661E+04 -1.118312E+03
      6534   1 -2.385756E+07  1.682425E+03 -7.291990E+03  1.920008E+05 -3.281547E+04 -1.815956E+03
      6535   1  2.353946E+07 -1.652971E+03  7.213555E+03  1.920013E+05 -3.281555E+04  1.791990E+03
      6536   1  2.353988E+07  2.123721E+03  4.712080E+03  1.649969E+05 -7.094640E+04  1.103255E+03
      6537   1  2.353833E+07 -1.098775E+03  3.256855E+03  1.546711E+05 -7.223712E+04  2.159802E+02
      6538   1  2.353889E+07  9.699252E+02  2.866076E+03  1.478529E+05 -5.632972E+04  2.579594E+02
      6539   1  2.353822E+07 -7.018789E+02  2.522309E+03  1.445899E+05 -3.040082E+04  3.635676E+01
      6540   1  2.353870E+07  7.229299E+02  2.525594E+03  1.433906E+05 -1.503239E-03 -3.262593E-06
      6541   1  2.353822E+07 -7.018789E+02  2.522309E+03  1.445899E+05  3.040082E+04 -3.635676E+01
      6542   1  2.353889E+07  9.699253E+02  2.866076E+03  1.478529E+05  5.632972E+04 -2.579594E+02
      6543   1  2.353833E+07 -1.098775E+03  3.256855E+03  1.546711E+05  7.223712E+04 -2.159802E+02
      6544   1  2.353988E+07  2.123721E+03  4.712080E+03  1.649969E+05  7.094640E+04 -1.103255E+03
      6545   1  2.353946E+07 -1.652971E+03  7.213555E+03  1.920013E+05  3.281555E+04 -1.791990E+03
      6546   1  1.882808E+07 -2.402439E+03 -3.706135E+03  5.227685E+05 -1.217257E+04 -1.164582E+03
      6547   1  1.883090E+07  1.467761E+03  9.438364E+02  4.661105E+05 -3.333739E+04  1.134967E+03
      6548   1  1.883100E+07  6.105801E+02  2.123005E+03  4.350906E+05 -4.075540E+04  8.113477E+02
      6549   1  1.883064E+07 -9.153558E+01  1.723582E+03  4.171033E+05 -3.372429E+04  2.383867E+02
      6550   1  1.883097E+07  5.547268E+02  2.080771E+03  4.071877E+05 -1.884680E+04  1.989006E+02
      6551   1  1.883060E+07 -2.757481E+02  1.782269E+03  4.041610E+05 -1.110027E-03 -1.435052E-06
      6552   1  1.883097E+07  5.547268E+02  2.080771E+03  4.071877E+05  1.884680E+04 -1.989006E+02
      6553   1  1.883064E+07 -9.153558E+01  1.723582E+03  4.171033E+05  3.372429E+04 -2.383867E+02
      6554   1  1.883100E+07  6.105801E+02  2.123005E+03  4.350906E+05  4.075539E+04 -8.113478E+02
      6555   1  1.883090E+07  1.467762E+03  9.438364E+02  4.661105E+05  3.333739E+04 -1.134967E+03
      6556   1  1.882808E+07 -2.402439E+03 -3.706135E+03  5.227685E+05  1.217257E+04  1.164582E+03
      6557   1  1.412280E+07 -1.375897E+03  2.064735E+03  7.642281E+05 -6.642106E+03  1.240956E+02
      6558   1  1.412212E+07 -4.563305E+02 -9.208236E+02  7.010097E+05 -1.675532E+04 -1.241397E+03
      6559   1  1.412303E+07  1.105648E+03  2.728818E+02  6.575684E+05 -2.136792E+04  4.919909E+02
      6560   1  1.412310E+07  3.314819E+02  1.257338E+03  6.307048E+05 -1.907123E+04  1.319430E+02
      6561   1  1.412297E+07  2.138912E+02  9.997810E+02  6.158934E+05 -1.089090E+04  1.070035E+02
      6562   1  1.412318E+07  3.643624E+02  1.461787E+03  6.110967E+05 -7.760900E-04 -2.012992E-05
      6563   1  1.412297E+07  2.138911E+02  9.997809E+02  6.158934E+05  1.089089E+04 -1.070035E+02
      6564   1  1.412310E+07  3.314819E+02  1.257338E+03  6.307048E+05  1.907123E+04 -1.319431E+02
      6565   1  1.412303E+07  1.105648E+03  2.728818E+02  6.575684E+05  2.136792E+04 -4.919910E+02
      6566   1  1.412212E+07 -4.563306E+02 -9.208236E+02  7.010097E+05  1.675532E+04  1.241397E+03
      6567   1  1.412280E+07 -1.375897E+03  2.064735E+03  7.642281E+05  6.642106E+03 -1.240956E+02
      6568   1  9.414336E+06 -9.950220E+02 -1.163540E+03  9.329137E+05 -3.075413E+03 -4.941047E+02
      6569   1  9.415249E+06 -5.424107E+01  6.541359E+02  8.659396E+05 -8.493686E+03  3.969650E+01
      6570   1  9.415049E+06  1.927442E+01 -1.880868E+01  8.176718E+05 -1.088446E+04 -9.417822E+02
      6571   1  9.415325E+06  6.481357E+02  1.821572E+02  7.853650E+05 -9.832498E+03  1.458291E+02
      6572   1  9.415398E+06  2.259864E+02  8.321841E+02  7.671564E+05 -5.811828E+03 -1.427517E+02
      6573   1  9.415317E+06  3.130949E+02  4.932052E+02  7.612533E+05 -4.890439E-04  4.407692E-06
      6574   1  9.415398E+06  2.259864E+02  8.321841E+02  7.671564E+05  5.811828E+03  1.427517E+02
      6575   1  9.415325E+06  6.481358E+02  1.821572E+02  7.853650E+05  9.832497E+03 -1.458291E+02
      6576   1  9.415049E+06  1.927444E+01 -1.880865E+01  8.176718E+05  1.088446E+04  9.417822E+02
      6577   1  9.415249E+06 -5.424098E+01  6.541359E+02  8.659395E+05  8.493686E+03 -3.969651E+01
      6578   1  9.414336E+06 -9.950219E+02 -1.163540E+03  9.329137E+05  3.075413E+03  4.941046E+02
      6579   1  4.707546E+06 -4.513274E+02  5.191789E+02  1.032769E+06 -1.354285E+03 -6.530110E+01
      6580   1  4.707348E+06 -2.041447E+02 -3.342318E+02  9.644275E+05 -3.495920E+03 -9.557524E+02
      6581   1  4.707643E+06  2.152944E+02  1.440413E+02  9.135277E+05 -4.584928E+03 -6.651169E+01
      6582   1  4.707611E+06  8.184537E+01  1.786178E+02  8.788894E+05 -4.176423E+03 -7.427963E+02
      6583   1  4.707661E+06  3.019682E+02  1.128257E+02  8.587672E+05 -2.459788E+03  1.279219E+01
      6584   1  4.707698E+06  1.133737E+02  4.094450E+02  8.522425E+05 -2.366031E-04 -1.879980E-05
      6585   1  4.707661E+06  3.019682E+02  1.128257E+02  8.587672E+05  2.459787E+03 -1.279219E+01
      6586   1  4.707611E+06  8.184535E+01  1.786178E+02  8.788894E+05  4.176423E+03  7.427962E+02
      6587   1  4.707643E+06  2.152943E+02  1.440413E+02  9.135277E+05  4.584928E+03  6.651167E+01
      6588   1  4.707348E+06 -2.041448E+02 -3.342318E+02  9.644275E+05  3.495920E+03  9.557524E+02
      6589   1  4.707546E+06 -4.513275E+02  5.191789E+02  1.032769E+06  1.354285E+03  6.530110E+01
      6590   1  5.151188E-03  3.678943E-05  5.007902E-05  1.065912E+06 -1.064141E-06 -3.840134E+02
      6591   1  5.166707E-03  8.483991E-05 -2.295252E-05  9.970621E+05 -5.751220E-06 -1.616558E+02
      6592   1  5.201490E-03  2.163000E-04  1.316200E-04  9.455725E+05 -4.754106E-06 -1.021974E+03
      6593   1  5.199471E-03  2.490326E-04  5.914591E-05  9.100685E+05 -5.607715E-06 -6.268967E+01
      6594   1  5.221702E-03  3.316937E-04  1.711241E-04  8.894857E+05 -3.495716E-06 -4.245815E+02
      6595   1  5.207682E-03  3.109114E-04  8.684232E-05  8.826903E+05 -2.210087E-07 -4.671270E-06
      6596   1  5.221303E-03  3.428381E-04  1.788005E-04  8.894857E+05  4.368951E-06  4.245815E+02
      6597   1  5.197764E-03  2.706870E-04  6.612540E-05  9.100685E+05  5.246188E-06  6.268965E+01
      6598   1  5.199683E-03  2.557672E-04  1.441046E-04  9.455725E+05  4.068255E-06  1.021974E+03
      6599   1  5.167866E-03  1.490026E-04  6.941383E-06  9.970621E+05  4.042487E-06  1.616558E+02
      6600   1  5.155434E-03  1.265279E-04  8.815322E-05  1.065912E+06  1.051391E-06  3.840134E+02
      6601   1 -4.707546E+06  4.513274E+02 -5.191788E+02  1.032769E+06  1.354285E+03 -6.530111E+01
      6602   1 -4.707348E+06  2.041445E+02  3.342316E+02  9.644275E+05  3.495920E+03 -9.557524E+02
      6603   1 -4.707643E+06 -2.152947E+02 -1.440413E+02  9.135277E+05  4.584928E+03 -6.651169E+01
      6604   1 -4.707611E+06 -8.184596E+01 -1.786182E+02  8.788894E+05  4.176423E+03 -7.427963E+02
      6605   1 -4.707661E+06 -3.019688E+02 -1.128258E+02  8.587672E+05  2.459788E+03  1.279219E+01
      6606   1 -4.707698E+06 -1.133744E+02 -4.094455E+02  8.522425E+05  2.360351E-04 -1.674078E-05
      6607   1 -4.707661E+06 -3.019688E+02 -1.128258E+02  8.587672E+05 -2.459787E+03 -1.279219E+01
      6608   1 -4.707611E+06 -8.184597E+01 -1.786182E+02  8.788894E+05 -4.176423E+03  7.427962E+02
      6609   1 -4.707643E+06 -2.152947E+02 -1.440413E+02  9.135277E+05 -4.584928E+03  6.651167E+01
      6610   1 -4.707348E+06  2.041444E+02  3.342316E+02  9.644275E+05 -3.495920E+03  9.557524E+02
      6611   1 -4.707546E+06  4.513273E+02 -5.191788E+02  1.032769E+06 -1.354285E+03  6.530111E+01
      6612   1 -9.414336E+06  9.950222E+02  1.163541E+03  9.329137E+05  3.075413E+03 -4.941047E+02
      6613   1 -9.415249E+06  5.424113E+01 -6.541362E+02  8.659396E+05  8.493686E+03  3.969650E+01
      6614   1 -9.415049E+06 -1.927390E+01  1.880918E+01  8.176718E+05  1.088446E+04 -9.417822E+02
      6615   1 -9.415325E+06 -6.481353E+02 -1.821573E+02  7.853650E+05  9.832498E+03  1.458291E+02
      6616   1 -9.415398E+06 -2.259857E+02 -8.321835E+02  7.671564E+05  5.811828E+03 -1.427517E+02
      6617   1 -9.415317E+06 -3.130944E+02 -4.932053E+02  7.612533E+05  4.882231E-04  2.932138E-06
      6618   1 -9.415398E+06 -2.259856E+02 -8.321835E+02  7.671564E+05 -5.811828E+03  1.427517E+02
      6619   1 -9.415325E+06 -6.481353E+02 -1.821573E+02  7.853650E+05 -9.832497E+03 -1.458291E+02
      6620   1 -9.415049E+06 -1.927384E+01  1.880917E+01  8.176718E+05 -1.088446E+04  9.417822E+02
      6621   1 -9.415249E+06  5.424118E+01 -6.541361E+02  8.659396E+05 -8.493686E+03 -3.969652E+01
      6622   1 -9.414336E+06  9.950223E+02  1.163541E+03  9.329137E+05 -3.075413E+03  4.941047E+02
      6623   1 -1.412280E+07  1.375897E+03 -2.064734E+03  7.642281E+05  6.642106E+03  1.240956E+02
      6624   1 -1.412212E+07  4.563301E+02  9.208229E+02  7.010097E+05  1.675532E+04 -1.241397E+03
      6625   1 -1.412303E+07 -1.105648E+03 -2.728814E+02  6.575684E+05  2.136792E+04  4.919909E+02
      6626   1 -1.412310E+07 -3.314827E+02 -1.257339E+03  6.307048E+05  1.907123E+04  1.319430E+02
      6627   1 -1.412297E+07 -2.138916E+02 -9.997806E+02  6.158934E+05  1.089090E+04  1.070035E+02
      6628   1 -1.412318E+07 -3.643633E+02 -1.461788E+03  6.110967E+05  7.753588E-04 -2.108666E-05
      6629   1 -1.412297E+07 -2.138916E+02 -9.997806E+02  6.158934E+05 -1.089089E+04 -1.070035E+02
      6630   1 -1.412310E+07 -3.314827E+02 -1.257339E+03  6.307048E+05 -1.907123E+04 -1.319431E+02
      6631   1 -1.412303E+07 -1.105648E+03 -2.728814E+02  6.575684E+05 -2.136792E+04 -4.919910E+02
      6632   1 -1.412212E+07  4.563300E+02  9.208228E+02  7.010097E+05 -1.675532E+04  1.241397E+03
      6633   1 -1.412280E+07  1.375897E+03 -2.064734E+03  7.642281E+05 -6.642106E+03 -1.240956E+02
      6634   1 -1.882808E+07  2.402440E+03  3.706136E+03  5.227685E+05  1.217257E+04 -1.164582E+03
      6635   1 -1.883090E+07 -1.467762E+03 -9.438372E+02  4.661105E+05  3.333739E+04  1.134967E+03
      6636   1 -1.883100E+07 -6.105794E+02 -2.123004E+03  4.350906E+05  4.075540E+04  8.113477E+02
      6637   1 -1.883064E+07  9.153582E+01 -1.723583E+03  4.171033E+05  3.372429E+04  2.383867E+02
      6638   1 -1.883097E+07 -5.547258E+02 -2.080770E+03  4.071877E+05  1.884680E+04  1.989006E+02
      6639   1 -1.883060E+07  2.757485E+02 -1.782270E+03  4.041610E+05  1.107953E-03  7.259964E-07
      6640   1 -1.883097E+07 -5.547258E+02 -2.080770E+03  4.071877E+05 -1.884680E+04 -1.989006E+02
      6641   1 -1.883064E+07  9.153584E+01 -1.723583E+03  4.171033E+05 -3.372429E+04 -2.383867E+02
      6642   1 -1.883100E+07 -6.105794E+02 -2.123004E+03  4.350906E+05 -4.075539E+04 -8.113478E+02
      6643   1 -1.883090E+07 -1.467761E+03 -9.438371E+02  4.661105E+05 -3.333739E+04 -1.134967E+03
      6644   1 -1.882808E+07  2.402440E+03  3.706136E+03  5.227685E+05 -1.217257E+04  1.164582E+03
      6645   1 -2.353946E+07  1.652972E+03 -7.213554E+03  1.920013E+05  3.281555E+04  1.791990E+03
      6646   1 -2.353988E+07 -2.123722E+03 -4.712081E+03  1.649969E+05  7.094640E+04  1.103255E+03
      6647   1 -2.353833E+07  1.098775E+03 -3.256854E+03  1.546711E+05  7.223712E+04  2.159802E+02
      6648   1 -2.353889E+07 -9.699262E+02 -2.866077E+03  1.478529E+05  5.632972E+04  2.579594E+02
      6649   1 -2.353822E+07  7.018786E+02 -2.522308E+03  1.445899E+05  3.040082E+04  3.635675E+01
      6650   1 -2.353870E+07 -7.229310E+02 -2.525595E+03  1.433906E+05  1.502068E-03 -9.649934E-07
      6651   1 -2.353822E+07  7.018786E+02 -2.522308E+03  1.445899E+05 -3.040082E+04 -3.635676E+01
      6652   1 -2.353889E+07 -9.699262E+02 -2.866077E+03  1.478529E+05 -5.632972E+04 -2.579594E+02
      6653   1 -2.353833E+07  1.098775E+03 -3.256854E+03  1.546711E+05 -7.223712E+04 -2.159802E+02
      6654   1 -2.353988E+07 -2.123722E+03 -4.712081E+03  1.649969E+05 -7.094640E+04 -1.103255E+03
      6655   1 -2.353946E+07  1.652972E+03 -7.213554E+03  1.920013E+05 -3.281555E+04 -1.791990E+03
      6656   1  2.322135E+07 -1.636374E+03  7.100735E+03  1.920009E+05 -3.281549E+04  1.767573E+03
      6657   1  2.322178E+07  2.100566E+03  4.663249E+03  1.649971E+05 -7.094657E+04  1.088465E+03
      6658   1  2.322025E+07 -1.089413E+03  3.198283E+03  1.546710E+05 -7.223692E+04  2.129840E+02
      6659   1  2.322080E+07  9.625430E+02  2.841827E+03  1.478530E+05 -5.632989E+04  2.545199E+02
      6660   1  2.322014E+07 -6.980411E+02  2.473846E+03  1.445899E+05 -3.040073E+04  3.584365E+01
      6661   1  2.322061E+07  7.189631E+02  2.505868E+03  1.433907E+05 -1.500259E-03  6.686656E-07
      6662   1  2.322014E+07 -6.980411E+02  2.473846E+03  1.445899E+05  3.040072E+04 -3.584366E+01
      6663   1  2.322080E+07  9.625430E+02  2.841827E+03  1.478530E+05  5.632988E+04 -2.545199E+02
      6664   1  2.322025E+07 -1.089413E+03  3.198283E+03  1.546710E+05  7.223692E+04 -2.129840E+02
      6665   1  2.322178E+07  2.100566E+03  4.663249E+03  1.649971E+05  7.094657E+04 -1.088465E+03
      6666   1  2.322135E+07 -1.636374E+03  7.100735E+03  1.920009E+05  3.281549E+04 -1.767573E+03
      6667   1  1.857365E+07 -2.374159E+03 -3.669286E+03  5.227689E+05 -1.217247E+04 -1.148794E+03
      6668   1  1.857643E+07  1.452593E+03  9.441205E+02  4.661104E+05 -3.333758E+04  1.119628E+03
      6669   1  1.857652E+07  5.973630E+02  2.081397E+03  4.350906E+05 -4.075520E+04  8.003798E+02
      6670   1  1.857617E+07 -8.537568E+01  1.713073E+03  4.171033E+05 -3.372445E+04  2.351697E+02
      6671   1  1.857649E+07  5.421176E+02  2.039877E+03  4.071877E+05 -1.884671E+04  1.962101E+02
      6672   1  1.857613E+07 -2.670217E+02  1.770906E+03  4.041610E+05 -1.107705E-03 -1.343261E-06
      6673   1  1.857649E+07  5.421176E+02  2.039877E+03  4.071877E+05  1.884671E+04 -1.962101E+02
      6674   1  1.857617E+07 -8.537570E+01  1.713073E+03  4.171033E+05  3.372444E+04 -2.351697E+02
      6675   1  1.857652E+07  5.973629E+02  2.081397E+03  4.350906E+05  4.075520E+04 -8.003798E+02
      6676   1  1.857643E+07  1.452592E+03  9.441205E+02  4.661104E+05  3.333758E+04 -1.119628E+03
      6677   1  1.857365E+07 -2.374159E+03 -3.669287E+03  5.227689E+05  1.217247E+04  1.148794E+03
      6678   1  1.393195E+07 -1.361175E+03  2.026178E+03  7.642280E+05 -6.642064E+03  1.223925E+02
      6679   1  1.393128E+07 -4.463846E+02 -8.980591E+02  7.010096E+05 -1.675545E+04 -1.224633E+03
      6680   1  1.393217E+07  1.086947E+03  2.590656E+02  6.575685E+05 -2.136777E+04  4.853513E+02
      6681   1  1.393225E+07  3.309615E+02  1.250429E+03  6.307048E+05 -1.907135E+04  1.301540E+02
      6682   1  1.393212E+07  2.071068E+02  9.762599E+02  6.158934E+05 -1.089083E+04  1.055605E+02
      6683   1  1.393233E+07  3.634614E+02  1.452065E+03  6.110967E+05 -7.759890E-04 -2.090796E-05
      6684   1  1.393212E+07  2.071068E+02  9.762599E+02  6.158934E+05  1.089083E+04 -1.055605E+02
      6685   1  1.393225E+07  3.309615E+02  1.250429E+03  6.307048E+05  1.907135E+04 -1.301540E+02
      6686   1  1.393217E+07  1.086947E+03  2.590656E+02  6.575685E+05  2.136777E+04 -4.853513E+02
      6687   1  1.393128E+07 -4.463845E+02 -8.980591E+02  7.010096E+05  1.675545E+04  1.224633E+03
      6688   1  1.393195E+07 -1.361175E+03  2.026179E+03  7.642280E+05  6.642063E+03 -1.223926E+02
      6689   1  9.287115E+06 -9.838565E+02 -1.154909E+03  9.329140E+05 -3.075366E+03 -4.874073E+02
      6690   1  9.288017E+06 -5.099494E+01  6.522804E+02  8.659395E+05 -8.493780E+03  3.916889E+01
      6691   1  9.287817E+06  1.634809E+01 -2.547165E+01  8.176718E+05 -1.088436E+04 -9.290567E+02
      6692   1  9.288092E+06  6.420003E+02  1.865334E+02  7.853650E+05 -9.832577E+03  1.438579E+02
      6693   1  9.288161E+06  2.201989E+02  8.141048E+02  7.671564E+05 -5.811784E+03 -1.408220E+02
      6694   1  9.288084E+06  3.115242E+02  4.933424E+02  7.612532E+05 -4.888622E-04 -1.473392E-07
      6695   1  9.288161E+06  2.201989E+02  8.141048E+02  7.671564E+05  5.811783E+03  1.408220E+02
      6696   1  9.288092E+06  6.420003E+02  1.865333E+02  7.853650E+05  9.832577E+03 -1.438579E+02
      6697   1  9.287817E+06  1.634803E+01 -2.547165E+01  8.176718E+05  1.088436E+04  9.290567E+02
      6698   1  9.288017E+06 -5.099501E+01  6.522803E+02  8.659395E+05  8.493779E+03 -3.916891E+01
      6699   1  9.287115E+06 -9.838566E+02 -1.154909E+03  9.329140E+05  3.075366E+03  4.874073E+02
      6700   1  4.643931E+06 -4.465405E+02  5.085225E+02  1.032769E+06 -1.354270E+03 -6.443357E+01
      6701   1  4.643735E+06 -2.000982E+02 -3.261873E+02  9.644274E+05 -3.495965E+03 -9.428500E+02
      6702   1  4.644026E+06  2.111038E+02  1.386320E+02  9.135278E+05 -4.584877E+03 -6.560819E+01
      6703   1  4.643996E+06  8.209586E+01  1.796530E+02  8.788894E+05 -4.176465E+03 -7.327607E+02
      6704   1  4.644044E+06  2.965586E+02  1.078772E+02  8.587673E+05 -2.459764E+03  1.262034E+01
      6705   1  4.644081E+06  1.132205E+02  4.073445E+02  8.522425E+05 -2.366005E-04 -1.368215E-05
      6706   1  4.644044E+06  2.965586E+02  1.078772E+02  8.587673E+05  2.459764E+03 -1.262034E+01
      6707   1  4.643996E+06  8.209587E+01  1.796531E+02  8.788894E+05  4.176465E+03  7.327607E+02
      6708   1  4.644026E+06  2.111039E+02  1.386321E+02  9.135278E+05  4.584877E+03  6.560816E+01
      6709   1  4.643735E+06 -2.000981E+02 -3.261872E+02  9.644274E+05  3.495964E+03  9.428500E+02
      6710   1  4.643931E+06 -4.465404E+02  5.085226E+02  1.032769E+06  1.354270E+03  6.443356E+01
      6711   1  5.081543E-03 -5.191422E-05 -7.695296E-05  1.065912E+06 -1.407368E-06 -3.788082E+02
      6712   1  5.066413E-03 -8.884876E-05  4.353128E-06  9.970620E+05 -1.655949E-06 -1.594626E+02
      6713   1  5.030502E-03 -2.565304E-04 -1.469907E-04  9.455725E+05 -4.869682E-06 -1.008163E+03
      6714   1  5.024596E-03 -3.018270E-04 -7.228321E-05  9.100684E+05 -3.537990E-06 -6.184464E+01
      6715   1  4.994215E-03 -4.030803E-04 -2.074295E-04  8.894857E+05 -2.744944E-06 -4.188425E+02
      6716   1  5.006115E-03 -3.876710E-04 -1.019841E-04  8.826902E+05 -8.444696E-08  3.453164E-06
      6717   1  4.991726E-03 -4.128111E-04 -2.079333E-04  8.894857E+05  2.204492E-06  4.188425E+02
      6718   1  5.016920E-03 -3.164469E-04 -7.947279E-05  9.100684E+05  2.502135E-06  6.184464E+01
      6719   1  5.011295E-03 -3.012101E-04 -1.660324E-04  9.455725E+05  4.352991E-06  1.008163E+03
      6720   1  5.032771E-03 -1.820474E-04 -3.394544E-05  9.970620E+05  2.722899E-06  1.594626E+02
      6721   1  5.042449E-03 -1.699956E-04 -1.204381E-04  1.065912E+06  4.493733E-08  3.788082E+02
      6722   1 -4.643931E+06  4.465405E+02 -5.085227E+02  1.032769E+06  1.354270E+03 -6.443357E+01
      6723   1 -4.643735E+06  2.000985E+02  3.261876E+02  9.644274E+05  3.495965E+03 -9.428501E+02
      6724   1 -4.644026E+06 -2.111034E+02 -1.386321E+02  9.135278E+05  4.584877E+03 -6.560819E+01
      6725   1 -4.643996E+06 -8.209513E+01 -1.796526E+02  8.788894E+05  4.176465E+03 -7.327607E+02
      6726   1 -4.644044E+06 -2.965579E+02 -1.078771E+02  8.587673E+05  2.459764E+03  1.262033E+01
      6727   1 -4.644081E+06 -1.132196E+02 -4.073440E+02  8.522425E+05  2.365816E-04 -1.813598E-05
      6728   1 -4.644044E+06 -2.965579E+02 -1.078771E+02  8.587673E+05 -2.459764E+03 -1.262033E+01
      6729   1 -4.643996E+06 -8.209510E+01 -1.796526E+02  8.788894E+05 -4.176465E+03  7.327607E+02
      6730   1 -4.644026E+06 -2.111034E+02 -1.386320E+02  9.135278E+05 -4.584877E+03  6.560816E+01
      6731   1 -4.643735E+06  2.000986E+02  3.261876E+02  9.644274E+05 -3.495964E+03  9.428500E+02
      6732   1 -4.643931E+06  4.465406E+02 -5.085227E+02  1.032769E+06 -1.354270E+03  6.443357E+01
      6733   1 -9.287115E+06  9.838563E+02  1.154909E+03  9.329140E+05  3.075366E+03 -4.874074E+02
      6734   1 -9.288017E+06  5.099484E+01 -6.522800E+02  8.659395E+05  8.493780E+03  3.916890E+01
      6735   1 -9.287817E+06 -1.634872E+01  2.547106E+01  8.176718E+05  1.088436E+04 -9.290567E+02
      6736   1 -9.288092E+06 -6.420008E+02 -1.865332E+02  7.853650E+05  9.832577E+03  1.438579E+02
      6737   1 -9.288161E+06 -2.201998E+02 -8.141055E+02  7.671564E+05  5.811784E+03 -1.408220E+02
      6738   1 -9.288084E+06 -3.115248E+02 -4.933424E+02  7.612532E+05  4.894097E-04  5.497600E-06
      6739   1 -9.288161E+06 -2.201998E+02 -8.141055E+02  7.671564E+05 -5.811783E+03  1.408220E+02
      6740   1 -9.288092E+06 -6.420009E+02 -1.865332E+02  7.853650E+05 -9.832577E+03 -1.438579E+02
      6741   1 -9.287817E+06 -1.634875E+01  2.547103E+01  8.176718E+05 -1.088436E+04  9.290567E+02
      6742   1 -9.288017E+06  5.099475E+01 -6.522801E+02  8.659395E+05 -8.493779E+03 -3.916891E+01
      6743   1 -9.287115E+06  9.838562E+02  1.154909E+03  9.329140E+05 -3.075366E+03  4.874074E+02
      6744   1 -1.393195E+07  1.361175E+03 -2.026179E+03  7.642280E+05  6.642064E+03  1.223926E+02
      6745   1 -1.393128E+07  4.463850E+02  8.980599E+02  7.010096E+05  1.675545E+04 -1.224633E+03
      6746   1 -1.393217E+07 -1.086947E+03 -2.590661E+02  6.575685E+05  2.136777E+04  4.853513E+02
      6747   1 -1.393225E+07 -3.309605E+02 -1.250428E+03  6.307048E+05  1.907135E+04  1.301540E+02
      6748   1 -1.393212E+07 -2.071063E+02 -9.762603E+02  6.158934E+05  1.089083E+04  1.055605E+02
      6749   1 -1.393233E+07 -3.634603E+02 -1.452064E+03  6.110967E+05  7.750384E-04 -1.985436E-05
      6750   1 -1.393212E+07 -2.071063E+02 -9.762603E+02  6.158934E+05 -1.089083E+04 -1.055605E+02
      6751   1 -1.393225E+07 -3.309605E+02 -1.250428E+03  6.307048E+05 -1.907135E+04 -1.301540E+02
      6752   1 -1.393217E+07 -1.086947E+03 -2.590661E+02  6.575685E+05 -2.136777E+04 -4.853513E+02
      6753   1 -1.393128E+07  4.463851E+02  8.980599E+02  7.010096E+05 -1.675545E+04  1.224633E+03
      6754   1 -1.393195E+07  1.361175E+03 -2.026179E+03  7.642280E+05 -6.642063E+03 -1.223926E+02
      6755   1 -1.857365E+07  2.374158E+03  3.669285E+03  5.227689E+05  1.217247E+04 -1.148794E+03
      6756   1 -1.857643E+07 -1.452592E+03 -9.441196E+02  4.661104E+05  3.333758E+04  1.119628E+03
      6757   1 -1.857652E+07 -5.973639E+02 -2.081398E+03  4.350906E+05  4.075520E+04  8.003798E+02
      6758   1 -1.857617E+07  8.537540E+01 -1.713072E+03  4.171033E+05  3.372445E+04  2.351697E+02
      6759   1 -1.857649E+07 -5.421188E+02 -2.039879E+03  4.071877E+05  1.884671E+04  1.962101E+02
      6760   1 -1.857613E+07  2.670212E+02 -1.770905E+03  4.041610E+05  1.107454E-03  1.291057E-06
      6761   1 -1.857649E+07 -5.421188E+02 -2.039879E+03  4.071877E+05 -1.884671E+04 -1.962101E+02
      6762   1 -1.857617E+07  8.537539E+01 -1.713072E+03  4.171033E+05 -3.372444E+04 -2.351697E+02
      6763   1 -1.857652E+07 -5.973639E+02 -2.081398E+03  4.350906E+05 -4.075520E+04 -8.003798E+02
      6764   1 -1.857643E+07 -1.452593E+03 -9.441196E+02  4.661104E+05 -3.333758E+04 -1.119628E+03
      6765   1 -1.857365E+07  2.374158E+03  3.669285E+03  5.227689E+05 -1.217247E+04  1.148794E+03
      6766   1 -2.322135E+07  1.636374E+03 -7.100736E+03  1.920009E+05  3.281549E+04  1.767573E+03
      6767   1 -2.322178E+07 -2.100565E+03 -4.663248E+03  1.649971E+05  7.094657E+04  1.088465E+03
      6768   1 -2.322025E+07  1.089413E+03 -3.198284E+03  1.546710E+05  7.223692E+04  2.129840E+02
      6769   1 -2.322080E+07 -9.625418E+02 -2.841826E+03  1.478530E+05  5.632989E+04  2.545199E+02
      6770   1 -2.322014E+07  6.980415E+02 -2.473846E+03  1.445899E+05  3.040073E+04  3.584365E+01
      6771   1 -2.322061E+07 -7.189617E+02 -2.505866E+03  1.433907E+05  1.499683E-03 -4.212117E-06
      6772   1 -2.322014E+07  6.980415E+02 -2.473846E+03  1.445899E+05 -3.040072E+04 -3.584365E+01
      6773   1 -2.322080E+07 -9.625418E+02 -2.841826E+03  1.478530E+05 -5.632988E+04 -2.545199E+02
      6774   1 -2.322025E+07  1.089413E+03 -3.198284E+03  1.546710E+05 -7.223692E+04 -2.129840E+02
      6775   1 -2.322178E+07 -2.100565E+03 -4.663248E+03  1.649971E+05 -7.094657E+04 -1.088465E+03
      6776   1 -2.322135E+07  1.636374E+03 -7.100736E+03  1.920009E+05 -3.281549E+04 -1.767573E+03
      6777   1  2.290325E+07 -1.609266E+03  7.015986E+03  1.920012E+05 -3.281554E+04  1.743524E+03
      6778   1  2.290367E+07  2.067275E+03  4.587256E+03  1.649969E+05 -7.094643E+04  1.073457E+03
      6779   1  2.290216E+07 -1.070004E+03  3.166356E+03  1.546711E+05 -7.223708E+04  2.101297E+02
      6780   1  2.290271E+07  9.446935E+02  2.791082E+03  1.478529E+05 -5.632975E+04  2.509954E+02
      6781   1  2.290205E+07 -6.838625E+02  2.451693E+03  1.445899E+05 -3.040080E+04  3.537043E+01
      6782   1  2.290252E+07  7.043870E+02  2.459789E+03  1.433907E+05 -1.493689E-03 -2.708276E-07
      6783   1  2.290205E+07 -6.838626E+02  2.451693E+03  1.445899E+05  3.040080E+04 -3.537044E+01
      6784   1  2.290271E+07  9.446935E+02  2.791082E+03  1.478529E+05  5.632975E+04 -2.509955E+02
      6785   1  2.290216E+07 -1.070004E+03  3.166356E+03  1.546711E+05  7.223708E+04 -2.101297E+02
      6786   1  2.290367E+07  2.067275E+03  4.587256E+03  1.649969E+05  7.094643E+04 -1.073457E+03
      6787   1  2.290325E+07 -1.609266E+03  7.015986E+03  1.920012E+05  3.281554E+04 -1.743524E+03
      6788   1  1.831921E+07 -2.338225E+03 -3.608217E+03  5.227686E+05 -1.217255E+04 -1.133099E+03
      6789   1  1.832195E+07  1.428877E+03  9.205375E+02  4.661105E+05 -3.333743E+04  1.104292E+03
      6790   1  1.832205E+07  5.932279E+02  2.063432E+03  4.350906E+05 -4.075536E+04  7.894188E+02
      6791   1  1.832170E+07 -8.823369E+01  1.679166E+03  4.171033E+05 -3.372432E+04  2.319446E+02
      6792   1  1.832202E+07  5.388592E+02  2.022364E+03  4.071877E+05 -1.884678E+04  1.935244E+02
      6793   1  1.832166E+07 -2.674545E+02  1.736256E+03  4.041610E+05 -1.103966E-03 -1.925395E-06
      6794   1  1.832202E+07  5.388593E+02  2.022364E+03  4.071877E+05  1.884678E+04 -1.935245E+02
      6795   1  1.832170E+07 -8.823367E+01  1.679166E+03  4.171033E+05  3.372431E+04 -2.319446E+02
      6796   1  1.832205E+07  5.932280E+02  2.063432E+03  4.350906E+05  4.075536E+04 -7.894188E+02
      6797   1  1.832195E+07  1.428877E+03  9.205375E+02  4.661105E+05  3.333742E+04 -1.104292E+03
      6798   1  1.831921E+07 -2.338225E+03 -3.608217E+03  5.227686E+05  1.217255E+04  1.133099E+03
      6799   1  1.374110E+07 -1.339359E+03  2.007133E+03  7.642281E+05 -6.642098E+03  1.207372E+02
      6800   1  1.374044E+07 -4.433528E+02 -8.941910E+02  7.010097E+05 -1.675534E+04 -1.207848E+03
      6801   1  1.374132E+07  1.075136E+03  2.637974E+02  6.575685E+05 -2.136789E+04  4.786954E+02
      6802   1  1.374140E+07  3.231978E+02  1.225061E+03  6.307048E+05 -1.907125E+04  1.283760E+02
      6803   1  1.374127E+07  2.074587E+02  9.710707E+02  6.158934E+05 -1.089088E+04  1.041120E+02
      6804   1  1.374147E+07  3.552004E+02  1.423976E+03  6.110967E+05 -7.743774E-04 -1.652746E-05
      6805   1  1.374127E+07  2.074587E+02  9.710706E+02  6.158934E+05  1.089088E+04 -1.041120E+02
      6806   1  1.374140E+07  3.231977E+02  1.225061E+03  6.307048E+05  1.907125E+04 -1.283760E+02
      6807   1  1.374132E+07  1.075136E+03  2.637974E+02  6.575684E+05  2.136789E+04 -4.786954E+02
      6808   1  1.374044E+07 -4.433529E+02 -8.941910E+02  7.010097E+05  1.675534E+04  1.207848E+03
      6809   1  1.374110E+07 -1.339359E+03  2.007133E+03  7.642281E+05  6.642098E+03 -1.207372E+02
      6810   1  9.159894E+06 -9.685174E+02 -1.133289E+03  9.329137E+05 -3.075405E+03 -4.807470E+02
      6811   1  9.160783E+06 -5.235610E+01  6.376316E+02  8.659395E+05 -8.493703E+03  3.862516E+01
      6812   1  9.160588E+06  1.830019E+01 -1.946666E+01  8.176718E+05 -1.088444E+04 -9.163288E+02
      6813   1  9.160857E+06  6.310561E+02  1.783844E+02  7.853650E+05 -9.832512E+03  1.418877E+02
      6814   1  9.160927E+06  2.194140E+02  8.085405E+02  7.671564E+05 -5.811820E+03 -1.388935E+02
      6815   1  9.160849E+06  3.050766E+02  4.810198E+02  7.612533E+05 -4.877715E-04  5.482510E-06
      6816   1  9.160927E+06  2.194141E+02  8.085405E+02  7.671564E+05  5.811819E+03  1.388934E+02
      6817   1  9.160857E+06  6.310561E+02  1.783844E+02  7.853650E+05  9.832511E+03 -1.418877E+02
      6818   1  9.160588E+06  1.830024E+01 -1.946662E+01  8.176718E+05  1.088444E+04  9.163288E+02
      6819   1  9.160783E+06 -5.235598E+01  6.376316E+02  8.659395E+05  8.493703E+03 -3.862517E+01
      6820   1  9.159894E+06 -9.685173E+02 -1.133289E+03  9.329137E+05  3.075404E+03  4.807470E+02
      6821   1  4.580315E+06 -4.393482E+02  5.045351E+02  1.032769E+06 -1.354282E+03 -6.353886E+01
      6822   1  4.580122E+06 -1.984085E+02 -3.246043E+02  9.644275E+05 -3.495928E+03 -9.299235E+02
      6823   1  4.580409E+06  2.092622E+02  1.395663E+02  9.135277E+05 -4.584919E+03 -6.471328E+01
      6824   1  4.580379E+06  7.986365E+01  1.743713E+02  8.788894E+05 -4.176431E+03 -7.227210E+02
      6825   1  4.580427E+06  2.935854E+02  1.092009E+02  8.587673E+05 -2.459783E+03  1.244664E+01
      6826   1  4.580463E+06  1.105436E+02  3.989571E+02  8.522425E+05 -2.352668E-04 -1.385502E-05
      6827   1  4.580427E+06  2.935854E+02  1.092009E+02  8.587673E+05  2.459783E+03 -1.244664E+01
      6828   1  4.580379E+06  7.986362E+01  1.743713E+02  8.788894E+05  4.176431E+03  7.227210E+02
      6829   1  4.580409E+06  2.092621E+02  1.395663E+02  9.135277E+05  4.584919E+03  6.471326E+01
      6830   1  4.580122E+06 -1.984086E+02 -3.246043E+02  9.644275E+05  3.495928E+03  9.299235E+02
      6831   1  4.580315E+06 -4.393483E+02  5.045351E+02  1.032769E+06  1.354282E+03  6.353885E+01
      6832   1  5.013937E-03  6.265998E-05  7.437988E-05  1.065912E+06 -8.666484E-08 -3.736319E+02
      6833   1  5.036436E-03  1.278360E-04 -2.144263E-05  9.970621E+05 -5.186962E-06 -1.572852E+02
      6834   1  5.083554E-03  3.168082E-04  1.890981E-04  9.455725E+05 -6.329298E-06 -9.943530E+02
      6835   1  5.085664E-03  3.791938E-04  9.343358E-05  9.100685E+05 -6.007871E-06 -6.099568E+01
      6836   1  5.115052E-03  4.950949E-04  2.548259E-04  8.894857E+05 -2.761829E-06 -4.131061E+02
      6837   1  5.098218E-03  4.656501E-04  1.309170E-04  8.826903E+05  1.937967E-06 -1.402636E-06
      6838   1  5.117637E-03  5.083451E-04  2.600114E-04  8.894857E+05  1.761650E-06  4.131061E+02
      6839   1  5.082974E-03  3.999450E-04  1.030746E-04  9.100685E+05  6.064243E-06  6.099567E+01
      6840   1  5.082857E-03  3.660749E-04  2.036755E-04  9.455725E+05  5.024733E-06  9.943530E+02
      6841   1  5.045565E-03  2.235184E-04  1.945787E-05  9.970621E+05  5.042521E-06  1.572852E+02
      6842   1  5.022795E-03  1.829624E-04  1.253943E-04  1.065912E+06  2.106749E-06  3.736318E+02
      6843   1 -4.580315E+06  4.393482E+02 -5.045349E+02  1.032769E+06  1.354282E+03 -6.353887E+01
      6844   1 -4.580122E+06  1.984081E+02  3.246039E+02  9.644275E+05  3.495928E+03 -9.299235E+02
      6845   1 -4.580409E+06 -2.092627E+02 -1.395663E+02  9.135277E+05  4.584919E+03 -6.471328E+01
      6846   1 -4.580379E+06 -7.986454E+01 -1.743718E+02  8.788894E+05  4.176431E+03 -7.227210E+02
      6847   1 -4.580427E+06 -2.935862E+02 -1.092011E+02  8.587673E+05  2.459783E+03  1.244664E+01
      6848   1 -4.580463E+06 -1.105447E+02 -3.989577E+02  8.522425E+05  2.354931E-04 -1.742616E-05
      6849   1 -4.580427E+06 -2.935863E+02 -1.092011E+02  8.587673E+05 -2.459783E+03 -1.244663E+01
      6850   1 -4.580379E+06 -7.986455E+01 -1.743718E+02  8.788894E+05 -4.176431E+03  7.227210E+02
      6851   1 -4.580409E+06 -2.092627E+02 -1.395664E+02  9.135277E+05 -4.584919E+03  6.471326E+01
      6852   1 -4.580122E+06  1.984080E+02  3.246039E+02  9.644275E+05 -3.495928E+03  9.299235E+02
      6853   1 -4.580315E+06  4.393481E+02 -5.045350E+02  1.032769E+06 -1.354282E+03  6.353886E+01
      6854   1 -9.159894E+06  9.685177E+02  1.133289E+03  9.329137E+05  3.075405E+03 -4.807470E+02
      6855   1 -9.160783E+06  5.235619E+01 -6.376319E+02  8.659395E+05  8.493703E+03  3.862517E+01
      6856   1 -9.160588E+06 -1.829942E+01  1.946739E+01  8.176718E+05  1.088444E+04 -9.163288E+02
      6857   1 -9.160857E+06 -6.310554E+02 -1.783846E+02  7.853650E+05  9.832512E+03  1.418877E+02
      6858   1 -9.160927E+06 -2.194129E+02 -8.085396E+02  7.671564E+05  5.811820E+03 -1.388935E+02
      6859   1 -9.160849E+06 -3.050758E+02 -4.810199E+02  7.612533E+05  4.850751E-04  4.710373E-06
      6860   1 -9.160927E+06 -2.194129E+02 -8.085396E+02  7.671564E+05 -5.811819E+03  1.388934E+02
      6861   1 -9.160857E+06 -6.310554E+02 -1.783846E+02  7.853650E+05 -9.832511E+03 -1.418877E+02
      6862   1 -9.160588E+06 -1.829935E+01  1.946739E+01  8.176718E+05 -1.088444E+04  9.163288E+02
      6863   1 -9.160783E+06  5.235629E+01 -6.376319E+02  8.659395E+05 -8.493703E+03 -3.862517E+01
      6864   1 -9.159894E+06  9.685178E+02  1.133289E+03  9.329137E+05 -3.075404E+03  4.807470E+02
      6865   1 -1.374110E+07  1.339360E+03 -2.007132E+03  7.642281E+05  6.642098E+03  1.207372E+02
      6866   1 -1.374044E+07  4.433522E+02  8.941900E+02  7.010097E+05  1.675534E+04 -1.207848E+03
      6867   1 -1.374132E+07 -1.075137E+03 -2.637968E+02  6.575685E+05  2.136789E+04  4.786954E+02
      6868   1 -1.374140E+07 -3.231989E+02 -1.225062E+03  6.307048E+05  1.907125E+04  1.283760E+02
      6869   1 -1.374127E+07 -2.074593E+02 -9.710702E+02  6.158934E+05  1.089088E+04  1.041120E+02
      6870   1 -1.374147E+07 -3.552017E+02 -1.423977E+03  6.110967E+05  7.724096E-04 -2.043405E-05
      6871   1 -1.374127E+07 -2.074593E+02 -9.710701E+02  6.158934E+05 -1.089088E+04 -1.041120E+02
      6872   1 -1.374140E+07 -3.231989E+02 -1.225062E+03  6.307048E+05 -1.907125E+04 -1.283760E+02
      6873   1 -1.374132E+07 -1.075137E+03 -2.637968E+02  6.575685E+05 -2.136789E+04 -4.786954E+02
      6874   1 -1.374044E+07  4.433521E+02  8.941899E+02  7.010097E+05 -1.675534E+04  1.207848E+03
      6875   1 -1.374110E+07  1.339359E+03 -2.007132E+03  7.642281E+05 -6.642098E+03 -1.207372E+02
      6876   1 -1.831921E+07  2.338226E+03  3.608218E+03  5.227686E+05  1.217255E+04 -1.133099E+03
      6877   1 -1.832195E+07 -1.428877E+03 -9.205386E+02  4.661105E+05  3.333743E+04  1.104292E+03
      6878   1 -1.832205E+07 -5.932269E+02 -2.063431E+03  4.350906E+05  4.075536E+04  7.894188E+02
      6879   1 -1.832170E+07  8.823404E+01 -1.679167E+03  4.171033E+05  3.372432E+04  2.319446E+02
      6880   1 -1.832202E+07 -5.388578E+02 -2.022362E+03  4.071877E+05  1.884678E+04  1.935244E+02
      6881   1 -1.832166E+07  2.674550E+02 -1.736257E+03  4.041610E+05  1.103968E-03 -2.593749E-06
      6882   1 -1.832202E+07 -5.388578E+02 -2.022362E+03  4.071877E+05 -1.884678E+04 -1.935245E+02
      6883   1 -1.832170E+07  8.823408E+01 -1.679167E+03  4.171033E+05 -3.372431E+04 -2.319446E+02
      6884   1 -1.832205E+07 -5.932268E+02 -2.063431E+03  4.350906E+05 -4.075536E+04 -7.894188E+02
      6885   1 -1.832195E+07 -1.428877E+03 -9.205386E+02  4.661105E+05 -3.333742E+04 -1.104292E+03
      6886   1 -1.831921E+07  2.338226E+03  3.608218E+03  5.227686E+05 -1.217255E+04  1.133099E+03
      6887   1 -2.290325E+07  1.609266E+03 -7.015984E+03  1.920012E+05  3.281554E+04  1.743524E+03
      6888   1 -2.290367E+07 -2.067276E+03 -4.587257E+03  1.649969E+05  7.094643E+04  1.073457E+03
      6889   1 -2.290216E+07  1.070004E+03 -3.166355E+03  1.546711E+05  7.223708E+04  2.101297E+02
      6890   1 -2.290271E+07 -9.446949E+02 -2.791084E+03  1.478529E+05  5.632975E+04  2.509954E+02
      6891   1 -2.290205E+07  6.838621E+02 -2.451692E+03  1.445899E+05  3.040080E+04  3.537043E+01
      6892   1 -2.290252E+07 -7.043886E+02 -2.459791E+03  1.433907E+05  1.491354E-03 -5.423507E-06
      6893   1 -2.290205E+07  6.838621E+02 -2.451692E+03  1.445899E+05 -3.040080E+04 -3.537043E+01
      6894   1 -2.290271E+07 -9.446950E+02 -2.791084E+03  1.478529E+05 -5.632975E+04 -2.509955E+02
      6895   1 -2.290216E+07  1.070004E+03 -3.166355E+03  1.546711E+05 -7.223708E+04 -2.101297E+02
      6896   1 -2.290367E+07 -2.067276E+03 -4.587257E+03  1.649969E+05 -7.094643E+04 -1.073457E+03
      6897   1 -2.290325E+07  1.609266E+03 -7.015984E+03  1.920012E+05 -3.281554E+04 -1.743524E+03
      6898   1  2.258515E+07 -1.590750E+03  6.908321E+03  1.920009E+05 -3.281550E+04  1.719174E+03
      6899   1  2.258556E+07  2.042242E+03  4.533428E+03  1.649971E+05 -7.094654E+04  1.058628E+03
      6900   1  2.258408E+07 -1.058809E+03  3.112677E+03  1.546710E+05 -7.223695E+04  2.071596E+02
      6901   1  2.258462E+07  9.353733E+02  2.761958E+03  1.478530E+05 -5.632986E+04  2.475403E+02
      6902   1  2.258397E+07 -6.781375E+02  2.408063E+03  1.445899E+05 -3.040074E+04  3.486466E+01
      6903   1  2.258443E+07  6.984560E+02  2.435214E+03  1.433907E+05 -1.493180E-03 -2.078173E-06
      6904   1  2.258397E+07 -6.781375E+02  2.408063E+03  1.445899E+05  3.040074E+04 -3.486466E+01
      6905   1  2.258462E+07  9.353733E+02  2.761958E+03  1.478530E+05  5.632986E+04 -2.475403E+02
      6906   1  2.258408E+07 -1.058809E+03  3.112677E+03  1.546710E+05  7.223695E+04 -2.071596E+02
      6907   1  2.258556E+07  2.042243E+03  4.533428E+03  1.649971E+05  7.094654E+04 -1.058628E+03
      6908   1  2.258515E+07 -1.590750E+03  6.908321E+03  1.920009E+05  3.281550E+04 -1.719174E+03
      6909   1  1.806478E+07 -2.308530E+03 -3.566925E+03  5.227688E+05 -1.217249E+04 -1.117327E+03
      6910   1  1.806748E+07  1.412154E+03  9.164511E+02  4.661104E+05 -3.333755E+04  1.088954E+03
      6911   1  1.806758E+07  5.816889E+02  2.026162E+03  4.350906E+05 -4.075523E+04  7.784521E+02
      6912   1  1.806724E+07 -8.371339E+01  1.664372E+03  4.171033E+05 -3.372442E+04  2.287261E+02
      6913   1  1.806755E+07  5.279774E+02  1.985760E+03  4.071877E+05 -1.884673E+04  1.908348E+02
      6914   1  1.806720E+07 -2.603935E+02  1.720629E+03  4.041610E+05 -1.104881E-03 -1.397961E-06
      6915   1  1.806755E+07  5.279774E+02  1.985760E+03  4.071877E+05  1.884672E+04 -1.908348E+02
      6916   1  1.806724E+07 -8.371342E+01  1.664372E+03  4.171033E+05  3.372442E+04 -2.287261E+02
      6917   1  1.806758E+07  5.816888E+02  2.026162E+03  4.350906E+05  4.075523E+04 -7.784521E+02
      6918   1  1.806748E+07  1.412154E+03  9.164510E+02  4.661104E+05  3.333755E+04 -1.088954E+03
      6919   1  1.806478E+07 -2.308530E+03 -3.566925E+03  5.227688E+05  1.217249E+04  1.117327E+03
      6920   1  1.355025E+07 -1.323352E+03  1.972135E+03  7.642280E+05 -6.642070E+03  1.190430E+02
      6921   1  1.354960E+07 -4.346795E+02 -8.748797E+02  7.010096E+05 -1.675543E+04 -1.191080E+03
      6922   1  1.355047E+07  1.057683E+03  2.533639E+02  6.575685E+05 -2.136779E+04  4.720528E+02
      6923   1  1.355054E+07  3.213446E+02  1.214779E+03  6.307048E+05 -1.907133E+04  1.265890E+02
      6924   1  1.355042E+07  2.019665E+02  9.508928E+02  6.158934E+05 -1.089084E+04  1.026681E+02
      6925   1  1.355062E+07  3.529453E+02  1.410897E+03  6.110967E+05 -7.739623E-04 -1.715810E-05
      6926   1  1.355042E+07  2.019665E+02  9.508928E+02  6.158934E+05  1.089084E+04 -1.026680E+02
      6927   1  1.355054E+07  3.213446E+02  1.214779E+03  6.307048E+05  1.907133E+04 -1.265890E+02
      6928   1  1.355047E+07  1.057683E+03  2.533639E+02  6.575685E+05  2.136779E+04 -4.720528E+02
      6929   1  1.354960E+07 -4.346794E+02 -8.748796E+02  7.010096E+05  1.675543E+04  1.191080E+03
      6930   1  1.355025E+07 -1.323352E+03  1.972135E+03  7.642280E+05  6.642070E+03 -1.190430E+02
      6931   1  9.032673E+06 -9.565859E+02 -1.122291E+03  9.329139E+05 -3.075373E+03 -4.740565E+02
      6932   1  9.033550E+06 -4.994153E+01  6.334494E+02  8.659395E+05 -8.493766E+03  3.809455E+01
      6933   1  9.033357E+06  1.626913E+01 -2.382112E+01  8.176718E+05 -1.088438E+04 -9.036029E+02
      6934   1  9.033623E+06  6.240524E+02  1.804827E+02  7.853650E+05 -9.832566E+03  1.399167E+02
      6935   1  9.033691E+06  2.145442E+02  7.927417E+02  7.671564E+05 -5.811791E+03 -1.369640E+02
      6936   1  9.033616E+06  3.026252E+02  4.788909E+02  7.612532E+05 -4.882501E-04  9.133735E-06
      6937   1  9.033691E+06  2.145442E+02  7.927417E+02  7.671564E+05  5.811790E+03  1.369640E+02
      6938   1  9.033623E+06  6.240523E+02  1.804826E+02  7.853650E+05  9.832565E+03 -1.399167E+02
      6939   1  9.033357E+06  1.626905E+01 -2.382112E+01  8.176718E+05  1.088438E+04  9.036029E+02
      6940   1  9.033550E+06 -4.994165E+01  6.334493E+02  8.659395E+05  8.493765E+03 -3.809456E+01
      6941   1  9.032673E+06 -9.565860E+02 -1.122291E+03  9.329139E+05  3.075373E+03  4.740565E+02
      6942   1  4.516700E+06 -4.341272E+02  4.950906E+02  1.032769E+06 -1.354272E+03 -6.266612E+01
      6943   1  4.516510E+06 -1.947943E+02 -3.177361E+02  9.644275E+05 -3.495958E+03 -9.170167E+02
      6944   1  4.516792E+06  2.054951E+02  1.353097E+02  9.135278E+05 -4.584885E+03 -6.381132E+01
      6945   1  4.516763E+06  7.965908E+01  1.742565E+02  8.788894E+05 -4.176459E+03 -7.126848E+02
      6946   1  4.516810E+06  2.886154E+02  1.053921E+02  8.587673E+05 -2.459768E+03  1.227445E+01
      6947   1  4.516846E+06  1.099280E+02  3.957122E+02  8.522425E+05 -2.350446E-04 -9.039692E-06
      6948   1  4.516810E+06  2.886154E+02  1.053921E+02  8.587673E+05  2.459767E+03 -1.227444E+01
      6949   1  4.516763E+06  7.965911E+01  1.742565E+02  8.788894E+05  4.176459E+03  7.126847E+02
      6950   1  4.516792E+06  2.054952E+02  1.353097E+02  9.135278E+05  4.584884E+03  6.381130E+01
      6951   1  4.516510E+06 -1.947942E+02 -3.177360E+02  9.644275E+05  3.495958E+03  9.170167E+02
      6952   1  4.516700E+06 -4.341271E+02  4.950906E+02  1.032769E+06  1.354272E+03  6.266612E+01
      6953   1  4.945025E-03 -7.527589E-05 -1.024847E-04  1.065912E+06 -9.226864E-07 -3.684321E+02
      6954   1  4.920417E-03 -1.337512E-04  3.977732E-06  9.970620E+05 -1.725183E-06 -1.550950E+02
      6955   1  4.865450E-03 -3.785451E-04 -2.133231E-04  9.455725E+05 -3.507095E-06 -9.805420E+02
      6956   1  4.851427E-03 -4.660827E-04 -1.172003E-04  9.100684E+05 -4.399333E-06 -6.014996E+01
      6957   1  4.814295E-03 -6.084225E-04 -3.053366E-04  8.894857E+05 -2.118541E-06 -4.073676E+02
      6958   1  4.826781E-03 -5.826920E-04 -1.618416E-04  8.826902E+05 -1.669658E-07  7.788975E-06
      6959   1  4.803958E-03 -6.175777E-04 -3.124399E-04  8.894857E+05  1.935582E-06  4.073676E+02
      6960   1  4.840855E-03 -4.957992E-04 -1.274999E-04  9.100684E+05  3.432423E-06  6.014996E+01
      6961   1  4.847808E-03 -4.371871E-04 -2.394422E-04  9.455725E+05  4.332841E-06  9.805420E+02
      6962   1  4.877459E-03 -2.704815E-04 -4.799907E-05  9.970620E+05  2.295638E-06  1.550950E+02
      6963   1  4.894150E-03 -2.419554E-04 -1.666489E-04  1.065912E+06  3.174590E-07  3.684321E+02
      6964   1 -4.516700E+06  4.341272E+02 -4.950909E+02  1.032769E+06  1.354272E+03 -6.266613E+01
      6965   1 -4.516510E+06  1.947948E+02  3.177365E+02  9.644275E+05  3.495958E+03 -9.170167E+02
      6966   1 -4.516792E+06 -2.054946E+02 -1.353097E+02  9.135278E+05  4.584885E+03 -6.381131E+01
      6967   1 -4.516763E+06 -7.965799E+01 -1.742559E+02  8.788894E+05  4.176459E+03 -7.126848E+02
      6968   1 -4.516810E+06 -2.886143E+02 -1.053919E+02  8.587673E+05  2.459768E+03  1.227445E+01
      6969   1 -4.516846E+06 -1.099267E+02 -3.957114E+02  8.522425E+05  2.366468E-04 -7.260075E-06
      6970   1 -4.516810E+06 -2.886143E+02 -1.053919E+02  8.587673E+05 -2.459767E+03 -1.227445E+01
      6971   1 -4.516763E+06 -7.965795E+01 -1.742559E+02  8.788894E+05 -4.176459E+03  7.126847E+02
      6972   1 -4.516792E+06 -2.054945E+02 -1.353096E+02  9.135278E+05 -4.584884E+03  6.381130E+01
      6973   1 -4.516510E+06  1.947949E+02  3.177365E+02  9.644275E+05 -3.495958E+03  9.170167E+02
      6974   1 -4.516700E+06  4.341274E+02 -4.950908E+02  1.032769E+06 -1.354272E+03  6.266613E+01
      6975   1 -9.032673E+06  9.565856E+02  1.122291E+03  9.329139E+05  3.075373E+03 -4.740565E+02
      6976   1 -9.033550E+06  4.994137E+01 -6.334489E+02  8.659395E+05  8.493766E+03  3.809455E+01
      6977   1 -9.033357E+06 -1.627006E+01  2.382025E+01  8.176718E+05  1.088438E+04 -9.036029E+02
      6978   1 -9.033623E+06 -6.240531E+02 -1.804825E+02  7.853650E+05  9.832566E+03  1.399167E+02
      6979   1 -9.033691E+06 -2.145456E+02 -7.927427E+02  7.671564E+05  5.811791E+03 -1.369640E+02
      6980   1 -9.033616E+06 -3.026262E+02 -4.788908E+02  7.612532E+05  4.891335E-04  7.894771E-06
      6981   1 -9.033691E+06 -2.145456E+02 -7.927427E+02  7.671564E+05 -5.811790E+03  1.369640E+02
      6982   1 -9.033623E+06 -6.240532E+02 -1.804824E+02  7.853650E+05 -9.832565E+03 -1.399167E+02
      6983   1 -9.033357E+06 -1.627011E+01  2.382020E+01  8.176718E+05 -1.088438E+04  9.036029E+02
      6984   1 -9.033550E+06  4.994125E+01 -6.334490E+02  8.659395E+05 -8.493765E+03 -3.809456E+01
      6985   1 -9.032673E+06  9.565854E+02  1.122291E+03  9.329139E+05 -3.075373E+03  4.740565E+02
      6986   1 -1.355025E+07  1.323352E+03 -1.972136E+03  7.642280E+05  6.642070E+03  1.190430E+02
      6987   1 -1.354960E+07  4.346803E+02  8.748809E+02  7.010096E+05  1.675543E+04 -1.191080E+03
      6988   1 -1.355047E+07 -1.057683E+03 -2.533647E+02  6.575685E+05  2.136779E+04  4.720528E+02
      6989   1 -1.355054E+07 -3.213432E+02 -1.214777E+03  6.307048E+05  1.907133E+04  1.265890E+02
      6990   1 -1.355042E+07 -2.019657E+02 -9.508934E+02  6.158934E+05  1.089084E+04  1.026681E+02
      6991   1 -1.355062E+07 -3.529437E+02 -1.410896E+03  6.110967E+05  7.735566E-04 -1.798532E-05
      6992   1 -1.355042E+07 -2.019657E+02 -9.508934E+02  6.158934E+05 -1.089084E+04 -1.026680E+02
      6993   1 -1.355054E+07 -3.213432E+02 -1.214777E+03  6.307048E+05 -1.907133E+04 -1.265890E+02
      6994   1 -1.355047E+07 -1.057682E+03 -2.533647E+02  6.575685E+05 -2.136779E+04 -4.720528E+02
      6995   1 -1.354960E+07  4.346804E+02  8.748809E+02  7.010096E+05 -1.675543E+04  1.191080E+03
      6996   1 -1.355025E+07  1.323352E+03 -1.972136E+03  7.642280E+05 -6.642070E+03 -1.190430E+02
      6997   1 -1.806478E+07  2.308529E+03  3.566923E+03  5.227688E+05  1.217249E+04 -1.117327E+03
      6998   1 -1.806748E+07 -1.412154E+03 -9.164497E+02  4.661104E+05  3.333755E+04  1.088954E+03
      6999   1 -1.806758E+07 -5.816902E+02 -2.026164E+03  4.350906E+05  4.075523E+04  7.784521E+02
      7000   1 -1.806724E+07  8.371296E+01 -1.664371E+03  4.171033E+05  3.372442E+04  2.287261E+02
      7001   1 -1.806755E+07 -5.279792E+02 -1.985762E+03  4.071877E+05  1.884673E+04  1.908348E+02
      7002   1 -1.806720E+07  2.603928E+02 -1.720628E+03  4.041610E+05  1.103819E-03 -1.731335E-06
      7003   1 -1.806755E+07 -5.279792E+02 -1.985762E+03  4.071877E+05 -1.884672E+04 -1.908348E+02
      7004   1 -1.806724E+07  8.371295E+01 -1.664371E+03  4.171033E+05 -3.372442E+04 -2.287261E+02
      7005   1 -1.806758E+07 -5.816903E+02 -2.026164E+03  4.350906E+05 -4.075523E+04 -7.784521E+02
      7006   1 -1.806748E+07 -1.412154E+03 -9.164497E+02  4.661104E+05 -3.333755E+04 -1.088954E+03
      7007   1 -1.806478E+07  2.308529E+03  3.566923E+03  5.227688E+05 -1.217249E+04  1.117327E+03
      7008   1 -2.258515E+07  1.590749E+03 -6.908322E+03  1.920009E+05  3.281550E+04  1.719174E+03
      7009   1 -2.258556E+07 -2.042241E+03 -4.533426E+03  1.649971E+05  7.094654E+04  1.058628E+03
      7010   1 -2.258408E+07  1.058809E+03 -3.112679E+03  1.546710E+05  7.223695E+04  2.071596E+02
      7011   1 -2.258462E+07 -9.353715E+02 -2.761956E+03  1.478530E+05  5.632986E+04  2.475403E+02
      7012   1 -2.258397E+07  6.781381E+02 -2.408064E+03  1.445899E+05  3.040074E+04  3.486466E+01
      7013   1 -2.258443E+07 -6.984540E+02 -2.435212E+03  1.433907E+05  1.490226E-03 -6.385425E-06
      7014   1 -2.258397E+07  6.781381E+02 -2.408064E+03  1.445899E+05 -3.040074E+04 -3.486466E+01
      7015   1 -2.258462E+07 -9.353715E+02 -2.761956E+03  1.478530E+05 -5.632986E+04 -2.475403E+02
      7016   1 -2.258408E+07  1.058810E+03 -3.112679E+03  1.546710E+05 -7.223695E+04 -2.071596E+02
      7017   1 -2.258556E+07 -2.042241E+03 -4.533426E+03  1.649971E+05 -7.094654E+04 -1.058628E+03
      7018   1 -2.258515E+07  1.590749E+03 -6.908322E+03  1.920009E+05 -3.281550E+04 -1.719174E+03
      7019   1  2.226705E+07 -1.565210E+03  6.819364E+03  1.920012E+05 -3.281553E+04  1.695070E+03
      7020   1  2.226746E+07  2.010481E+03  4.461513E+03  1.649970E+05 -7.094645E+04  1.043653E+03
      7021   1  2.226599E+07 -1.040899E+03  3.076757E+03  1.546711E+05 -7.223706E+04  2.042841E+02
      7022   1  2.226652E+07  9.191025E+02  2.715191E+03  1.478529E+05 -5.632977E+04  2.440286E+02
      7023   1  2.226589E+07 -6.655020E+02  2.381966E+03  1.445899E+05 -3.040079E+04  3.438547E+01
      7024   1  2.226634E+07  6.854799E+02  2.393092E+03  1.433907E+05 -1.485319E-03 -3.715354E-07
      7025   1  2.226589E+07 -6.655020E+02  2.381966E+03  1.445899E+05  3.040079E+04 -3.438547E+01
      7026   1  2.226652E+07  9.191025E+02  2.715191E+03  1.478529E+05  5.632977E+04 -2.440286E+02
      7027   1  2.226599E+07 -1.040899E+03  3.076756E+03  1.546711E+05  7.223705E+04 -2.042840E+02
      7028   1  2.226746E+07  2.010481E+03  4.461513E+03  1.649970E+05  7.094645E+04 -1.043653E+03
      7029   1  2.226705E+07 -1.565210E+03  6.819364E+03  1.920012E+05  3.281553E+04 -1.695070E+03
      7030   1  1.781035E+07 -2.273749E+03 -3.509484E+03  5.227686E+05 -1.217254E+04 -1.101618E+03
      7031   1  1.781301E+07  1.389710E+03  8.964379E+02  4.661105E+05 -3.333745E+04  1.073617E+03
      7032   1  1.781311E+07  5.761866E+02  2.004655E+03  4.350906E+05 -4.075534E+04  7.674901E+02
      7033   1  1.781277E+07 -8.522899E+01  1.633964E+03  4.171033E+05 -3.372434E+04  2.255022E+02
      7034   1  1.781308E+07  5.233117E+02  1.964744E+03  4.071877E+05 -1.884677E+04  1.881484E+02
      7035   1  1.781273E+07 -2.594627E+02  1.689462E+03  4.041610E+05 -1.102324E-03  5.207692E-06
      7036   1  1.781308E+07  5.233117E+02  1.964744E+03  4.071877E+05  1.884677E+04 -1.881485E+02
      7037   1  1.781277E+07 -8.522896E+01  1.633964E+03  4.171033E+05  3.372433E+04 -2.255022E+02
      7038   1  1.781311E+07  5.761867E+02  2.004655E+03  4.350906E+05  4.075533E+04 -7.674901E+02
      7039   1  1.781301E+07  1.389710E+03  8.964379E+02  4.661105E+05  3.333745E+04 -1.073617E+03
      7040   1  1.781035E+07 -2.273749E+03 -3.509484E+03  5.227686E+05  1.217254E+04  1.101618E+03
      7041   1  1.335940E+07 -1.302590E+03  1.950180E+03  7.642281E+05 -6.642093E+03  1.173804E+02
      7042   1  1.335876E+07 -4.306108E+02 -8.681891E+02  7.010097E+05 -1.675536E+04 -1.174298E+03
      7043   1  1.335962E+07  1.044849E+03  2.553296E+02  6.575685E+05 -2.136787E+04  4.653993E+02
      7044   1  1.335969E+07  3.146668E+02  1.192168E+03  6.307048E+05 -1.907127E+04  1.248093E+02
      7045   1  1.335957E+07  2.012582E+02  9.429696E+02  6.158934E+05 -1.089087E+04  1.012204E+02
      7046   1  1.335976E+07  3.457875E+02  1.385552E+03  6.110967E+05 -7.746132E-04 -1.142086E-05
      7047   1  1.335957E+07  2.012581E+02  9.429695E+02  6.158934E+05  1.089087E+04 -1.012204E+02
      7048   1  1.335969E+07  3.146667E+02  1.192168E+03  6.307048E+05  1.907126E+04 -1.248093E+02
      7049   1  1.335962E+07  1.044849E+03  2.553295E+02  6.575685E+05  2.136787E+04 -4.653993E+02
      7050   1  1.335876E+07 -4.306110E+02 -8.681891E+02  7.010097E+05  1.675536E+04  1.174298E+03
      7051   1  1.335940E+07 -1.302590E+03  1.950180E+03  7.642281E+05  6.642093E+03 -1.173804E+02
      7052   1  8.905453E+06 -9.418716E+02 -1.102606E+03  9.329138E+05 -3.075399E+03 -4.673906E+02
      7053   1  8.906317E+06 -5.062033E+01  6.207043E+02  8.659395E+05 -8.493715E+03  3.755326E+01
      7054   1  8.906127E+06  1.749109E+01 -1.970401E+01  8.176718E+05 -1.088443E+04 -8.908753E+02
      7055   1  8.906389E+06  6.138206E+02  1.741977E+02  7.853650E+05 -9.832522E+03  1.379463E+02
      7056   1  8.906457E+06  2.130109E+02  7.853123E+02  7.671564E+05 -5.811815E+03 -1.350352E+02
      7057   1  8.906381E+06  2.969004E+02  4.684225E+02  7.612533E+05 -4.899794E-04  1.534447E-05
      7058   1  8.906457E+06  2.130110E+02  7.853124E+02  7.671564E+05  5.811814E+03  1.350352E+02
      7059   1  8.906389E+06  6.138207E+02  1.741977E+02  7.853650E+05  9.832521E+03 -1.379463E+02
      7060   1  8.906127E+06  1.749117E+01 -1.970396E+01  8.176718E+05  1.088443E+04  8.908753E+02
      7061   1  8.906317E+06 -5.062016E+01  6.207044E+02  8.659395E+05  8.493714E+03 -3.755327E+01
      7062   1  8.905453E+06 -9.418714E+02 -1.102606E+03  9.329138E+05  3.075399E+03  4.673906E+02
      7063   1  4.453084E+06 -4.272912E+02  4.901115E+02  1.032769E+06 -1.354281E+03 -6.177564E+01
      7064   1  4.452897E+06 -1.927521E+02 -3.151909E+02  9.644275E+05 -3.495934E+03 -9.040938E+02
      7065   1  4.453176E+06  2.033057E+02  1.353006E+02  9.135277E+05 -4.584913E+03 -6.291514E+01
      7066   1  4.453146E+06  7.779780E+01  1.699152E+02  8.788894E+05 -4.176436E+03 -7.026457E+02
      7067   1  4.453193E+06  2.852811E+02  1.057830E+02  8.587673E+05 -2.459781E+03  1.210102E+01
      7068   1  4.453228E+06  1.076280E+02  3.882607E+02  8.522425E+05 -2.370431E-04  4.489776E-06
      7069   1  4.453193E+06  2.852811E+02  1.057830E+02  8.587673E+05  2.459780E+03 -1.210100E+01
      7070   1  4.453146E+06  7.779776E+01  1.699152E+02  8.788894E+05  4.176436E+03  7.026457E+02
      7071   1  4.453176E+06  2.033056E+02  1.353006E+02  9.135277E+05  4.584912E+03  6.291514E+01
      7072   1  4.452897E+06 -1.927523E+02 -3.151910E+02  9.644275E+05  3.495934E+03  9.040938E+02
      7073   1  4.453084E+06 -4.272914E+02  4.901114E+02  1.032769E+06  1.354280E+03  6.177564E+01
      7074   1  4.877135E-03  7.302406E-05  1.086466E-04  1.065912E+06 -2.134612E-06 -3.632514E+02
      7075   1  4.915963E-03  1.876490E-04 -1.703948E-05  9.970621E+05 -6.729900E-06 -1.529152E+02
      7076   1  4.975003E-03  4.556946E-04  2.637043E-04  9.455725E+05 -7.495082E-06 -9.667320E+02
      7077   1  4.986457E-03  5.639850E-04  1.506122E-04  9.100684E+05 -7.766958E-06 -5.930158E+01
      7078   1  5.033654E-03  7.451661E-04  3.772066E-04  8.894857E+05 -2.336930E-06 -4.016307E+02
      7079   1  5.005790E-03  6.998299E-04  2.043964E-04  8.826903E+05 -1.264308E-06  1.974260E-05
      7080   1  5.030981E-03  7.523767E-04  3.796514E-04  8.894857E+05  3.421389E-06  4.016307E+02
      7081   1  4.983216E-03  6.014810E-04  1.600302E-04  9.100684E+05  6.223196E-06  5.930160E+01
      7082   1  4.984170E-03  5.549933E-04  3.052215E-04  9.455725E+05  6.237239E-06  9.667320E+02
      7083   1  4.930521E-03  3.369506E-04  4.108486E-05  9.970621E+05  6.176787E-06  1.529152E+02
      7084   1  4.898142E-03  2.703624E-04  1.851929E-04  1.065912E+06  1.575615E-06  3.632514E+02
      7085   1 -4.453084E+06  4.272912E+02 -4.901112E+02  1.032769E+06  1.354280E+03 -6.177565E+01
      7086   1 -4.452897E+06  1.927516E+02  3.151905E+02  9.644275E+05  3.495934E+03 -9.040938E+02
      7087   1 -4.453176E+06 -2.033065E+02 -1.353006E+02  9.135277E+05  4.584913E+03 -6.291514E+01
      7088   1 -4.453146E+06 -7.779915E+01 -1.699160E+02  8.788894E+05  4.176436E+03 -7.026457E+02
      7089   1 -4.453193E+06 -2.852824E+02 -1.057833E+02  8.587673E+05  2.459781E+03  1.210103E+01
      7090   1 -4.453228E+06 -1.076296E+02 -3.882616E+02  8.522425E+05  2.375060E-04  3.293532E-06
      7091   1 -4.453193E+06 -2.852824E+02 -1.057833E+02  8.587673E+05 -2.459780E+03 -1.210099E+01
      7092   1 -4.453146E+06 -7.779916E+01 -1.699160E+02  8.788894E+05 -4.176436E+03  7.026457E+02
      7093   1 -4.453176E+06 -2.033065E+02 -1.353007E+02  9.135277E+05 -4.584912E+03  6.291514E+01
      7094   1 -4.452897E+06  1.927514E+02  3.151904E+02  9.644275E+05 -3.495934E+03  9.040938E+02
      7095   1 -4.453084E+06  4.272910E+02 -4.901113E+02  1.032769E+06 -1.354280E+03  6.177565E+01
      7096   1 -8.905453E+06  9.418719E+02  1.102607E+03  9.329138E+05  3.075399E+03 -4.673906E+02
      7097   1 -8.906317E+06  5.062048E+01 -6.207049E+02  8.659395E+05  8.493715E+03  3.755327E+01
      7098   1 -8.906127E+06 -1.748995E+01  1.970508E+01  8.176718E+05  1.088443E+04 -8.908753E+02
      7099   1 -8.906389E+06 -6.138197E+02 -1.741979E+02  7.853650E+05  9.832522E+03  1.379463E+02
      7100   1 -8.906457E+06 -2.130092E+02 -7.853111E+02  7.671564E+05  5.811815E+03 -1.350352E+02
      7101   1 -8.906381E+06 -2.968992E+02 -4.684227E+02  7.612533E+05  4.901320E-04  1.956151E-05
      7102   1 -8.906457E+06 -2.130092E+02 -7.853111E+02  7.671564E+05 -5.811814E+03  1.350352E+02
      7103   1 -8.906389E+06 -6.138197E+02 -1.741979E+02  7.853650E+05 -9.832521E+03 -1.379463E+02
      7104   1 -8.906127E+06 -1.748986E+01  1.970509E+01  8.176718E+05 -1.088443E+04  8.908753E+02
      7105   1 -8.906317E+06  5.062062E+01 -6.207048E+02  8.659395E+05 -8.493714E+03 -3.755327E+01
      7106   1 -8.905453E+06  9.418721E+02  1.102607E+03  9.329138E+05 -3.075399E+03  4.673906E+02
      7107   1 -1.335940E+07  1.302590E+03 -1.950179E+03  7.642281E+05  6.642093E+03  1.173804E+02
      7108   1 -1.335876E+07  4.306099E+02  8.681876E+02  7.010097E+05  1.675536E+04 -1.174298E+03
      7109   1 -1.335962E+07 -1.044849E+03 -2.553286E+02  6.575685E+05  2.136787E+04  4.653993E+02
      7110   1 -1.335969E+07 -3.146685E+02 -1.192170E+03  6.307048E+05  1.907127E+04  1.248093E+02
      7111   1 -1.335957E+07 -2.012591E+02 -9.429688E+02  6.158934E+05  1.089087E+04  1.012204E+02
      7112   1 -1.335976E+07 -3.457896E+02 -1.385553E+03  6.110967E+05  7.727452E-04 -5.573076E-06
      7113   1 -1.335957E+07 -2.012591E+02 -9.429688E+02  6.158934E+05 -1.089087E+04 -1.012204E+02
      7114   1 -1.335969E+07 -3.146685E+02 -1.192170E+03  6.307048E+05 -1.907126E+04 -1.248093E+02
      7115   1 -1.335962E+07 -1.044849E+03 -2.553286E+02  6.575685E+05 -2.136787E+04 -4.653993E+02
      7116   1 -1.335876E+07  4.306097E+02  8.681875E+02  7.010097E+05 -1.675536E+04  1.174298E+03
      7117   1 -1.335940E+07  1.302590E+03 -1.950179E+03  7.642281E+05 -6.642093E+03 -1.173804E+02
      7118   1 -1.781035E+07  2.273750E+03  3.509486E+03  5.227686E+05  1.217254E+04 -1.101618E+03
      7119   1 -1.781301E+07 -1.389710E+03 -8.964396E+02  4.661105E+05  3.333745E+04  1.073617E+03
      7120   1 -1.781311E+07 -5.761850E+02 -2.004653E+03  4.350906E+05  4.075534E+04  7.674901E+02
      7121   1 -1.781277E+07  8.522951E+01 -1.633965E+03  4.171033E+05  3.372434E+04  2.255022E+02
      7122   1 -1.781308E+07 -5.233095E+02 -1.964741E+03  4.071877E+05  1.884677E+04  1.881485E+02
      7123   1 -1.781273E+07  2.594634E+02 -1.689463E+03  4.041610E+05  1.100069E-03  4.242521E-06
      7124   1 -1.781308E+07 -5.233095E+02 -1.964741E+03  4.071877E+05 -1.884677E+04 -1.881485E+02
      7125   1 -1.781277E+07  8.522955E+01 -1.633965E+03  4.171033E+05 -3.372433E+04 -2.255022E+02
      7126   1 -1.781311E+07 -5.761849E+02 -2.004653E+03  4.350906E+05 -4.075533E+04 -7.674901E+02
      7127   1 -1.781301E+07 -1.389710E+03 -8.964395E+02  4.661105E+05 -3.333745E+04 -1.073617E+03
      7128   1 -1.781035E+07  2.273750E+03  3.509486E+03  5.227686E+05 -1.217254E+04  1.101618E+03
      7129   1 -2.226705E+07  1.565211E+03 -6.819362E+03  1.920012E+05  3.281553E+04  1.695069E+03
      7130   1 -2.226746E+07 -2.010482E+03 -4.461515E+03  1.649970E+05  7.094645E+04  1.043653E+03
      7131   1 -2.226599E+07  1.040899E+03 -3.076755E+03  1.546711E+05  7.223706E+04  2.042840E+02
      7132   1 -2.226652E+07 -9.191046E+02 -2.715194E+03  1.478529E+05  5.632977E+04  2.440286E+02
      7133   1 -2.226589E+07  6.655014E+02 -2.381965E+03  1.445899E+05  3.040079E+04  3.438547E+01
      7134   1 -2.226634E+07 -6.854824E+02 -2.393095E+03  1.433907E+05  1.484150E-03 -1.475754E-06
      7135   1 -2.226589E+07  6.655014E+02 -2.381965E+03  1.445899E+05 -3.040079E+04 -3.438547E+01
      7136   1 -2.226652E+07 -9.191047E+02 -2.715194E+03  1.478529E+05 -5.632977E+04 -2.440286E+02
      7137   1 -2.226599E+07  1.040899E+03 -3.076754E+03  1.546711E+05 -7.223705E+04 -2.042840E+02
      7138   1 -2.226746E+07 -2.010482E+03 -4.461515E+03  1.649970E+05 -7.094645E+04 -1.043653E+03
      7139   1 -2.226705E+07  1.565211E+03 -6.819362E+03  1.920012E+05 -3.281553E+04 -1.695069E+03
      7140   1  2.194895E+07 -1.545413E+03  6.715132E+03  1.920010E+05 -3.281550E+04  1.670765E+03
      7141   1  2.194935E+07  1.984201E+03  4.404354E+03  1.649971E+05 -7.094653E+04  1.028796E+03
      7142   1  2.194790E+07 -1.028481E+03  3.026336E+03  1.546710E+05 -7.223697E+04  2.013313E+02
      7143   1  2.194843E+07  9.084945E+02  2.682819E+03  1.478530E+05 -5.632984E+04  2.405630E+02
      7144   1  2.194780E+07 -6.585169E+02  2.341552E+03  1.445899E+05 -3.040075E+04  3.388457E+01
      7145   1  2.194825E+07  6.782439E+02  2.365286E+03  1.433907E+05 -1.489121E-03  1.440179E-06
      7146   1  2.194780E+07 -6.585169E+02  2.341552E+03  1.445899E+05  3.040075E+04 -3.388457E+01
      7147   1  2.194843E+07  9.084945E+02  2.682819E+03  1.478530E+05  5.632984E+04 -2.405631E+02
      7148   1  2.194790E+07 -1.028480E+03  3.026336E+03  1.546710E+05  7.223697E+04 -2.013313E+02
      7149   1  2.194935E+07  1.984201E+03  4.404354E+03  1.649971E+05  7.094652E+04 -1.028796E+03
      7150   1  2.194895E+07 -1.545413E+03  6.715132E+03  1.920010E+05  3.281550E+04 -1.670765E+03
      7151   1  1.755591E+07 -2.243116E+03 -3.465228E+03  5.227688E+05 -1.217250E+04 -1.085858E+03
      7152   1  1.755854E+07  1.371945E+03  8.894354E+02  4.661104E+05 -3.333753E+04  1.058279E+03
      7153   1  1.755863E+07  5.657595E+02  1.970277E+03  4.350906E+05 -4.075525E+04  7.565242E+02
      7154   1  1.755830E+07 -8.180984E+01  1.616311E+03  4.171033E+05 -3.372441E+04  2.222828E+02
      7155   1  1.755860E+07  5.135743E+02  1.931000E+03  4.071877E+05 -1.884674E+04  1.854594E+02
      7156   1  1.755826E+07 -2.535202E+02  1.670989E+03  4.041610E+05 -1.107752E-03  1.167046E-05
      7157   1  1.755860E+07  5.135743E+02  1.931000E+03  4.071877E+05  1.884673E+04 -1.854594E+02
      7158   1  1.755830E+07 -8.180989E+01  1.616311E+03  4.171033E+05  3.372440E+04 -2.222827E+02
      7159   1  1.755863E+07  5.657594E+02  1.970277E+03  4.350906E+05  4.075525E+04 -7.565242E+02
      7160   1  1.755854E+07  1.371944E+03  8.894352E+02  4.661104E+05  3.333753E+04 -1.058279E+03
      7161   1  1.755591E+07 -2.243116E+03 -3.465228E+03  5.227688E+05  1.217250E+04  1.085858E+03
      7162   1  1.316856E+07 -1.285719E+03  1.917562E+03  7.642280E+05 -6.642074E+03  1.156920E+02
      7163   1  1.316793E+07 -4.227830E+02 -8.511845E+02  7.010096E+05 -1.675542E+04 -1.157527E+03
      7164   1  1.316877E+07  1.028234E+03  2.471581E+02  6.575685E+05 -2.136781E+04  4.587547E+02
      7165   1  1.316884E+07  3.119283E+02  1.179632E+03  6.307048E+05 -1.907132E+04  1.230237E+02
      7166   1  1.316872E+07  1.966350E+02  9.250274E+02  6.158934E+05 -1.089084E+04  9.977575E+01
      7167   1  1.316891E+07  3.426331E+02  1.370231E+03  6.110967E+05 -7.820938E-04  4.765764E-06
      7168   1  1.316872E+07  1.966351E+02  9.250274E+02  6.158934E+05  1.089084E+04 -9.977570E+01
      7169   1  1.316884E+07  3.119283E+02  1.179632E+03  6.307048E+05  1.907132E+04 -1.230236E+02
      7170   1  1.316877E+07  1.028234E+03  2.471581E+02  6.575685E+05  2.136780E+04 -4.587547E+02
      7171   1  1.316793E+07 -4.227828E+02 -8.511844E+02  7.010096E+05  1.675542E+04  1.157527E+03
      7172   1  1.316856E+07 -1.285719E+03  1.917562E+03  7.642280E+05  6.642074E+03 -1.156920E+02
      7173   1  8.778232E+06 -9.294302E+02 -1.090026E+03  9.329139E+05 -3.075378E+03 -4.607047E+02
      7174   1  8.779084E+06 -4.876554E+01  6.149643E+02  8.659395E+05 -8.493756E+03  3.702064E+01
      7175   1  8.778896E+06  1.605565E+01 -2.251465E+01  8.176718E+05 -1.088439E+04 -8.781491E+02
      7176   1  8.779155E+06  6.062323E+02  1.747707E+02  7.853650E+05 -9.832558E+03  1.359754E+02
      7177   1  8.779221E+06  2.087516E+02  7.710386E+02  7.671564E+05 -5.811795E+03 -1.331059E+02
      7178   1  8.779148E+06  2.938560E+02  4.647763E+02  7.612532E+05 -4.976324E-04  3.389527E-05
      7179   1  8.779221E+06  2.087515E+02  7.710386E+02  7.671564E+05  5.811794E+03  1.331059E+02
      7180   1  8.779155E+06  6.062323E+02  1.747707E+02  7.853650E+05  9.832557E+03 -1.359754E+02
      7181   1  8.778896E+06  1.605554E+01 -2.251467E+01  8.176718E+05  1.088439E+04  8.781491E+02
      7182   1  8.779084E+06 -4.876573E+01  6.149643E+02  8.659395E+05  8.493756E+03 -3.702063E+01
      7183   1  8.778232E+06 -9.294305E+02 -1.090026E+03  9.329139E+05  3.075378E+03  4.607047E+02
      7184   1  4.389469E+06 -4.217780E+02  4.814784E+02  1.032769E+06 -1.354274E+03 -6.089952E+01
      7185   1  4.389284E+06 -1.894254E+02 -3.091096E+02  9.644275E+05 -3.495954E+03 -8.911840E+02
      7186   1  4.389559E+06  1.998241E+02  1.318160E+02  9.135278E+05 -4.584890E+03 -6.201424E+01
      7187   1  4.389530E+06  7.729075E+01  1.690313E+02  8.788894E+05 -4.176455E+03 -6.926089E+02
      7188   1  4.389576E+06  2.806075E+02  1.027377E+02  8.587673E+05 -2.459770E+03  1.192863E+01
      7189   1  4.389611E+06  1.067050E+02  3.842503E+02  8.522425E+05 -2.423829E-04  1.893293E-05
      7190   1  4.389576E+06  2.806075E+02  1.027377E+02  8.587673E+05  2.459770E+03 -1.192856E+01
      7191   1  4.389530E+06  7.729079E+01  1.690314E+02  8.788894E+05  4.176454E+03  6.926089E+02
      7192   1  4.389559E+06  1.998243E+02  1.318160E+02  9.135278E+05  4.584889E+03  6.201427E+01
      7193   1  4.389284E+06 -1.894253E+02 -3.091095E+02  9.644275E+05  3.495953E+03  8.911840E+02
      7194   1  4.389469E+06 -4.217777E+02  4.814785E+02  1.032769E+06  1.354274E+03  6.089953E+01
      7195   1  4.816067E-03 -1.026333E-04 -1.329654E-04  1.065912E+06 -1.403355E-06 -3.580552E+02
      7196   1  4.764102E-03 -2.295958E-04 -2.091846E-06  9.970621E+05 -1.490154E-06 -1.507269E+02
      7197   1  4.687351E-03 -5.751777E-04 -3.205128E-04  9.455725E+05 -4.642320E-06 -9.529212E+02
      7198   1  4.667958E-03 -7.132227E-04 -1.851429E-04  9.100684E+05 -3.586694E-06 -5.845537E+01
      7199   1  4.609219E-03 -9.153333E-04 -4.518422E-04  8.894857E+05 -3.898720E-06 -3.958925E+02
      7200   1  4.634129E-03 -8.716836E-04 -2.488078E-04  8.826903E+05 -1.441962E-07  3.380955E-05
      7201   1  4.605475E-03 -9.234543E-04 -4.550444E-04  8.894857E+05  1.598262E-06  3.958926E+02
      7202   1  4.654386E-03 -7.469553E-04 -2.001964E-04  9.100684E+05  4.476658E-06  5.845542E+01
      7203   1  4.657863E-03 -6.796077E-04 -3.602017E-04  9.455725E+05  5.806143E-06  9.529212E+02
      7204   1  4.711642E-03 -4.110081E-04 -7.546209E-05  9.970620E+05  3.056541E-06  1.507269E+02
      7205   1  4.741736E-03 -3.533694E-04 -2.385179E-04  1.065912E+06 -3.438062E-07  3.580552E+02
      7206   1 -4.389469E+06  4.217780E+02 -4.814788E+02  1.032769E+06  1.354274E+03 -6.089953E+01
      7207   1 -4.389284E+06  1.894261E+02  3.091102E+02  9.644275E+05  3.495954E+03 -8.911840E+02
      7208   1 -4.389558E+06 -1.998232E+02 -1.318159E+02  9.135278E+05  4.584890E+03 -6.201424E+01
      7209   1 -4.389530E+06 -7.728912E+01 -1.690303E+02  8.788894E+05  4.176455E+03 -6.926089E+02
      7210   1 -4.389576E+06 -2.806059E+02 -1.027374E+02  8.587673E+05  2.459770E+03  1.192863E+01
      7211   1 -4.389611E+06 -1.067030E+02 -3.842492E+02  8.522425E+05  2.406841E-04  2.060459E-05
      7212   1 -4.389576E+06 -2.806059E+02 -1.027374E+02  8.587673E+05 -2.459770E+03 -1.192856E+01
      7213   1 -4.389530E+06 -7.728907E+01 -1.690303E+02  8.788894E+05 -4.176454E+03  6.926089E+02
      7214   1 -4.389558E+06 -1.998231E+02 -1.318159E+02  9.135278E+05 -4.584889E+03  6.201426E+01
      7215   1 -4.389284E+06  1.894263E+02  3.091103E+02  9.644275E+05 -3.495953E+03  8.911840E+02
      7216   1 -4.389469E+06  4.217782E+02 -4.814787E+02  1.032769E+06 -1.354274E+03  6.089954E+01
      7217   1 -8.778232E+06  9.294298E+02  1.090025E+03  9.329139E+05  3.075378E+03 -4.607047E+02
      7218   1 -8.779084E+06  4.876531E+01 -6.149637E+02  8.659395E+05  8.493756E+03  3.702064E+01
      7219   1 -8.778896E+06 -1.605705E+01  2.251335E+01  8.176718E+05  1.088439E+04 -8.781491E+02
      7220   1 -8.779155E+06 -6.062335E+02 -1.747704E+02  7.853650E+05  9.832558E+03  1.359754E+02
      7221   1 -8.779221E+06 -2.087537E+02 -7.710402E+02  7.671564E+05  5.811795E+03 -1.331059E+02
      7222   1 -8.779148E+06 -2.938575E+02 -4.647761E+02  7.612532E+05  4.971375E-04  3.483470E-05
      7223   1 -8.779221E+06 -2.087537E+02 -7.710402E+02  7.671564E+05 -5.811794E+03  1.331059E+02
      7224   1 -8.779155E+06 -6.062335E+02 -1.747704E+02  7.853650E+05 -9.832557E+03 -1.359754E+02
      7225   1 -8.778896E+06 -1.605714E+01  2.251329E+01  8.176718E+05 -1.088439E+04  8.781491E+02
      7226   1 -8.779084E+06  4.876513E+01 -6.149637E+02  8.659395E+05 -8.493756E+03 -3.702064E+01
      7227   1 -8.778232E+06  9.294296E+02  1.090025E+03  9.329139E+05 -3.075378E+03  4.607047E+02
      7228   1 -1.316856E+07  1.285718E+03 -1.917563E+03  7.642280E+05  6.642074E+03  1.156920E+02
      7229   1 -1.316793E+07  4.227841E+02  8.511863E+02  7.010097E+05  1.675542E+04 -1.157527E+03
      7230   1 -1.316877E+07 -1.028234E+03 -2.471592E+02  6.575685E+05  2.136781E+04  4.587547E+02
      7231   1 -1.316884E+07 -3.119262E+02 -1.179630E+03  6.307048E+05  1.907132E+04  1.230236E+02
      7232   1 -1.316872E+07 -1.966339E+02 -9.250283E+02  6.158934E+05  1.089084E+04  9.977575E+01
      7233   1 -1.316891E+07 -3.426306E+02 -1.370229E+03  6.110967E+05  7.841181E-04  5.414145E-06
      7234   1 -1.316872E+07 -1.966339E+02 -9.250283E+02  6.158934E+05 -1.089084E+04 -9.977570E+01
      7235   1 -1.316884E+07 -3.119261E+02 -1.179630E+03  6.307048E+05 -1.907132E+04 -1.230237E+02
      7236   1 -1.316877E+07 -1.028234E+03 -2.471592E+02  6.575685E+05 -2.136780E+04 -4.587547E+02
      7237   1 -1.316793E+07  4.227843E+02  8.511864E+02  7.010096E+05 -1.675542E+04  1.157527E+03
      7238   1 -1.316856E+07  1.285719E+03 -1.917563E+03  7.642280E+05 -6.642074E+03 -1.156920E+02
      7239   1 -1.755591E+07  2.243115E+03  3.465226E+03  5.227688E+05  1.217250E+04 -1.085858E+03
      7240   1 -1.755854E+07 -1.371944E+03 -8.894333E+02  4.661104E+05  3.333753E+04  1.058279E+03
      7241   1 -1.755863E+07 -5.657615E+02 -1.970280E+03  4.350906E+05  4.075525E+04  7.565242E+02
      7242   1 -1.755830E+07  8.180920E+01 -1.616310E+03  4.171033E+05  3.372441E+04  2.222828E+02
      7243   1 -1.755860E+07 -5.135770E+02 -1.931003E+03  4.071877E+05  1.884674E+04  1.854594E+02
      7244   1 -1.755826E+07  2.535192E+02 -1.670988E+03  4.041610E+05  1.109523E-03  1.639383E-05
      7245   1 -1.755860E+07 -5.135770E+02 -1.931003E+03  4.071877E+05 -1.884673E+04 -1.854594E+02
      7246   1 -1.755830E+07  8.180917E+01 -1.616310E+03  4.171033E+05 -3.372440E+04 -2.222827E+02
      7247   1 -1.755863E+07 -5.657616E+02 -1.970280E+03  4.350906E+05 -4.075525E+04 -7.565242E+02
      7248   1 -1.755854E+07 -1.371945E+03 -8.894333E+02  4.661104E+05 -3.333753E+04 -1.058279E+03
      7249   1 -1.755591E+07  2.243115E+03  3.465226E+03  5.227688E+05 -1.217250E+04  1.085858E+03
      7250   1 -2.194895E+07  1.545413E+03 -6.715135E+03  1.920010E+05  3.281550E+04  1.670765E+03
      7251   1 -2.194935E+07 -1.984199E+03 -4.404351E+03  1.649971E+05  7.094653E+04  1.028796E+03
      7252   1 -2.194790E+07  1.028481E+03 -3.026338E+03  1.546710E+05  7.223697E+04  2.013313E+02
      7253   1 -2.194843E+07 -9.084919E+02 -2.682816E+03  1.478530E+05  5.632984E+04  2.405630E+02
      7254   1 -2.194780E+07  6.585177E+02 -2.341554E+03  1.445899E+05  3.040075E+04  3.388458E+01
      7255   1 -2.194825E+07 -6.782409E+02 -2.365283E+03  1.433907E+05  1.486383E-03  3.436858E-06
      7256   1 -2.194780E+07  6.585177E+02 -2.341554E+03  1.445899E+05 -3.040075E+04 -3.388457E+01
      7257   1 -2.194843E+07 -9.084919E+02 -2.682816E+03  1.478530E+05 -5.632984E+04 -2.405631E+02
      7258   1 -2.194790E+07  1.028481E+03 -3.026338E+03  1.546710E+05 -7.223697E+04 -2.013313E+02
      7259   1 -2.194935E+07 -1.984199E+03 -4.404351E+03  1.649971E+05 -7.094652E+04 -1.028796E+03
      7260   1 -2.194895E+07  1.545413E+03 -6.715135E+03  1.920010E+05 -3.281550E+04 -1.670765E+03
      7261   1  2.163085E+07 -1.520922E+03  6.623372E+03  1.920011E+05 -3.281553E+04  1.646624E+03
      7262   1  2.163124E+07  1.953454E+03  4.335156E+03  1.649970E+05 -7.094646E+04  1.013843E+03
      7263   1  2.162982E+07 -1.011572E+03  2.987755E+03  1.546711E+05 -7.223704E+04  1.984415E+02
      7264   1  2.163033E+07  8.932716E+02  2.638702E+03  1.478529E+05 -5.632978E+04  2.370598E+02
      7265   1  2.162972E+07 -6.469129E+02  2.312830E+03  1.445899E+05 -3.040078E+04  3.340138E+01
      7266   1  2.163016E+07  6.663297E+02  2.325800E+03  1.433907E+05 -1.488052E-03  5.912112E-06
      7267   1  2.162972E+07 -6.469130E+02  2.312829E+03  1.445899E+05  3.040078E+04 -3.340137E+01
      7268   1  2.163033E+07  8.932716E+02  2.638702E+03  1.478529E+05  5.632978E+04 -2.370598E+02
      7269   1  2.162982E+07 -1.011573E+03  2.987755E+03  1.546711E+05  7.223704E+04 -1.984415E+02
      7270   1  2.163124E+07  1.953454E+03  4.335156E+03  1.649970E+05  7.094646E+04 -1.013843E+03
      7271   1  2.163085E+07 -1.520922E+03  6.623372E+03  1.920011E+05  3.281553E+04 -1.646624E+03
      7272   1  1.730148E+07 -2.209099E+03 -3.410207E+03  5.227687E+05 -1.217253E+04 -1.070139E+03
      7273   1  1.730407E+07  1.350355E+03  8.718048E+02  4.661104E+05 -3.333746E+04  1.042942E+03
      7274   1  1.730416E+07  5.593515E+02  1.946409E+03  4.350906E+05 -4.075532E+04  7.455615E+02
      7275   1  1.730383E+07 -8.242357E+01  1.588240E+03  4.171033E+05 -3.372435E+04  2.190596E+02
      7276   1  1.730413E+07  5.079765E+02  1.907649E+03  4.071877E+05 -1.884677E+04  1.827726E+02
      7277   1  1.730379E+07 -2.516732E+02  1.642147E+03  4.041610E+05 -1.114091E-03  2.173304E-05
      7278   1  1.730413E+07  5.079765E+02  1.907649E+03  4.071877E+05  1.884676E+04 -1.827726E+02
      7279   1  1.730383E+07 -8.242351E+01  1.588240E+03  4.171033E+05  3.372435E+04 -2.190596E+02
      7280   1  1.730416E+07  5.593516E+02  1.946409E+03  4.350906E+05  4.075532E+04 -7.455615E+02
      7281   1  1.730407E+07  1.350355E+03  8.718049E+02  4.661104E+05  3.333746E+04 -1.042942E+03
      7282   1  1.730148E+07 -2.209099E+03 -3.410207E+03  5.227687E+05  1.217253E+04  1.070139E+03
      7283   1  1.297771E+07 -1.265664E+03  1.893660E+03  7.642281E+05 -6.642089E+03  1.140248E+02
      7284   1  1.297709E+07 -4.180241E+02 -8.426090E+02  7.010097E+05 -1.675537E+04 -1.140747E+03
      7285   1  1.297792E+07  1.014714E+03  2.472739E+02  6.575685E+05 -2.136786E+04  4.521029E+02
      7286   1  1.297798E+07  3.059730E+02  1.158863E+03  6.307048E+05 -1.907128E+04  1.212429E+02
      7287   1  1.297787E+07  1.952150E+02  9.152758E+02  6.158934E+05 -1.089087E+04  9.832864E+01
      7288   1  1.297806E+07  3.362093E+02  1.346717E+03  6.110967E+05 -7.926908E-04  2.568409E-05
      7289   1  1.297787E+07  1.952150E+02  9.152758E+02  6.158934E+05  1.089087E+04 -9.832855E+01
      7290   1  1.297798E+07  3.059729E+02  1.158863E+03  6.307048E+05  1.907127E+04 -1.212429E+02
      7291   1  1.297792E+07  1.014713E+03  2.472738E+02  6.575685E+05  2.136786E+04 -4.521029E+02
      7292   1  1.297709E+07 -4.180244E+02 -8.426090E+02  7.010097E+05  1.675537E+04  1.140747E+03
      7293   1  1.297771E+07 -1.265664E+03  1.893660E+03  7.642281E+05  6.642089E+03 -1.140248E+02
      7294   1  8.651011E+06 -9.151320E+02 -1.071636E+03  9.329138E+05 -3.075395E+03 -4.540350E+02
      7295   1  8.651851E+06 -4.898530E+01  6.034940E+02  8.659395E+05 -8.493722E+03  3.648097E+01
      7296   1  8.651666E+06  1.679162E+01 -1.965992E+01  8.176718E+05 -1.088442E+04 -8.654218E+02
      7297   1  8.651920E+06  5.964801E+02  1.697338E+02  7.853650E+05 -9.832528E+03  1.340050E+02
      7298   1  8.651987E+06  2.067203E+02  7.623623E+02  7.671564E+05 -5.811811E+03 -1.311770E+02
      7299   1  8.651913E+06  2.886177E+02  4.555496E+02  7.612533E+05 -5.056869E-04  5.741740E-05
      7300   1  8.651987E+06  2.067203E+02  7.623623E+02  7.671564E+05  5.811810E+03  1.311771E+02
      7301   1  8.651920E+06  5.964802E+02  1.697338E+02  7.853650E+05  9.832527E+03 -1.340049E+02
      7302   1  8.651666E+06  1.679175E+01 -1.965985E+01  8.176718E+05  1.088442E+04  8.654219E+02
      7303   1  8.651851E+06 -4.898505E+01  6.034941E+02  8.659395E+05  8.493722E+03 -3.648095E+01
      7304   1  8.651011E+06 -9.151317E+02 -1.071635E+03  9.329138E+05  3.075395E+03  4.540350E+02
      7305   1  4.325853E+06 -4.151813E+02  4.758352E+02  1.032769E+06 -1.354279E+03 -6.001162E+01
      7306   1  4.325671E+06 -1.871485E+02 -3.059210E+02  9.644275E+05 -3.495937E+03 -8.782635E+02
      7307   1  4.325942E+06  1.974006E+02  1.311751E+02  9.135277E+05 -4.584909E+03 -6.111719E+01
      7308   1  4.325913E+06  7.567634E+01  1.653190E+02  8.788894E+05 -4.176439E+03 -6.825702E+02
      7309   1  4.325959E+06  2.770301E+02  1.025037E+02  8.587673E+05 -2.459779E+03  1.175540E+01
      7310   1  4.325993E+06  1.046558E+02  3.774248E+02  8.522425E+05 -2.462901E-04  4.908876E-05
      7311   1  4.325959E+06  2.770300E+02  1.025037E+02  8.587673E+05  2.459778E+03 -1.175528E+01
      7312   1  4.325913E+06  7.567629E+01  1.653190E+02  8.788894E+05  4.176439E+03  6.825703E+02
      7313   1  4.325942E+06  1.974005E+02  1.311750E+02  9.135277E+05  4.584908E+03  6.111724E+01
      7314   1  4.325671E+06 -1.871487E+02 -3.059210E+02  9.644275E+05  3.495937E+03  8.782635E+02
      7315   1  4.325853E+06 -4.151817E+02  4.758351E+02  1.032769E+06  1.354279E+03  6.001162E+01
      7316   1  4.733519E-03  9.975263E-05  1.433856E-04  1.065912E+06 -8.826975E-07 -3.528715E+02
      7317   1  4.794026E-03  2.761960E-04 -1.388481E-05  9.970621E+05 -8.810391E-06 -1.485455E+02
      7318   1  4.886684E-03  6.890698E-04  3.924563E-04  9.455725E+05 -9.481063E-06 -9.391110E+02
      7319   1  4.905420E-03  8.609689E-04  2.352221E-04  9.100684E+05 -8.518231E-06 -5.760737E+01
      7320   1  4.970270E-03  1.105922E-03  5.549865E-04  8.894857E+05 -5.352100E-06 -3.901554E+02
      7321   1  4.938345E-03  1.066077E-03  3.219229E-04  8.826903E+05 -4.279188E-07  6.817110E-05
      7322   1  4.967998E-03  1.126384E-03  5.603881E-04  8.894857E+05  5.161351E-06  3.901555E+02
      7323   1  4.905874E-03  9.036163E-04  2.536101E-04  9.100684E+05  8.267799E-06  5.760748E+01
      7324   1  4.905087E-03  8.259643E-04  4.444642E-04  9.455725E+05  8.329009E-06  9.391111E+02
      7325   1  4.827467E-03  5.028698E-04  7.583252E-05  9.970621E+05  6.348423E-06  1.485456E+02
      7326   1  4.786542E-03  4.115471E-04  2.742279E-04  1.065912E+06  4.959735E-06  3.528715E+02
      7327   1 -4.325853E+06  4.151814E+02 -4.758348E+02  1.032769E+06  1.354279E+03 -6.001162E+01
      7328   1 -4.325671E+06  1.871477E+02  3.059202E+02  9.644275E+05  3.495937E+03 -8.782635E+02
      7329   1 -4.325942E+06 -1.974017E+02 -1.311751E+02  9.135277E+05  4.584909E+03 -6.111718E+01
      7330   1 -4.325913E+06 -7.567835E+01 -1.653202E+02  8.788894E+05  4.176439E+03 -6.825702E+02
      7331   1 -4.325959E+06 -2.770320E+02 -1.025041E+02  8.587673E+05  2.459779E+03  1.175540E+01
      7332   1 -4.325993E+06 -1.046582E+02 -3.774261E+02  8.522425E+05  2.456390E-04  5.272169E-05
      7333   1 -4.325959E+06 -2.770320E+02 -1.025041E+02  8.587673E+05 -2.459778E+03 -1.175528E+01
      7334   1 -4.325913E+06 -7.567838E+01 -1.653202E+02  8.788894E+05 -4.176439E+03  6.825703E+02
      7335   1 -4.325942E+06 -1.974018E+02 -1.311752E+02  9.135277E+05 -4.584908E+03  6.111723E+01
      7336   1 -4.325671E+06  1.871474E+02  3.059201E+02  9.644275E+05 -3.495937E+03  8.782635E+02
      7337   1 -4.325853E+06  4.151811E+02 -4.758349E+02  1.032769E+06 -1.354279E+03  6.001163E+01
      7338   1 -8.651011E+06  9.151325E+02  1.071637E+03  9.329138E+05  3.075395E+03 -4.540350E+02
      7339   1 -8.651851E+06  4.898554E+01 -6.034949E+02  8.659395E+05  8.493722E+03  3.648098E+01
      7340   1 -8.651666E+06 -1.678991E+01  1.966151E+01  8.176718E+05  1.088442E+04 -8.654218E+02
      7341   1 -8.651920E+06 -5.964787E+02 -1.697342E+02  7.853650E+05  9.832528E+03  1.340050E+02
      7342   1 -8.651987E+06 -2.067177E+02 -7.623604E+02  7.671564E+05  5.811811E+03 -1.311770E+02
      7343   1 -8.651913E+06 -2.886158E+02 -4.555498E+02  7.612533E+05  5.026775E-04  6.039962E-05
      7344   1 -8.651987E+06 -2.067177E+02 -7.623604E+02  7.671564E+05 -5.811810E+03  1.311771E+02
      7345   1 -8.651920E+06 -5.964787E+02 -1.697342E+02  7.853650E+05 -9.832527E+03 -1.340049E+02
      7346   1 -8.651666E+06 -1.678979E+01  1.966154E+01  8.176718E+05 -1.088442E+04  8.654219E+02
      7347   1 -8.651851E+06  4.898574E+01 -6.034948E+02  8.659395E+05 -8.493722E+03 -3.648096E+01
      7348   1 -8.651011E+06  9.151328E+02  1.071637E+03  9.329138E+05 -3.075395E+03  4.540350E+02
      7349   1 -1.297771E+07  1.265665E+03 -1.893658E+03  7.642281E+05  6.642089E+03  1.140248E+02
      7350   1 -1.297709E+07  4.180228E+02  8.426068E+02  7.010097E+05  1.675537E+04 -1.140747E+03
      7351   1 -1.297792E+07 -1.014714E+03 -2.472725E+02  6.575685E+05  2.136786E+04  4.521029E+02
      7352   1 -1.297798E+07 -3.059756E+02 -1.158865E+03  6.307048E+05  1.907128E+04  1.212429E+02
      7353   1 -1.297787E+07 -1.952164E+02 -9.152747E+02  6.158934E+05  1.089087E+04  9.832864E+01
      7354   1 -1.297806E+07 -3.362123E+02 -1.346720E+03  6.110967E+05  7.879173E-04  2.512438E-05
      7355   1 -1.297787E+07 -1.952165E+02 -9.152747E+02  6.158934E+05 -1.089087E+04 -9.832855E+01
      7356   1 -1.297798E+07 -3.059756E+02 -1.158865E+03  6.307048E+05 -1.907127E+04 -1.212429E+02
      7357   1 -1.297792E+07 -1.014714E+03 -2.472725E+02  6.575685E+05 -2.136786E+04 -4.521029E+02
      7358   1 -1.297709E+07  4.180226E+02  8.426066E+02  7.010097E+05 -1.675537E+04  1.140747E+03
      7359   1 -1.297771E+07  1.265664E+03 -1.893658E+03  7.642281E+05 -6.642089E+03 -1.140248E+02
      7360   1 -1.730148E+07  2.209100E+03  3.410210E+03  5.227687E+05  1.217253E+04 -1.070139E+03
      7361   1 -1.730407E+07 -1.350355E+03 -8.718074E+02  4.661104E+05  3.333746E+04  1.042942E+03
      7362   1 -1.730416E+07 -5.593491E+02 -1.946405E+03  4.350906E+05  4.075532E+04  7.455615E+02
      7363   1 -1.730383E+07  8.242436E+01 -1.588242E+03  4.171033E+05  3.372435E+04  2.190596E+02
      7364   1 -1.730413E+07 -5.079732E+02 -1.907645E+03  4.071877E+05  1.884677E+04  1.827726E+02
      7365   1 -1.730379E+07  2.516744E+02 -1.642149E+03  4.041610E+05  1.110165E-03  3.001537E-05
      7366   1 -1.730413E+07 -5.079732E+02 -1.907645E+03  4.071877E+05 -1.884676E+04 -1.827726E+02
      7367   1 -1.730383E+07  8.242439E+01 -1.588242E+03  4.171033E+05 -3.372435E+04 -2.190596E+02
      7368   1 -1.730416E+07 -5.593490E+02 -1.946405E+03  4.350906E+05 -4.075532E+04 -7.455615E+02
      7369   1 -1.730407E+07 -1.350355E+03 -8.718073E+02  4.661104E+05 -3.333746E+04 -1.042942E+03
      7370   1 -1.730148E+07  2.209100E+03  3.410210E+03  5.227687E+05 -1.217253E+04  1.070139E+03
      7371   1 -2.163085E+07  1.520923E+03 -6.623369E+03  1.920011E+05  3.281553E+04  1.646624E+03
      7372   1 -2.163124E+07 -1.953456E+03 -4.335160E+03  1.649970E+05  7.094646E+04  1.013843E+03
      7373   1 -2.162982E+07  1.011572E+03 -2.987752E+03  1.546711E+05  7.223704E+04  1.984415E+02
      7374   1 -2.163033E+07 -8.932748E+02 -2.638706E+03  1.478529E+05  5.632978E+04  2.370598E+02
      7375   1 -2.162972E+07  6.469120E+02 -2.312827E+03  1.445899E+05  3.040078E+04  3.340137E+01
      7376   1 -2.163016E+07 -6.663334E+02 -2.325804E+03  1.433907E+05  1.487247E-03  7.572430E-06
      7377   1 -2.162972E+07  6.469120E+02 -2.312827E+03  1.445899E+05 -3.040078E+04 -3.340136E+01
      7378   1 -2.163033E+07 -8.932749E+02 -2.638706E+03  1.478529E+05 -5.632978E+04 -2.370598E+02
      7379   1 -2.162982E+07  1.011572E+03 -2.987752E+03  1.546711E+05 -7.223704E+04 -1.984415E+02
      7380   1 -2.163124E+07 -1.953456E+03 -4.335160E+03  1.649970E+05 -7.094646E+04 -1.013843E+03
      7381   1 -2.163085E+07  1.520922E+03 -6.623369E+03  1.920011E+05 -3.281553E+04 -1.646624E+03
      7382   1  2.131275E+07 -1.500264E+03  6.521432E+03  1.920010E+05 -3.281551E+04  1.622349E+03
      7383   1  2.131314E+07  1.926352E+03  4.275786E+03  1.649970E+05 -7.094651E+04  9.989688E+02
      7384   1  2.131173E+07 -9.983302E+02  2.939511E+03  1.546710E+05 -7.223698E+04  1.955003E+02
      7385   1  2.131224E+07  8.818143E+02  2.604172E+03  1.478530E+05 -5.632983E+04  2.335874E+02
      7386   1  2.131163E+07 -6.390800E+02  2.274565E+03  1.445899E+05 -3.040076E+04  3.290375E+01
      7387   1  2.131207E+07  6.582330E+02  2.295848E+03  1.433907E+05 -1.506423E-03  1.376424E-05
      7388   1  2.131163E+07 -6.390800E+02  2.274565E+03  1.445899E+05  3.040075E+04 -3.290373E+01
      7389   1  2.131224E+07  8.818144E+02  2.604172E+03  1.478530E+05  5.632983E+04 -2.335874E+02
      7390   1  2.131173E+07 -9.983300E+02  2.939510E+03  1.546710E+05  7.223698E+04 -1.955003E+02
      7391   1  2.131314E+07  1.926352E+03  4.275786E+03  1.649970E+05  7.094651E+04 -9.989688E+02
      7392   1  2.131275E+07 -1.500264E+03  6.521432E+03  1.920010E+05  3.281551E+04 -1.622349E+03
      7393   1  1.704705E+07 -2.177841E+03 -3.363977E+03  5.227688E+05 -1.217250E+04 -1.054387E+03
      7394   1  1.704960E+07  1.331893E+03  8.628552E+02  4.661104E+05 -3.333752E+04  1.027604E+03
      7395   1  1.704969E+07  5.496654E+02  1.913958E+03  4.350906E+05 -4.075526E+04  7.345962E+02
      7396   1  1.704936E+07 -7.973979E+01  1.568678E+03  4.171033E+05 -3.372440E+04  2.158395E+02
      7397   1  1.704966E+07  4.990016E+02  1.875811E+03  4.071877E+05 -1.884674E+04  1.800840E+02
      7398   1  1.704933E+07 -2.464779E+02  1.621775E+03  4.041610E+05 -1.139448E-03  4.650135E-05
      7399   1  1.704966E+07  4.990016E+02  1.875811E+03  4.071877E+05  1.884674E+04 -1.800839E+02
      7400   1  1.704936E+07 -7.973986E+01  1.568678E+03  4.171033E+05  3.372439E+04 -2.158394E+02
      7401   1  1.704969E+07  5.496652E+02  1.913958E+03  4.350906E+05  4.075526E+04 -7.345962E+02
      7402   1  1.704960E+07  1.331893E+03  8.628550E+02  4.661104E+05  3.333752E+04 -1.027604E+03
      7403   1  1.704705E+07 -2.177842E+03 -3.363977E+03  5.227688E+05  1.217250E+04  1.054387E+03
      7404   1  1.278686E+07 -1.248214E+03  1.862634E+03  7.642280E+05 -6.642077E+03  1.123403E+02
      7405   1  1.278625E+07 -4.107595E+02 -8.271447E+02  7.010097E+05 -1.675541E+04 -1.123975E+03
      7406   1  1.278706E+07  9.986615E+02  2.406152E+02  6.575685E+05 -2.136782E+04  4.454570E+02
      7407   1  1.278713E+07  3.026452E+02  1.144823E+03  6.307048E+05 -1.907131E+04  1.194582E+02
      7408   1  1.278702E+07  1.911752E+02  8.988291E+02  6.158934E+05 -1.089085E+04  9.688356E+01
      7409   1  1.278720E+07  3.324562E+02  1.329900E+03  6.110967E+05 -8.162367E-04  5.520747E-05
      7410   1  1.278702E+07  1.911752E+02  8.988291E+02  6.158934E+05  1.089085E+04 -9.688341E+01
      7411   1  1.278713E+07  3.026453E+02  1.144823E+03  6.307048E+05  1.907131E+04 -1.194581E+02
      7412   1  1.278706E+07  9.986617E+02  2.406153E+02  6.575685E+05  2.136781E+04 -4.454569E+02
      7413   1  1.278625E+07 -4.107592E+02 -8.271446E+02  7.010096E+05  1.675541E+04  1.123975E+03
      7414   1  1.278686E+07 -1.248213E+03  1.862634E+03  7.642280E+05  6.642077E+03 -1.123403E+02
      7415   1  8.523790E+06 -9.023505E+02 -1.057996E+03  9.329139E+05 -3.075381E+03 -4.473522E+02
      7416   1  8.524618E+06 -4.750627E+01  5.967111E+02  8.659395E+05 -8.493750E+03  3.594711E+01
      7417   1  8.524435E+06  1.575325E+01 -2.143840E+01  8.176718E+05 -1.088440E+04 -8.526954E+02
      7418   1  8.524687E+06  5.884991E+02  1.692855E+02  7.853650E+05 -9.832552E+03  1.320342E+02
      7419   1  8.524751E+06  2.028677E+02  7.491082E+02  7.671564E+05 -5.811798E+03 -1.292477E+02
      7420   1  8.524680E+06  2.851748E+02  4.508873E+02  7.612532E+05 -5.262880E-04  9.497488E-05
      7421   1  8.524751E+06  2.028677E+02  7.491082E+02  7.671564E+05  5.811797E+03  1.292479E+02
      7422   1  8.524687E+06  5.884990E+02  1.692854E+02  7.853650E+05  9.832551E+03 -1.320341E+02
      7423   1  8.524435E+06  1.575308E+01 -2.143844E+01  8.176718E+05  1.088439E+04  8.526955E+02
      7424   1  8.524618E+06 -4.750656E+01  5.967109E+02  8.659395E+05  8.493750E+03 -3.594706E+01
      7425   1  8.523790E+06 -9.023509E+02 -1.057996E+03  9.329139E+05  3.075381E+03  4.473522E+02
      7426   1  4.262238E+06 -4.094720E+02  4.677457E+02  1.032769E+06 -1.354275E+03 -5.913340E+01
      7427   1  4.262058E+06 -1.840135E+02 -3.003660E+02  9.644275E+05 -3.495951E+03 -8.653517E+02
      7428   1  4.262325E+06  1.941111E+02  1.282076E+02  9.135278E+05 -4.584893E+03 -6.021696E+01
      7429   1  4.262297E+06  7.496791E+01  1.639208E+02  8.788894E+05 -4.176452E+03 -6.725331E+02
      7430   1  4.262342E+06  2.725561E+02  9.996986E+01  8.587673E+05 -2.459772E+03  1.158289E+01
      7431   1  4.262376E+06  1.035283E+02  3.729026E+02  8.522425E+05 -2.577048E-04  9.409814E-05
      7432   1  4.262342E+06  2.725561E+02  9.996986E+01  8.587673E+05  2.459771E+03 -1.158267E+01
      7433   1  4.262297E+06  7.496796E+01  1.639208E+02  8.788894E+05  4.176452E+03  6.725332E+02
      7434   1  4.262325E+06  1.941113E+02  1.282077E+02  9.135278E+05  4.584893E+03  6.021707E+01
      7435   1  4.262058E+06 -1.840132E+02 -3.003659E+02  9.644275E+05  3.495950E+03  8.653518E+02
      7436   1  4.262238E+06 -4.094716E+02  4.677459E+02  1.032769E+06  1.354275E+03  5.913343E+01
      7437   1  4.686136E-03 -1.326236E-04 -1.822274E-04  1.065912E+06 -3.019137E-06 -3.476778E+02
      7438   1  4.609925E-03 -3.358511E-04 -6.521094E-06  9.970621E+05 -1.443701E-06 -1.463585E+02
      7439   1  4.496717E-03 -8.478975E-04 -4.602765E-04  9.455725E+05 -4.475945E-06 -9.253003E+02
      7440   1  4.460904E-03 -1.065657E-03 -2.880498E-04  9.100684E+05 -4.384621E-06 -5.676080E+01
      7441   1  4.378814E-03 -1.358693E-03 -6.612121E-04  8.894857E+05 -3.590394E-06 -3.844174E+02
      7442   1  4.405821E-03 -1.324210E-03 -3.879663E-04  8.826903E+05 -1.557465E-06  1.162301E-04
      7443   1  4.373963E-03 -1.376977E-03 -6.690820E-04  8.894857E+05  3.417265E-06  3.844176E+02
      7444   1  4.445319E-03 -1.115337E-03 -3.067308E-04  9.100684E+05  4.022426E-06  5.676099E+01
      7445   1  4.454986E-03 -9.972446E-04 -5.222748E-04  9.455725E+05  6.273483E-06  9.253004E+02
      7446   1  4.537352E-03 -6.185826E-04 -1.180579E-04  9.970621E+05  3.880080E-06  1.463585E+02
      7447   1  4.589702E-03 -5.097627E-04 -3.337328E-04  1.065912E+06 -9.530458E-07  3.476778E+02
      7448   1 -4.262238E+06  4.094719E+02 -4.677463E+02  1.032769E+06  1.354275E+03 -5.913341E+01
      7449   1 -4.262058E+06  1.840144E+02  3.003669E+02  9.644275E+05  3.495951E+03 -8.653517E+02
      7450   1 -4.262325E+06 -1.941098E+02 -1.282075E+02  9.135278E+05  4.584893E+03 -6.021696E+01
      7451   1 -4.262297E+06 -7.496547E+01 -1.639193E+02  8.788894E+05  4.176452E+03 -6.725331E+02
      7452   1 -4.262341E+06 -2.725537E+02 -9.996937E+01  8.587673E+05  2.459772E+03  1.158288E+01
      7453   1 -4.262376E+06 -1.035254E+02 -3.729010E+02  8.522425E+05  2.567032E-04  9.281913E-05
      7454   1 -4.262341E+06 -2.725537E+02 -9.996936E+01  8.587673E+05 -2.459771E+03 -1.158267E+01
      7455   1 -4.262297E+06 -7.496541E+01 -1.639193E+02  8.788894E+05 -4.176452E+03  6.725332E+02
      7456   1 -4.262325E+06 -1.941096E+02 -1.282075E+02  9.135278E+05 -4.584893E+03  6.021708E+01
      7457   1 -4.262058E+06  1.840147E+02  3.003670E+02  9.644275E+05 -3.495950E+03  8.653518E+02
      7458   1 -4.262238E+06  4.094723E+02 -4.677462E+02  1.032769E+06 -1.354275E+03  5.913344E+01
      7459   1 -8.523790E+06  9.023499E+02  1.057995E+03  9.329139E+05  3.075381E+03 -4.473522E+02
      7460   1 -8.524618E+06  4.750593E+01 -5.967100E+02  8.659395E+05  8.493750E+03  3.594712E+01
      7461   1 -8.524435E+06 -1.575535E+01  2.143648E+01  8.176718E+05  1.088440E+04 -8.526954E+02
      7462   1 -8.524687E+06 -5.885008E+02 -1.692850E+02  7.853650E+05  9.832552E+03  1.320342E+02
      7463   1 -8.524751E+06 -2.028709E+02 -7.491105E+02  7.671564E+05  5.811798E+03 -1.292477E+02
      7464   1 -8.524680E+06 -2.851770E+02 -4.508870E+02  7.612532E+05  5.266196E-04  1.019469E-04
      7465   1 -8.524751E+06 -2.028709E+02 -7.491105E+02  7.671564E+05 -5.811797E+03  1.292479E+02
      7466   1 -8.524687E+06 -5.885009E+02 -1.692850E+02  7.853650E+05 -9.832551E+03 -1.320341E+02
      7467   1 -8.524435E+06 -1.575548E+01  2.143640E+01  8.176718E+05 -1.088439E+04  8.526955E+02
      7468   1 -8.524618E+06  4.750565E+01 -5.967101E+02  8.659395E+05 -8.493750E+03 -3.594706E+01
      7469   1 -8.523790E+06  9.023496E+02  1.057995E+03  9.329139E+05 -3.075381E+03  4.473522E+02
      7470   1 -1.278686E+07  1.248213E+03 -1.862636E+03  7.642280E+05  6.642077E+03  1.123403E+02
      7471   1 -1.278625E+07  4.107612E+02  8.271474E+02  7.010097E+05  1.675541E+04 -1.123975E+03
      7472   1 -1.278706E+07 -9.986608E+02 -2.406170E+02  6.575685E+05  2.136782E+04  4.454570E+02
      7473   1 -1.278713E+07 -3.026420E+02 -1.144820E+03  6.307048E+05  1.907131E+04  1.194582E+02
      7474   1 -1.278702E+07 -1.911734E+02 -8.988304E+02  6.158934E+05  1.089085E+04  9.688355E+01
      7475   1 -1.278720E+07 -3.324525E+02 -1.329897E+03  6.110967E+05  8.201715E-04  5.226880E-05
      7476   1 -1.278702E+07 -1.911734E+02 -8.988304E+02  6.158934E+05 -1.089085E+04 -9.688341E+01
      7477   1 -1.278713E+07 -3.026420E+02 -1.144820E+03  6.307048E+05 -1.907131E+04 -1.194581E+02
      7478   1 -1.278706E+07 -9.986607E+02 -2.406169E+02  6.575685E+05 -2.136781E+04 -4.454569E+02
      7479   1 -1.278625E+07  4.107614E+02  8.271475E+02  7.010096E+05 -1.675541E+04  1.123975E+03
      7480   1 -1.278686E+07  1.248214E+03 -1.862636E+03  7.642280E+05 -6.642077E+03 -1.123403E+02
      7481   1 -1.704705E+07  2.177840E+03  3.363973E+03  5.227688E+05  1.217250E+04 -1.054387E+03
      7482   1 -1.704960E+07 -1.331893E+03 -8.628520E+02  4.661104E+05  3.333752E+04  1.027604E+03
      7483   1 -1.704969E+07 -5.496684E+02 -1.913962E+03  4.350906E+05  4.075526E+04  7.345962E+02
      7484   1 -1.704936E+07  7.973882E+01 -1.568675E+03  4.171033E+05  3.372440E+04  2.158395E+02
      7485   1 -1.704966E+07 -4.990056E+02 -1.875815E+03  4.071877E+05  1.884674E+04  1.800840E+02
      7486   1 -1.704933E+07  2.464764E+02 -1.621772E+03  4.041610E+05  1.143441E-03  3.988870E-05
      7487   1 -1.704966E+07 -4.990057E+02 -1.875815E+03  4.071877E+05 -1.884674E+04 -1.800839E+02
      7488   1 -1.704936E+07  7.973878E+01 -1.568675E+03  4.171033E+05 -3.372439E+04 -2.158394E+02
      7489   1 -1.704969E+07 -5.496685E+02 -1.913962E+03  4.350906E+05 -4.075526E+04 -7.345962E+02
      7490   1 -1.704960E+07 -1.331893E+03 -8.628520E+02  4.661104E+05 -3.333752E+04 -1.027604E+03
      7491   1 -1.704705E+07  2.177840E+03  3.363973E+03  5.227688E+05 -1.217250E+04  1.054387E+03
      7492   1 -2.131275E+07  1.500263E+03 -6.521436E+03  1.920010E+05  3.281551E+04  1.622349E+03
      7493   1 -2.131314E+07 -1.926349E+03 -4.275781E+03  1.649970E+05  7.094651E+04  9.989688E+02
      7494   1 -2.131173E+07  9.983303E+02 -2.939514E+03  1.546710E+05  7.223698E+04  1.955004E+02
      7495   1 -2.131224E+07 -8.818104E+02 -2.604168E+03  1.478530E+05  5.632983E+04  2.335874E+02
      7496   1 -2.131163E+07  6.390811E+02 -2.274568E+03  1.445899E+05  3.040076E+04  3.290376E+01
      7497   1 -2.131207E+07 -6.582285E+02 -2.295843E+03  1.433907E+05  1.505623E-03  8.744545E-06
      7498   1 -2.131163E+07  6.390812E+02 -2.274568E+03  1.445899E+05 -3.040075E+04 -3.290373E+01
      7499   1 -2.131224E+07 -8.818104E+02 -2.604168E+03  1.478530E+05 -5.632983E+04 -2.335874E+02
      7500   1 -2.131173E+07  9.983305E+02 -2.939514E+03  1.546710E+05 -7.223698E+04 -1.955003E+02
      7501   1 -2.131314E+07 -1.926349E+03 -4.275781E+03  1.649970E+05 -7.094651E+04 -9.989687E+02
      7502   1 -2.131275E+07  1.500263E+03 -6.521436E+03  1.920010E+05 -3.281551E+04 -1.622349E+03
      7503   1  2.099465E+07 -1.476477E+03  6.427801E+03  1.920011E+05 -3.281552E+04  1.598184E+03
      7504   1  2.099503E+07  1.896274E+03  4.208391E+03  1.649970E+05 -7.094647E+04  9.840300E+02
      7505   1  2.099365E+07 -9.820965E+02  2.899152E+03  1.546711E+05 -7.223703E+04  1.926011E+02
      7506   1  2.099415E+07  8.672819E+02  2.561815E+03  1.478529E+05 -5.632979E+04  2.300898E+02
      7507   1  2.099355E+07 -6.281708E+02  2.244086E+03  1.445899E+05 -3.040078E+04  3.241792E+01
      7508   1  2.099398E+07  6.470186E+02  2.258111E+03  1.433907E+05 -1.522068E-03  2.462958E-05
      7509   1  2.099355E+07 -6.281708E+02  2.244086E+03  1.445899E+05  3.040078E+04 -3.241787E+01
      7510   1  2.099415E+07  8.672819E+02  2.561815E+03  1.478529E+05  5.632979E+04 -2.300898E+02
      7511   1  2.099365E+07 -9.820969E+02  2.899151E+03  1.546711E+05  7.223703E+04 -1.926011E+02
      7512   1  2.099503E+07  1.896274E+03  4.208391E+03  1.649970E+05  7.094647E+04 -9.840300E+02
      7513   1  2.099465E+07 -1.476478E+03  6.427800E+03  1.920011E+05  3.281552E+04 -1.598184E+03
      7514   1  1.679261E+07 -2.144333E+03 -3.310567E+03  5.227687E+05 -1.217253E+04 -1.038662E+03
      7515   1  1.679513E+07  1.310873E+03  8.468160E+02  4.661104E+05 -3.333747E+04  1.012267E+03
      7516   1  1.679521E+07  5.426535E+02  1.888517E+03  4.350906E+05 -4.075531E+04  7.236331E+02
      7517   1  1.679490E+07 -7.975157E+01  1.542167E+03  4.171033E+05 -3.372436E+04  2.126170E+02
      7518   1  1.679519E+07  4.927824E+02  1.850904E+03  4.071877E+05 -1.884676E+04  1.773968E+02
      7519   1  1.679486E+07 -2.440193E+02  1.594486E+03  4.041610E+05 -1.171051E-03  7.761122E-05
      7520   1  1.679519E+07  4.927825E+02  1.850904E+03  4.071877E+05  1.884676E+04 -1.773967E+02
      7521   1  1.679490E+07 -7.975149E+01  1.542167E+03  4.171033E+05  3.372436E+04 -2.126168E+02
      7522   1  1.679521E+07  5.426537E+02  1.888517E+03  4.350906E+05  4.075531E+04 -7.236330E+02
      7523   1  1.679513E+07  1.310873E+03  8.468161E+02  4.661104E+05  3.333747E+04 -1.012267E+03
      7524   1  1.679261E+07 -2.144333E+03 -3.310567E+03  5.227687E+05  1.217253E+04  1.038662E+03
      7525   1  1.259601E+07 -1.228632E+03  1.837431E+03  7.642281E+05 -6.642087E+03  1.106698E+02
      7526   1  1.259541E+07 -4.055405E+02 -8.173106E+02  7.010097E+05 -1.675538E+04 -1.107196E+03
      7527   1  1.259621E+07  9.846805E+02  2.394939E+02  6.575685E+05 -2.136785E+04  4.388062E+02
      7528   1  1.259628E+07  2.971713E+02  1.125282E+03  6.307048E+05 -1.907128E+04  1.176767E+02
      7529   1  1.259616E+07  1.892779E+02  8.878545E+02  6.158934E+05 -1.089087E+04  9.543684E+01
      7530   1  1.259635E+07  3.265213E+02  1.307609E+03  6.110967E+05 -8.490161E-04  1.029219E-04
      7531   1  1.259616E+07  1.892779E+02  8.878545E+02  6.158934E+05  1.089086E+04 -9.543660E+01
      7532   1  1.259628E+07  2.971712E+02  1.125282E+03  6.307048E+05  1.907128E+04 -1.176765E+02
      7533   1  1.259621E+07  9.846803E+02  2.394938E+02  6.575685E+05  2.136785E+04 -4.388061E+02
      7534   1  1.259541E+07 -4.055409E+02 -8.173107E+02  7.010097E+05  1.675538E+04  1.107196E+03
      7535   1  1.259601E+07 -1.228633E+03  1.837431E+03  7.642281E+05  6.642087E+03 -1.106697E+02
      7536   1  8.396570E+06 -8.883301E+02 -1.040472E+03  9.329138E+05 -3.075392E+03 -4.406800E+02
      7537   1  8.397385E+06 -4.741812E+01  5.860942E+02  8.659395E+05 -8.493727E+03  3.540847E+01
      7538   1  8.397205E+06  1.616512E+01 -1.942757E+01  8.176718E+05 -1.088442E+04 -8.399683E+02
      7539   1  8.397452E+06  5.790689E+02  1.650844E+02  7.853650E+05 -9.832533E+03  1.300637E+02
      7540   1  8.397517E+06  2.005045E+02  7.395983E+02  7.671564E+05 -5.811809E+03 -1.273187E+02
      7541   1  8.397445E+06  2.802632E+02  4.424921E+02  7.612533E+05 -5.501657E-04  1.644658E-04
      7542   1  8.397517E+06  2.005045E+02  7.395983E+02  7.671564E+05  5.811808E+03  1.273190E+02
      7543   1  8.397452E+06  5.790690E+02  1.650845E+02  7.853650E+05  9.832532E+03 -1.300635E+02
      7544   1  8.397205E+06  1.616533E+01 -1.942747E+01  8.176718E+05  1.088442E+04  8.399684E+02
      7545   1  8.397385E+06 -4.741773E+01  5.860943E+02  8.659395E+05  8.493727E+03 -3.540837E+01
      7546   1  8.396570E+06 -8.883296E+02 -1.040471E+03  9.329138E+05  3.075392E+03  4.406800E+02
      7547   1  4.198622E+06 -4.030359E+02  4.616577E+02  1.032769E+06 -1.354278E+03 -5.824736E+01
      7548   1  4.198446E+06 -1.815799E+02 -2.967468E+02  9.644275E+05 -3.495940E+03 -8.524328E+02
      7549   1  4.198708E+06  1.915301E+02  1.271434E+02  9.135277E+05 -4.584906E+03 -5.931931E+01
      7550   1  4.198681E+06  7.351786E+01  1.606290E+02  8.788894E+05 -4.176442E+03 -6.624947E+02
      7551   1  4.198725E+06  2.688149E+02  9.931713E+01  8.587673E+05 -2.459777E+03  1.140982E+01
      7552   1  4.198758E+06  1.016460E+02  3.664956E+02  8.522425E+05 -2.729775E-04  1.698857E-04
      7553   1  4.198725E+06  2.688149E+02  9.931712E+01  8.587673E+05  2.459777E+03 -1.140948E+01
      7554   1  4.198681E+06  7.351778E+01  1.606290E+02  8.788894E+05  4.176441E+03  6.624949E+02
      7555   1  4.198708E+06  1.915299E+02  1.271433E+02  9.135277E+05  4.584905E+03  5.931952E+01
      7556   1  4.198446E+06 -1.815803E+02 -2.967470E+02  9.644275E+05  3.495940E+03  8.524330E+02
      7557   1  4.198622E+06 -4.030364E+02  4.616575E+02  1.032769E+06  1.354278E+03  5.824740E+01
      7558   1  4.601196E-03  1.210330E-04  2.003648E-04  1.065912E+06 -3.295359E-06 -3.424922E+02
      7559   1  4.689472E-03  4.026854E-04 -2.920664E-06  9.970621E+05 -1.331607E-05 -1.441761E+02
      7560   1  4.825581E-03  1.030155E-03  5.701647E-04  9.455725E+05 -1.302799E-05 -9.114900E+02
      7561   1  4.854868E-03  1.296477E-03  3.735252E-04  9.100684E+05 -1.306695E-05 -5.591304E+01
      7562   1  4.948375E-03  1.666278E-03  8.177606E-04  8.894857E+05 -6.850217E-06 -3.786801E+02
      7563   1  4.906771E-03  1.600810E-03  4.975985E-04  8.826903E+05 -1.195091E-06  1.927590E-04
      7564   1  4.946338E-03  1.680014E-03  8.246244E-04  8.894857E+05  4.769799E-06  3.786804E+02
      7565   1  4.861534E-03  1.363675E-03  3.982800E-04  9.100684E+05  1.103381E-05  5.591335E+01
      7566   1  4.852857E-03  1.215958E-03  6.452280E-04  9.455725E+05  1.147106E-05  9.114902E+02
      7567   1  4.745209E-03  7.539981E-04  1.345699E-04  9.970621E+05  1.040415E-05  1.441762E+02
      7568   1  4.681776E-03  6.006281E-04  3.852907E-04  1.065912E+06  5.605084E-06  3.424922E+02
      7569   1 -4.198622E+06  4.030359E+02 -4.616571E+02  1.032769E+06  1.354278E+03 -5.824737E+01
      7570   1 -4.198446E+06  1.815787E+02  2.967458E+02  9.644275E+05  3.495940E+03 -8.524329E+02
      7571   1 -4.198708E+06 -1.915318E+02 -1.271435E+02  9.135277E+05  4.584906E+03 -5.931931E+01
      7572   1 -4.198681E+06 -7.352085E+01 -1.606308E+02  8.788894E+05  4.176442E+03 -6.624947E+02
      7573   1 -4.198725E+06 -2.688178E+02 -9.931771E+01  8.587673E+05  2.459777E+03  1.140982E+01
      7574   1 -4.198758E+06 -1.016496E+02 -3.664975E+02  8.522425E+05  2.701622E-04  1.709795E-04
      7575   1 -4.198725E+06 -2.688179E+02 -9.931772E+01  8.587673E+05 -2.459777E+03 -1.140948E+01
      7576   1 -4.198681E+06 -7.352092E+01 -1.606308E+02  8.788894E+05 -4.176441E+03  6.624949E+02
      7577   1 -4.198708E+06 -1.915320E+02 -1.271435E+02  9.135277E+05 -4.584905E+03  5.931951E+01
      7578   1 -4.198446E+06  1.815784E+02  2.967457E+02  9.644275E+05 -3.495940E+03  8.524330E+02
      7579   1 -4.198622E+06  4.030355E+02 -4.616572E+02  1.032769E+06 -1.354278E+03  5.824740E+01
      7580   1 -8.396570E+06  8.883308E+02  1.040473E+03  9.329138E+05  3.075392E+03 -4.406800E+02
      7581   1 -8.397385E+06  4.741847E+01 -5.860954E+02  8.659395E+05  8.493727E+03  3.540848E+01
      7582   1 -8.397205E+06 -1.616258E+01  1.942993E+01  8.176718E+05  1.088442E+04 -8.399683E+02
      7583   1 -8.397452E+06 -5.790668E+02 -1.650849E+02  7.853650E+05  9.832533E+03  1.300637E+02
      7584   1 -8.397517E+06 -2.005007E+02 -7.395955E+02  7.671564E+05  5.811809E+03 -1.273187E+02
      7585   1 -8.397445E+06 -2.802605E+02 -4.424924E+02  7.612533E+05  5.471480E-04  1.607464E-04
      7586   1 -8.397517E+06 -2.005007E+02 -7.395955E+02  7.671564E+05 -5.811808E+03  1.273190E+02
      7587   1 -8.397452E+06 -5.790668E+02 -1.650849E+02  7.853650E+05 -9.832532E+03 -1.300635E+02
      7588   1 -8.397205E+06 -1.616241E+01  1.942998E+01  8.176718E+05 -1.088442E+04  8.399685E+02
      7589   1 -8.397385E+06  4.741877E+01 -5.860953E+02  8.659395E+05 -8.493727E+03 -3.540838E+01
      7590   1 -8.396570E+06  8.883313E+02  1.040474E+03  9.329138E+05 -3.075392E+03  4.406801E+02
      7591   1 -1.259601E+07  1.228633E+03 -1.837428E+03  7.642281E+05  6.642087E+03  1.106698E+02
      7592   1 -1.259541E+07  4.055384E+02  8.173073E+02  7.010097E+05  1.675538E+04 -1.107196E+03
      7593   1 -1.259621E+07 -9.846814E+02 -2.394917E+02  6.575685E+05  2.136785E+04  4.388062E+02
      7594   1 -1.259628E+07 -2.971752E+02 -1.125286E+03  6.307048E+05  1.907128E+04  1.176767E+02
      7595   1 -1.259616E+07 -1.892800E+02 -8.878529E+02  6.158934E+05  1.089087E+04  9.543684E+01
      7596   1 -1.259635E+07 -3.265259E+02 -1.307613E+03  6.110967E+05  8.426712E-04  1.026309E-04
      7597   1 -1.259616E+07 -1.892801E+02 -8.878529E+02  6.158934E+05 -1.089086E+04 -9.543661E+01
      7598   1 -1.259628E+07 -2.971752E+02 -1.125286E+03  6.307048E+05 -1.907128E+04 -1.176765E+02
      7599   1 -1.259621E+07 -9.846816E+02 -2.394918E+02  6.575685E+05 -2.136785E+04 -4.388061E+02
      7600   1 -1.259541E+07  4.055381E+02  8.173071E+02  7.010097E+05 -1.675538E+04  1.107196E+03
      7601   1 -1.259601E+07  1.228633E+03 -1.837428E+03  7.642281E+05 -6.642087E+03 -1.106698E+02
      7602   1 -1.679261E+07  2.144335E+03  3.310572E+03  5.227687E+05  1.217253E+04 -1.038662E+03
      7603   1 -1.679513E+07 -1.310874E+03 -8.468199E+02  4.661104E+05  3.333747E+04  1.012267E+03
      7604   1 -1.679521E+07 -5.426499E+02 -1.888512E+03  4.350906E+05  4.075531E+04  7.236331E+02
      7605   1 -1.679490E+07  7.975277E+01 -1.542170E+03  4.171033E+05  3.372436E+04  2.126170E+02
      7606   1 -1.679519E+07 -4.927775E+02 -1.850899E+03  4.071877E+05  1.884676E+04  1.773968E+02
      7607   1 -1.679486E+07  2.440211E+02 -1.594489E+03  4.041610E+05  1.163755E-03  7.358755E-05
      7608   1 -1.679519E+07 -4.927775E+02 -1.850899E+03  4.071877E+05 -1.884676E+04 -1.773967E+02
      7609   1 -1.679490E+07  7.975281E+01 -1.542170E+03  4.171033E+05 -3.372436E+04 -2.126168E+02
      7610   1 -1.679521E+07 -5.426498E+02 -1.888512E+03  4.350906E+05 -4.075531E+04 -7.236330E+02
      7611   1 -1.679513E+07 -1.310873E+03 -8.468197E+02  4.661104E+05 -3.333747E+04 -1.012267E+03
      7612   1 -1.679261E+07  2.144336E+03  3.310572E+03  5.227687E+05 -1.217253E+04  1.038662E+03
      7613   1 -2.099465E+07  1.476479E+03 -6.427795E+03  1.920011E+05  3.281552E+04  1.598184E+03
      7614   1 -2.099503E+07 -1.896277E+03 -4.208396E+03  1.649970E+05  7.094647E+04  9.840301E+02
      7615   1 -2.099365E+07  9.820964E+02 -2.899147E+03  1.546711E+05  7.223703E+04  1.926011E+02
      7616   1 -2.099415E+07 -8.672868E+02 -2.561821E+03  1.478529E+05  5.632979E+04  2.300898E+02
      7617   1 -2.099355E+07  6.281694E+02 -2.244082E+03  1.445899E+05  3.040078E+04  3.241791E+01
      7618   1 -2.099398E+07 -6.470240E+02 -2.258118E+03  1.433907E+05  1.520314E-03  2.267645E-05
      7619   1 -2.099355E+07  6.281694E+02 -2.244082E+03  1.445899E+05 -3.040078E+04 -3.241787E+01
      7620   1 -2.099415E+07 -8.672869E+02 -2.561821E+03  1.478529E+05 -5.632979E+04 -2.300898E+02
      7621   1 -2.099365E+07  9.820964E+02 -2.899147E+03  1.546711E+05 -7.223703E+04 -1.926011E+02
      7622   1 -2.099503E+07 -1.896277E+03 -4.208397E+03  1.649970E+05 -7.094647E+04 -9.840300E+02
      7623   1 -2.099465E+07  1.476479E+03 -6.427796E+03  1.920011E+05 -3.281552E+04 -1.598184E+03
      7624   1  2.067655E+07 -1.455246E+03  6.327387E+03  1.920010E+05 -3.281551E+04  1.573929E+03
      7625   1  2.067693E+07  1.868625E+03  4.147547E+03  1.649970E+05 -7.094651E+04  9.691440E+02
      7626   1  2.067556E+07 -9.683043E+02  2.852357E+03  1.546710E+05 -7.223699E+04  1.896677E+02
      7627   1  2.067606E+07  8.552606E+02  2.525847E+03  1.478530E+05 -5.632983E+04  2.266127E+02
      7628   1  2.067546E+07 -6.197712E+02  2.207253E+03  1.445899E+05 -3.040076E+04  3.192247E+01
      7629   1  2.067589E+07  6.383504E+02  2.226730E+03  1.433907E+05 -1.576836E-03  3.529649E-05
      7630   1  2.067546E+07 -6.197712E+02  2.207253E+03  1.445899E+05  3.040076E+04 -3.192238E+01
      7631   1  2.067606E+07  8.552607E+02  2.525847E+03  1.478530E+05  5.632982E+04 -2.266127E+02
      7632   1  2.067556E+07 -9.683041E+02  2.852357E+03  1.546710E+05  7.223699E+04 -1.896676E+02
      7633   1  2.067693E+07  1.868625E+03  4.147547E+03  1.649970E+05  7.094650E+04 -9.691440E+02
      7634   1  2.067655E+07 -1.455245E+03  6.327387E+03  1.920010E+05  3.281551E+04 -1.573929E+03
      7635   1  1.653818E+07 -2.112662E+03 -3.263021E+03  5.227688E+05 -1.217251E+04 -1.022915E+03
      7636   1  1.654065E+07  1.291943E+03  8.365664E+02  4.661104E+05 -3.333751E+04  9.969297E+02
      7637   1  1.654074E+07  5.334578E+02  1.857351E+03  4.350906E+05 -4.075527E+04  7.126682E+02
      7638   1  1.654043E+07 -7.756236E+01  1.521330E+03  4.171033E+05 -3.372439E+04  2.093964E+02
      7639   1  1.654071E+07  4.843120E+02  1.820336E+03  4.071877E+05 -1.884675E+04  1.747085E+02
      7640   1  1.654039E+07 -2.393265E+02  1.572844E+03  4.041610E+05 -1.235642E-03  1.198873E-04
      7641   1  1.654071E+07  4.843120E+02  1.820336E+03  4.071877E+05  1.884674E+04 -1.747083E+02
      7642   1  1.654043E+07 -7.756247E+01  1.521330E+03  4.171033E+05  3.372439E+04 -2.093962E+02
      7643   1  1.654074E+07  5.334575E+02  1.857351E+03  4.350906E+05  4.075527E+04 -7.126681E+02
      7644   1  1.654065E+07  1.291943E+03  8.365662E+02  4.661104E+05  3.333751E+04 -9.969297E+02
      7645   1  1.653818E+07 -2.112663E+03 -3.263021E+03  5.227688E+05  1.217251E+04  1.022915E+03
      7646   1  1.240516E+07 -1.210795E+03  1.807468E+03  7.642280E+05 -6.642079E+03  1.089879E+02
      7647   1  1.240457E+07 -3.986513E+02 -8.028748E+02  7.010097E+05 -1.675540E+04 -1.090423E+03
      7648   1  1.240536E+07  9.690055E+02  2.338469E+02  6.575685E+05 -2.136782E+04  4.321594E+02
      7649   1  1.240543E+07  2.934508E+02  1.110238E+03  6.307048E+05 -1.907131E+04  1.158926E+02
      7650   1  1.240531E+07  1.856291E+02  8.724079E+02  6.158934E+05 -1.089085E+04  9.399150E+01
      7651   1  1.240550E+07  3.223695E+02  1.289793E+03  6.110967E+05 -9.122775E-04  1.754360E-04
      7652   1  1.240531E+07  1.856291E+02  8.724079E+02  6.158934E+05  1.089085E+04 -9.399113E+01
      7653   1  1.240543E+07  2.934509E+02  1.110238E+03  6.307048E+05  1.907131E+04 -1.158923E+02
      7654   1  1.240536E+07  9.690059E+02  2.338470E+02  6.575685E+05  2.136782E+04 -4.321592E+02
      7655   1  1.240457E+07 -3.986508E+02 -8.028746E+02  7.010097E+05  1.675540E+04  1.090423E+03
      7656   1  1.240516E+07 -1.210794E+03  1.807468E+03  7.642280E+05  6.642079E+03 -1.089879E+02
      7657   1  8.269349E+06 -8.753217E+02 -1.026125E+03  9.329139E+05 -3.075383E+03 -4.339992E+02
      7658   1  8.270152E+06 -4.619143E+01  5.786129E+02  8.659395E+05 -8.493746E+03  3.487372E+01
      7659   1  8.269975E+06  1.539125E+01 -2.051604E+01  8.176718E+05 -1.088440E+04 -8.272417E+02
      7660   1  8.270218E+06  5.708237E+02  1.639521E+02  7.853650E+05 -9.832549E+03  1.280930E+02
      7661   1  8.270281E+06  1.969227E+02  7.270256E+02  7.671564E+05 -5.811800E+03 -1.253894E+02
      7662   1  8.270211E+06  2.765522E+02  4.371493E+02  7.612532E+05 -6.009936E-04  2.553375E-04
      7663   1  8.270281E+06  1.969227E+02  7.270256E+02  7.671564E+05  5.811799E+03  1.253899E+02
      7664   1  8.270218E+06  5.708237E+02  1.639521E+02  7.853650E+05  9.832548E+03 -1.280926E+02
      7665   1  8.269975E+06  1.539102E+01 -2.051609E+01  8.176718E+05  1.088440E+04  8.272420E+02
      7666   1  8.270152E+06 -4.619187E+01  5.786127E+02  8.659395E+05  8.493746E+03 -3.487356E+01
      7667   1  8.269349E+06 -8.753223E+02 -1.026125E+03  9.329139E+05  3.075383E+03  4.339993E+02
      7668   1  4.135007E+06 -3.971950E+02  4.539322E+02  1.032769E+06 -1.354275E+03 -5.736758E+01
      7669   1  4.134833E+06 -1.785727E+02 -2.915439E+02  9.644275E+05 -3.495949E+03 -8.395197E+02
      7670   1  4.135091E+06  1.883699E+02  1.245224E+02  9.135278E+05 -4.584896E+03 -5.841952E+01
      7671   1  4.135064E+06  7.267550E+01  1.588869E+02  8.788894E+05 -4.176450E+03 -6.524572E+02
      7672   1  4.135107E+06  2.644754E+02  9.712612E+01  8.587673E+05 -2.459773E+03  1.123726E+01
      7673   1  4.135140E+06  1.003826E+02  3.616312E+02  8.522425E+05 -2.979045E-04  2.789759E-04
      7674   1  4.135107E+06  2.644755E+02  9.712612E+01  8.587673E+05  2.459772E+03 -1.123671E+01
      7675   1  4.135064E+06  7.267559E+01  1.588870E+02  8.788894E+05  4.176450E+03  6.524577E+02
      7676   1  4.135091E+06  1.883701E+02  1.245225E+02  9.135278E+05  4.584895E+03  5.841987E+01
      7677   1  4.134833E+06 -1.785723E+02 -2.915437E+02  9.644275E+05  3.495948E+03  8.395200E+02
      7678   1  4.135007E+06 -3.971944E+02  4.539324E+02  1.032769E+06  1.354275E+03  5.736766E+01
      7679   1  4.570596E-03 -1.759893E-04 -2.407841E-04  1.065912E+06 -2.710505E-06 -3.372999E+02
      7680   1  4.449799E-03 -5.066258E-04 -2.241584E-05  9.970621E+05 -4.318040E-06 -1.419899E+02
      7681   1  4.273169E-03 -1.277455E-03 -6.758934E-04  9.455725E+05 -7.086144E-06 -8.976793E+02
      7682   1  4.218616E-03 -1.608559E-03 -4.515926E-04  9.100684E+05 -6.299596E-06 -5.506622E+01
      7683   1  4.105637E-03 -2.030314E-03 -9.719710E-04  8.894857E+05 -3.616658E-06 -3.729421E+02
      7684   1  4.140131E-03 -1.976339E-03 -5.985706E-04  8.826903E+05  1.034662E-07  3.035587E-04
      7685   1  4.095748E-03 -2.059468E-03 -9.827196E-04  8.894857E+05  3.496006E-06  3.729427E+02
      7686   1  4.193782E-03 -1.693716E-03 -4.861028E-04  9.100684E+05  5.952569E-06  5.506671E+01
      7687   1  4.223073E-03 -1.489388E-03 -7.616897E-04  9.455725E+05  7.180922E-06  8.976797E+02
      7688   1  4.350055E-03 -9.301584E-04 -1.905020E-04  9.970621E+05  3.430171E-06  1.419901E+02
      7689   1  4.428455E-03 -7.554183E-04 -4.738582E-04  1.065912E+06  1.364392E-06  3.373000E+02
      7690   1 -4.135007E+06  3.971948E+02 -4.539330E+02  1.032769E+06  1.354275E+03 -5.736758E+01
      7691   1 -4.134833E+06  1.785741E+02  2.915452E+02  9.644275E+05  3.495949E+03 -8.395198E+02
      7692   1 -4.135091E+06 -1.883678E+02 -1.245223E+02  9.135278E+05  4.584895E+03 -5.841952E+01
      7693   1 -4.135064E+06 -7.267186E+01 -1.588848E+02  8.788894E+05  4.176450E+03 -6.524572E+02
      7694   1 -4.135107E+06 -2.644718E+02 -9.712535E+01  8.587673E+05  2.459773E+03  1.123726E+01
      7695   1 -4.135140E+06 -1.003782E+02 -3.616288E+02  8.522425E+05  2.994600E-04  2.752296E-04
      7696   1 -4.135107E+06 -2.644718E+02 -9.712534E+01  8.587673E+05 -2.459772E+03 -1.123671E+01
      7697   1 -4.135064E+06 -7.267178E+01 -1.588848E+02  8.788894E+05 -4.176450E+03  6.524577E+02
      7698   1 -4.135091E+06 -1.883676E+02 -1.245222E+02  9.135278E+05 -4.584895E+03  5.841987E+01
      7699   1 -4.134833E+06  1.785745E+02  2.915454E+02  9.644275E+05 -3.495948E+03  8.395200E+02
      7700   1 -4.135007E+06  3.971954E+02 -4.539327E+02  1.032769E+06 -1.354275E+03  5.736767E+01
      7701   1 -8.269349E+06  8.753208E+02  1.026123E+03  9.329139E+05  3.075383E+03 -4.339992E+02
      7702   1 -8.270152E+06  4.619094E+01 -5.786114E+02  8.659395E+05  8.493746E+03  3.487373E+01
      7703   1 -8.269975E+06 -1.539439E+01  2.051319E+01  8.176718E+05  1.088440E+04 -8.272417E+02
      7704   1 -8.270218E+06 -5.708264E+02 -1.639515E+02  7.853650E+05  9.832549E+03  1.280930E+02
      7705   1 -8.270281E+06 -1.969274E+02 -7.270290E+02  7.671564E+05  5.811800E+03 -1.253894E+02
      7706   1 -8.270211E+06 -2.765556E+02 -4.371490E+02  7.612532E+05  6.043590E-04  2.520973E-04
      7707   1 -8.270281E+06 -1.969274E+02 -7.270291E+02  7.671564E+05 -5.811799E+03  1.253899E+02
      7708   1 -8.270218E+06 -5.708265E+02 -1.639515E+02  7.853650E+05 -9.832548E+03 -1.280926E+02
      7709   1 -8.269975E+06 -1.539459E+01  2.051307E+01  8.176718E+05 -1.088440E+04  8.272420E+02
      7710   1 -8.270152E+06  4.619055E+01 -5.786115E+02  8.659395E+05 -8.493746E+03 -3.487356E+01
      7711   1 -8.269349E+06  8.753203E+02  1.026122E+03  9.329139E+05 -3.075383E+03  4.339993E+02
      7712   1 -1.240516E+07  1.210794E+03 -1.807472E+03  7.642280E+05  6.642079E+03  1.089879E+02
      7713   1 -1.240457E+07  3.986538E+02  8.028788E+02  7.010097E+05  1.675540E+04 -1.090423E+03
      7714   1 -1.240536E+07 -9.690045E+02 -2.338495E+02  6.575685E+05  2.136782E+04  4.321594E+02
      7715   1 -1.240543E+07 -2.934461E+02 -1.110233E+03  6.307048E+05  1.907131E+04  1.158926E+02
      7716   1 -1.240531E+07 -1.856265E+02 -8.724099E+02  6.158934E+05  1.089085E+04  9.399150E+01
      7717   1 -1.240550E+07 -3.223640E+02 -1.289788E+03  6.110967E+05  9.215528E-04  1.741560E-04
      7718   1 -1.240531E+07 -1.856265E+02 -8.724099E+02  6.158934E+05 -1.089085E+04 -9.399112E+01
      7719   1 -1.240543E+07 -2.934460E+02 -1.110233E+03  6.307048E+05 -1.907131E+04 -1.158923E+02
      7720   1 -1.240536E+07 -9.690043E+02 -2.338495E+02  6.575685E+05 -2.136782E+04 -4.321592E+02
      7721   1 -1.240457E+07  3.986542E+02  8.028789E+02  7.010097E+05 -1.675540E+04  1.090423E+03
      7722   1 -1.240516E+07  1.210794E+03 -1.807471E+03  7.642280E+05 -6.642079E+03 -1.089879E+02
      7723   1 -1.653818E+07  2.112660E+03  3.263016E+03  5.227688E+05  1.217251E+04 -1.022915E+03
      7724   1 -1.654065E+07 -1.291942E+03 -8.365616E+02  4.661104E+05  3.333751E+04  9.969297E+02
      7725   1 -1.654074E+07 -5.334622E+02 -1.857357E+03  4.350906E+05  4.075527E+04  7.126682E+02
      7726   1 -1.654043E+07  7.756089E+01 -1.521326E+03  4.171033E+05  3.372439E+04  2.093964E+02
      7727   1 -1.654071E+07 -4.843180E+02 -1.820343E+03  4.071877E+05  1.884675E+04  1.747085E+02
      7728   1 -1.654039E+07  2.393243E+02 -1.572841E+03  4.041610E+05  1.243817E-03  1.138554E-04
      7729   1 -1.654071E+07 -4.843181E+02 -1.820343E+03  4.071877E+05 -1.884674E+04 -1.747083E+02
      7730   1 -1.654043E+07  7.756084E+01 -1.521326E+03  4.171033E+05 -3.372439E+04 -2.093962E+02
      7731   1 -1.654074E+07 -5.334624E+02 -1.857357E+03  4.350906E+05 -4.075527E+04 -7.126681E+02
      7732   1 -1.654065E+07 -1.291943E+03 -8.365617E+02  4.661104E+05 -3.333751E+04 -9.969297E+02
      7733   1 -1.653818E+07  2.112660E+03  3.263016E+03  5.227688E+05 -1.217251E+04  1.022915E+03
      7734   1 -2.067655E+07  1.455244E+03 -6.327393E+03  1.920010E+05  3.281551E+04  1.573929E+03
      7735   1 -2.067693E+07 -1.868621E+03 -4.147540E+03  1.649970E+05  7.094651E+04  9.691439E+02
      7736   1 -2.067556E+07  9.683045E+02 -2.852362E+03  1.546710E+05  7.223699E+04  1.896677E+02
      7737   1 -2.067606E+07 -8.552547E+02 -2.525840E+03  1.478530E+05  5.632983E+04  2.266127E+02
      7738   1 -2.067546E+07  6.197729E+02 -2.207258E+03  1.445899E+05  3.040076E+04  3.192247E+01
      7739   1 -2.067589E+07 -6.383436E+02 -2.226723E+03  1.433907E+05  1.579368E-03  3.511304E-05
      7740   1 -2.067546E+07  6.197729E+02 -2.207258E+03  1.445899E+05 -3.040076E+04 -3.192239E+01
      7741   1 -2.067606E+07 -8.552546E+02 -2.525840E+03  1.478530E+05 -5.632982E+04 -2.266127E+02
      7742   1 -2.067556E+07  9.683048E+02 -2.852362E+03  1.546710E+05 -7.223699E+04 -1.896677E+02
      7743   1 -2.067693E+07 -1.868621E+03 -4.147540E+03  1.649970E+05 -7.094650E+04 -9.691439E+02
      7744   1 -2.067655E+07  1.455244E+03 -6.327393E+03  1.920010E+05 -3.281551E+04 -1.573929E+03
      7745   1  2.035845E+07 -1.431927E+03  6.232510E+03  1.920011E+05 -3.281552E+04  1.549747E+03
      7746   1  2.035882E+07  1.838994E+03  4.081356E+03  1.649970E+05 -7.094648E+04  9.542149E+02
      7747   1  2.035748E+07 -9.525197E+02  2.810815E+03  1.546711E+05 -7.223702E+04  1.867622E+02
      7748   1  2.035796E+07  8.411885E+02  2.484664E+03  1.478529E+05 -5.632980E+04  2.231190E+02
      7749   1  2.035738E+07 -6.093246E+02  2.175606E+03  1.445899E+05 -3.040078E+04  3.143487E+01
      7750   1  2.035779E+07  6.276021E+02  2.190161E+03  1.433907E+05 -1.644857E-03  6.310922E-05
      7751   1  2.035738E+07 -6.093247E+02  2.175606E+03  1.445899E+05  3.040077E+04 -3.143475E+01
      7752   1  2.035796E+07  8.411884E+02  2.484664E+03  1.478529E+05  5.632980E+04 -2.231189E+02
      7753   1  2.035748E+07 -9.525201E+02  2.810815E+03  1.546711E+05  7.223702E+04 -1.867621E+02
      7754   1  2.035882E+07  1.838993E+03  4.081356E+03  1.649970E+05  7.094648E+04 -9.542149E+02
      7755   1  2.035845E+07 -1.431928E+03  6.232509E+03  1.920011E+05  3.281552E+04 -1.549747E+03
      7756   1  1.628375E+07 -2.079492E+03 -3.210686E+03  5.227687E+05 -1.217252E+04 -1.007186E+03
      7757   1  1.628618E+07  1.271306E+03  8.215885E+02  4.661104E+05 -3.333748E+04  9.815926E+02
      7758   1  1.628627E+07  5.260461E+02  1.830861E+03  4.350906E+05 -4.075530E+04  7.017047E+02
      7759   1  1.628596E+07 -7.716943E+01  1.495860E+03  4.171033E+05 -3.372436E+04  2.061743E+02
      7760   1  1.628624E+07  4.776818E+02  1.794393E+03  4.071877E+05 -1.884676E+04  1.720212E+02
      7761   1  1.628592E+07 -2.364566E+02  1.546591E+03  4.041610E+05 -1.322027E-03  1.914013E-04
      7762   1  1.628624E+07  4.776818E+02  1.794393E+03  4.071877E+05  1.884676E+04 -1.720209E+02
      7763   1  1.628596E+07 -7.716929E+01  1.495860E+03  4.171033E+05  3.372436E+04 -2.061740E+02
      7764   1  1.628627E+07  5.260464E+02  1.830861E+03  4.350906E+05  4.075530E+04 -7.017045E+02
      7765   1  1.628618E+07  1.271307E+03  8.215887E+02  4.661104E+05  3.333748E+04 -9.815925E+02
      7766   1  1.628375E+07 -2.079491E+03 -3.210686E+03  5.227687E+05  1.217252E+04  1.007186E+03
      7767   1  1.221431E+07 -1.191531E+03  1.781396E+03  7.642281E+05 -6.642086E+03  1.073153E+02
      7768   1  1.221373E+07 -3.931265E+02 -7.922000E+02  7.010097E+05 -1.675538E+04 -1.073645E+03
      7769   1  1.221451E+07  9.547150E+02  2.318985E+02  6.575685E+05 -2.136785E+04  4.255095E+02
      7770   1  1.221457E+07  2.882964E+02  1.091518E+03  6.307048E+05 -1.907129E+04  1.141107E+02
      7771   1  1.221446E+07  1.834106E+02  8.606156E+02  6.158934E+05 -1.089086E+04  9.254509E+01
      7772   1  1.221464E+07  3.167590E+02  1.268318E+03  6.110967E+05 -9.957267E-04  2.845500E-04
      7773   1  1.221446E+07  1.834106E+02  8.606156E+02  6.158934E+05  1.089086E+04 -9.254452E+01
      7774   1  1.221457E+07  2.882963E+02  1.091518E+03  6.307048E+05  1.907129E+04 -1.141102E+02
      7775   1  1.221451E+07  9.547147E+02  2.318983E+02  6.575685E+05  2.136785E+04 -4.255091E+02
      7776   1  1.221373E+07 -3.931271E+02 -7.922001E+02  7.010097E+05  1.675538E+04  1.073646E+03
      7777   1  1.221431E+07 -1.191532E+03  1.781396E+03  7.642281E+05  6.642085E+03 -1.073152E+02
      7778   1  8.142128E+06 -8.614866E+02 -1.009179E+03  9.329138E+05 -3.075391E+03 -4.273254E+02
      7779   1  8.142918E+06 -4.589643E+01  5.685672E+02  8.659395E+05 -8.493731E+03  3.433587E+01
      7780   1  8.142744E+06  1.558739E+01 -1.906945E+01  8.176718E+05 -1.088442E+04 -8.145146E+02
      7781   1  8.142984E+06  5.616104E+02  1.603107E+02  7.853650E+05 -9.832536E+03  1.261226E+02
      7782   1  8.143046E+06  1.943389E+02  7.169586E+02  7.671564E+05 -5.811808E+03 -1.234603E+02
      7783   1  8.142977E+06  2.718608E+02  4.293110E+02  7.612533E+05 -6.652768E-04  3.917104E-04
      7784   1  8.143046E+06  1.943389E+02  7.169586E+02  7.671564E+05  5.811806E+03  1.234610E+02
      7785   1  8.142984E+06  5.616105E+02  1.603108E+02  7.853650E+05  9.832535E+03 -1.261220E+02
      7786   1  8.142744E+06  1.558772E+01 -1.906930E+01  8.176718E+05  1.088441E+04  8.145151E+02
      7787   1  8.142918E+06 -4.589586E+01  5.685675E+02  8.659395E+05  8.493730E+03 -3.433560E+01
      7788   1  8.142128E+06 -8.614859E+02 -1.009179E+03  9.329138E+05  3.075391E+03  4.273255E+02
      7789   1  4.071391E+06 -3.908668E+02  4.475464E+02  1.032769E+06 -1.354278E+03 -5.648275E+01
      7790   1  4.071220E+06 -1.760350E+02 -2.876369E+02  9.644275E+05 -3.495941E+03 -8.266019E+02
      7791   1  4.071475E+06  1.856825E+02  1.231746E+02  9.135277E+05 -4.584904E+03 -5.752143E+01
      7792   1  4.071448E+06  7.133428E+01  1.558763E+02  8.788894E+05 -4.176443E+03 -6.424189E+02
      7793   1  4.071491E+06  2.606234E+02  9.619268E+01  8.587673E+05 -2.459777E+03  1.106436E+01
      7794   1  4.071523E+06  9.861064E+01  3.555039E+02  8.522425E+05 -3.349866E-04  4.310149E-04
      7795   1  4.071491E+06  2.606234E+02  9.619268E+01  8.587673E+05  2.459776E+03 -1.106351E+01
      7796   1  4.071448E+06  7.133418E+01  1.558763E+02  8.788894E+05  4.176443E+03  6.424196E+02
      7797   1  4.071475E+06  1.856822E+02  1.231745E+02  9.135277E+05  4.584904E+03  5.752198E+01
      7798   1  4.071220E+06 -1.760356E+02 -2.876371E+02  9.644275E+05  3.495941E+03  8.266022E+02
      7799   1  4.071391E+06 -3.908676E+02  4.475461E+02  1.032769E+06  1.354278E+03  5.648286E+01
      7800   1  4.469308E-03  1.637468E-04  2.688718E-04  1.065912E+06 -5.210724E-06 -3.321131E+02
      7801   1  4.610349E-03  6.167419E-04  2.718420E-05  9.970621E+05 -2.028301E-05 -1.398067E+02
      7802   1  4.802617E-03  1.538295E-03  8.318012E-04  9.455725E+05 -2.044608E-05 -8.838689E+02
      7803   1  4.850880E-03  1.948967E-03  5.811342E-04  9.100684E+05 -2.047721E-05 -5.421854E+01
      7804   1  4.978521E-03  2.482265E-03  1.199663E-03  8.894857E+05 -1.032095E-05 -3.672046E+02
      7805   1  4.922743E-03  2.400352E-03  7.599422E-04  8.826903E+05 -1.714384E-06  4.645182E-04
      7806   1  4.973702E-03  2.498589E-03  1.203902E-03  8.894857E+05  7.704589E-06  3.672055E+02
      7807   1  4.859455E-03  2.046938E-03  6.177464E-04  9.100684E+05  1.521062E-05  5.421931E+01
      7808   1  4.842920E-03  1.814932E-03  9.380029E-04  9.455725E+05  1.790605E-05  8.838695E+02
      7809   1  4.691087E-03  1.123091E-03  2.267918E-04  9.970621E+05  1.710570E-05  1.398071E+02
      7810   1  4.602292E-03  8.788279E-04  5.556707E-04  1.065912E+06  7.522678E-06  3.321132E+02
      7811   1 -4.071391E+06  3.908669E+02 -4.475454E+02  1.032769E+06  1.354278E+03 -5.648276E+01
      7812   1 -4.071220E+06  1.760332E+02  2.876353E+02  9.644275E+05  3.495941E+03 -8.266019E+02
      7813   1 -4.071475E+06 -1.856851E+02 -1.231748E+02  9.135277E+05  4.584904E+03 -5.752143E+01
      7814   1 -4.071448E+06 -7.133877E+01 -1.558789E+02  8.788894E+05  4.176443E+03 -6.424189E+02
      7815   1 -4.071491E+06 -2.606278E+02 -9.619362E+01  8.587673E+05  2.459777E+03  1.106436E+01
      7816   1 -4.071523E+06 -9.861604E+01 -3.555068E+02  8.522425E+05  3.322041E-04  4.314971E-04
      7817   1 -4.071491E+06 -2.606278E+02 -9.619363E+01  8.587673E+05 -2.459776E+03 -1.106351E+01
      7818   1 -4.071448E+06 -7.133887E+01 -1.558789E+02  8.788894E+05 -4.176443E+03  6.424196E+02
      7819   1 -4.071475E+06 -1.856853E+02 -1.231749E+02  9.135277E+05 -4.584904E+03  5.752198E+01
      7820   1 -4.071220E+06  1.760327E+02  2.876351E+02  9.644275E+05 -3.495941E+03  8.266022E+02
      7821   1 -4.071391E+06  3.908663E+02 -4.475457E+02  1.032769E+06 -1.354278E+03  5.648287E+01
      7822   1 -8.142128E+06  8.614876E+02  1.009181E+03  9.329138E+05  3.075391E+03 -4.273254E+02
      7823   1 -8.142918E+06  4.589697E+01 -5.685690E+02  8.659395E+05  8.493731E+03  3.433588E+01
      7824   1 -8.142744E+06 -1.558361E+01  1.907293E+01  8.176718E+05  1.088442E+04 -8.145146E+02
      7825   1 -8.142984E+06 -5.616072E+02 -1.603114E+02  7.853650E+05  9.832536E+03  1.261226E+02
      7826   1 -8.143046E+06 -1.943332E+02 -7.169544E+02  7.671564E+05  5.811808E+03 -1.234603E+02
      7827   1 -8.142977E+06 -2.718567E+02 -4.293113E+02  7.612533E+05  6.597249E-04  3.955932E-04
      7828   1 -8.143046E+06 -1.943331E+02 -7.169544E+02  7.671564E+05 -5.811806E+03  1.234610E+02
      7829   1 -8.142984E+06 -5.616071E+02 -1.603114E+02  7.853650E+05 -9.832535E+03 -1.261219E+02
      7830   1 -8.142744E+06 -1.558338E+01  1.907300E+01  8.176718E+05 -1.088441E+04  8.145151E+02
      7831   1 -8.142918E+06  4.589743E+01 -5.685689E+02  8.659395E+05 -8.493730E+03 -3.433560E+01
      7832   1 -8.142128E+06  8.614883E+02  1.009182E+03  9.329138E+05 -3.075391E+03  4.273255E+02
      7833   1 -1.221431E+07  1.191532E+03 -1.781392E+03  7.642281E+05  6.642086E+03  1.073153E+02
      7834   1 -1.221373E+07  3.931235E+02  7.921951E+02  7.010097E+05  1.675538E+04 -1.073645E+03
      7835   1 -1.221451E+07 -9.547163E+02 -2.318953E+02  6.575685E+05  2.136785E+04  4.255095E+02
      7836   1 -1.221457E+07 -2.883022E+02 -1.091524E+03  6.307048E+05  1.907129E+04  1.141107E+02
      7837   1 -1.221446E+07 -1.834138E+02 -8.606132E+02  6.158934E+05  1.089086E+04  9.254509E+01
      7838   1 -1.221464E+07 -3.167658E+02 -1.268325E+03  6.110967E+05  9.826312E-04  2.853086E-04
      7839   1 -1.221446E+07 -1.834139E+02 -8.606132E+02  6.158934E+05 -1.089086E+04 -9.254452E+01
      7840   1 -1.221457E+07 -2.883023E+02 -1.091524E+03  6.307048E+05 -1.907129E+04 -1.141102E+02
      7841   1 -1.221451E+07 -9.547166E+02 -2.318953E+02  6.575685E+05 -2.136785E+04 -4.255091E+02
      7842   1 -1.221373E+07  3.931230E+02  7.921948E+02  7.010097E+05 -1.675538E+04  1.073646E+03
      7843   1 -1.221431E+07  1.191532E+03 -1.781392E+03  7.642281E+05 -6.642085E+03 -1.073152E+02
      7844   1 -1.628375E+07  2.079494E+03  3.210693E+03  5.227687E+05  1.217252E+04 -1.007186E+03
      7845   1 -1.628618E+07 -1.271307E+03 -8.215944E+02  4.661104E+05  3.333748E+04  9.815926E+02
      7846   1 -1.628627E+07 -5.260407E+02 -1.830853E+03  4.350906E+05  4.075530E+04  7.017047E+02
      7847   1 -1.628596E+07  7.717122E+01 -1.495864E+03  4.171033E+05  3.372436E+04  2.061743E+02
      7848   1 -1.628624E+07 -4.776744E+02 -1.794385E+03  4.071877E+05  1.884676E+04  1.720212E+02
      7849   1 -1.628592E+07  2.364593E+02 -1.546596E+03  4.041610E+05  1.310420E-03  1.949708E-04
      7850   1 -1.628624E+07 -4.776744E+02 -1.794385E+03  4.071877E+05 -1.884676E+04 -1.720209E+02
      7851   1 -1.628596E+07  7.717126E+01 -1.495864E+03  4.171033E+05 -3.372436E+04 -2.061740E+02
      7852   1 -1.628627E+07 -5.260405E+02 -1.830853E+03  4.350906E+05 -4.075530E+04 -7.017045E+02
      7853   1 -1.628618E+07 -1.271306E+03 -8.215942E+02  4.661104E+05 -3.333748E+04 -9.815925E+02
      7854   1 -1.628375E+07  2.079495E+03  3.210693E+03  5.227687E+05 -1.217252E+04  1.007186E+03
      7855   1 -2.035845E+07  1.431930E+03 -6.232502E+03  1.920011E+05  3.281552E+04  1.549747E+03
      7856   1 -2.035882E+07 -1.838998E+03 -4.081364E+03  1.649970E+05  7.094648E+04  9.542150E+02
      7857   1 -2.035748E+07  9.525195E+02 -2.810809E+03  1.546711E+05  7.223702E+04  1.867621E+02
      7858   1 -2.035796E+07 -8.411958E+02 -2.484673E+03  1.478529E+05  5.632980E+04  2.231190E+02
      7859   1 -2.035738E+07  6.093226E+02 -2.175600E+03  1.445899E+05  3.040078E+04  3.143485E+01
      7860   1 -2.035779E+07 -6.276104E+02 -2.190170E+03  1.433907E+05  1.640509E-03  6.537035E-05
      7861   1 -2.035738E+07  6.093225E+02 -2.175600E+03  1.445899E+05 -3.040077E+04 -3.143474E+01
      7862   1 -2.035796E+07 -8.411959E+02 -2.484673E+03  1.478529E+05 -5.632980E+04 -2.231189E+02
      7863   1 -2.035748E+07  9.525194E+02 -2.810809E+03  1.546711E+05 -7.223702E+04 -1.867621E+02
      7864   1 -2.035882E+07 -1.838998E+03 -4.081364E+03  1.649970E+05 -7.094648E+04 -9.542149E+02
      7865   1 -2.035845E+07  1.431929E+03 -6.232502E+03  1.920011E+05 -3.281552E+04 -1.549747E+03
      7866   1  2.004035E+07 -1.410313E+03  6.133113E+03  1.920010E+05 -3.281551E+04  1.525506E+03
      7867   1  2.004071E+07  1.810980E+03  4.019529E+03  1.649970E+05 -7.094650E+04  9.393209E+02
      7868   1  2.003939E+07 -9.383604E+02  2.764986E+03  1.546710E+05 -7.223700E+04  1.838339E+02
      7869   1  2.003987E+07  8.287922E+02  2.447738E+03  1.478530E+05 -5.632982E+04  2.196388E+02
      7870   1  2.003930E+07 -6.005466E+02  2.139727E+03  1.445899E+05 -3.040076E+04  3.094089E+01
      7871   1  2.003970E+07  6.185542E+02  2.157827E+03  1.433907E+05 -1.778980E-03  9.219035E-05
      7872   1  2.003930E+07 -6.005465E+02  2.139727E+03  1.445899E+05  3.040076E+04 -3.094069E+01
      7873   1  2.003987E+07  8.287924E+02  2.447738E+03  1.478530E+05  5.632982E+04 -2.196387E+02
      7874   1  2.003939E+07 -9.383601E+02  2.764986E+03  1.546710E+05  7.223699E+04 -1.838338E+02
      7875   1  2.004071E+07  1.810981E+03  4.019529E+03  1.649970E+05  7.094650E+04 -9.393208E+02
      7876   1  2.004035E+07 -1.410312E+03  6.133113E+03  1.920010E+05  3.281551E+04 -1.525506E+03
      7877   1  1.602931E+07 -2.047544E+03 -3.162262E+03  5.227687E+05 -1.217251E+04 -9.914419E+02
      7878   1  1.603171E+07  1.252064E+03  8.104724E+02  4.661104E+05 -3.333751E+04  9.662550E+02
      7879   1  1.603180E+07  5.171771E+02  1.800551E+03  4.350906E+05 -4.075528E+04  6.907401E+02
      7880   1  1.603149E+07 -7.531067E+01  1.474173E+03  4.171033E+05 -3.372438E+04  2.029535E+02
      7881   1  1.603177E+07  4.695470E+02  1.764671E+03  4.071877E+05 -1.884675E+04  1.693331E+02
      7882   1  1.603146E+07 -2.320998E+02  1.524104E+03  4.041610E+05 -1.474585E-03  2.872511E-04
      7883   1  1.603177E+07  4.695470E+02  1.764671E+03  4.071877E+05  1.884675E+04 -1.693326E+02
      7884   1  1.603149E+07 -7.531082E+01  1.474173E+03  4.171033E+05  3.372438E+04 -2.029530E+02
      7885   1  1.603180E+07  5.171767E+02  1.800551E+03  4.350906E+05  4.075527E+04 -6.907399E+02
      7886   1  1.603171E+07  1.252063E+03  8.104721E+02  4.661104E+05  3.333751E+04 -9.662549E+02
      7887   1  1.602931E+07 -2.047545E+03 -3.162262E+03  5.227687E+05  1.217251E+04  9.914419E+02
      7888   1  1.202346E+07 -1.173434E+03  1.752143E+03  7.642280E+05 -6.642080E+03  1.056352E+02
      7889   1  1.202289E+07 -3.864868E+02 -7.784514E+02  7.010097E+05 -1.675540E+04 -1.056871E+03
      7890   1  1.202366E+07  9.392938E+02  2.269274E+02  6.575685E+05 -2.136783E+04  4.188622E+02
      7891   1  1.202372E+07  2.843157E+02  1.075803E+03  6.307048E+05 -1.907130E+04  1.123270E+02
      7892   1  1.202361E+07  1.800253E+02  8.458373E+02  6.158934E+05 -1.089085E+04  9.109963E+01
      7893   1  1.202379E+07  3.123430E+02  1.249834E+03  6.110967E+05 -1.140857E-03  4.381467E-04
      7894   1  1.202361E+07  1.800253E+02  8.458374E+02  6.158934E+05  1.089085E+04 -9.109875E+01
      7895   1  1.202372E+07  2.843159E+02  1.075803E+03  6.307048E+05  1.907130E+04 -1.123263E+02
      7896   1  1.202366E+07  9.392942E+02  2.269276E+02  6.575685E+05  2.136783E+04 -4.188616E+02
      7897   1  1.202289E+07 -3.864860E+02 -7.784511E+02  7.010097E+05  1.675540E+04  1.056871E+03
      7898   1  1.202346E+07 -1.173433E+03  1.752144E+03  7.642280E+05  6.642080E+03 -1.056351E+02
      7899   1  8.014907E+06 -8.483273E+02 -9.943582E+02  9.329139E+05 -3.075384E+03 -4.206458E+02
      7900   1  8.015685E+06 -4.483984E+01  5.606187E+02  8.659395E+05 -8.493743E+03  3.380058E+01
      7901   1  8.015514E+06  1.498884E+01 -1.969653E+01  8.176718E+05 -1.088440E+04 -8.017878E+02
      7902   1  8.015750E+06  5.531866E+02  1.587205E+02  7.853650E+05 -9.832547E+03  1.241520E+02
      7903   1  8.015811E+06  1.909361E+02  7.048414E+02  7.671564E+05 -5.811802E+03 -1.215310E+02
      7904   1  8.015743E+06  2.679684E+02  4.235125E+02  7.612532E+05 -7.769004E-04  5.912128E-04
      7905   1  8.015811E+06  1.909361E+02  7.048414E+02  7.671564E+05  5.811800E+03  1.215321E+02
      7906   1  8.015750E+06  5.531865E+02  1.587204E+02  7.853650E+05  9.832545E+03 -1.241511E+02
      7907   1  8.015514E+06  1.498851E+01 -1.969661E+01  8.176718E+05  1.088440E+04  8.017886E+02
      7908   1  8.015685E+06 -4.484053E+01  5.606185E+02  8.659395E+05  8.493743E+03 -3.380016E+01
      7909   1  8.014907E+06 -8.483284E+02 -9.943585E+02  9.329139E+05  3.075384E+03  4.206460E+02
      7910   1  4.007776E+06 -3.849374E+02  4.400644E+02  1.032769E+06 -1.354276E+03 -5.560196E+01
      7911   1  4.007607E+06 -1.731127E+02 -2.826694E+02  9.644275E+05 -3.495947E+03 -8.136879E+02
      7912   1  4.007858E+06  1.826098E+02  1.207858E+02  9.135278E+05 -4.584897E+03 -5.662186E+01
      7913   1  4.007832E+06  7.040356E+01  1.539044E+02  8.788894E+05 -4.176449E+03 -6.323812E+02
      7914   1  4.007873E+06  2.563754E+02  9.423155E+01  8.587673E+05 -2.459774E+03  1.089185E+01
      7915   1  4.007905E+06  9.725770E+01  3.504110E+02  8.522425E+05 -3.928036E-04  6.559550E-04
      7916   1  4.007873E+06  2.563754E+02  9.423156E+01  8.587673E+05  2.459773E+03 -1.089056E+01
      7917   1  4.007832E+06  7.040371E+01  1.539045E+02  8.788894E+05  4.176448E+03  6.323823E+02
      7918   1  4.007858E+06  1.826102E+02  1.207859E+02  9.135277E+05  4.584897E+03  5.662271E+01
      7919   1  4.007607E+06 -1.731120E+02 -2.826691E+02  9.644275E+05  3.495947E+03  8.136884E+02
      7920   1  4.007776E+06 -3.849366E+02  4.400648E+02  1.032769E+06  1.354276E+03  5.560216E+01
      7921   1  4.469741E-03 -2.216242E-04 -3.223733E-04  1.065912E+06 -5.075154E-06 -3.269218E+02
      7922   1  4.273427E-03 -7.597931E-04 -5.390110E-05  9.970621E+05 -5.034586E-06 -1.376210E+02
      7923   1  4.014459E-03 -1.896081E-03 -9.891855E-04  9.455725E+05 -8.743431E-06 -8.700581E+02
      7924   1  3.919245E-03 -2.425272E-03 -7.121839E-04  9.100684E+05 -7.105804E-06 -5.337147E+01
      7925   1  3.749672E-03 -3.060875E-03 -1.444248E-03  8.894857E+05 -7.036169E-06 -3.614666E+02
      7926   1  3.803975E-03 -2.967364E-03 -9.252216E-04  8.826903E+05  5.755589E-07  6.974300E-04
      7927   1  3.750902E-03 -3.060478E-03 -1.445746E-03  8.894857E+05  6.009587E-06  3.614679E+02
      7928   1  3.894852E-03 -2.532994E-03 -7.536978E-04  9.100684E+05  9.173835E-06  5.337263E+01
      7929   1  3.944824E-03 -2.220731E-03 -1.114410E-03  9.455725E+05  9.586407E-06  8.700591E+02
      7930   1  4.129596E-03 -1.400794E-03 -3.099588E-04  9.970621E+05  7.477384E-06  1.376216E+02
      7931   1  4.269756E-03 -1.088194E-03 -6.715247E-04  1.065912E+06  1.999889E-07  3.269220E+02
      7932   1 -4.007776E+06  3.849372E+02 -4.400656E+02  1.032769E+06  1.354276E+03 -5.560197E+01
      7933   1 -4.007607E+06  1.731148E+02  2.826713E+02  9.644275E+05  3.495947E+03 -8.136879E+02
      7934   1 -4.007858E+06 -1.826067E+02 -1.207855E+02  9.135278E+05  4.584897E+03 -5.662186E+01
      7935   1 -4.007832E+06 -7.039809E+01 -1.539013E+02  8.788894E+05  4.176449E+03 -6.323812E+02
      7936   1 -4.007873E+06 -2.563699E+02 -9.423032E+01  8.587673E+05  2.459774E+03  1.089184E+01
      7937   1 -4.007905E+06 -9.725113E+01 -3.504074E+02  8.522425E+05  3.938979E-04  6.595717E-04
      7938   1 -4.007873E+06 -2.563700E+02 -9.423034E+01  8.587673E+05 -2.459773E+03 -1.089056E+01
      7939   1 -4.007832E+06 -7.039801E+01 -1.539013E+02  8.788894E+05 -4.176448E+03  6.323823E+02
      7940   1 -4.007858E+06 -1.826064E+02 -1.207854E+02  9.135277E+05 -4.584897E+03  5.662271E+01
      7941   1 -4.007607E+06  1.731154E+02  2.826715E+02  9.644275E+05 -3.495947E+03  8.136884E+02
      7942   1 -4.007776E+06  3.849382E+02 -4.400652E+02  1.032769E+06 -1.354276E+03  5.560216E+01
      7943   1 -8.014907E+06  8.483261E+02  9.943553E+02  9.329139E+05  3.075384E+03 -4.206459E+02
      7944   1 -8.015685E+06  4.483912E+01 -5.606165E+02  8.659395E+05  8.493743E+03  3.380058E+01
      7945   1 -8.015514E+06 -1.499350E+01  1.969232E+01  8.176718E+05  1.088440E+04 -8.017878E+02
      7946   1 -8.015750E+06 -5.531906E+02 -1.587196E+02  7.853650E+05  9.832547E+03  1.241520E+02
      7947   1 -8.015811E+06 -1.909432E+02 -7.048465E+02  7.671564E+05  5.811802E+03 -1.215310E+02
      7948   1 -8.015743E+06 -2.679734E+02 -4.235121E+02  7.612532E+05  7.807594E-04  5.930468E-04
      7949   1 -8.015811E+06 -1.909432E+02 -7.048465E+02  7.671564E+05 -5.811800E+03  1.215321E+02
      7950   1 -8.015750E+06 -5.531907E+02 -1.587196E+02  7.853650E+05 -9.832545E+03 -1.241511E+02
      7951   1 -8.015514E+06 -1.499383E+01  1.969213E+01  8.176718E+05 -1.088440E+04  8.017886E+02
      7952   1 -8.015685E+06  4.483853E+01 -5.606168E+02  8.659395E+05 -8.493743E+03 -3.380016E+01
      7953   1 -8.014907E+06  8.483254E+02  9.943549E+02  9.329139E+05 -3.075384E+03  4.206460E+02
      7954   1 -1.202346E+07  1.173432E+03 -1.752149E+03  7.642280E+05  6.642080E+03  1.056352E+02
      7955   1 -1.202289E+07  3.864905E+02  7.784574E+02  7.010097E+05  1.675540E+04 -1.056871E+03
      7956   1 -1.202366E+07 -9.392921E+02 -2.269313E+02  6.575685E+05  2.136783E+04  4.188621E+02
      7957   1 -1.202372E+07 -2.843086E+02 -1.075796E+03  6.307048E+05  1.907130E+04  1.123270E+02
      7958   1 -1.202361E+07 -1.800214E+02 -8.458403E+02  6.158934E+05  1.089085E+04  9.109962E+01
      7959   1 -1.202379E+07 -3.123348E+02 -1.249827E+03  6.110967E+05  1.155895E-03  4.411890E-04
      7960   1 -1.202361E+07 -1.800214E+02 -8.458403E+02  6.158934E+05 -1.089085E+04 -9.109875E+01
      7961   1 -1.202372E+07 -2.843085E+02 -1.075796E+03  6.307048E+05 -1.907130E+04 -1.123264E+02
      7962   1 -1.202366E+07 -9.392920E+02 -2.269313E+02  6.575685E+05 -2.136783E+04 -4.188616E+02
      7963   1 -1.202289E+07  3.864910E+02  7.784577E+02  7.010097E+05 -1.675540E+04  1.056871E+03
      7964   1 -1.202346E+07  1.173433E+03 -1.752149E+03  7.642280E+05 -6.642080E+03 -1.056351E+02
      7965   1 -1.602931E+07  2.047541E+03  3.162254E+03  5.227687E+05  1.217251E+04 -9.914419E+02
      7966   1 -1.603171E+07 -1.252063E+03 -8.104653E+02  4.661104E+05  3.333751E+04  9.662550E+02
      7967   1 -1.603180E+07 -5.171837E+02 -1.800560E+03  4.350906E+05  4.075528E+04  6.907401E+02
      7968   1 -1.603149E+07  7.530848E+01 -1.474167E+03  4.171033E+05  3.372438E+04  2.029535E+02
      7969   1 -1.603177E+07 -4.695561E+02 -1.764681E+03  4.071877E+05  1.884675E+04  1.693331E+02
      7970   1 -1.603146E+07  2.320965E+02 -1.524099E+03  4.041610E+05  1.490804E-03  2.907729E-04
      7971   1 -1.603177E+07 -4.695561E+02 -1.764681E+03  4.071877E+05 -1.884675E+04 -1.693326E+02
      7972   1 -1.603149E+07  7.530840E+01 -1.474167E+03  4.171033E+05 -3.372438E+04 -2.029530E+02
      7973   1 -1.603180E+07 -5.171840E+02 -1.800561E+03  4.350906E+05 -4.075527E+04 -6.907399E+02
      7974   1 -1.603171E+07 -1.252063E+03 -8.104654E+02  4.661104E+05 -3.333751E+04 -9.662549E+02
      7975   1 -1.602931E+07  2.047541E+03  3.162254E+03  5.227687E+05 -1.217251E+04  9.914420E+02
      7976   1 -2.004035E+07  1.410310E+03 -6.133122E+03  1.920010E+05  3.281551E+04  1.525506E+03
      7977   1 -2.004071E+07 -1.810975E+03 -4.019519E+03  1.649970E+05  7.094650E+04  9.393208E+02
      7978   1 -2.003939E+07  9.383607E+02 -2.764994E+03  1.546710E+05  7.223700E+04  1.838339E+02
      7979   1 -2.003987E+07 -8.287833E+02 -2.447727E+03  1.478530E+05  5.632982E+04  2.196388E+02
      7980   1 -2.003930E+07  6.005491E+02 -2.139734E+03  1.445899E+05  3.040076E+04  3.094090E+01
      7981   1 -2.003970E+07 -6.185441E+02 -2.157816E+03  1.433907E+05  1.783982E-03  9.494874E-05
      7982   1 -2.003930E+07  6.005491E+02 -2.139734E+03  1.445899E+05 -3.040076E+04 -3.094070E+01
      7983   1 -2.003987E+07 -8.287832E+02 -2.447727E+03  1.478530E+05 -5.632982E+04 -2.196387E+02
      7984   1 -2.003939E+07  9.383610E+02 -2.764994E+03  1.546710E+05 -7.223699E+04 -1.838338E+02
      7985   1 -2.004071E+07 -1.810974E+03 -4.019519E+03  1.649970E+05 -7.094650E+04 -9.393208E+02
      7986   1 -2.004035E+07  1.410310E+03 -6.133122E+03  1.920010E+05 -3.281551E+04 -1.525506E+03
      7987   1  1.972225E+07 -1.387306E+03  6.037406E+03  1.920011E+05 -3.281552E+04  1.501313E+03
      7988   1  1.972261E+07  1.781647E+03  3.954141E+03  1.649970E+05 -7.094648E+04  9.243984E+02
      7989   1  1.972131E+07 -9.228750E+02  2.722657E+03  1.546711E+05 -7.223702E+04  1.809242E+02
      7990   1  1.972178E+07  8.150263E+02  2.407337E+03  1.478529E+05 -5.632980E+04  2.161476E+02
      7991   1  1.972121E+07 -5.904089E+02  2.107302E+03  1.445899E+05 -3.040077E+04  3.045214E+01
      7992   1  1.972161E+07  6.081159E+02  2.122035E+03  1.433907E+05 -1.961389E-03  1.514662E-04
      7993   1  1.972121E+07 -5.904090E+02  2.107302E+03  1.445899E+05  3.040077E+04 -3.045187E+01
      7994   1  1.972178E+07  8.150261E+02  2.407337E+03  1.478529E+05  5.632980E+04 -2.161474E+02
      7995   1  1.972131E+07 -9.228756E+02  2.722656E+03  1.546711E+05  7.223701E+04 -1.809241E+02
      7996   1  1.972261E+07  1.781646E+03  3.954141E+03  1.649970E+05  7.094648E+04 -9.243983E+02
      7997   1  1.972225E+07 -1.387307E+03  6.037406E+03  1.920011E+05  3.281552E+04 -1.501313E+03
      7998   1  1.577488E+07 -2.014599E+03 -3.110645E+03  5.227687E+05 -1.217252E+04 -9.757101E+02
      7999   1  1.577724E+07  1.231682E+03  7.962018E+02  4.661104E+05 -3.333749E+04  9.509179E+02
      8000   1  1.577732E+07  5.094989E+02  1.773361E+03  4.350906E+05 -4.075530E+04  6.797765E+02
      8001   1  1.577702E+07 -7.464724E+01  1.449397E+03  4.171033E+05 -3.372437E+04  1.997316E+02
      8002   1  1.577730E+07  4.626433E+02  1.738036E+03  4.071877E+05 -1.884676E+04  1.666457E+02
      8003   1  1.577699E+07 -2.289547E+02  1.498542E+03  4.041610E+05 -1.684267E-03  4.444706E-04
      8004   1  1.577730E+07  4.626434E+02  1.738036E+03  4.071877E+05  1.884675E+04 -1.666449E+02
      8005   1  1.577702E+07 -7.464703E+01  1.449397E+03  4.171033E+05  3.372436E+04 -1.997309E+02
      8006   1  1.577732E+07  5.094994E+02  1.773361E+03  4.350906E+05  4.075529E+04 -6.797761E+02
      8007   1  1.577724E+07  1.231683E+03  7.962022E+02  4.661104E+05  3.333748E+04 -9.509177E+02
      8008   1  1.577488E+07 -2.014598E+03 -3.110644E+03  5.227687E+05  1.217252E+04  9.757102E+02
      8009   1  1.183262E+07 -1.154383E+03  1.725491E+03  7.642280E+05 -6.642085E+03  1.039611E+02
      8010   1  1.183205E+07 -3.807592E+02 -7.672148E+02  7.010097E+05 -1.675539E+04 -1.040094E+03
      8011   1  1.183281E+07  9.247944E+02  2.244264E+02  6.575685E+05 -2.136784E+04  4.122127E+02
      8012   1  1.183287E+07  2.793724E+02  1.057631E+03  6.307048E+05 -1.907129E+04  1.105449E+02
      8013   1  1.183276E+07  1.775899E+02  8.334985E+02  6.158934E+05 -1.089086E+04  8.965349E+01
      8014   1  1.183293E+07  3.069468E+02  1.228905E+03  6.110967E+05 -1.331793E-03  6.715407E-04
      8015   1  1.183276E+07  1.775898E+02  8.334985E+02  6.158934E+05  1.089086E+04 -8.965221E+01
      8016   1  1.183287E+07  2.793723E+02  1.057631E+03  6.307048E+05  1.907129E+04 -1.105438E+02
      8017   1  1.183281E+07  9.247940E+02  2.244263E+02  6.575685E+05  2.136784E+04 -4.122120E+02
      8018   1  1.183205E+07 -3.807600E+02 -7.672150E+02  7.010097E+05  1.675538E+04  1.040094E+03
      8019   1  1.183262E+07 -1.154384E+03  1.725490E+03  7.642280E+05  6.642084E+03 -1.039610E+02
      8020   1  7.887687E+06 -8.346153E+02 -9.777999E+02  9.329138E+05 -3.075390E+03 -4.139711E+02
      8021   1  7.888452E+06 -4.440524E+01  5.509552E+02  8.659395E+05 -8.493733E+03  3.326329E+01
      8022   1  7.888284E+06  1.504231E+01 -1.862719E+01  8.176718E+05 -1.088441E+04 -7.890607E+02
      8023   1  7.888516E+06  5.441202E+02  1.554537E+02  7.853650E+05 -9.832538E+03  1.221817E+02
      8024   1  7.888576E+06  1.882068E+02  6.944020E+02  7.671564E+05 -5.811807E+03 -1.196017E+02
      8025   1  7.888509E+06  2.634264E+02  4.160471E+02  7.612533E+05 -9.229326E-04  8.821368E-04
      8026   1  7.888576E+06  1.882069E+02  6.944021E+02  7.671564E+05  5.811805E+03  1.196033E+02
      8027   1  7.888516E+06  5.441204E+02  1.554539E+02  7.853650E+05  9.832536E+03 -1.221802E+02
      8028   1  7.888284E+06  1.504282E+01 -1.862695E+01  8.176718E+05  1.088441E+04  7.890618E+02
      8029   1  7.888452E+06 -4.440438E+01  5.509556E+02  8.659395E+05  8.493732E+03 -3.326262E+01
      8030   1  7.887687E+06 -8.346143E+02 -9.777994E+02  9.329138E+05  3.075389E+03  4.139713E+02
      8031   1  3.944160E+06 -3.786819E+02  4.334794E+02  1.032769E+06 -1.354278E+03 -5.471794E+01
      8032   1  3.943994E+06 -1.705060E+02 -2.785698E+02  9.644275E+05 -3.495943E+03 -8.007706E+02
      8033   1  3.944241E+06  1.798501E+02  1.192478E+02  9.135277E+05 -4.584903E+03 -5.572342E+01
      8034   1  3.944215E+06  6.913374E+01  1.510815E+02  8.788894E+05 -4.176445E+03 -6.223429E+02
      8035   1  3.944256E+06  2.524475E+02  9.310977E+01  8.587673E+05 -2.459776E+03  1.071916E+01
      8036   1  3.944288E+06  9.555798E+01  3.444703E+02  8.522425E+05 -4.734864E-04  9.947582E-04
      8037   1  3.944256E+06  2.524475E+02  9.310977E+01  8.587673E+05  2.459775E+03 -1.071726E+01
      8038   1  3.944215E+06  6.913361E+01  1.510815E+02  8.788894E+05  4.176444E+03  6.223445E+02
      8039   1  3.944241E+06  1.798497E+02  1.192476E+02  9.135277E+05  4.584902E+03  5.572468E+01
      8040   1  3.943994E+06 -1.705068E+02 -2.785701E+02  9.644275E+05  3.495942E+03  8.007714E+02
      8041   1  3.944160E+06 -3.786831E+02  4.334789E+02  1.032769E+06  1.354277E+03  5.471821E+01
      8042   1  4.340064E-03  2.309375E-04  3.618065E-04  1.065912E+06 -4.272345E-06 -3.217342E+02
      8043   1  4.547599E-03  9.215988E-04  6.437655E-05  9.970621E+05 -2.634812E-05 -1.354373E+02
      8044   1  4.830247E-03  2.308422E-03  1.211187E-03  9.455725E+05 -2.927047E-05 -8.562476E+02
      8045   1  4.916354E-03  2.963118E-03  9.041228E-04  9.100684E+05 -2.391803E-05 -5.252376E+01
      8046   1  5.093738E-03  3.721503E-03  1.763469E-03  8.894857E+05 -1.123831E-05 -3.557289E+02
      8047   1  5.029592E-03  3.630184E-03  1.171143E-03  8.826903E+05 -1.859209E-06  1.051927E-03
      8048   1  5.095484E-03  3.745418E-03  1.770902E-03  8.894857E+05  1.091823E-05  3.557308E+02
      8049   1  4.938324E-03  3.109104E-03  9.595061E-04  9.100684E+05  2.121006E-05  5.252551E+01
      8050   1  4.901353E-03  2.719876E-03  1.372782E-03  9.455725E+05  2.527448E-05  8.562489E+02
      8051   1  4.689408E-03  1.698442E-03  3.764325E-04  9.970621E+05  2.237843E-05  1.354381E+02
      8052   1  4.549420E-03  1.307382E-03  7.885567E-04  1.065912E+06  1.208208E-05  3.217345E+02
      8053   1 -3.944160E+06  3.786821E+02 -4.334780E+02  1.032769E+06  1.354278E+03 -5.471795E+01
      8054   1 -3.943994E+06  1.705035E+02  2.785676E+02  9.644275E+05  3.495943E+03 -8.007706E+02
      8055   1 -3.944241E+06 -1.798540E+02 -1.192482E+02  9.135277E+05  4.584903E+03 -5.572341E+01
      8056   1 -3.944215E+06 -6.914044E+01 -1.510853E+02  8.788894E+05  4.176444E+03 -6.223429E+02
      8057   1 -3.944256E+06 -2.524542E+02 -9.311126E+01  8.587673E+05  2.459776E+03  1.071916E+01
      8058   1 -3.944288E+06 -9.556602E+01 -3.444746E+02  8.522425E+05  4.691247E-04  9.902251E-04
      8059   1 -3.944256E+06 -2.524542E+02 -9.311128E+01  8.587673E+05 -2.459775E+03 -1.071726E+01
      8060   1 -3.944215E+06 -6.914059E+01 -1.510854E+02  8.788894E+05 -4.176444E+03  6.223445E+02
      8061   1 -3.944241E+06 -1.798544E+02 -1.192483E+02  9.135277E+05 -4.584902E+03  5.572467E+01
      8062   1 -3.943994E+06  1.705027E+02  2.785672E+02  9.644275E+05 -3.495942E+03  8.007714E+02
      8063   1 -3.944160E+06  3.786812E+02 -4.334784E+02  1.032769E+06 -1.354277E+03  5.471821E+01
      8064   1 -7.887687E+06  8.346167E+02  9.778035E+02  9.329138E+05  3.075390E+03 -4.139710E+02
      8065   1 -7.888452E+06  4.440608E+01 -5.509579E+02  8.659395E+05  8.493733E+03  3.326329E+01
      8066   1 -7.888284E+06 -1.503663E+01  1.863234E+01  8.176718E+05  1.088441E+04 -7.890607E+02
      8067   1 -7.888516E+06 -5.441153E+02 -1.554547E+02  7.853650E+05  9.832538E+03  1.221817E+02
      8068   1 -7.888576E+06 -1.881982E+02 -6.943958E+02  7.671564E+05  5.811807E+03 -1.196017E+02
      8069   1 -7.888509E+06 -2.634202E+02 -4.160475E+02  7.612533E+05  9.114603E-04  8.775008E-04
      8070   1 -7.888576E+06 -1.881983E+02 -6.943958E+02  7.671564E+05 -5.811805E+03  1.196033E+02
      8071   1 -7.888516E+06 -5.441153E+02 -1.554547E+02  7.853650E+05 -9.832536E+03 -1.221802E+02
      8072   1 -7.888284E+06 -1.503632E+01  1.863243E+01  8.176718E+05 -1.088441E+04  7.890618E+02
      8073   1 -7.888452E+06  4.440676E+01 -5.509577E+02  8.659395E+05 -8.493732E+03 -3.326262E+01
      8074   1 -7.887687E+06  8.346179E+02  9.778039E+02  9.329138E+05 -3.075389E+03  4.139713E+02
      8075   1 -1.183262E+07  1.154385E+03 -1.725484E+03  7.642280E+05  6.642085E+03  1.039611E+02
      8076   1 -1.183205E+07  3.807547E+02  7.672075E+02  7.010097E+05  1.675539E+04 -1.040094E+03
      8077   1 -1.183281E+07 -9.247965E+02 -2.244217E+02  6.575685E+05  2.136784E+04  4.122127E+02
      8078   1 -1.183287E+07 -2.793812E+02 -1.057640E+03  6.307048E+05  1.907129E+04  1.105449E+02
      8079   1 -1.183276E+07 -1.775947E+02 -8.334949E+02  6.158934E+05  1.089086E+04  8.965350E+01
      8080   1 -1.183293E+07 -3.069569E+02 -1.228915E+03  6.110967E+05  1.309996E-03  6.665339E-04
      8081   1 -1.183276E+07 -1.775947E+02 -8.334949E+02  6.158934E+05 -1.089086E+04 -8.965221E+01
      8082   1 -1.183287E+07 -2.793813E+02 -1.057640E+03  6.307048E+05 -1.907129E+04 -1.105438E+02
      8083   1 -1.183281E+07 -9.247968E+02 -2.244218E+02  6.575685E+05 -2.136784E+04 -4.122120E+02
      8084   1 -1.183205E+07  3.807540E+02  7.672071E+02  7.010097E+05 -1.675538E+04  1.040094E+03
      8085   1 -1.183262E+07  1.154384E+03 -1.725485E+03  7.642280E+05 -6.642084E+03 -1.039610E+02
      8086   1 -1.577488E+07  2.014603E+03  3.110655E+03  5.227687E+05  1.217252E+04 -9.757101E+02
      8087   1 -1.577724E+07 -1.231683E+03 -7.962106E+02  4.661104E+05  3.333749E+04  9.509179E+02
      8088   1 -1.577732E+07 -5.094908E+02 -1.773350E+03  4.350906E+05  4.075530E+04  6.797765E+02
      8089   1 -1.577702E+07  7.464992E+01 -1.449404E+03  4.171033E+05  3.372437E+04  1.997316E+02
      8090   1 -1.577730E+07 -4.626322E+02 -1.738024E+03  4.071877E+05  1.884676E+04  1.666457E+02
      8091   1 -1.577699E+07  2.289587E+02 -1.498548E+03  4.041610E+05  1.662621E-03  4.394345E-04
      8092   1 -1.577730E+07 -4.626322E+02 -1.738024E+03  4.071877E+05 -1.884675E+04 -1.666449E+02
      8093   1 -1.577702E+07  7.464996E+01 -1.449404E+03  4.171033E+05 -3.372436E+04 -1.997309E+02
      8094   1 -1.577732E+07 -5.094905E+02 -1.773349E+03  4.350906E+05 -4.075529E+04 -6.797761E+02
      8095   1 -1.577724E+07 -1.231682E+03 -7.962104E+02  4.661104E+05 -3.333748E+04 -9.509177E+02
      8096   1 -1.577488E+07  2.014604E+03  3.110655E+03  5.227687E+05 -1.217252E+04  9.757102E+02
      8097   1 -1.972225E+07  1.387310E+03 -6.037394E+03  1.920011E+05  3.281552E+04  1.501313E+03
      8098   1 -1.972261E+07 -1.781653E+03 -3.954153E+03  1.649970E+05  7.094648E+04  9.243985E+02
      8099   1 -1.972131E+07  9.228748E+02 -2.722647E+03  1.546711E+05  7.223702E+04  1.809242E+02
      8100   1 -1.972178E+07 -8.150372E+02 -2.407350E+03  1.478529E+05  5.632980E+04  2.161476E+02
      8101   1 -1.972121E+07  5.904058E+02 -2.107293E+03  1.445899E+05  3.040077E+04  3.045212E+01
      8102   1 -1.972161E+07 -6.081283E+02 -2.122049E+03  1.433907E+05  1.950706E-03  1.588537E-04
      8103   1 -1.972121E+07  5.904058E+02 -2.107293E+03  1.445899E+05 -3.040077E+04 -3.045186E+01
      8104   1 -1.972178E+07 -8.150373E+02 -2.407350E+03  1.478529E+05 -5.632980E+04 -2.161474E+02
      8105   1 -1.972131E+07  9.228746E+02 -2.722647E+03  1.546711E+05 -7.223701E+04 -1.809240E+02
      8106   1 -1.972261E+07 -1.781654E+03 -3.954154E+03  1.649970E+05 -7.094648E+04 -9.243984E+02
      8107   1 -1.972225E+07  1.387309E+03 -6.037395E+03  1.920011E+05 -3.281552E+04 -1.501313E+03
      8108   1  1.940415E+07 -1.365439E+03  5.938685E+03  1.920010E+05 -3.281551E+04  1.477081E+03
      8109   1  1.940450E+07  1.753388E+03  3.891657E+03  1.649970E+05 -7.094650E+04  9.094991E+02
      8110   1  1.940322E+07 -9.084727E+02  2.677468E+03  1.546710E+05 -7.223700E+04  1.779994E+02
      8111   1  1.940368E+07  8.023789E+02  2.369771E+03  1.478530E+05 -5.632982E+04  2.126654E+02
      8112   1  1.940313E+07 -5.813796E+02  2.072056E+03  1.445899E+05 -3.040077E+04  2.995915E+01
      8113   1  1.940352E+07  5.988141E+02  2.089064E+03  1.433907E+05 -2.259928E-03  2.092673E-04
      8114   1  1.940313E+07 -5.813795E+02  2.072055E+03  1.445899E+05  3.040076E+04 -2.995872E+01
      8115   1  1.940368E+07  8.023792E+02  2.369771E+03  1.478530E+05  5.632981E+04 -2.126651E+02
      8116   1  1.940322E+07 -9.084721E+02  2.677468E+03  1.546710E+05  7.223700E+04 -1.779991E+02
      8117   1  1.940450E+07  1.753389E+03  3.891657E+03  1.649970E+05  7.094650E+04 -9.094990E+02
      8118   1  1.940415E+07 -1.365437E+03  5.938686E+03  1.920010E+05  3.281551E+04 -1.477081E+03
      8119   1  1.552044E+07 -1.982469E+03 -3.061634E+03  5.227687E+05 -1.217251E+04 -9.599682E+02
      8120   1  1.552277E+07  1.212229E+03  7.845082E+02  4.661104E+05 -3.333750E+04  9.355804E+02
      8121   1  1.552285E+07  5.008451E+02  1.743623E+03  4.350906E+05 -4.075528E+04  6.688121E+02
      8122   1  1.552256E+07 -7.301217E+01  1.427143E+03  4.171033E+05 -3.372438E+04  1.965107E+02
      8123   1  1.552282E+07  4.547289E+02  1.708880E+03  4.071877E+05 -1.884675E+04  1.639579E+02
      8124   1  1.552252E+07 -2.248256E+02  1.475490E+03  4.041610E+05 -2.020625E-03  6.315198E-04
      8125   1  1.552282E+07  4.547289E+02  1.708880E+03  4.071877E+05  1.884675E+04 -1.639567E+02
      8126   1  1.552256E+07 -7.301237E+01  1.427143E+03  4.171033E+05  3.372438E+04 -1.965097E+02
      8127   1  1.552285E+07  5.008445E+02  1.743623E+03  4.350906E+05  4.075528E+04 -6.688114E+02
      8128   1  1.552277E+07  1.212228E+03  7.845077E+02  4.661104E+05  3.333750E+04 -9.355801E+02
      8129   1  1.552044E+07 -1.982471E+03 -3.061634E+03  5.227687E+05  1.217251E+04  9.599683E+02
      8130   1  1.164177E+07 -1.136111E+03  1.696713E+03  7.642280E+05 -6.642081E+03  1.022822E+02
      8131   1  1.164121E+07 -3.742847E+02 -7.539254E+02  7.010097E+05 -1.675540E+04 -1.023319E+03
      8132   1  1.164195E+07  9.095446E+02  2.199072E+02  6.575685E+05 -2.136783E+04  4.055651E+02
      8133   1  1.164202E+07  2.752201E+02  1.041468E+03  6.307048E+05 -1.907130E+04  1.087617E+02
      8134   1  1.164191E+07  1.743830E+02  8.191673E+02  6.158934E+05 -1.089086E+04  8.820806E+01
      8135   1  1.164208E+07  3.023569E+02  1.209976E+03  6.110967E+05 -1.644896E-03  9.787007E-04
      8136   1  1.164191E+07  1.743831E+02  8.191674E+02  6.158934E+05  1.089085E+04 -8.820615E+01
      8137   1  1.164202E+07  2.752204E+02  1.041469E+03  6.307048E+05  1.907130E+04 -1.087601E+02
      8138   1  1.164195E+07  9.095453E+02  2.199075E+02  6.575685E+05  2.136783E+04 -4.055639E+02
      8139   1  1.164121E+07 -3.742835E+02 -7.539249E+02  7.010097E+05  1.675540E+04  1.023320E+03
      8140   1  1.164177E+07 -1.136110E+03  1.696713E+03  7.642280E+05  6.642081E+03 -1.022819E+02
      8141   1  7.760466E+06 -8.213554E+02 -9.626622E+02  9.329138E+05 -3.075385E+03 -4.072922E+02
      8142   1  7.761219E+06 -4.346324E+01  5.426940E+02  8.659395E+05 -8.493742E+03  3.272765E+01
      8143   1  7.761053E+06  1.455976E+01 -1.894597E+01  8.176718E+05 -1.088440E+04 -7.763337E+02
      8144   1  7.761282E+06  5.355752E+02  1.535567E+02  7.853650E+05 -9.832545E+03  1.202113E+02
      8145   1  7.761341E+06  1.849220E+02  6.825890E+02  7.671564E+05 -5.811803E+03 -1.176722E+02
      8146   1  7.761275E+06  2.594106E+02  4.099432E+02  7.612532E+05 -1.156777E-03  1.275819E-03
      8147   1  7.761341E+06  1.849220E+02  6.825890E+02  7.671564E+05  5.811801E+03  1.176746E+02
      8148   1  7.761282E+06  5.355751E+02  1.535567E+02  7.853650E+05  9.832543E+03 -1.202092E+02
      8149   1  7.761053E+06  1.455928E+01 -1.894606E+01  8.176718E+05  1.088440E+04  7.763353E+02
      8150   1  7.761219E+06 -4.346430E+01  5.426936E+02  8.659395E+05  8.493741E+03 -3.272669E+01
      8151   1  7.760466E+06 -8.213571E+02 -9.626628E+02  9.329138E+05  3.075385E+03  4.072926E+02
      8152   1  3.880545E+06 -3.726930E+02  4.261604E+02  1.032769E+06 -1.354276E+03 -5.383647E+01
      8153   1  3.880382E+06 -1.676397E+02 -2.737598E+02  9.644275E+05 -3.495947E+03 -7.878559E+02
      8154   1  3.880624E+06  1.768372E+02  1.170148E+02  9.135277E+05 -4.584898E+03 -5.482390E+01
      8155   1  3.880599E+06  6.814548E+01  1.489564E+02  8.788894E+05 -4.176448E+03 -6.123049E+02
      8156   1  3.880639E+06  2.482626E+02  9.130306E+01  8.587673E+05 -2.459774E+03  1.054682E+01
      8157   1  3.880670E+06  9.414700E+01  3.392250E+02  8.522425E+05 -5.986245E-04  1.439679E-03
      8158   1  3.880639E+06  2.482626E+02  9.130309E+01  8.587673E+05  2.459773E+03 -1.054403E+01
      8159   1  3.880599E+06  6.814570E+01  1.489565E+02  8.788894E+05  4.176447E+03  6.123073E+02
      8160   1  3.880624E+06  1.768378E+02  1.170150E+02  9.135277E+05  4.584898E+03  5.482580E+01
      8161   1  3.880382E+06 -1.676388E+02 -2.737594E+02  9.644275E+05  3.495946E+03  7.878571E+02
      8162   1  3.880545E+06 -3.726918E+02  4.261609E+02  1.032769E+06  1.354276E+03  5.383691E+01
      8163   1  4.390833E-03 -2.601374E-04 -4.249346E-04  1.065912E+06 -7.281407E-06 -3.165435E+02
      8164   1  4.077639E-03 -1.104231E-03 -1.129339E-04  9.970621E+05 -4.942972E-06 -1.332519E+02
      8165   1  3.688750E-03 -2.814979E-03 -1.450668E-03  9.455725E+05 -5.865146E-06 -8.424367E+02
      8166   1  3.533342E-03 -3.650696E-03 -1.123878E-03  9.100684E+05 -4.156614E-06 -5.167639E+01
      8167   1  3.301077E-03 -4.560536E-03 -2.137078E-03  8.894857E+05 -7.380755E-06 -3.499907E+02
      8168   1  3.368032E-03 -4.455662E-03 -1.446139E-03  8.826903E+05  1.994707E-07  1.516542E-03
      8169   1  3.296979E-03 -4.576937E-03 -2.141466E-03  8.894857E+05  4.203189E-06  3.499936E+02
      8170   1  3.503770E-03 -3.799958E-03 -1.181588E-03  9.100684E+05  8.662851E-06  5.167893E+01
      8171   1  3.593292E-03 -3.290473E-03 -1.637726E-03  9.455725E+05  1.020327E-05  8.424387E+02
      8172   1  3.874353E-03 -2.063782E-03 -4.932686E-04  9.970621E+05  7.363971E-06  1.332531E+02
      8173   1  4.094407E-03 -1.586990E-03 -9.523346E-04  1.065912E+06 -7.168128E-07  3.165439E+02
      8174   1 -3.880545E+06  3.726927E+02 -4.261621E+02  1.032769E+06  1.354276E+03 -5.383647E+01
      8175   1 -3.880382E+06  1.676429E+02  2.737624E+02  9.644275E+05  3.495947E+03 -7.878559E+02
      8176   1 -3.880624E+06 -1.768324E+02 -1.170142E+02  9.135277E+05  4.584898E+03 -5.482390E+01
      8177   1 -3.880599E+06 -6.813726E+01 -1.489517E+02  8.788894E+05  4.176448E+03 -6.123049E+02
      8178   1 -3.880639E+06 -2.482543E+02 -9.130116E+01  8.587673E+05  2.459774E+03  1.054683E+01
      8179   1 -3.880670E+06 -9.413716E+01 -3.392198E+02  8.522425E+05  5.998225E-04  1.431903E-03
      8180   1 -3.880639E+06 -2.482544E+02 -9.130119E+01  8.587673E+05 -2.459773E+03 -1.054402E+01
      8181   1 -3.880599E+06 -6.813716E+01 -1.489517E+02  8.788894E+05 -4.176447E+03  6.123073E+02
      8182   1 -3.880624E+06 -1.768321E+02 -1.170141E+02  9.135277E+05 -4.584897E+03  5.482580E+01
      8183   1 -3.880382E+06  1.676438E+02  2.737628E+02  9.644275E+05 -3.495946E+03  7.878571E+02
      8184   1 -3.880545E+06  3.726941E+02 -4.261616E+02  1.032769E+06 -1.354276E+03  5.383692E+01
      8185   1 -7.760466E+06  8.213537E+02  9.626580E+02  9.329139E+05  3.075385E+03 -4.072923E+02
      8186   1 -7.761219E+06  4.346222E+01 -5.426908E+02  8.659395E+05  8.493742E+03  3.272765E+01
      8187   1 -7.761053E+06 -1.456672E+01  1.893971E+01  8.176718E+05  1.088440E+04 -7.763337E+02
      8188   1 -7.761282E+06 -5.355812E+02 -1.535556E+02  7.853650E+05  9.832545E+03  1.202113E+02
      8189   1 -7.761341E+06 -1.849325E+02 -6.825965E+02  7.671564E+05  5.811803E+03 -1.176722E+02
      8190   1 -7.761275E+06 -2.594182E+02 -4.099427E+02  7.612532E+05  1.168579E-03  1.274470E-03
      8191   1 -7.761341E+06 -1.849325E+02 -6.825966E+02  7.671564E+05 -5.811801E+03  1.176746E+02
      8192   1 -7.761282E+06 -5.355814E+02 -1.535556E+02  7.853650E+05 -9.832543E+03 -1.202092E+02
      8193   1 -7.761053E+06 -1.456721E+01  1.893941E+01  8.176718E+05 -1.088440E+04  7.763353E+02
      8194   1 -7.761219E+06  4.346136E+01 -5.426911E+02  8.659395E+05 -8.493741E+03 -3.272670E+01
      8195   1 -7.760466E+06  8.213527E+02  9.626574E+02  9.329138E+05 -3.075385E+03  4.072926E+02
      8196   1 -1.164177E+07  1.136108E+03 -1.696721E+03  7.642280E+05  6.642081E+03  1.022822E+02
      8197   1 -1.164121E+07  3.742901E+02  7.539343E+02  7.010097E+05  1.675540E+04 -1.023319E+03
      8198   1 -1.164195E+07 -9.095421E+02 -2.199130E+02  6.575685E+05  2.136783E+04  4.055651E+02
      8199   1 -1.164202E+07 -2.752094E+02 -1.041458E+03  6.307048E+05  1.907130E+04  1.087617E+02
      8200   1 -1.164191E+07 -1.743772E+02 -8.191717E+02  6.158934E+05  1.089086E+04  8.820805E+01
      8201   1 -1.164208E+07 -3.023445E+02 -1.209965E+03  6.110967E+05  1.668336E-03  9.759186E-04
      8202   1 -1.164191E+07 -1.743772E+02 -8.191718E+02  6.158934E+05 -1.089085E+04 -8.820614E+01
      8203   1 -1.164202E+07 -2.752094E+02 -1.041458E+03  6.307048E+05 -1.907130E+04 -1.087601E+02
      8204   1 -1.164195E+07 -9.095419E+02 -2.199130E+02  6.575685E+05 -2.136783E+04 -4.055639E+02
      8205   1 -1.164121E+07  3.742910E+02  7.539347E+02  7.010097E+05 -1.675540E+04  1.023320E+03
      8206   1 -1.164177E+07  1.136110E+03 -1.696721E+03  7.642280E+05 -6.642080E+03 -1.022820E+02
      8207   1 -1.552044E+07  1.982465E+03  3.061622E+03  5.227687E+05  1.217251E+04 -9.599683E+02
      8208   1 -1.552277E+07 -1.212227E+03 -7.844974E+02  4.661104E+05  3.333750E+04  9.355804E+02
      8209   1 -1.552285E+07 -5.008549E+02 -1.743637E+03  4.350906E+05  4.075528E+04  6.688121E+02
      8210   1 -1.552256E+07  7.300888E+01 -1.427135E+03  4.171033E+05  3.372438E+04  1.965107E+02
      8211   1 -1.552282E+07 -4.547426E+02 -1.708894E+03  4.071877E+05  1.884675E+04  1.639579E+02
      8212   1 -1.552252E+07  2.248207E+02 -1.475482E+03  4.041610E+05  2.046162E-03  6.344852E-04
      8213   1 -1.552282E+07 -4.547426E+02 -1.708894E+03  4.071877E+05 -1.884675E+04 -1.639567E+02
      8214   1 -1.552256E+07  7.300878E+01 -1.427134E+03  4.171033E+05 -3.372438E+04 -1.965097E+02
      8215   1 -1.552285E+07 -5.008554E+02 -1.743637E+03  4.350906E+05 -4.075528E+04 -6.688115E+02
      8216   1 -1.552277E+07 -1.212228E+03 -7.844976E+02  4.661104E+05 -3.333750E+04 -9.355801E+02
      8217   1 -1.552044E+07  1.982464E+03  3.061621E+03  5.227687E+05 -1.217251E+04  9.599684E+02
      8218   1 -1.940415E+07  1.365434E+03 -5.938699E+03  1.920010E+05  3.281551E+04  1.477081E+03
      8219   1 -1.940450E+07 -1.753380E+03 -3.891642E+03  1.649970E+05  7.094650E+04  9.094990E+02
      8220   1 -1.940322E+07  9.084730E+02 -2.677480E+03  1.546710E+05  7.223700E+04  1.779994E+02
      8221   1 -1.940368E+07 -8.023655E+02 -2.369754E+03  1.478530E+05  5.632982E+04  2.126654E+02
      8222   1 -1.940313E+07  5.813834E+02 -2.072066E+03  1.445899E+05  3.040077E+04  2.995917E+01
      8223   1 -1.940352E+07 -5.987990E+02 -2.089047E+03  1.433907E+05  2.274291E-03  2.079621E-04
      8224   1 -1.940313E+07  5.813834E+02 -2.072066E+03  1.445899E+05 -3.040076E+04 -2.995873E+01
      8225   1 -1.940368E+07 -8.023654E+02 -2.369754E+03  1.478530E+05 -5.632981E+04 -2.126651E+02
      8226   1 -1.940322E+07  9.084734E+02 -2.677480E+03  1.546710E+05 -7.223700E+04 -1.779992E+02
      8227   1 -1.940450E+07 -1.753379E+03 -3.891641E+03  1.649970E+05 -7.094650E+04 -9.094989E+02
      8228   1 -1.940415E+07  1.365435E+03 -5.938699E+03  1.920010E+05 -3.281551E+04 -1.477081E+03
      8229   1  1.908604E+07 -1.342639E+03  5.842426E+03  1.920011E+05 -3.281552E+04  1.452881E+03
      8230   1  1.908639E+07  1.724254E+03  3.826805E+03  1.649970E+05 -7.094649E+04  8.945807E+02
      8231   1  1.908513E+07 -8.931872E+02  2.634616E+03  1.546711E+05 -7.223701E+04  1.750868E+02
      8232   1  1.908559E+07  7.888162E+02  2.329892E+03  1.478529E+05 -5.632981E+04  2.091759E+02
      8233   1  1.908504E+07 -5.714491E+02  2.039113E+03  1.445899E+05 -3.040077E+04  2.946964E+01
      8234   1  1.908543E+07  5.885810E+02  2.053792E+03  1.433907E+05 -2.697801E-03  3.359616E-04
      8235   1  1.908504E+07 -5.714492E+02  2.039113E+03  1.445899E+05  3.040077E+04 -2.946905E+01
      8236   1  1.908559E+07  7.888159E+02  2.329891E+03  1.478529E+05  5.632980E+04 -2.091754E+02
      8237   1  1.908513E+07 -8.931881E+02  2.634615E+03  1.546711E+05  7.223701E+04 -1.750866E+02
      8238   1  1.908639E+07  1.724253E+03  3.826804E+03  1.649970E+05  7.094648E+04 -8.945806E+02
      8239   1  1.908604E+07 -1.342641E+03  5.842425E+03  1.920011E+05  3.281552E+04 -1.452881E+03
      8240   1  1.526601E+07 -1.949673E+03 -3.010496E+03  5.227687E+05 -1.217252E+04 -9.442347E+02
      8241   1  1.526830E+07  1.192020E+03  7.707098E+02  4.661104E+05 -3.333749E+04  9.202432E+02
      8242   1  1.526838E+07  4.929923E+02  1.715966E+03  4.350906E+05 -4.075529E+04  6.578484E+02
      8243   1  1.526809E+07 -7.216458E+01  1.402830E+03  4.171033E+05 -3.372437E+04  1.932891E+02
      8244   1  1.526835E+07  4.476469E+02  1.681783E+03  4.071877E+05 -1.884676E+04  1.612705E+02
      8245   1  1.526805E+07 -2.214928E+02  1.450389E+03  4.041610E+05 -2.477064E-03  9.451671E-04
      8246   1  1.526835E+07  4.476470E+02  1.681783E+03  4.071877E+05  1.884675E+04 -1.612688E+02
      8247   1  1.526809E+07 -7.216423E+01  1.402830E+03  4.171033E+05  3.372437E+04 -1.932876E+02
      8248   1  1.526838E+07  4.929932E+02  1.715967E+03  4.350906E+05  4.075529E+04 -6.578475E+02
      8249   1  1.526830E+07  1.192021E+03  7.707103E+02  4.661104E+05  3.333749E+04 -9.202427E+02
      8250   1  1.526601E+07 -1.949671E+03 -3.010495E+03  5.227687E+05  1.217252E+04  9.442348E+02
      8251   1  1.145092E+07 -1.117202E+03  1.669672E+03  7.642280E+05 -6.642084E+03  1.006073E+02
      8252   1  1.145037E+07 -3.684218E+02 -7.423138E+02  7.010097E+05 -1.675539E+04 -1.006542E+03
      8253   1  1.145110E+07  8.949050E+02  2.170365E+02  6.575685E+05 -2.136784E+04  3.989161E+02
      8254   1  1.145116E+07  2.704166E+02  1.023662E+03  6.307048E+05 -1.907129E+04  1.069795E+02
      8255   1  1.145106E+07  1.718010E+02  8.064626E+02  6.158934E+05 -1.089086E+04  8.676223E+01
      8256   1  1.145123E+07  2.971020E+02  1.189411E+03  6.110967E+05 -2.047779E-03  1.437850E-03
      8257   1  1.145106E+07  1.718010E+02  8.064626E+02  6.158934E+05  1.089086E+04 -8.675950E+01
      8258   1  1.145116E+07  2.704165E+02  1.023663E+03  6.307048E+05  1.907129E+04 -1.069772E+02
      8259   1  1.145110E+07  8.949044E+02  2.170363E+02  6.575685E+05  2.136784E+04 -3.989145E+02
      8260   1  1.145037E+07 -3.684231E+02 -7.423141E+02  7.010097E+05  1.675539E+04  1.006543E+03
      8261   1  1.145092E+07 -1.117204E+03  1.669671E+03  7.642280E+05  6.642084E+03 -1.006071E+02
      8262   1  7.633245E+06 -8.077256E+02 -9.463632E+02  9.329138E+05 -3.075389E+03 -4.006166E+02
      8263   1  7.633986E+06 -4.293455E+01  5.332864E+02  8.659395E+05 -8.493735E+03  3.219082E+01
      8264   1  7.633823E+06  1.451906E+01 -1.812846E+01  8.176718E+05 -1.088441E+04 -7.636065E+02
      8265   1  7.634048E+06  5.266089E+02  1.505413E+02  7.853650E+05 -9.832540E+03  1.182411E+02
      8266   1  7.634106E+06  1.820974E+02  6.719013E+02  7.671564E+05 -5.811807E+03 -1.157426E+02
      8267   1  7.634041E+06  2.549707E+02  4.027281E+02  7.612533E+05 -1.460081E-03  1.857381E-03
      8268   1  7.634106E+06  1.820975E+02  6.719014E+02  7.671564E+05  5.811804E+03  1.157461E+02
      8269   1  7.634048E+06  5.266093E+02  1.505415E+02  7.853650E+05  9.832537E+03 -1.182381E+02
      8270   1  7.633823E+06  1.451987E+01 -1.812809E+01  8.176718E+05  1.088441E+04  7.636088E+02
      8271   1  7.633986E+06 -4.293324E+01  5.332870E+02  8.659395E+05  8.493734E+03 -3.218934E+01
      8272   1  7.633245E+06 -8.077242E+02 -9.463625E+02  9.329138E+05  3.075389E+03  4.006171E+02
      8273   1  3.816929E+06 -3.664860E+02  4.194420E+02  1.032769E+06 -1.354277E+03 -5.295278E+01
      8274   1  3.816769E+06 -1.649874E+02 -2.695315E+02  9.644275E+05 -3.495943E+03 -7.749390E+02
      8275   1  3.817008E+06  1.740280E+02  1.153491E+02  9.135277E+05 -4.584902E+03 -5.392507E+01
      8276   1  3.816982E+06  6.692188E+01  1.462584E+02  8.788894E+05 -4.176445E+03 -6.022664E+02
      8277   1  3.817022E+06  2.442821E+02  9.005447E+01  8.587673E+05 -2.459776E+03  1.037448E+01
      8278   1  3.817053E+06  9.249372E+01  3.334085E+02  8.522425E+05 -7.595187E-04  2.096100E-03
      8279   1  3.817022E+06  2.442821E+02  9.005449E+01  8.587673E+05  2.459775E+03 -1.037048E+01
      8280   1  3.816982E+06  6.692175E+01  1.462584E+02  8.788894E+05  4.176444E+03  6.022699E+02
      8281   1  3.817008E+06  1.740275E+02  1.153489E+02  9.135277E+05  4.584901E+03  5.392777E+01
      8282   1  3.816769E+06 -1.649886E+02 -2.695319E+02  9.644275E+05  3.495943E+03  7.749408E+02
      8283   1  3.816929E+06 -3.664879E+02  4.194413E+02  1.032769E+06  1.354277E+03  5.295335E+01
      8284   1  4.198928E-03  3.415076E-04  4.744473E-04  1.065912E+06 -5.449364E-06 -3.113551E+02
      8285   1  4.517329E-03  1.417846E-03  1.427292E-04  9.970621E+05 -3.090168E-05 -1.310677E+02
      8286   1  4.926814E-03  3.456630E-03  1.750356E-03  9.455725E+05 -3.110811E-05 -8.286259E+02
      8287   1  5.088298E-03  4.500524E-03  1.396284E-03  9.100684E+05 -2.236088E-05 -5.082848E+01
      8288   1  5.340584E-03  5.600137E-03  2.575952E-03  8.894857E+05 -9.169349E-06 -3.442526E+02
      8289   1  5.258746E-03  5.487085E-03  1.785330E-03  8.826903E+05 -1.330616E-06  2.196907E-03
      8290   1  5.334535E-03  5.611953E-03  2.582485E-03  8.894857E+05  9.379630E-06  3.442567E+02
      8291   1  5.105230E-03  4.677153E-03  1.462722E-03  9.100684E+05  1.982222E-05  5.083217E+01
      8292   1  5.032149E-03  4.064298E-03  1.980700E-03  9.455725E+05  2.614198E-05  8.286287E+02
      8293   1  4.739571E-03  2.588622E-03  6.128350E-04  9.970621E+05  2.628308E-05  1.310696E+02
      8294   1  4.523411E-03  1.958160E-03  1.126334E-03  1.065912E+06  1.702737E-05  3.113558E+02
      8295   1 -3.816929E+06  3.664864E+02 -4.194400E+02  1.032769E+06  1.354277E+03 -5.295279E+01
      8296   1 -3.816769E+06  1.649837E+02  2.695283E+02  9.644275E+05  3.495943E+03 -7.749390E+02
      8297   1 -3.817007E+06 -1.740339E+02 -1.153497E+02  9.135277E+05  4.584902E+03 -5.392506E+01
      8298   1 -3.816982E+06 -6.693187E+01 -1.462641E+02  8.788894E+05  4.176445E+03 -6.022664E+02
      8299   1 -3.817022E+06 -2.442922E+02 -9.005686E+01  8.587673E+05  2.459776E+03  1.037448E+01
      8300   1 -3.817053E+06 -9.250570E+01 -3.334149E+02  8.522425E+05  7.555222E-04  2.088815E-03
      8301   1 -3.817022E+06 -2.442922E+02 -9.005690E+01  8.587673E+05 -2.459775E+03 -1.037047E+01
      8302   1 -3.816982E+06 -6.693210E+01 -1.462642E+02  8.788894E+05 -4.176444E+03  6.022699E+02
      8303   1 -3.817007E+06 -1.740345E+02 -1.153500E+02  9.135277E+05 -4.584901E+03  5.392777E+01
      8304   1 -3.816769E+06  1.649826E+02  2.695278E+02  9.644275E+05 -3.495943E+03  7.749408E+02
      8305   1 -3.816929E+06  3.664851E+02 -4.194406E+02  1.032769E+06 -1.354277E+03  5.295336E+01
      8306   1 -7.633245E+06  8.077276E+02  9.463685E+02  9.329138E+05  3.075389E+03 -4.006166E+02
      8307   1 -7.633986E+06  4.293586E+01 -5.332903E+02  8.659395E+05  8.493735E+03  3.219081E+01
      8308   1 -7.633823E+06 -1.451052E+01  1.813606E+01  8.176718E+05  1.088441E+04 -7.636065E+02
      8309   1 -7.634048E+06 -5.266015E+02 -1.505427E+02  7.853650E+05  9.832540E+03  1.182411E+02
      8310   1 -7.634106E+06 -1.820846E+02 -6.718921E+02  7.671564E+05  5.811807E+03 -1.157426E+02
      8311   1 -7.634041E+06 -2.549613E+02 -4.027287E+02  7.612533E+05  1.441798E-03  1.853041E-03
      8312   1 -7.634106E+06 -1.820846E+02 -6.718922E+02  7.671564E+05 -5.811804E+03  1.157461E+02
      8313   1 -7.634048E+06 -5.266015E+02 -1.505428E+02  7.853650E+05 -9.832537E+03 -1.182381E+02
      8314   1 -7.633823E+06 -1.451014E+01  1.813618E+01  8.176718E+05 -1.088441E+04  7.636088E+02
      8315   1 -7.633986E+06  4.293687E+01 -5.332901E+02  8.659395E+05 -8.493734E+03 -3.218934E+01
      8316   1 -7.633245E+06  8.077296E+02  9.463692E+02  9.329138E+05 -3.075388E+03  4.006171E+02
      8317   1 -1.145092E+07  1.117205E+03 -1.669662E+03  7.642280E+05  6.642084E+03  1.006073E+02
      8318   1 -1.145037E+07  3.684152E+02  7.423029E+02  7.010097E+05  1.675539E+04 -1.006542E+03
      8319   1 -1.145110E+07 -8.949080E+02 -2.170295E+02  6.575685E+05  2.136784E+04  3.989161E+02
      8320   1 -1.145116E+07 -2.704297E+02 -1.023676E+03  6.307048E+05  1.907129E+04  1.069795E+02
      8321   1 -1.145106E+07 -1.718082E+02 -8.064573E+02  6.158934E+05  1.089086E+04  8.676224E+01
      8322   1 -1.145123E+07 -2.971172E+02 -1.189424E+03  6.110967E+05  2.013767E-03  1.431377E-03
      8323   1 -1.145106E+07 -1.718082E+02 -8.064573E+02  6.158934E+05 -1.089086E+04 -8.675950E+01
      8324   1 -1.145116E+07 -2.704300E+02 -1.023676E+03  6.307048E+05 -1.907129E+04 -1.069772E+02
      8325   1 -1.145110E+07 -8.949086E+02 -2.170296E+02  6.575685E+05 -2.136784E+04 -3.989145E+02
      8326   1 -1.145037E+07  3.684141E+02  7.423022E+02  7.010097E+05 -1.675539E+04  1.006543E+03
      8327   1 -1.145092E+07  1.117204E+03 -1.669663E+03  7.642280E+05 -6.642084E+03 -1.006071E+02
      8328   1 -1.526601E+07  1.949678E+03  3.010510E+03  5.227687E+05  1.217252E+04 -9.442346E+02
      8329   1 -1.526830E+07 -1.192022E+03 -7.707230E+02  4.661104E+05  3.333749E+04  9.202432E+02
      8330   1 -1.526838E+07 -4.929802E+02 -1.715950E+03  4.350906E+05  4.075529E+04  6.578484E+02
      8331   1 -1.526809E+07  7.216863E+01 -1.402841E+03  4.171033E+05  3.372437E+04  1.932891E+02
      8332   1 -1.526835E+07 -4.476302E+02 -1.681765E+03  4.071877E+05  1.884676E+04  1.612705E+02
      8333   1 -1.526805E+07  2.214988E+02 -1.450399E+03  4.041610E+05  2.439598E-03  9.453200E-04
      8334   1 -1.526835E+07 -4.476302E+02 -1.681765E+03  4.071877E+05 -1.884675E+04 -1.612688E+02
      8335   1 -1.526809E+07  7.216863E+01 -1.402841E+03  4.171033E+05 -3.372437E+04 -1.932877E+02
      8336   1 -1.526838E+07 -4.929798E+02 -1.715949E+03  4.350906E+05 -4.075529E+04 -6.578475E+02
      8337   1 -1.526830E+07 -1.192021E+03 -7.707228E+02  4.661104E+05 -3.333749E+04 -9.202427E+02
      8338   1 -1.526601E+07  1.949680E+03  3.010511E+03  5.227687E+05 -1.217252E+04  9.442348E+02
      8339   1 -1.908604E+07  1.342645E+03 -5.842408E+03  1.920011E+05  3.281552E+04  1.452880E+03
      8340   1 -1.908639E+07 -1.724264E+03 -3.826823E+03  1.649970E+05  7.094649E+04  8.945809E+02
      8341   1 -1.908513E+07  8.931869E+02 -2.634601E+03  1.546711E+05  7.223702E+04  1.750868E+02
      8342   1 -1.908559E+07 -7.888326E+02 -2.329912E+03  1.478529E+05  5.632981E+04  2.091759E+02
      8343   1 -1.908504E+07  5.714444E+02 -2.039100E+03  1.445899E+05  3.040077E+04  2.946961E+01
      8344   1 -1.908543E+07 -5.885996E+02 -2.053813E+03  1.433907E+05  2.675547E-03  3.388130E-04
      8345   1 -1.908504E+07  5.714445E+02 -2.039100E+03  1.445899E+05 -3.040077E+04 -2.946902E+01
      8346   1 -1.908559E+07 -7.888327E+02 -2.329912E+03  1.478529E+05 -5.632980E+04 -2.091754E+02
      8347   1 -1.908513E+07  8.931866E+02 -2.634600E+03  1.546711E+05 -7.223701E+04 -1.750865E+02
      8348   1 -1.908639E+07 -1.724265E+03 -3.826823E+03  1.649970E+05 -7.094648E+04 -8.945807E+02
      8349   1 -1.908604E+07  1.342643E+03 -5.842409E+03  1.920011E+05 -3.281552E+04 -1.452881E+03
      8350   1  1.876794E+07 -1.320599E+03  5.744159E+03  1.920011E+05 -3.281552E+04  1.428654E+03
      8351   1  1.876829E+07  1.695837E+03  3.763887E+03  1.649970E+05 -7.094650E+04  8.796781E+02
      8352   1  1.876705E+07 -8.786174E+02  2.589859E+03  1.546711E+05 -7.223700E+04  1.721644E+02
      8353   1  1.876750E+07  7.760079E+02  2.291904E+03  1.478530E+05 -5.632982E+04  2.056924E+02
      8354   1  1.876696E+07 -5.622455E+02  2.004294E+03  1.445899E+05 -3.040077E+04  2.897739E+01
      8355   1  1.876734E+07  5.791170E+02  2.020402E+03  1.433907E+05 -3.317001E-03  4.519763E-04
      8356   1  1.876696E+07 -5.622454E+02  2.004294E+03  1.445899E+05  3.040076E+04 -2.897647E+01
      8357   1  1.876750E+07  7.760083E+02  2.291904E+03  1.478530E+05  5.632981E+04 -2.056918E+02
      8358   1  1.876705E+07 -8.786163E+02  2.589859E+03  1.546711E+05  7.223700E+04 -1.721639E+02
      8359   1  1.876829E+07  1.695839E+03  3.763887E+03  1.649970E+05  7.094649E+04 -8.796779E+02
      8360   1  1.876794E+07 -1.320597E+03  5.744160E+03  1.920011E+05  3.281551E+04 -1.428654E+03
      8361   1  1.501158E+07 -1.917419E+03 -2.961095E+03  5.227687E+05 -1.217251E+04 -9.284947E+02
      8362   1  1.501382E+07  1.172428E+03  7.586296E+02  4.661104E+05 -3.333750E+04  9.049058E+02
      8363   1  1.501390E+07  4.844827E+02  1.686609E+03  4.350906E+05 -4.075528E+04  6.468843E+02
      8364   1  1.501362E+07 -7.067867E+01  1.380197E+03  4.171033E+05 -3.372438E+04  1.900682E+02
      8365   1  1.501388E+07  4.398793E+02  1.653002E+03  4.071877E+05 -1.884675E+04  1.585829E+02
      8366   1  1.501359E+07 -2.175159E+02  1.426959E+03  4.041610E+05 -3.164317E-03  1.325373E-03
      8367   1  1.501388E+07  4.398793E+02  1.653002E+03  4.071877E+05  1.884675E+04 -1.585804E+02
      8368   1  1.501362E+07 -7.067895E+01  1.380197E+03  4.171033E+05  3.372438E+04 -1.900661E+02
      8369   1  1.501390E+07  4.844818E+02  1.686609E+03  4.350906E+05  4.075528E+04 -6.468828E+02
      8370   1  1.501382E+07  1.172426E+03  7.586289E+02  4.661104E+05  3.333750E+04 -9.049052E+02
      8371   1  1.501158E+07 -1.917422E+03 -2.961096E+03  5.227687E+05  1.217251E+04  9.284949E+02
      8372   1  1.126007E+07 -1.098814E+03  1.641212E+03  7.642280E+05 -6.642082E+03  9.892915E+01
      8373   1  1.125953E+07 -3.620576E+02 -7.293306E+02  7.010097E+05 -1.675540E+04 -9.897672E+02
      8374   1  1.126025E+07  8.797707E+02  2.128200E+02  6.575685E+05 -2.136783E+04  3.922685E+02
      8375   1  1.126031E+07  2.661513E+02  1.007201E+03  6.307048E+05 -1.907130E+04  1.051967E+02
      8376   1  1.126021E+07  1.687154E+02  7.924312E+02  6.158934E+05 -1.089086E+04  8.531701E+01
      8377   1  1.126037E+07  2.923980E+02  1.170185E+03  6.110967E+05 -2.680174E-03  2.034207E-03
      8378   1  1.126021E+07  1.687156E+02  7.924314E+02  6.158934E+05  1.089085E+04 -8.531305E+01
      8379   1  1.126031E+07  2.661517E+02  1.007202E+03  6.307048E+05  1.907130E+04 -1.051934E+02
      8380   1  1.126025E+07  8.797718E+02  2.128206E+02  6.575685E+05  2.136783E+04 -3.922660E+02
      8381   1  1.125953E+07 -3.620559E+02 -7.293299E+02  7.010097E+05  1.675539E+04  9.897687E+02
      8382   1  1.126007E+07 -1.098812E+03  1.641213E+03  7.642280E+05  6.642081E+03 -9.892865E+01
      8383   1  7.506024E+06 -7.943980E+02 -9.310138E+02  9.329138E+05 -3.075386E+03 -3.939385E+02
      8384   1  7.506753E+06 -4.206933E+01  5.248157E+02  8.659395E+05 -8.493741E+03  3.165511E+01
      8385   1  7.506592E+06  1.411316E+01 -1.824173E+01  8.176718E+05 -1.088441E+04 -7.508793E+02
      8386   1  7.506814E+06  5.179814E+02  1.484382E+02  7.853650E+05 -9.832545E+03  1.162711E+02
      8387   1  7.506871E+06  1.788896E+02  6.602907E+02  7.671564E+05 -5.811804E+03 -1.138128E+02
      8388   1  7.506807E+06  2.508705E+02  3.964188E+02  7.612532E+05 -1.931850E-03  2.617806E-03
      8389   1  7.506871E+06  1.788897E+02  6.602908E+02  7.671564E+05  5.811801E+03  1.138178E+02
      8390   1  7.506814E+06  5.179813E+02  1.484382E+02  7.853650E+05  9.832542E+03 -1.162668E+02
      8391   1  7.506592E+06  1.411249E+01 -1.824185E+01  8.176718E+05  1.088440E+04  7.508826E+02
      8392   1  7.506753E+06 -4.207093E+01  5.248152E+02  8.659395E+05  8.493739E+03 -3.165307E+01
      8393   1  7.506024E+06 -7.944007E+02 -9.310146E+02  9.329138E+05  3.075386E+03  3.939392E+02
      8394   1  3.753314E+06 -3.604573E+02  4.122322E+02  1.032769E+06 -1.354277E+03 -5.207090E+01
      8395   1  3.753156E+06 -1.621582E+02 -2.648266E+02  9.644275E+05 -3.495946E+03 -7.620237E+02
      8396   1  3.753391E+06  1.710565E+02  1.132209E+02  9.135277E+05 -4.584899E+03 -5.302539E+01
      8397   1  3.753366E+06  6.589694E+01  1.440315E+02  8.788894E+05 -4.176448E+03 -5.922280E+02
      8398   1  3.753405E+06  2.401415E+02  8.835203E+01  8.587673E+05 -2.459775E+03  1.020254E+01
      8399   1  3.753435E+06  9.104615E+01  3.280622E+02  8.522425E+05 -1.009679E-03  2.957216E-03
      8400   1  3.753405E+06  2.401416E+02  8.835210E+01  8.587673E+05  2.459773E+03 -1.019679E+01
      8401   1  3.753366E+06  6.589730E+01  1.440317E+02  8.788894E+05  4.176446E+03  5.922330E+02
      8402   1  3.753391E+06  1.710574E+02  1.132212E+02  9.135277E+05  4.584898E+03  5.302932E+01
      8403   1  3.753156E+06 -1.621567E+02 -2.648260E+02  9.644275E+05  3.495945E+03  7.620262E+02
      8404   1  3.753314E+06 -3.604555E+02  4.122331E+02  1.032769E+06  1.354276E+03  5.207184E+01
      8405   1  4.316374E-03 -2.471361E-04 -5.495227E-04  1.065912E+06 -6.022538E-06 -3.061650E+02
      8406   1  3.826296E-03 -1.625934E-03 -2.296743E-04  9.970621E+05  8.557663E-06 -1.288824E+02
      8407   1  3.249413E-03 -4.184116E-03 -2.144336E-03  9.455725E+05  1.405651E-05 -8.148147E+02
      8408   1  3.011147E-03 -5.468142E-03 -1.777333E-03  9.100684E+05  8.285008E-06 -4.998067E+01
      8409   1  2.701780E-03 -6.756137E-03 -3.171985E-03  8.894857E+05  2.619483E-06 -3.385140E+02
      8410   1  2.778331E-03 -6.661406E-03 -2.263798E-03  8.826903E+05  4.418336E-07  3.088627E-03
      8411   1  2.697294E-03 -6.790114E-03 -3.180674E-03  8.894857E+05 -4.331548E-06  3.385200E+02
      8412   1  2.969348E-03 -5.687042E-03 -1.863101E-03  9.100684E+05 -8.787588E-06  4.998588E+01
      8413   1  3.116532E-03 -4.861124E-03 -2.408593E-03  9.455725E+05 -4.854257E-06  8.148189E+02
      8414   1  3.521933E-03 -3.049628E-03 -8.012067E-04  9.970621E+05 -5.730980E-06  1.288850E+02
      8415   1  3.874871E-03 -2.252943E-03 -1.343715E-03  1.065912E+06 -6.259351E-06  3.061659E+02
      8416   1 -3.753314E+06  3.604569E+02 -4.122346E+02  1.032769E+06  1.354276E+03 -5.207091E+01
      8417   1 -3.753156E+06  1.621629E+02  2.648304E+02  9.644275E+05  3.495946E+03 -7.620237E+02
      8418   1 -3.753391E+06 -1.710491E+02 -1.132200E+02  9.135277E+05  4.584899E+03 -5.302539E+01
      8419   1 -3.753366E+06 -6.588458E+01 -1.440248E+02  8.788894E+05  4.176448E+03 -5.922280E+02
      8420   1 -3.753405E+06 -2.401290E+02 -8.834913E+01  8.587673E+05  2.459775E+03  1.020254E+01
      8421   1 -3.753435E+06 -9.103139E+01 -3.280546E+02  8.522425E+05  1.013300E-03  2.951938E-03
      8422   1 -3.753405E+06 -2.401291E+02 -8.834919E+01  8.587673E+05 -2.459773E+03 -1.019679E+01
      8423   1 -3.753366E+06 -6.588449E+01 -1.440248E+02  8.788894E+05 -4.176446E+03  5.922329E+02
      8424   1 -3.753391E+06 -1.710486E+02 -1.132198E+02  9.135277E+05 -4.584898E+03  5.302934E+01
      8425   1 -3.753156E+06  1.621642E+02  2.648309E+02  9.644275E+05 -3.495945E+03  7.620262E+02
      8426   1 -3.753314E+06  3.604592E+02 -4.122339E+02  1.032769E+06 -1.354276E+03  5.207185E+01
      8427   1 -7.506024E+06  7.943957E+02  9.310075E+02  9.329138E+05  3.075386E+03 -3.939385E+02
      8428   1 -7.506753E+06  4.206788E+01 -5.248110E+02  8.659395E+05  8.493741E+03  3.165511E+01
      8429   1 -7.506592E+06 -1.412348E+01  1.823244E+01  8.176718E+05  1.088441E+04 -7.508793E+02
      8430   1 -7.506814E+06 -5.179905E+02 -1.484366E+02  7.853650E+05  9.832545E+03  1.162711E+02
      8431   1 -7.506871E+06 -1.789052E+02 -6.603020E+02  7.671564E+05  5.811804E+03 -1.138128E+02
      8432   1 -7.506807E+06 -2.508819E+02 -3.964183E+02  7.612532E+05  1.952055E-03  2.618510E-03
      8433   1 -7.506871E+06 -1.789053E+02 -6.603021E+02  7.671564E+05 -5.811801E+03  1.138178E+02
      8434   1 -7.506814E+06 -5.179908E+02 -1.484368E+02  7.853650E+05 -9.832542E+03 -1.162668E+02
      8435   1 -7.506592E+06 -1.412423E+01  1.823196E+01  8.176718E+05 -1.088440E+04  7.508826E+02
      8436   1 -7.506753E+06  4.206659E+01 -5.248115E+02  8.659395E+05 -8.493739E+03 -3.165307E+01
      8437   1 -7.506024E+06  7.943943E+02  9.310067E+02  9.329138E+05 -3.075386E+03  3.939392E+02
      8438   1 -1.126007E+07  1.098810E+03 -1.641224E+03  7.642280E+05  6.642082E+03  9.892919E+01
      8439   1 -1.125953E+07  3.620658E+02  7.293439E+02  7.010097E+05  1.675540E+04 -9.897672E+02
      8440   1 -1.126025E+07 -8.797669E+02 -2.128287E+02  6.575685E+05  2.136783E+04  3.922684E+02
      8441   1 -1.126031E+07 -2.661352E+02 -1.007185E+03  6.307048E+05  1.907130E+04  1.051967E+02
      8442   1 -1.126021E+07 -1.687065E+02 -7.924379E+02  6.158934E+05  1.089086E+04  8.531699E+01
      8443   1 -1.126037E+07 -2.923795E+02 -1.170168E+03  6.110967E+05  2.722615E-03  2.042674E-03
      8444   1 -1.126021E+07 -1.687067E+02 -7.924380E+02  6.158934E+05 -1.089085E+04 -8.531305E+01
      8445   1 -1.126031E+07 -2.661352E+02 -1.007185E+03  6.307048E+05 -1.907130E+04 -1.051934E+02
      8446   1 -1.126025E+07 -8.797667E+02 -2.128288E+02  6.575685E+05 -2.136783E+04 -3.922660E+02
      8447   1 -1.125953E+07  3.620670E+02  7.293444E+02  7.010097E+05 -1.675539E+04  9.897687E+02
      8448   1 -1.126007E+07  1.098812E+03 -1.641223E+03  7.642280E+05 -6.642081E+03 -9.892867E+01
      8449   1 -1.501158E+07  1.917413E+03  2.961077E+03  5.227687E+05  1.217251E+04 -9.284948E+02
      8450   1 -1.501382E+07 -1.172426E+03 -7.586135E+02  4.661104E+05  3.333750E+04  9.049058E+02
      8451   1 -1.501390E+07 -4.844975E+02 -1.686630E+03  4.350906E+05  4.075528E+04  6.468843E+02
      8452   1 -1.501362E+07  7.067372E+01 -1.380184E+03  4.171033E+05  3.372438E+04  1.900682E+02
      8453   1 -1.501388E+07 -4.398997E+02 -1.653025E+03  4.071877E+05  1.884675E+04  1.585829E+02
      8454   1 -1.501359E+07  2.175087E+02 -1.426947E+03  4.041610E+05  3.208562E-03  1.321969E-03
      8455   1 -1.501388E+07 -4.398998E+02 -1.653025E+03  4.071877E+05 -1.884675E+04 -1.585804E+02
      8456   1 -1.501362E+07  7.067359E+01 -1.380184E+03  4.171033E+05 -3.372438E+04 -1.900661E+02
      8457   1 -1.501390E+07 -4.844982E+02 -1.686630E+03  4.350906E+05 -4.075528E+04 -6.468828E+02
      8458   1 -1.501382E+07 -1.172427E+03 -7.586137E+02  4.661104E+05 -3.333750E+04 -9.049052E+02
      8459   1 -1.501158E+07  1.917412E+03  2.961076E+03  5.227687E+05 -1.217251E+04  9.284949E+02
      8460   1 -1.876794E+07  1.320592E+03 -5.744181E+03  1.920011E+05  3.281551E+04  1.428655E+03
      8461   1 -1.876829E+07 -1.695825E+03 -3.763865E+03  1.649970E+05  7.094650E+04  8.796779E+02
      8462   1 -1.876705E+07  8.786178E+02 -2.589878E+03  1.546711E+05  7.223700E+04  1.721645E+02
      8463   1 -1.876750E+07 -7.759878E+02 -2.291879E+03  1.478530E+05  5.632982E+04  2.056924E+02
      8464   1 -1.876696E+07  5.622512E+02 -2.004310E+03  1.445899E+05  3.040077E+04  2.897742E+01
      8465   1 -1.876734E+07 -5.790942E+02 -2.020377E+03  1.433907E+05  3.346871E-03  4.486294E-04
      8466   1 -1.876696E+07  5.622512E+02 -2.004310E+03  1.445899E+05 -3.040076E+04 -2.897650E+01
      8467   1 -1.876750E+07 -7.759877E+02 -2.291879E+03  1.478530E+05 -5.632981E+04 -2.056917E+02
      8468   1 -1.876705E+07  8.786183E+02 -2.589877E+03  1.546711E+05 -7.223700E+04 -1.721640E+02
      8469   1 -1.876829E+07 -1.695824E+03 -3.763864E+03  1.649970E+05 -7.094649E+04 -8.796777E+02
      8470   1 -1.876794E+07  1.320594E+03 -5.744180E+03  1.920011E+05 -3.281551E+04 -1.428655E+03
      8471   1  1.844984E+07 -1.297941E+03  5.647529E+03  1.920011E+05 -3.281552E+04  1.404449E+03
      8472   1  1.845018E+07  1.666831E+03  3.699388E+03  1.649970E+05 -7.094649E+04  8.647627E+02
      8473   1  1.844896E+07 -8.634708E+02  2.546652E+03  1.546711E+05 -7.223701E+04  1.692500E+02
      8474   1  1.844940E+07  7.625739E+02  2.252368E+03  1.478529E+05 -5.632981E+04  2.022041E+02
      8475   1  1.844888E+07 -5.524602E+02  1.971001E+03  1.445899E+05 -3.040077E+04  2.848743E+01
      8476   1  1.844925E+07  5.690135E+02  1.985470E+03  1.433907E+05 -4.270801E-03  6.903932E-04
      8477   1  1.844888E+07 -5.524602E+02  1.971000E+03  1.445899E+05  3.040077E+04 -2.848622E+01
      8478   1  1.844940E+07  7.625735E+02  2.252367E+03  1.478530E+05  5.632980E+04 -2.022031E+02
      8479   1  1.844896E+07 -8.634722E+02  2.546651E+03  1.546711E+05  7.223701E+04 -1.692494E+02
      8480   1  1.845018E+07  1.666828E+03  3.699387E+03  1.649970E+05  7.094648E+04 -8.647624E+02
      8481   1  1.844984E+07 -1.297944E+03  5.647528E+03  1.920011E+05  3.281552E+04 -1.404450E+03
      8482   1  1.475714E+07 -1.884724E+03 -2.910275E+03  5.227687E+05 -1.217252E+04 -9.127597E+02
      8483   1  1.475935E+07  1.152333E+03  7.451477E+02  4.661104E+05 -3.333749E+04  8.895687E+02
      8484   1  1.475943E+07  4.765132E+02  1.658643E+03  4.350906E+05 -4.075529E+04  6.359207E+02
      8485   1  1.475915E+07 -6.970774E+01  1.356196E+03  4.171033E+05 -3.372437E+04  1.868470E+02
      8486   1  1.475941E+07  4.326791E+02  1.625601E+03  4.071877E+05 -1.884676E+04  1.558957E+02
      8487   1  1.475912E+07 -2.140570E+02  1.402169E+03  4.041610E+05 -4.110999E-03  1.917394E-03
      8488   1  1.475941E+07  4.326793E+02  1.625601E+03  4.071877E+05  1.884675E+04 -1.558922E+02
      8489   1  1.475915E+07 -6.970717E+01  1.356196E+03  4.171033E+05  3.372437E+04 -1.868440E+02
      8490   1  1.475943E+07  4.765145E+02  1.658643E+03  4.350906E+05  4.075529E+04 -6.359187E+02
      8491   1  1.475935E+07  1.152335E+03  7.451486E+02  4.661104E+05  3.333749E+04 -8.895677E+02
      8492   1  1.475714E+07 -1.884722E+03 -2.910274E+03  5.227687E+05  1.217252E+04  9.127600E+02
      8493   1  1.106922E+07 -1.080000E+03  1.613911E+03  7.642280E+05 -6.642084E+03  9.725358E+01
      8494   1  1.106869E+07 -3.561044E+02 -7.174691E+02  7.010097E+05 -1.675539E+04 -9.729907E+02
      8495   1  1.106940E+07  8.650363E+02  2.097013E+02  6.575685E+05 -2.136784E+04  3.856199E+02
      8496   1  1.106946E+07  2.614393E+02  9.896382E+02  6.307048E+05 -1.907130E+04  1.034147E+02
      8497   1  1.106936E+07  1.660332E+02  7.794805E+02  6.158934E+05 -1.089086E+04  8.387162E+01
      8498   1  1.106952E+07  2.872354E+02  1.149861E+03  6.110967E+05 -3.491448E-03  2.918185E-03
      8499   1  1.106936E+07  1.660332E+02  7.794806E+02  6.158934E+05  1.089086E+04 -8.386611E+01
      8500   1  1.106946E+07  2.614392E+02  9.896384E+02  6.307048E+05  1.907129E+04 -1.034100E+02
      8501   1  1.106940E+07  8.650354E+02  2.097010E+02  6.575685E+05  2.136784E+04 -3.856165E+02
      8502   1  1.106869E+07 -3.561064E+02 -7.174696E+02  7.010097E+05  1.675539E+04  9.729928E+02
      8503   1  1.106922E+07 -1.080003E+03  1.613910E+03  7.642280E+05  6.642083E+03 -9.725299E+01
      8504   1  7.378804E+06 -7.808234E+02 -9.148878E+02  9.329138E+05 -3.075389E+03 -3.872623E+02
      8505   1  7.379520E+06 -4.147748E+01  5.155798E+02  8.659395E+05 -8.493736E+03  3.111868E+01
      8506   1  7.379362E+06  1.401069E+01 -1.759185E+01  8.176718E+05 -1.088441E+04 -7.381518E+02
      8507   1  7.379579E+06  5.090840E+02  1.455920E+02  7.853650E+05 -9.832541E+03  1.143014E+02
      8508   1  7.379636E+06  1.760036E+02  6.494382E+02  7.671564E+05 -5.811807E+03 -1.118827E+02
      8509   1  7.379573E+06  2.465014E+02  3.893724E+02  7.612533E+05 -2.532503E-03  3.713096E-03
      8510   1  7.379636E+06  1.760038E+02  6.494384E+02  7.671564E+05  5.811802E+03  1.118897E+02
      8511   1  7.379579E+06  5.090846E+02  1.455923E+02  7.853650E+05  9.832537E+03 -1.142952E+02
      8512   1  7.379362E+06  1.401195E+01 -1.759126E+01  8.176718E+05  1.088441E+04  7.381564E+02
      8513   1  7.379520E+06 -4.147548E+01  5.155807E+02  8.659395E+05  8.493734E+03 -3.111565E+01
      8514   1  7.378804E+06 -7.808216E+02 -9.148868E+02  9.329138E+05  3.075388E+03  3.872633E+02
      8515   1  3.689698E+06 -3.542825E+02  4.054244E+02  1.032769E+06 -1.354277E+03 -5.118759E+01
      8516   1  3.689543E+06 -1.594757E+02 -2.605125E+02  9.644275E+05 -3.495944E+03 -7.491069E+02
      8517   1  3.689774E+06  1.682127E+02  1.114690E+02  9.135277E+05 -4.584902E+03 -5.212609E+01
      8518   1  3.689750E+06  6.470213E+01  1.414162E+02  8.788894E+05 -4.176446E+03 -5.821890E+02
      8519   1  3.689788E+06  2.361233E+02  8.701743E+01  8.587673E+05 -2.459776E+03  1.003075E+01
      8520   1  3.689818E+06  8.942131E+01  3.223275E+02  8.522425E+05 -1.331088E-03  4.196188E-03
      8521   1  3.689788E+06  2.361234E+02  8.701749E+01  8.587673E+05  2.459774E+03 -1.002274E+01
      8522   1  3.689750E+06  6.470197E+01  1.414162E+02  8.788894E+05  4.176444E+03  5.821961E+02
      8523   1  3.689774E+06  1.682119E+02  1.114687E+02  9.135277E+05  4.584900E+03  5.213156E+01
      8524   1  3.689543E+06 -1.594776E+02 -2.605132E+02  9.644275E+05  3.495943E+03  7.491105E+02
      8525   1  3.689698E+06 -3.542855E+02  4.054234E+02  1.032769E+06  1.354277E+03  5.118876E+01
      8526   1  3.990818E-03  5.020780E-04  6.083454E-04  1.065912E+06  1.021165E-06 -3.009762E+02
      8527   1  4.486721E-03  2.203551E-03  2.757824E-04  9.970621E+05 -1.958010E-05 -1.266977E+02
      8528   1  5.118386E-03  5.274928E-03  2.539781E-03  9.455725E+05 -1.744074E-05 -8.010035E+02
      8529   1  5.391429E-03  6.858452E-03  2.131532E-03  9.100684E+05 -3.017644E-06 -4.913229E+01
      8530   1  5.752739E-03  8.403192E-03  3.731205E-03  8.894857E+05  2.612339E-06 -3.327753E+02
      8531   1  5.669851E-03  8.305489E-03  2.690826E-03  8.826903E+05 -1.383389E-06  4.376865E-03
      8532   1  5.753040E-03  8.448349E-03  3.744107E-03  8.894857E+05 -3.382894E-06  3.327837E+02
      8533   1  5.430209E-03  7.120435E-03  2.236066E-03  9.100684E+05 -2.593414E-06  4.913971E+01
      8534   1  5.267385E-03  6.126387E-03  2.867636E-03  9.455725E+05  5.519846E-06  8.010093E+02
      8535   1  4.825751E-03  3.955290E-03  9.751105E-04  9.970621E+05  1.408130E-05  1.267015E+02
      8536   1  4.487992E-03  2.967536E-03  1.587261E-03  1.065912E+06  1.292911E-05  3.009775E+02
      8537   1 -3.689698E+06  3.542835E+02 -4.054216E+02  1.032769E+06  1.354277E+03 -5.118761E+01
      8538   1 -3.689543E+06  1.594704E+02  2.605080E+02  9.644275E+05  3.495944E+03 -7.491069E+02
      8539   1 -3.689774E+06 -1.682214E+02 -1.114702E+02  9.135277E+05  4.584902E+03 -5.212608E+01
      8540   1 -3.689750E+06 -6.471697E+01 -1.414246E+02  8.788894E+05  4.176446E+03 -5.821890E+02
      8541   1 -3.689788E+06 -2.361384E+02 -8.702129E+01  8.587673E+05  2.459776E+03  1.003075E+01
      8542   1 -3.689818E+06 -8.943909E+01 -3.223371E+02  8.522425E+05  1.321871E-03  4.199476E-03
      8543   1 -3.689788E+06 -2.361385E+02 -8.702136E+01  8.587673E+05 -2.459774E+03 -1.002274E+01
      8544   1 -3.689750E+06 -6.471731E+01 -1.414248E+02  8.788894E+05 -4.176444E+03  5.821961E+02
      8545   1 -3.689774E+06 -1.682223E+02 -1.114706E+02  9.135277E+05 -4.584900E+03  5.213155E+01
      8546   1 -3.689543E+06  1.594688E+02  2.605072E+02  9.644275E+05 -3.495943E+03  7.491105E+02
      8547   1 -3.689698E+06  3.542816E+02 -4.054226E+02  1.032769E+06 -1.354277E+03  5.118877E+01
      8548   1 -7.378804E+06  7.808265E+02  9.148955E+02  9.329138E+05  3.075389E+03 -3.872622E+02
      8549   1 -7.379520E+06  4.147958E+01 -5.155855E+02  8.659395E+05  8.493736E+03  3.111867E+01
      8550   1 -7.379362E+06 -1.399780E+01  1.760305E+01  8.176718E+05  1.088441E+04 -7.381518E+02
      8551   1 -7.379579E+06 -5.090727E+02 -1.455940E+02  7.853650E+05  9.832541E+03  1.143014E+02
      8552   1 -7.379636E+06 -1.759844E+02 -6.494247E+02  7.671564E+05  5.811807E+03 -1.118827E+02
      8553   1 -7.379573E+06 -2.464872E+02 -3.893733E+02  7.612533E+05  2.500565E-03  3.713478E-03
      8554   1 -7.379636E+06 -1.759845E+02 -6.494248E+02  7.671564E+05 -5.811802E+03  1.118897E+02
      8555   1 -7.379579E+06 -5.090728E+02 -1.455942E+02  7.853650E+05 -9.832537E+03 -1.142952E+02
      8556   1 -7.379362E+06 -1.399735E+01  1.760318E+01  8.176718E+05 -1.088441E+04  7.381565E+02
      8557   1 -7.379520E+06  4.148104E+01 -5.155851E+02  8.659395E+05 -8.493734E+03 -3.111565E+01
      8558   1 -7.378804E+06  7.808296E+02  9.148965E+02  9.329138E+05 -3.075388E+03  3.872633E+02
      8559   1 -1.106922E+07  1.080005E+03 -1.613897E+03  7.642280E+05  6.642084E+03  9.725355E+01
      8560   1 -1.106869E+07  3.560946E+02  7.174528E+02  7.010097E+05  1.675539E+04 -9.729907E+02
      8561   1 -1.106940E+07 -8.650409E+02 -2.096909E+02  6.575685E+05  2.136784E+04  3.856199E+02
      8562   1 -1.106946E+07 -2.614589E+02 -9.896579E+02  6.307048E+05  1.907130E+04  1.034147E+02
      8563   1 -1.106936E+07 -1.660440E+02 -7.794728E+02  6.158934E+05  1.089086E+04  8.387163E+01
      8564   1 -1.106952E+07 -2.872580E+02 -1.149882E+03  6.110967E+05  3.433110E-03  2.914250E-03
      8565   1 -1.106936E+07 -1.660441E+02 -7.794728E+02  6.158934E+05 -1.089086E+04 -8.386612E+01
      8566   1 -1.106946E+07 -2.614593E+02 -9.896584E+02  6.307048E+05 -1.907129E+04 -1.034100E+02
      8567   1 -1.106940E+07 -8.650417E+02 -2.096911E+02  6.575685E+05 -2.136784E+04 -3.856165E+02
      8568   1 -1.106869E+07  3.560930E+02  7.174518E+02  7.010097E+05 -1.675539E+04  9.729928E+02
      8569   1 -1.106922E+07  1.080003E+03 -1.613897E+03  7.642280E+05 -6.642083E+03 -9.725299E+01
      8570   1 -1.475714E+07  1.884732E+03  2.910297E+03  5.227687E+05  1.217252E+04 -9.127596E+02
      8571   1 -1.475935E+07 -1.152336E+03 -7.451676E+02  4.661104E+05  3.333749E+04  8.895687E+02
      8572   1 -1.475943E+07 -4.764949E+02 -1.658618E+03  4.350906E+05  4.075529E+04  6.359207E+02
      8573   1 -1.475915E+07  6.971387E+01 -1.356212E+03  4.171033E+05  3.372437E+04  1.868470E+02
      8574   1 -1.475941E+07 -4.326541E+02 -1.625574E+03  4.071877E+05  1.884676E+04  1.558957E+02
      8575   1 -1.475912E+07  2.140659E+02 -1.402184E+03  4.041610E+05  4.051733E-03  1.918547E-03
      8576   1 -1.475941E+07 -4.326542E+02 -1.625574E+03  4.071877E+05 -1.884675E+04 -1.558922E+02
      8577   1 -1.475915E+07  6.971378E+01 -1.356212E+03  4.171033E+05 -3.372437E+04 -1.868440E+02
      8578   1 -1.475943E+07 -4.764944E+02 -1.658617E+03  4.350906E+05 -4.075529E+04 -6.359186E+02
      8579   1 -1.475935E+07 -1.152335E+03 -7.451674E+02  4.661104E+05 -3.333749E+04 -8.895676E+02
      8580   1 -1.475714E+07  1.884734E+03  2.910298E+03  5.227687E+05 -1.217252E+04  9.127599E+02
      8581   1 -1.844984E+07  1.297951E+03 -5.647502E+03  1.920011E+05  3.281552E+04  1.404449E+03
      8582   1 -1.845018E+07 -1.666845E+03 -3.699416E+03  1.649970E+05  7.094649E+04  8.647629E+02
      8583   1 -1.844896E+07  8.634703E+02 -2.546630E+03  1.546711E+05  7.223701E+04  1.692499E+02
      8584   1 -1.844940E+07 -7.625986E+02 -2.252399E+03  1.478529E+05  5.632981E+04  2.022042E+02
      8585   1 -1.844888E+07  5.524532E+02 -1.970982E+03  1.445899E+05  3.040077E+04  2.848739E+01
      8586   1 -1.844925E+07 -5.690414E+02 -1.985502E+03  1.433907E+05  4.230222E-03  6.916852E-04
      8587   1 -1.844888E+07  5.524532E+02 -1.970981E+03  1.445899E+05 -3.040077E+04 -2.848619E+01
      8588   1 -1.844940E+07 -7.625988E+02 -2.252398E+03  1.478530E+05 -5.632980E+04 -2.022031E+02
      8589   1 -1.844896E+07  8.634699E+02 -2.546629E+03  1.546711E+05 -7.223701E+04 -1.692493E+02
      8590   1 -1.845018E+07 -1.666847E+03 -3.699416E+03  1.649970E+05 -7.094648E+04 -8.647626E+02
      8591   1 -1.844984E+07  1.297949E+03 -5.647503E+03  1.920011E+05 -3.281552E+04 -1.404449E+03
      8592   1  1.813174E+07 -1.275787E+03  5.549563E+03  1.920011E+05 -3.281552E+04  1.380227E+03
      8593   1  1.813207E+07  1.638309E+03  3.636181E+03  1.649970E+05 -7.094650E+04  8.498577E+02
      8594   1  1.813088E+07 -8.487877E+02  2.502184E+03  1.546711E+05 -7.223701E+04  1.663292E+02
      8595   1  1.813131E+07  7.496608E+02  2.214099E+03  1.478530E+05 -5.632982E+04  1.987198E+02
      8596   1  1.813079E+07 -5.431374E+02  1.936467E+03  1.445899E+05 -3.040077E+04  2.799576E+01
      8597   1  1.813116E+07  5.594443E+02  1.951801E+03  1.433907E+05 -5.501263E-03  8.961373E-04
      8598   1  1.813079E+07 -5.431373E+02  1.936467E+03  1.445899E+05  3.040076E+04 -2.799391E+01
      8599   1  1.813131E+07  7.496615E+02  2.214098E+03  1.478530E+05  5.632981E+04 -1.987184E+02
      8600   1  1.813088E+07 -8.487861E+02  2.502183E+03  1.546711E+05  7.223700E+04 -1.663281E+02
      8601   1  1.813207E+07  1.638312E+03  3.636181E+03  1.649970E+05  7.094649E+04 -8.498573E+02
      8602   1  1.813174E+07 -1.275784E+03  5.549564E+03  1.920011E+05  3.281551E+04 -1.380227E+03
      8603   1  1.450271E+07 -1.852390E+03 -2.860614E+03  5.227687E+05 -1.217251E+04 -8.970205E+02
      8604   1  1.450488E+07  1.132646E+03  7.328089E+02  4.661104E+05 -3.333750E+04  8.742314E+02
      8605   1  1.450496E+07  4.680961E+02  1.629538E+03  4.350906E+05 -4.075529E+04  6.249568E+02
      8606   1  1.450468E+07 -6.832601E+01  1.333308E+03  4.171033E+05 -3.372438E+04  1.836262E+02
      8607   1  1.450493E+07  4.250043E+02  1.597068E+03  4.071877E+05 -1.884676E+04  1.532086E+02
      8608   1  1.450465E+07 -2.101870E+02  1.378485E+03  4.041610E+05 -5.454924E-03  2.625581E-03
      8609   1  1.450493E+07  4.250044E+02  1.597068E+03  4.071877E+05  1.884674E+04 -1.532035E+02
      8610   1  1.450468E+07 -6.832639E+01  1.333307E+03  4.171033E+05  3.372437E+04 -1.836221E+02
      8611   1  1.450496E+07  4.680948E+02  1.629537E+03  4.350906E+05  4.075528E+04 -6.249539E+02
      8612   1  1.450488E+07  1.132643E+03  7.328078E+02  4.661104E+05  3.333750E+04 -8.742301E+02
      8613   1  1.450271E+07 -1.852394E+03 -2.860615E+03  5.227687E+05  1.217251E+04  8.970209E+02
      8614   1  1.087837E+07 -1.061534E+03  1.585663E+03  7.642280E+05 -6.642082E+03  9.557611E+01
      8615   1  1.087785E+07 -3.498135E+02 -7.046898E+02  7.010097E+05 -1.675540E+04 -9.562150E+02
      8616   1  1.087855E+07  8.499806E+02  2.056880E+02  6.575685E+05 -2.136784E+04  3.789724E+02
      8617   1  1.087861E+07  2.571008E+02  9.729793E+02  6.307048E+05 -1.907130E+04  1.016324E+02
      8618   1  1.087851E+07  1.630315E+02  7.656510E+02  6.158934E+05 -1.089086E+04  8.242687E+01
      8619   1  1.087867E+07  2.824581E+02  1.130439E+03  6.110967E+05 -4.719614E-03  4.030620E-03
      8620   1  1.087851E+07  1.630318E+02  7.656513E+02  6.158934E+05  1.089085E+04 -8.241907E+01
      8621   1  1.087861E+07  2.571016E+02  9.729797E+02  6.307048E+05  1.907129E+04 -1.016259E+02
      8622   1  1.087855E+07  8.499823E+02  2.056890E+02  6.575685E+05  2.136783E+04 -3.789675E+02
      8623   1  1.087785E+07 -3.498109E+02 -7.046887E+02  7.010097E+05  1.675539E+04  9.562179E+02
      8624   1  1.087837E+07 -1.061532E+03  1.585665E+03  7.642280E+05  6.642081E+03 -9.557508E+01
      8625   1  7.251583E+06 -7.674504E+02 -8.993969E+02  9.329138E+05 -3.075387E+03 -3.805844E+02
      8626   1  7.252287E+06 -4.066438E+01  5.069684E+02  8.659395E+05 -8.493741E+03  3.058300E+01
      8627   1  7.252132E+06  1.365417E+01 -1.756858E+01  8.176718E+05 -1.088441E+04 -7.254241E+02
      8628   1  7.252345E+06  5.003985E+02  1.433497E+02  7.853650E+05 -9.832545E+03  1.123319E+02
      8629   1  7.252400E+06  1.728441E+02  6.379615E+02  7.671564E+05 -5.811806E+03 -1.099522E+02
      8630   1  7.252339E+06  2.423413E+02  3.829243E+02  7.612532E+05 -3.437177E-03  5.127611E-03
      8631   1  7.252400E+06  1.728442E+02  6.379617E+02  7.671564E+05  5.811800E+03  1.099621E+02
      8632   1  7.252345E+06  5.003984E+02  1.433498E+02  7.853650E+05  9.832539E+03 -1.123233E+02
      8633   1  7.252132E+06  1.365328E+01 -1.756868E+01  8.176718E+05  1.088440E+04  7.254307E+02
      8634   1  7.252287E+06 -4.066675E+01  5.069676E+02  8.659395E+05  8.493738E+03 -3.057891E+01
      8635   1  7.251583E+06 -7.674547E+02 -8.993980E+02  9.329138E+05  3.075386E+03  3.805859E+02
      8636   1  3.626083E+06 -3.482273E+02  3.982877E+02  1.032769E+06 -1.354277E+03 -5.030516E+01
      8637   1  3.625930E+06 -1.566705E+02 -2.558776E+02  9.644275E+05 -3.495946E+03 -7.361910E+02
      8638   1  3.626157E+06  1.652706E+02  1.094117E+02  9.135277E+05 -4.584900E+03 -5.122596E+01
      8639   1  3.626133E+06  6.365542E+01  1.391223E+02  8.788894E+05 -4.176448E+03 -5.721500E+02
      8640   1  3.626171E+06  2.320156E+02  8.538609E+01  8.587673E+05 -2.459776E+03  9.859537E+00
      8641   1  3.626200E+06  8.795259E+01  3.169151E+02  8.522425E+05 -1.806613E-03  5.788979E-03
      8642   1  3.626171E+06  2.320158E+02  8.538621E+01  8.587673E+05  2.459772E+03 -9.848276E+00
      8643   1  3.626133E+06  6.365596E+01  1.391226E+02  8.788894E+05  4.176445E+03  5.721597E+02
      8644   1  3.626157E+06  1.652720E+02  1.094123E+02  9.135277E+05  4.584898E+03  5.123375E+01
      8645   1  3.625930E+06 -1.566682E+02 -2.558766E+02  9.644275E+05  3.495945E+03  7.361960E+02
      8646   1  3.626083E+06 -3.482248E+02  3.982890E+02  1.032769E+06  1.354276E+03  5.030703E+01
      8647   1  4.178068E-03 -1.158579E-04 -6.948878E-04  1.065912E+06  7.699797E-06 -2.957861E+02
      8648   1  3.436306E-03 -2.325818E-03 -4.327254E-04  9.970621E+05  5.619341E-05 -1.245122E+02
      8649   1  2.624113E-03 -6.140612E-03 -3.163148E-03  9.455725E+05  7.298332E-05 -7.871918E+02
      8650   1  2.265957E-03 -8.174105E-03 -2.827855E-03  9.100684E+05  6.243927E-05 -4.828380E+01
      8651   1  1.857891E-03 -1.003540E-02 -4.743903E-03  8.894857E+05  3.205008E-05 -3.270360E+02
      8652   1  1.959413E-03 -9.932773E-03 -3.560057E-03  8.826903E+05  6.893957E-07  6.041542E-03
      8653   1  1.860973E-03 -1.005447E-02 -4.747370E-03  8.894857E+05 -3.492456E-05  3.270477E+02
      8654   1  2.215009E-03 -8.450544E-03 -2.937532E-03  9.100684E+05 -5.708135E-05  4.829403E+01
      8655   1  2.430460E-03 -7.138269E-03 -3.546424E-03  9.455725E+05 -6.356044E-05  7.872000E+02
      8656   1  2.981925E-03 -4.469545E-03 -1.297863E-03  9.970621E+05 -4.755100E-05  1.245174E+02
      8657   1  3.508152E-03 -3.176103E-03 -1.911043E-03  1.065912E+06 -2.492136E-05  2.957880E+02
      8658   1 -3.626083E+06  3.482269E+02 -3.982911E+02  1.032769E+06  1.354277E+03 -5.030516E+01
      8659   1 -3.625930E+06  1.566776E+02  2.558830E+02  9.644275E+05  3.495946E+03 -7.361910E+02
      8660   1 -3.626157E+06 -1.652593E+02 -1.094102E+02  9.135277E+05  4.584900E+03 -5.122597E+01
      8661   1 -3.626133E+06 -6.363675E+01 -1.391125E+02  8.788894E+05  4.176449E+03 -5.721500E+02
      8662   1 -3.626171E+06 -2.319967E+02 -8.538168E+01  8.587673E+05  2.459776E+03  9.859531E+00
      8663   1 -3.626200E+06 -8.793041E+01 -3.169040E+02  8.522425E+05  1.817900E-03  5.793276E-03
      8664   1 -3.626171E+06 -2.319968E+02 -8.538180E+01  8.587673E+05 -2.459772E+03 -9.848273E+00
      8665   1 -3.626133E+06 -6.363671E+01 -1.391126E+02  8.788894E+05 -4.176445E+03  5.721597E+02
      8666   1 -3.626157E+06 -1.652586E+02 -1.094101E+02  9.135277E+05 -4.584898E+03  5.123376E+01
      8667   1 -3.625930E+06  1.566797E+02  2.558838E+02  9.644275E+05 -3.495945E+03  7.361960E+02
      8668   1 -3.626083E+06  3.482305E+02 -3.982900E+02  1.032769E+06 -1.354276E+03  5.030703E+01
      8669   1 -7.251583E+06  7.674475E+02  8.993877E+02  9.329138E+05  3.075387E+03 -3.805845E+02
      8670   1 -7.252287E+06  4.066233E+01 -5.069616E+02  8.659395E+05  8.493741E+03  3.058299E+01
      8671   1 -7.252132E+06 -1.366948E+01  1.755475E+01  8.176718E+05  1.088441E+04 -7.254240E+02
      8672   1 -7.252345E+06 -5.004121E+02 -1.433477E+02  7.853650E+05  9.832546E+03  1.123319E+02
      8673   1 -7.252400E+06 -1.728673E+02 -6.379784E+02  7.671564E+05  5.811806E+03 -1.099522E+02
      8674   1 -7.252339E+06 -2.423584E+02 -3.829238E+02  7.612533E+05  3.475824E-03  5.123961E-03
      8675   1 -7.252400E+06 -1.728675E+02 -6.379787E+02  7.671564E+05 -5.811800E+03  1.099621E+02
      8676   1 -7.252345E+06 -5.004125E+02 -1.433480E+02  7.853650E+05 -9.832540E+03 -1.123233E+02
      8677   1 -7.252132E+06 -1.367066E+01  1.755397E+01  8.176718E+05 -1.088440E+04  7.254307E+02
      8678   1 -7.252287E+06  4.066042E+01 -5.069624E+02  8.659395E+05 -8.493738E+03 -3.057891E+01
      8679   1 -7.251583E+06  7.674455E+02  8.993863E+02  9.329138E+05 -3.075386E+03  3.805859E+02
      8680   1 -1.087837E+07  1.061528E+03 -1.585681E+03  7.642280E+05  6.642082E+03  9.557617E+01
      8681   1 -1.087785E+07  3.498258E+02  7.047096E+02  7.010097E+05  1.675540E+04 -9.562150E+02
      8682   1 -1.087855E+07 -8.499747E+02 -2.057010E+02  6.575685E+05  2.136784E+04  3.789724E+02
      8683   1 -1.087861E+07 -2.570766E+02 -9.729556E+02  6.307048E+05  1.907130E+04  1.016324E+02
      8684   1 -1.087851E+07 -1.630180E+02 -7.656610E+02  6.158934E+05  1.089086E+04  8.242686E+01
      8685   1 -1.087867E+07 -2.824302E+02 -1.130414E+03  6.110967E+05  4.791551E-03  4.025943E-03
      8686   1 -1.087851E+07 -1.630183E+02 -7.656613E+02  6.158934E+05 -1.089085E+04 -8.241906E+01
      8687   1 -1.087861E+07 -2.570767E+02 -9.729557E+02  6.307048E+05 -1.907129E+04 -1.016259E+02
      8688   1 -1.087855E+07 -8.499745E+02 -2.057013E+02  6.575685E+05 -2.136783E+04 -3.789675E+02
      8689   1 -1.087785E+07  3.498276E+02  7.047104E+02  7.010097E+05 -1.675539E+04  9.562179E+02
      8690   1 -1.087837E+07  1.061532E+03 -1.585681E+03  7.642280E+05 -6.642081E+03 -9.557511E+01
      8691   1 -1.450271E+07  1.852380E+03  2.860587E+03  5.227687E+05  1.217251E+04 -8.970206E+02
      8692   1 -1.450488E+07 -1.132642E+03 -7.327847E+02  4.661104E+05  3.333750E+04  8.742314E+02
      8693   1 -1.450496E+07 -4.681184E+02 -1.629568E+03  4.350906E+05  4.075529E+04  6.249569E+02
      8694   1 -1.450468E+07  6.831858E+01 -1.333288E+03  4.171033E+05  3.372438E+04  1.836262E+02
      8695   1 -1.450493E+07 -4.250350E+02 -1.597102E+03  4.071877E+05  1.884676E+04  1.532086E+02
      8696   1 -1.450465E+07  2.101762E+02 -1.378467E+03  4.041610E+05  5.531051E-03  2.618013E-03
      8697   1 -1.450493E+07 -4.250351E+02 -1.597102E+03  4.071877E+05 -1.884674E+04 -1.532035E+02
      8698   1 -1.450468E+07  6.831840E+01 -1.333288E+03  4.171033E+05 -3.372437E+04 -1.836221E+02
      8699   1 -1.450496E+07 -4.681193E+02 -1.629569E+03  4.350906E+05 -4.075528E+04 -6.249539E+02
      8700   1 -1.450488E+07 -1.132644E+03 -7.327849E+02  4.661104E+05 -3.333750E+04 -8.742301E+02
      8701   1 -1.450271E+07  1.852378E+03  2.860585E+03  5.227687E+05 -1.217251E+04  8.970210E+02
      8702   1 -1.813174E+07  1.275776E+03 -5.549596E+03  1.920011E+05  3.281552E+04  1.380228E+03
      8703   1 -1.813207E+07 -1.638291E+03 -3.636147E+03  1.649970E+05  7.094650E+04  8.498574E+02
      8704   1 -1.813088E+07  8.487884E+02 -2.502211E+03  1.546711E+05  7.223701E+04  1.663294E+02
      8705   1 -1.813131E+07 -7.496305E+02 -2.214062E+03  1.478530E+05  5.632982E+04  1.987197E+02
      8706   1 -1.813079E+07  5.431459E+02 -1.936492E+03  1.445899E+05  3.040077E+04  2.799581E+01
      8707   1 -1.813116E+07 -5.594101E+02 -1.951763E+03  1.433907E+05  5.552408E-03  8.980760E-04
      8708   1 -1.813079E+07  5.431458E+02 -1.936491E+03  1.445899E+05 -3.040076E+04 -2.799396E+01
      8709   1 -1.813131E+07 -7.496305E+02 -2.214061E+03  1.478530E+05 -5.632981E+04 -1.987183E+02
      8710   1 -1.813088E+07  8.487889E+02 -2.502210E+03  1.546711E+05 -7.223700E+04 -1.663283E+02
      8711   1 -1.813207E+07 -1.638289E+03 -3.636145E+03  1.649970E+05 -7.094649E+04 -8.498570E+02
      8712   1 -1.813174E+07  1.275779E+03 -5.549595E+03  1.920011E+05 -3.281551E+04 -1.380227E+03
      8713   1  1.781364E+07 -1.253222E+03  5.452688E+03  1.920011E+05 -3.281552E+04  1.356019E+03
      8714   1  1.781397E+07  1.609388E+03  3.571918E+03  1.649970E+05 -7.094649E+04  8.349442E+02
      8715   1  1.781279E+07 -8.337343E+02  2.458742E+03  1.546711E+05 -7.223701E+04  1.634136E+02
      8716   1  1.781322E+07  7.363111E+02  2.174792E+03  1.478530E+05 -5.632981E+04  1.952324E+02
      8717   1  1.781271E+07 -5.334512E+02  1.902941E+03  1.445899E+05 -3.040078E+04  2.750555E+01
      8718   1  1.781307E+07  5.494247E+02  1.917097E+03  1.433907E+05 -7.456574E-03  1.352318E-03
      8719   1  1.781271E+07 -5.334513E+02  1.902940E+03  1.445899E+05  3.040076E+04 -2.750320E+01
      8720   1  1.781322E+07  7.363105E+02  2.174791E+03  1.478530E+05  5.632980E+04 -1.952303E+02
      8721   1  1.781279E+07 -8.337363E+02  2.458740E+03  1.546711E+05  7.223700E+04 -1.634124E+02
      8722   1  1.781397E+07  1.609385E+03  3.571916E+03  1.649970E+05  7.094648E+04 -8.349436E+02
      8723   1  1.781364E+07 -1.253227E+03  5.452686E+03  1.920011E+05  3.281552E+04 -1.356019E+03
      8724   1  1.424828E+07 -1.819760E+03 -2.810006E+03  5.227687E+05 -1.217252E+04 -8.812848E+02
      8725   1  1.425041E+07  1.112629E+03  7.195380E+02  4.661104E+05 -3.333749E+04  8.588945E+02
      8726   1  1.425049E+07  4.600523E+02  1.601365E+03  4.350906E+05 -4.075529E+04  6.139934E+02
      8727   1  1.425021E+07 -6.726796E+01  1.309515E+03  4.171033E+05 -3.372438E+04  1.804055E+02
      8728   1  1.425046E+07  4.177308E+02  1.569464E+03  4.071877E+05 -1.884676E+04  1.505217E+02
      8729   1  1.425018E+07 -2.066382E+02  1.353903E+03  4.041610E+05 -7.318598E-03  3.726636E-03
      8730   1  1.425046E+07  4.177310E+02  1.569464E+03  4.071877E+05  1.884675E+04 -1.505149E+02
      8731   1  1.425021E+07 -6.726704E+01  1.309515E+03  4.171033E+05  3.372437E+04 -1.803996E+02
      8732   1  1.425049E+07  4.600544E+02  1.601366E+03  4.350906E+05  4.075528E+04 -6.139894E+02
      8733   1  1.425041E+07  1.112632E+03  7.195394E+02  4.661104E+05  3.333749E+04 -8.588923E+02
      8734   1  1.424828E+07 -1.819757E+03 -2.810005E+03  5.227687E+05  1.217252E+04  8.812853E+02
      8735   1  1.068752E+07 -1.042784E+03  1.558190E+03  7.642280E+05 -6.642084E+03  9.390012E+01
      8736   1  1.068701E+07 -3.438016E+02 -6.926619E+02  7.010097E+05 -1.675539E+04 -9.394383E+02
      8737   1  1.068770E+07  8.351800E+02  2.024026E+02  6.575685E+05 -2.136784E+04  3.723244E+02
      8738   1  1.068775E+07  2.524461E+02  9.555770E+02  6.307048E+05 -1.907130E+04  9.985096E+01
      8739   1  1.068765E+07  1.602778E+02  7.525343E+02  6.158934E+05 -1.089086E+04  8.098218E+01
      8740   1  1.068781E+07  2.773523E+02  1.110274E+03  6.110967E+05 -6.275752E-03  5.639610E-03
      8741   1  1.068765E+07  1.602778E+02  7.525345E+02  6.158934E+05  1.089085E+04 -8.097153E+01
      8742   1  1.068775E+07  2.524459E+02  9.555774E+02  6.307048E+05  1.907129E+04 -9.984174E+01
      8743   1  1.068770E+07  8.351787E+02  2.024024E+02  6.575685E+05  2.136783E+04 -3.723177E+02
      8744   1  1.068701E+07 -3.438045E+02 -6.926625E+02  7.010097E+05  1.675539E+04  9.394424E+02
      8745   1  1.068752E+07 -1.042789E+03  1.558188E+03  7.642280E+05  6.642082E+03 -9.389894E+01
      8746   1  7.124362E+06 -7.539127E+02 -8.833867E+02  9.329138E+05 -3.075389E+03 -3.739078E+02
      8747   1  7.125054E+06 -4.002917E+01  4.978476E+02  8.659395E+05 -8.493738E+03  3.004722E+01
      8748   1  7.124901E+06  1.351283E+01 -1.702992E+01  8.176718E+05 -1.088441E+04 -7.126960E+02
      8749   1  7.125111E+06  4.915507E+02  1.406180E+02  7.853650E+05 -9.832544E+03  1.103629E+02
      8750   1  7.125165E+06  1.699212E+02  6.270003E+02  7.671564E+05 -5.811809E+03 -1.080213E+02
      8751   1  7.125105E+06  2.380238E+02  3.759923E+02  7.612533E+05 -4.580268E-03  7.139212E-03
      8752   1  7.125165E+06  1.699215E+02  6.270006E+02  7.671564E+05  5.811800E+03  1.080348E+02
      8753   1  7.125111E+06  4.915517E+02  1.406186E+02  7.853650E+05  9.832536E+03 -1.103510E+02
      8754   1  7.124901E+06  1.351481E+01 -1.702897E+01  8.176718E+05  1.088441E+04  7.127051E+02
      8755   1  7.125054E+06 -4.002615E+01  4.978490E+02  8.659395E+05  8.493734E+03 -3.004127E+01
      8756   1  7.124362E+06 -7.539102E+02 -8.833851E+02  9.329138E+05  3.075387E+03  3.739098E+02
      8757   1  3.562468E+06 -3.420742E+02  3.914203E+02  1.032769E+06 -1.354277E+03 -4.942204E+01
      8758   1  3.562317E+06 -1.539691E+02 -2.515066E+02  9.644275E+05 -3.495945E+03 -7.232740E+02
      8759   1  3.562540E+06  1.624012E+02  1.076012E+02  9.135277E+05 -4.584902E+03 -5.032596E+01
      8760   1  3.562517E+06  6.247622E+01  1.365609E+02  8.788894E+05 -4.176448E+03 -5.621101E+02
      8761   1  3.562554E+06  2.279680E+02  8.399231E+01  8.587673E+05 -2.459777E+03  9.688671E+00
      8762   1  3.562582E+06  8.634244E+01  3.112335E+02  8.522425E+05 -2.413417E-03  8.062717E-03
      8763   1  3.562554E+06  2.279681E+02  8.399242E+01  8.587673E+05  2.459773E+03 -9.673322E+00
      8764   1  3.562517E+06  6.247607E+01  1.365610E+02  8.788894E+05  4.176443E+03  5.621238E+02
      8765   1  3.562540E+06  1.624001E+02  1.076008E+02  9.135277E+05  4.584899E+03  5.033655E+01
      8766   1  3.562317E+06 -1.539719E+02 -2.515076E+02  9.644275E+05  3.495943E+03  7.232809E+02
      8767   1  3.562468E+06 -3.420789E+02  3.914187E+02  1.032769E+06  1.354277E+03  4.942434E+01
      8768   1  3.580533E-03  7.899224E-04  7.531175E-04  1.065912E+06  2.551883E-05 -2.905969E+02
      8769   1  4.398986E-03  3.473078E-03  4.940531E-04  9.970621E+05  3.207720E-05 -1.223268E+02
      8770   1  5.394607E-03  8.032597E-03  3.663997E-03  9.455725E+05  5.498178E-05 -7.733799E+02
      8771   1  5.894727E-03  1.048377E-02  3.239609E-03  9.100684E+05  6.717900E-05 -4.743452E+01
      8772   1  6.432127E-03  1.268558E-02  5.394379E-03  8.894857E+05  4.641849E-05 -3.212964E+02
      8773   1  6.357377E-03  1.260493E-02  4.031035E-03  8.826903E+05 -2.492773E-06  8.393794E-03
      8774   1  6.428003E-03  1.273070E-02  5.407163E-03  8.894857E+05 -4.693501E-05  3.213123E+02
      8775   1  5.939555E-03  1.082919E-02  3.374567E-03  9.100684E+05 -7.461377E-05  4.744879E+01
      8776   1  5.603322E-03  9.245523E-03  4.126694E-03  9.455725E+05 -6.702335E-05  7.733911E+02
      8777   1  4.914637E-03  6.086043E-03  1.545290E-03  9.970621E+05 -4.212897E-05  1.223343E+02
      8778   1  4.345770E-03  4.531699E-03  2.239171E-03  1.065912E+06 -2.274150E-06  2.905995E+02
      8779   1 -3.562467E+06  3.420761E+02 -3.914162E+02  1.032769E+06  1.354277E+03 -4.942207E+01
      8780   1 -3.562317E+06  1.539616E+02  2.515000E+02  9.644275E+05  3.495945E+03 -7.232740E+02
      8781   1 -3.562540E+06 -1.624142E+02 -1.076034E+02  9.135277E+05  4.584903E+03 -5.032596E+01
      8782   1 -3.562517E+06 -6.249819E+01 -1.365733E+02  8.788894E+05  4.176448E+03 -5.621101E+02
      8783   1 -3.562554E+06 -2.279905E+02 -8.399854E+01  8.587673E+05  2.459777E+03  9.688678E+00
      8784   1 -3.562582E+06 -8.636876E+01 -3.112478E+02  8.522425E+05  2.398323E-03  8.061061E-03
      8785   1 -3.562554E+06 -2.279907E+02 -8.399868E+01  8.587673E+05 -2.459773E+03 -9.673321E+00
      8786   1 -3.562517E+06 -6.249873E+01 -1.365737E+02  8.788894E+05 -4.176444E+03  5.621238E+02
      8787   1 -3.562540E+06 -1.624155E+02 -1.076040E+02  9.135277E+05 -4.584899E+03  5.033654E+01
      8788   1 -3.562317E+06  1.539591E+02  2.514988E+02  9.644275E+05 -3.495943E+03  7.232810E+02
      8789   1 -3.562467E+06  3.420733E+02 -3.914176E+02  1.032769E+06 -1.354277E+03  4.942435E+01
      8790   1 -7.124362E+06  7.539173E+02  8.833978E+02  9.329138E+05  3.075389E+03 -3.739077E+02
      8791   1 -7.125054E+06  4.003255E+01 -4.978560E+02  8.659395E+05  8.493738E+03  3.004721E+01
      8792   1 -7.124901E+06 -1.349335E+01  1.704637E+01  8.176718E+05  1.088441E+04 -7.126960E+02
      8793   1 -7.125111E+06 -4.915334E+02 -1.406208E+02  7.853650E+05  9.832544E+03  1.103629E+02
      8794   1 -7.125165E+06 -1.698922E+02 -6.269805E+02  7.671564E+05  5.811809E+03 -1.080213E+02
      8795   1 -7.125105E+06 -2.380022E+02 -3.759937E+02  7.612533E+05  4.532804E-03  7.134863E-03
      8796   1 -7.125165E+06 -1.698924E+02 -6.269807E+02  7.671564E+05 -5.811800E+03  1.080348E+02
      8797   1 -7.125111E+06 -4.915336E+02 -1.406213E+02  7.853650E+05 -9.832536E+03 -1.103510E+02
      8798   1 -7.124901E+06 -1.349283E+01  1.704649E+01  8.176718E+05 -1.088441E+04  7.127051E+02
      8799   1 -7.125054E+06  4.003474E+01 -4.978555E+02  8.659395E+05 -8.493734E+03 -3.004126E+01
      8800   1 -7.124362E+06  7.539224E+02  8.833994E+02  9.329138E+05 -3.075387E+03  3.739098E+02
      8801   1 -1.068752E+07  1.042792E+03 -1.558167E+03  7.642280E+05  6.642084E+03  9.390007E+01
      8802   1 -1.068701E+07  3.437871E+02  6.926375E+02  7.010097E+05  1.675539E+04 -9.394383E+02
      8803   1 -1.068770E+07 -8.351867E+02 -2.023873E+02  6.575685E+05  2.136784E+04  3.723245E+02
      8804   1 -1.068775E+07 -2.524753E+02 -9.556067E+02  6.307048E+05  1.907130E+04  9.985095E+01
      8805   1 -1.068765E+07 -1.602938E+02 -7.525230E+02  6.158934E+05  1.089086E+04  8.098219E+01
      8806   1 -1.068781E+07 -2.773860E+02 -1.110306E+03  6.110967E+05  6.181222E-03  5.648378E-03
      8807   1 -1.068765E+07 -1.602940E+02 -7.525231E+02  6.158934E+05 -1.089085E+04 -8.097155E+01
      8808   1 -1.068775E+07 -2.524759E+02 -9.556075E+02  6.307048E+05 -1.907129E+04 -9.984173E+01
      8809   1 -1.068770E+07 -8.351879E+02 -2.023877E+02  6.575685E+05 -2.136783E+04 -3.723177E+02
      8810   1 -1.068701E+07  3.437846E+02  6.926359E+02  7.010097E+05 -1.675539E+04  9.394424E+02
      8811   1 -1.068752E+07  1.042790E+03 -1.558168E+03  7.642280E+05 -6.642082E+03 -9.389893E+01
      8812   1 -1.424828E+07  1.819771E+03  2.810039E+03  5.227687E+05  1.217252E+04 -8.812846E+02
      8813   1 -1.425041E+07 -1.112633E+03 -7.195679E+02  4.661104E+05  3.333749E+04  8.588945E+02
      8814   1 -1.425049E+07 -4.600248E+02 -1.601328E+03  4.350906E+05  4.075529E+04  6.139934E+02
      8815   1 -1.425021E+07  6.727724E+01 -1.309539E+03  4.171033E+05  3.372438E+04  1.804056E+02
      8816   1 -1.425046E+07 -4.176931E+02 -1.569424E+03  4.071877E+05  1.884676E+04  1.505217E+02
      8817   1 -1.425018E+07  2.066516E+02 -1.353926E+03  4.041610E+05  7.218863E-03  3.737431E-03
      8818   1 -1.425046E+07 -4.176933E+02 -1.569424E+03  4.071877E+05 -1.884675E+04 -1.505149E+02
      8819   1 -1.425021E+07  6.727697E+01 -1.309540E+03  4.171033E+05 -3.372437E+04 -1.803996E+02
      8820   1 -1.425049E+07 -4.600242E+02 -1.601327E+03  4.350906E+05 -4.075528E+04 -6.139894E+02
      8821   1 -1.425041E+07 -1.112632E+03 -7.195679E+02  4.661104E+05 -3.333749E+04 -8.588923E+02
      8822   1 -1.424828E+07  1.819776E+03  2.810041E+03  5.227687E+05 -1.217252E+04  8.812852E+02
      8823   1 -1.781364E+07  1.253236E+03 -5.452647E+03  1.920011E+05  3.281552E+04  1.356018E+03
      8824   1 -1.781397E+07 -1.609410E+03 -3.571960E+03  1.649970E+05  7.094649E+04  8.349446E+02
      8825   1 -1.781279E+07  8.337335E+02 -2.458709E+03  1.546711E+05  7.223702E+04  1.634134E+02
      8826   1 -1.781322E+07 -7.363482E+02 -2.174839E+03  1.478530E+05  5.632981E+04  1.952325E+02
      8827   1 -1.781271E+07  5.334409E+02 -1.902912E+03  1.445899E+05  3.040078E+04  2.750550E+01
      8828   1 -1.781307E+07 -5.494666E+02 -1.917145E+03  1.433907E+05  7.390106E-03  1.353833E-03
      8829   1 -1.781271E+07  5.334409E+02 -1.902911E+03  1.445899E+05 -3.040076E+04 -2.750316E+01
      8830   1 -1.781322E+07 -7.363484E+02 -2.174838E+03  1.478530E+05 -5.632980E+04 -1.952304E+02
      8831   1 -1.781279E+07  8.337330E+02 -2.458707E+03  1.546711E+05 -7.223701E+04 -1.634122E+02
      8832   1 -1.781397E+07 -1.609412E+03 -3.571960E+03  1.649970E+05 -7.094648E+04 -8.349439E+02
      8833   1 -1.781364E+07  1.253233E+03 -5.452648E+03  1.920011E+05 -3.281552E+04 -1.356018E+03
      8834   1  1.749554E+07 -1.230993E+03  5.354923E+03  1.920011E+05 -3.281552E+04  1.331799E+03
      8835   1  1.749586E+07  1.580796E+03  3.508518E+03  1.649970E+05 -7.094650E+04  8.200376E+02
      8836   1  1.749471E+07 -8.189735E+02  2.414466E+03  1.546711E+05 -7.223701E+04  1.604940E+02
      8837   1  1.749512E+07  7.233316E+02  2.136337E+03  1.478530E+05 -5.632982E+04  1.917476E+02
      8838   1  1.749462E+07 -5.240444E+02  1.868599E+03  1.445899E+05 -3.040078E+04  2.701444E+01
      8839   1  1.749498E+07  5.397901E+02  1.883243E+03  1.433907E+05 -9.788994E-03  1.715350E-03
      8840   1  1.749462E+07 -5.240442E+02  1.868598E+03  1.445899E+05  3.040076E+04 -2.701090E+01
      8841   1  1.749512E+07  7.233327E+02  2.136335E+03  1.478530E+05  5.632980E+04 -1.917449E+02
      8842   1  1.749471E+07 -8.189709E+02  2.414465E+03  1.546711E+05  7.223700E+04 -1.604920E+02
      8843   1  1.749586E+07  1.580801E+03  3.508518E+03  1.649970E+05  7.094649E+04 -8.200369E+02
      8844   1  1.749554E+07 -1.230987E+03  5.354924E+03  1.920011E+05  3.281551E+04 -1.331799E+03
      8845   1  1.399384E+07 -1.787371E+03 -2.760171E+03  5.227687E+05 -1.217252E+04 -8.655462E+02
      8846   1  1.399594E+07  1.092878E+03  7.070269E+02  4.661104E+05 -3.333750E+04  8.435573E+02
      8847   1  1.399601E+07  4.516950E+02  1.572428E+03  4.350906E+05 -4.075529E+04  6.030300E+02
      8848   1  1.399575E+07 -6.595916E+01  1.286455E+03  4.171033E+05 -3.372438E+04  1.771852E+02
      8849   1  1.399599E+07  4.101137E+02  1.541096E+03  4.071877E+05 -1.884676E+04  1.478352E+02
      8850   1  1.399572E+07 -2.028440E+02  1.330047E+03  4.041610E+05 -9.841254E-03  4.977383E-03
      8851   1  1.399599E+07  4.101138E+02  1.541096E+03  4.071877E+05  1.884674E+04 -1.478255E+02
      8852   1  1.399575E+07 -6.595969E+01  1.286455E+03  4.171033E+05  3.372437E+04 -1.771773E+02
      8853   1  1.399601E+07  4.516932E+02  1.572428E+03  4.350906E+05  4.075528E+04 -6.030242E+02
      8854   1  1.399594E+07  1.092874E+03  7.070253E+02  4.661104E+05  3.333749E+04 -8.435546E+02
      8855   1  1.399384E+07 -1.787377E+03 -2.760173E+03  5.227687E+05  1.217251E+04  8.655470E+02
      8856   1  1.049668E+07 -1.024266E+03  1.530082E+03  7.642280E+05 -6.642083E+03  9.222327E+01
      8857   1  1.049617E+07 -3.375578E+02 -6.800187E+02  7.010096E+05 -1.675540E+04 -9.226621E+02
      8858   1  1.049684E+07  8.201801E+02  1.985258E+02  6.575685E+05 -2.136784E+04  3.656775E+02
      8859   1  1.049690E+07  2.480634E+02  9.387871E+02  6.307048E+05 -1.907130E+04  9.806948E+01
      8860   1  1.049680E+07  1.573376E+02  7.388411E+02  6.158934E+05 -1.089086E+04  7.953831E+01
      8861   1  1.049696E+07  2.725318E+02  1.090722E+03  6.110967E+05 -8.572165E-03  7.628305E-03
      8862   1  1.049680E+07  1.573380E+02  7.388416E+02  6.158934E+05  1.089085E+04 -7.952353E+01
      8863   1  1.049690E+07  2.480647E+02  9.387879E+02  6.307048E+05  1.907129E+04 -9.805700E+01
      8864   1  1.049684E+07  8.201830E+02  1.985274E+02  6.575685E+05  2.136783E+04 -3.656680E+02
      8865   1  1.049617E+07 -3.375539E+02 -6.800170E+02  7.010097E+05  1.675539E+04  9.226677E+02
      8866   1  1.049668E+07 -1.024263E+03  1.530085E+03  7.642280E+05  6.642081E+03 -9.222123E+01
      8867   1  6.997141E+06 -7.405098E+02 -8.678010E+02  9.329138E+05 -3.075388E+03 -3.672300E+02
      8868   1  6.997821E+06 -3.925267E+01  4.891419E+02  8.659395E+05 -8.493741E+03  2.951179E+01
      8869   1  6.997671E+06  1.318585E+01 -1.691642E+01  8.176718E+05 -1.088441E+04 -6.999674E+02
      8870   1  6.997877E+06  4.828216E+02  1.382810E+02  7.853650E+05 -9.832547E+03  1.083943E+02
      8871   1  6.997930E+06  1.667885E+02  6.156113E+02  7.671564E+05 -5.811809E+03 -1.060897E+02
      8872   1  6.997871E+06  2.338180E+02  3.694494E+02  7.612532E+05 -6.258059E-03  9.639862E-03
      8873   1  6.997930E+06  1.667887E+02  6.156116E+02  7.671564E+05  5.811797E+03  1.061083E+02
      8874   1  6.997877E+06  4.828215E+02  1.382813E+02  7.853650E+05  9.832536E+03 -1.083782E+02
      8875   1  6.997671E+06  1.318465E+01 -1.691646E+01  8.176718E+05  1.088440E+04  6.999801E+02
      8876   1  6.997821E+06 -3.925617E+01  4.891407E+02  8.659395E+05  8.493736E+03 -2.950397E+01
      8877   1  6.997141E+06 -7.405165E+02 -8.678027E+02  9.329138E+05  3.075386E+03  3.672328E+02
      8878   1  3.498852E+06 -3.360011E+02  3.843322E+02  1.032769E+06 -1.354277E+03 -4.853905E+01
      8879   1  3.498705E+06 -1.511784E+02 -2.469179E+02  9.644275E+05 -3.495947E+03 -7.103573E+02
      8880   1  3.498924E+06  1.594821E+02  1.055924E+02  9.135277E+05 -4.584901E+03 -4.942491E+01
      8881   1  3.498901E+06  6.141944E+01  1.342239E+02  8.788894E+05 -4.176449E+03 -5.520700E+02
      8882   1  3.498937E+06  2.238875E+02  8.241038E+01  8.587673E+05 -2.459777E+03  9.518739E+00
      8883   1  3.498965E+06  8.486496E+01  3.057788E+02  8.522425E+05 -3.292482E-03  1.088047E-02
      8884   1  3.498937E+06  2.238878E+02  8.241061E+01  8.587673E+05  2.459771E+03 -9.497575E+00
      8885   1  3.498901E+06  6.142030E+01  1.342244E+02  8.788894E+05  4.176444E+03  5.520884E+02
      8886   1  3.498924E+06  1.594841E+02  1.055934E+02  9.135278E+05  4.584897E+03  4.943971E+01
      8887   1  3.498705E+06 -1.511750E+02 -2.469164E+02  9.644275E+05  3.495944E+03  7.103668E+02
      8888   1  3.498852E+06 -3.359975E+02  3.843342E+02  1.032769E+06  1.354276E+03  4.854265E+01
      8889   1  3.807226E-03  2.244339E-04 -8.574738E-04  1.065912E+06  4.334170E-05 -2.854069E+02
      8890   1  2.745219E-03 -3.306273E-03 -7.919012E-04  9.970620E+05  1.764021E-04 -1.201410E+02
      8891   1  1.630432E-03 -9.031835E-03 -4.695837E-03  9.455725E+05  2.276320E-04 -7.595673E+02
      8892   1  1.150874E-03 -1.218470E-02 -4.485750E-03  9.100684E+05  1.906031E-04 -4.658492E+01
      8893   1  6.630762E-04 -1.483413E-02 -7.104554E-03  8.894857E+05  1.045003E-04 -3.155557E+02
      8894   1  7.874605E-04 -1.478417E-02 -5.596819E-03  8.826903E+05  3.833381E-06  1.132818E-02
      8895   1  6.629634E-04 -1.488048E-02 -7.121261E-03  8.894857E+05 -1.096938E-04  3.155777E+02
      8896   1  1.083777E-03 -1.259508E-02 -4.640752E-03  9.100684E+05 -1.821496E-04  4.660417E+01
      8897   1  1.356111E-03 -1.048782E-02 -5.256897E-03  9.455725E+05 -2.114526E-04  7.595827E+02
      8898   1  2.073273E-03 -6.523611E-03 -2.086130E-03  9.970621E+05 -1.628657E-04  1.201509E+02
      8899   1  2.806221E-03 -4.419102E-03 -2.703184E-03  1.065912E+06 -7.443124E-05  2.854105E+02
      8900   1 -3.498852E+06  3.360007E+02 -3.843372E+02  1.032769E+06  1.354277E+03 -4.853905E+01
      8901   1 -3.498705E+06  1.511893E+02  2.469257E+02  9.644275E+05  3.495947E+03 -7.103573E+02
      8902   1 -3.498924E+06 -1.594646E+02 -1.055901E+02  9.135277E+05  4.584902E+03 -4.942493E+01
      8903   1 -3.498901E+06 -6.139121E+01 -1.342097E+02  8.788894E+05  4.176450E+03 -5.520700E+02
      8904   1 -3.498937E+06 -2.238587E+02 -8.240375E+01  8.587673E+05  2.459777E+03  9.518727E+00
      8905   1 -3.498965E+06 -8.483160E+01 -3.057628E+02  8.522425E+05  3.313966E-03  1.088938E-02
      8906   1 -3.498937E+06 -2.238589E+02 -8.240396E+01  8.587673E+05 -2.459771E+03 -9.497576E+00
      8907   1 -3.498901E+06 -6.139124E+01 -1.342098E+02  8.788894E+05 -4.176444E+03  5.520884E+02
      8908   1 -3.498924E+06 -1.594637E+02 -1.055899E+02  9.135278E+05 -4.584897E+03  4.943972E+01
      8909   1 -3.498705E+06  1.511923E+02  2.469268E+02  9.644275E+05 -3.495944E+03  7.103668E+02
      8910   1 -3.498852E+06  3.360064E+02 -3.843355E+02  1.032769E+06 -1.354276E+03  4.854267E+01
      8911   1 -6.997141E+06  7.405061E+02  8.677876E+02  9.329138E+05  3.075388E+03 -3.672301E+02
      8912   1 -6.997821E+06  3.924986E+01 -4.891320E+02  8.659395E+05  8.493742E+03  2.951178E+01
      8913   1 -6.997671E+06 -1.320849E+01  1.689583E+01  8.176718E+05  1.088441E+04 -6.999674E+02
      8914   1 -6.997877E+06 -4.828419E+02 -1.382786E+02  7.853650E+05  9.832548E+03  1.083943E+02
      8915   1 -6.997930E+06 -1.668229E+02 -6.156366E+02  7.671564E+05  5.811809E+03 -1.060897E+02
      8916   1 -6.997871E+06 -2.338434E+02 -3.694492E+02  7.612533E+05  6.318234E-03  9.645503E-03
      8917   1 -6.997930E+06 -1.668232E+02 -6.156371E+02  7.671564E+05 -5.811797E+03  1.061083E+02
      8918   1 -6.997877E+06 -4.828426E+02 -1.382791E+02  7.853650E+05 -9.832537E+03 -1.083782E+02
      8919   1 -6.997671E+06 -1.321031E+01  1.689456E+01  8.176718E+05 -1.088440E+04  6.999801E+02
      8920   1 -6.997821E+06  3.924699E+01 -4.891331E+02  8.659395E+05 -8.493736E+03 -2.950396E+01
      8921   1 -6.997141E+06  7.405034E+02  8.677854E+02  9.329138E+05 -3.075386E+03  3.672328E+02
      8922   1 -1.049668E+07  1.024257E+03 -1.530110E+03  7.642280E+05  6.642083E+03  9.222335E+01
      8923   1 -1.049617E+07  3.375763E+02  6.800481E+02  7.010097E+05  1.675540E+04 -9.226621E+02
      8924   1 -1.049684E+07 -8.201711E+02 -1.985452E+02  6.575685E+05  2.136784E+04  3.656775E+02
      8925   1 -1.049690E+07 -2.480269E+02 -9.387519E+02  6.307048E+05  1.907130E+04  9.806950E+01
      8926   1 -1.049680E+07 -1.573172E+02 -7.388563E+02  6.158934E+05  1.089086E+04  7.953830E+01
      8927   1 -1.049696E+07 -2.724899E+02 -1.090685E+03  6.110967E+05  8.685925E-03  7.632848E-03
      8928   1 -1.049680E+07 -1.573177E+02 -7.388569E+02  6.158934E+05 -1.089085E+04 -7.952353E+01
      8929   1 -1.049690E+07 -2.480273E+02 -9.387522E+02  6.307048E+05 -1.907129E+04 -9.805703E+01
      8930   1 -1.049684E+07 -8.201710E+02 -1.985460E+02  6.575685E+05 -2.136783E+04 -3.656679E+02
      8931   1 -1.049617E+07  3.375790E+02  6.800493E+02  7.010097E+05 -1.675539E+04  9.226677E+02
      8932   1 -1.049668E+07  1.024263E+03 -1.530109E+03  7.642280E+05 -6.642081E+03 -9.222125E+01
      8933   1 -1.399384E+07  1.787358E+03  2.760131E+03  5.227687E+05  1.217252E+04 -8.655464E+02
      8934   1 -1.399594E+07 -1.092872E+03 -7.069906E+02  4.661104E+05  3.333750E+04  8.435574E+02
      8935   1 -1.399601E+07 -4.517284E+02 -1.572475E+03  4.350906E+05  4.075529E+04  6.030300E+02
      8936   1 -1.399575E+07  6.594801E+01 -1.286427E+03  4.171033E+05  3.372439E+04  1.771852E+02
      8937   1 -1.399599E+07 -4.101596E+02 -1.541147E+03  4.071877E+05  1.884676E+04  1.478352E+02
      8938   1 -1.399572E+07  2.028279E+02 -1.330021E+03  4.041610E+05  9.965675E-03  4.989961E-03
      8939   1 -1.399599E+07 -4.101598E+02 -1.541148E+03  4.071877E+05 -1.884674E+04 -1.478256E+02
      8940   1 -1.399575E+07  6.594782E+01 -1.286426E+03  4.171033E+05 -3.372437E+04 -1.771773E+02
      8941   1 -1.399601E+07 -4.517298E+02 -1.572476E+03  4.350906E+05 -4.075528E+04 -6.030243E+02
      8942   1 -1.399594E+07 -1.092875E+03 -7.069909E+02  4.661104E+05 -3.333749E+04 -8.435546E+02
      8943   1 -1.399384E+07  1.787354E+03  2.760128E+03  5.227687E+05 -1.217251E+04  8.655471E+02
      8944   1 -1.749554E+07  1.230975E+03 -5.354972E+03  1.920011E+05  3.281552E+04  1.331800E+03
      8945   1 -1.749586E+07 -1.580769E+03 -3.508467E+03  1.649970E+05  7.094650E+04  8.200372E+02
      8946   1 -1.749471E+07  8.189745E+02 -2.414508E+03  1.546711E+05  7.223701E+04  1.604943E+02
      8947   1 -1.749512E+07 -7.232860E+02 -2.136281E+03  1.478530E+05  5.632982E+04  1.917474E+02
      8948   1 -1.749462E+07  5.240571E+02 -1.868636E+03  1.445899E+05  3.040078E+04  2.701453E+01
      8949   1 -1.749498E+07 -5.397388E+02 -1.883186E+03  1.433907E+05  9.873974E-03  1.708315E-03
      8950   1 -1.749462E+07  5.240570E+02 -1.868635E+03  1.445899E+05 -3.040076E+04 -2.701098E+01
      8951   1 -1.749512E+07 -7.232861E+02 -2.136279E+03  1.478530E+05 -5.632980E+04 -1.917448E+02
      8952   1 -1.749471E+07  8.189750E+02 -2.414506E+03  1.546711E+05 -7.223700E+04 -1.604922E+02
      8953   1 -1.749586E+07 -1.580767E+03 -3.508465E+03  1.649970E+05 -7.094649E+04 -8.200365E+02
      8954   1 -1.749554E+07  1.230979E+03 -5.354971E+03  1.920011E+05 -3.281551E+04 -1.331800E+03
      8955   1  1.717744E+07 -1.208488E+03  5.257883E+03  1.920011E+05 -3.281552E+04  1.307589E+03
      8956   1  1.717775E+07  1.551933E+03  3.444415E+03  1.649970E+05 -7.094649E+04  8.051257E+02
      8957   1  1.717662E+07 -8.039848E+02  2.370867E+03  1.546711E+05 -7.223702E+04  1.575777E+02
      8958   1  1.717703E+07  7.100339E+02  2.097183E+03  1.478529E+05 -5.632982E+04  1.882610E+02
      8959   1  1.717654E+07 -5.144298E+02  1.834915E+03  1.445899E+05 -3.040078E+04  2.652419E+01
      8960   1  1.717689E+07  5.298210E+02  1.848689E+03  1.433907E+05 -1.362871E-02  2.547656E-03
      8961   1  1.717654E+07 -5.144299E+02  1.834913E+03  1.445899E+05  3.040076E+04 -2.651980E+01
      8962   1  1.717703E+07  7.100329E+02  2.097179E+03  1.478530E+05  5.632980E+04 -1.882570E+02
      8963   1  1.717662E+07 -8.039877E+02  2.370863E+03  1.546711E+05  7.223700E+04 -1.575754E+02
      8964   1  1.717775E+07  1.551928E+03  3.444411E+03  1.649970E+05  7.094648E+04 -8.051244E+02
      8965   1  1.717744E+07 -1.208495E+03  5.257881E+03  1.920011E+05  3.281551E+04 -1.307589E+03
      8966   1  1.373941E+07 -1.754786E+03 -2.709706E+03  5.227687E+05 -1.217252E+04 -8.498098E+02
      8967   1  1.374147E+07  1.072914E+03  6.938964E+02  4.661104E+05 -3.333750E+04  8.282209E+02
      8968   1  1.374154E+07  4.436042E+02  1.544118E+03  4.350906E+05 -4.075530E+04  5.920669E+02
      8969   1  1.374128E+07 -6.483858E+01  1.262803E+03  4.171033E+05 -3.372438E+04  1.739652E+02
      8970   1  1.374152E+07  4.027965E+02  1.513358E+03  4.071877E+05 -1.884677E+04  1.451490E+02
      8971   1  1.374125E+07 -1.992296E+02  1.305606E+03  4.041610E+05 -1.336185E-02  6.978079E-03
      8972   1  1.374152E+07  4.027969E+02  1.513358E+03  4.071877E+05  1.884674E+04 -1.451362E+02
      8973   1  1.374128E+07 -6.483711E+01  1.262803E+03  4.171033E+05  3.372436E+04 -1.739541E+02
      8974   1  1.374154E+07  4.436075E+02  1.544119E+03  4.350906E+05  4.075528E+04 -5.920593E+02
      8975   1  1.374147E+07  1.072919E+03  6.938987E+02  4.661104E+05  3.333749E+04 -8.282165E+02
      8976   1  1.373941E+07 -1.754781E+03 -2.709704E+03  5.227687E+05  1.217251E+04  8.498109E+02
      8977   1  1.030583E+07 -1.005558E+03  1.502494E+03  7.642280E+05 -6.642085E+03  9.054696E+01
      8978   1  1.030533E+07 -3.315087E+02 -6.678797E+02  7.010096E+05 -1.675539E+04 -9.058850E+02
      8979   1  1.030599E+07  8.053311E+02  1.951281E+02  6.575685E+05 -2.136784E+04  3.590303E+02
      8980   1  1.030605E+07  2.434410E+02  9.214907E+02  6.307048E+05 -1.907130E+04  9.628901E+01
      8981   1  1.030595E+07  1.545293E+02  7.256116E+02  6.158934E+05 -1.089087E+04  7.809472E+01
      8982   1  1.030610E+07  2.674569E+02  1.070662E+03  6.110967E+05 -1.143390E-02  1.049710E-02
      8983   1  1.030595E+07  1.545295E+02  7.256120E+02  6.158934E+05  1.089085E+04 -7.807496E+01
      8984   1  1.030605E+07  2.434409E+02  9.214914E+02  6.307048E+05  1.907128E+04 -9.627177E+01
      8985   1  1.030599E+07  8.053294E+02  1.951278E+02  6.575685E+05  2.136783E+04 -3.590176E+02
      8986   1  1.030533E+07 -3.315130E+02 -6.678805E+02  7.010097E+05  1.675538E+04  9.058929E+02
      8987   1  1.030583E+07 -1.005567E+03  1.502491E+03  7.642280E+05  6.642081E+03 -9.054469E+01
      8988   1  6.869921E+06 -7.269961E+02 -8.518683E+02  9.329138E+05 -3.075389E+03 -3.605529E+02
      8989   1  6.870587E+06 -3.858637E+01  4.800984E+02  8.659395E+05 -8.493740E+03  2.897695E+01
      8990   1  6.870441E+06  1.302267E+01 -1.645090E+01  8.176718E+05 -1.088441E+04 -6.872384E+02
      8991   1  6.870643E+06  4.740127E+02  1.356277E+02  7.853650E+05 -9.832547E+03  1.064267E+02
      8992   1  6.870695E+06  1.638474E+02  6.045795E+02  7.671564E+05 -5.811812E+03 -1.041574E+02
      8993   1  6.870637E+06  2.295418E+02  3.625962E+02  7.612533E+05 -8.341626E-03  1.318293E-02
      8994   1  6.870695E+06  1.638480E+02  6.045800E+02  7.671564E+05  5.811796E+03  1.041824E+02
      8995   1  6.870643E+06  4.740143E+02  1.356288E+02  7.853650E+05  9.832533E+03 -1.064046E+02
      8996   1  6.870441E+06  1.302580E+01 -1.644937E+01  8.176718E+05  1.088440E+04  6.872554E+02
      8997   1  6.870587E+06 -3.858181E+01  4.801007E+02  8.659395E+05  8.493733E+03 -2.896572E+01
      8998   1  6.869921E+06 -7.269928E+02 -8.518660E+02  9.329138E+05  3.075386E+03  3.605567E+02
      8999   1  3.435237E+06 -3.298625E+02  3.774250E+02  1.032769E+06 -1.354278E+03 -4.765605E+01
      9000   1  3.435092E+06 -1.484662E+02 -2.425095E+02  9.644275E+05 -3.495946E+03 -6.974397E+02
      9001   1  3.435307E+06  1.565915E+02  1.037413E+02  9.135277E+05 -4.584903E+03 -4.852385E+01
      9002   1  3.435284E+06  6.024518E+01  1.316963E+02  8.788894E+05 -4.176449E+03 -5.420287E+02
      9003   1  3.435320E+06  2.198139E+02  8.097465E+01  8.587673E+05 -2.459779E+03  9.349394E+00
      9004   1  3.435347E+06  8.325812E+01  3.001301E+02  8.522425E+05 -4.394971E-03  1.486051E-02
      9005   1  3.435320E+06  2.198141E+02  8.097487E+01  8.587673E+05  2.459770E+03 -9.321119E+00
      9006   1  3.435284E+06  6.024505E+01  1.316965E+02  8.788894E+05  4.176442E+03  5.420540E+02
      9007   1  3.435307E+06  1.565900E+02  1.037408E+02  9.135278E+05  4.584897E+03  4.854352E+01
      9008   1  3.435092E+06 -1.484703E+02 -2.425109E+02  9.644275E+05  3.495942E+03  6.974527E+02
      9009   1  3.435237E+06 -3.298698E+02  3.774227E+02  1.032769E+06  1.354276E+03  4.766036E+01
      9010   1  2.674929E-03  1.219781E-03  8.947952E-04  1.065912E+06  9.248837E-05 -2.802172E+02
      9011   1  4.074925E-03  5.391397E-03  8.349153E-04  9.970620E+05  1.793952E-04 -1.179545E+02
      9012   1  5.722223E-03  1.222092E-02  5.264361E-03  9.455725E+05  2.341817E-04 -7.457541E+02
      9013   1  6.653738E-03  1.601916E-02  4.915368E-03  9.100684E+05  2.329229E-04 -4.573412E+01
      9014   1  7.489574E-03  1.913765E-02  7.786226E-03  8.894857E+05  1.470788E-04 -3.098145E+02
      9015   1  7.447730E-03  1.908767E-02  6.016306E-03  8.826903E+05 -6.396642E-06  1.545389E-02
      9016   1  7.471428E-03  1.918232E-02  7.789583E-03  8.894857E+05 -1.424599E-04  3.098439E+02
      9017   1  6.719140E-03  1.650737E-02  5.104789E-03  9.100684E+05 -2.482349E-04  4.576050E+01
      9018   1  6.030019E-03  1.398992E-02  5.945680E-03  9.455725E+05 -2.525913E-04  7.457749E+02
      9019   1  4.864466E-03  9.336366E-03  2.417844E-03  9.970621E+05 -1.954169E-04  1.179685E+02
      9020   1  3.856817E-03  6.918752E-03  3.155614E-03  1.065912E+06 -5.710068E-05  2.802221E+02
      9021   1 -3.435237E+06  3.298660E+02 -3.774193E+02  1.032769E+06  1.354278E+03 -4.765609E+01
      9022   1 -3.435092E+06  1.484556E+02  2.424999E+02  9.644275E+05  3.495946E+03 -6.974397E+02
      9023   1 -3.435307E+06 -1.566108E+02 -1.037452E+02  9.135277E+05  4.584904E+03 -4.852384E+01
      9024   1 -3.435284E+06 -6.027776E+01 -1.317149E+02  8.788894E+05  4.176450E+03 -5.420287E+02
      9025   1 -3.435320E+06 -2.198475E+02 -8.098469E+01  8.587673E+05  2.459779E+03  9.349402E+00
      9026   1 -3.435347E+06 -8.329705E+01 -3.001514E+02  8.522425E+05  4.359651E-03  1.486136E-02
      9027   1 -3.435320E+06 -2.198477E+02 -8.098490E+01  8.587673E+05 -2.459771E+03 -9.321126E+00
      9028   1 -3.435284E+06 -6.027861E+01 -1.317155E+02  8.788894E+05 -4.176442E+03  5.420540E+02
      9029   1 -3.435307E+06 -1.566129E+02 -1.037461E+02  9.135278E+05 -4.584898E+03  4.854351E+01
      9030   1 -3.435092E+06  1.484518E+02  2.424981E+02  9.644275E+05 -3.495942E+03  6.974527E+02
      9031   1 -3.435237E+06  3.298618E+02 -3.774214E+02  1.032769E+06 -1.354276E+03  4.766036E+01
      9032   1 -6.869921E+06  7.270028E+02  8.518844E+02  9.329138E+05  3.075389E+03 -3.605529E+02
      9033   1 -6.870587E+06  3.859182E+01 -4.801107E+02  8.659395E+05  8.493740E+03  2.897694E+01
      9034   1 -6.870441E+06 -1.299326E+01  1.647504E+01  8.176718E+05  1.088442E+04 -6.872384E+02
      9035   1 -6.870643E+06 -4.739862E+02 -1.356318E+02  7.853650E+05  9.832547E+03  1.064267E+02
      9036   1 -6.870695E+06 -1.638038E+02 -6.045506E+02  7.671564E+05  5.811813E+03 -1.041574E+02
      9037   1 -6.870637E+06 -2.295092E+02 -3.625982E+02  7.612533E+05  8.258846E-03  1.318447E-02
      9038   1 -6.870695E+06 -1.638043E+02 -6.045509E+02  7.671564E+05 -5.811796E+03  1.041824E+02
      9039   1 -6.870643E+06 -4.739868E+02 -1.356327E+02  7.853650E+05 -9.832533E+03 -1.064046E+02
      9040   1 -6.870441E+06 -1.299273E+01  1.647510E+01  8.176718E+05 -1.088440E+04  6.872554E+02
      9041   1 -6.870587E+06  3.859504E+01 -4.801102E+02  8.659395E+05 -8.493733E+03 -2.896570E+01
      9042   1 -6.869921E+06  7.270111E+02  8.518869E+02  9.329138E+05 -3.075386E+03  3.605567E+02
      9043   1 -1.030583E+07  1.005571E+03 -1.502460E+03  7.642280E+05  6.642085E+03  9.054687E+01
      9044   1 -1.030533E+07  3.314875E+02  6.678433E+02  7.010096E+05  1.675539E+04 -9.058851E+02
      9045   1 -1.030599E+07 -8.053412E+02 -1.951055E+02  6.575685E+05  2.136785E+04  3.590303E+02
      9046   1 -1.030605E+07 -2.434847E+02 -9.215353E+02  6.307048E+05  1.907130E+04  9.628899E+01
      9047   1 -1.030595E+07 -1.545533E+02 -7.255952E+02  6.158934E+05  1.089087E+04  7.809474E+01
      9048   1 -1.030610E+07 -2.675072E+02 -1.070710E+03  6.110967E+05  1.129179E-02  1.049054E-02
      9049   1 -1.030595E+07 -1.545535E+02 -7.255954E+02  6.158934E+05 -1.089085E+04 -7.807499E+01
      9050   1 -1.030605E+07 -2.434857E+02 -9.215367E+02  6.307048E+05 -1.907128E+04 -9.627176E+01
      9051   1 -1.030599E+07 -8.053430E+02 -1.951061E+02  6.575685E+05 -2.136783E+04 -3.590176E+02
      9052   1 -1.030533E+07  3.314836E+02  6.678406E+02  7.010097E+05 -1.675538E+04  9.058929E+02
      9053   1 -1.030583E+07  1.005568E+03 -1.502462E+03  7.642280E+05 -6.642081E+03 -9.054467E+01
      9054   1 -1.373941E+07  1.754803E+03  2.709755E+03  5.227687E+05  1.217252E+04 -8.498096E+02
      9055   1 -1.374147E+07 -1.072921E+03 -6.939414E+02  4.661104E+05  3.333750E+04  8.282208E+02
      9056   1 -1.374154E+07 -4.435627E+02 -1.544063E+03  4.350906E+05  4.075530E+04  5.920669E+02
      9057   1 -1.374128E+07  6.485266E+01 -1.262840E+03  4.171033E+05  3.372438E+04  1.739653E+02
      9058   1 -1.374152E+07 -4.027399E+02 -1.513298E+03  4.071877E+05  1.884677E+04  1.451490E+02
      9059   1 -1.374125E+07  1.992497E+02 -1.305641E+03  4.041610E+05  1.320992E-02  6.973051E-03
      9060   1 -1.374152E+07 -4.027401E+02 -1.513298E+03  4.071877E+05 -1.884674E+04 -1.451362E+02
      9061   1 -1.374128E+07  6.485202E+01 -1.262840E+03  4.171033E+05 -3.372436E+04 -1.739541E+02
      9062   1 -1.374154E+07 -4.435622E+02 -1.544062E+03  4.350906E+05 -4.075528E+04 -5.920593E+02
      9063   1 -1.374147E+07 -1.072918E+03 -6.939417E+02  4.661104E+05 -3.333749E+04 -8.282165E+02
      9064   1 -1.373941E+07  1.754810E+03  2.709759E+03  5.227687E+05 -1.217251E+04  8.498108E+02
      9065   1 -1.717744E+07  1.208510E+03 -5.257823E+03  1.920011E+05  3.281552E+04  1.307588E+03
      9066   1 -1.717775E+07 -1.551966E+03 -3.444478E+03  1.649970E+05  7.094649E+04  8.051262E+02
      9067   1 -1.717662E+07  8.039837E+02 -2.370817E+03  1.546711E+05  7.223702E+04  1.575774E+02
      9068   1 -1.717703E+07 -7.100897E+02 -2.097253E+03  1.478529E+05  5.632982E+04  1.882612E+02
      9069   1 -1.717654E+07  5.144144E+02 -1.834872E+03  1.445899E+05  3.040078E+04  2.652410E+01
      9070   1 -1.717689E+07 -5.298838E+02 -1.848762E+03  1.433907E+05  1.353034E-02  2.557305E-03
      9071   1 -1.717654E+07  5.144145E+02 -1.834870E+03  1.445899E+05 -3.040076E+04 -2.651973E+01
      9072   1 -1.717703E+07 -7.100898E+02 -2.097251E+03  1.478530E+05 -5.632980E+04 -1.882572E+02
      9073   1 -1.717662E+07  8.039829E+02 -2.370814E+03  1.546711E+05 -7.223700E+04 -1.575751E+02
      9074   1 -1.717775E+07 -1.551969E+03 -3.444477E+03  1.649970E+05 -7.094648E+04 -8.051249E+02
      9075   1 -1.717744E+07  1.208505E+03 -5.257823E+03  1.920011E+05 -3.281552E+04 -1.307588E+03
      9076   1  1.685934E+07 -1.186210E+03  5.160251E+03  1.920011E+05 -3.281552E+04  1.283371E+03
      9077   1  1.685965E+07  1.523293E+03  3.380882E+03  1.649970E+05 -7.094650E+04  7.902180E+02
      9078   1  1.685854E+07 -7.891701E+02  2.326719E+03  1.546711E+05 -7.223702E+04  1.546591E+02
      9079   1  1.685894E+07  6.970140E+02  2.058602E+03  1.478530E+05 -5.632983E+04  1.847759E+02
      9080   1  1.685846E+07 -5.049615E+02  1.800701E+03  1.445899E+05 -3.040078E+04  2.603375E+01
      9081   1  1.685880E+07  5.201482E+02  1.814711E+03  1.433907E+05 -1.787681E-02  3.148134E-03
      9082   1  1.685846E+07 -5.049612E+02  1.800699E+03  1.445899E+05  3.040075E+04 -2.602721E+01
      9083   1  1.685894E+07  6.970156E+02  2.058599E+03  1.478530E+05  5.632980E+04 -1.847711E+02
      9084   1  1.685854E+07 -7.891662E+02  2.326716E+03  1.546711E+05  7.223699E+04 -1.546552E+02
      9085   1  1.685965E+07  1.523300E+03  3.380882E+03  1.649970E+05  7.094648E+04 -7.902166E+02
      9086   1  1.685934E+07 -1.186203E+03  5.160253E+03  1.920011E+05  3.281551E+04 -1.283370E+03
      9087   1  1.348498E+07 -1.722361E+03 -2.659754E+03  5.227687E+05 -1.217252E+04 -8.340715E+02
      9088   1  1.348699E+07  1.053117E+03  6.812703E+02  4.661104E+05 -3.333750E+04  8.128838E+02
      9089   1  1.348707E+07  4.352810E+02  1.515293E+03  4.350906E+05 -4.075530E+04  5.811042E+02
      9090   1  1.348681E+07 -6.358637E+01  1.239627E+03  4.171033E+05 -3.372439E+04  1.707455E+02
      9091   1  1.348704E+07  3.952089E+02  1.485098E+03  4.071877E+05 -1.884677E+04  1.424637E+02
      9092   1  1.348678E+07 -1.954953E+02  1.281633E+03  4.041610E+05 -1.791285E-02  9.109684E-03
      9093   1  1.348704E+07  3.952090E+02  1.485098E+03  4.071877E+05  1.884673E+04 -1.424458E+02
      9094   1  1.348681E+07 -6.358706E+01  1.239627E+03  4.171033E+05  3.372436E+04 -1.707310E+02
      9095   1  1.348707E+07  4.352784E+02  1.515292E+03  4.350906E+05  4.075527E+04 -5.810934E+02
      9096   1  1.348699E+07  1.053112E+03  6.812681E+02  4.661104E+05  3.333749E+04 -8.128786E+02
      9097   1  1.348498E+07 -1.722371E+03 -2.659756E+03  5.227687E+05  1.217251E+04  8.340731E+02
      9098   1  1.011498E+07 -9.870047E+02  1.474481E+03  7.642280E+05 -6.642084E+03  8.887075E+01
      9099   1  1.011449E+07 -3.252940E+02 -6.553269E+02  7.010096E+05 -1.675540E+04 -8.891080E+02
      9100   1  1.011514E+07  7.903735E+02  1.913438E+02  6.575685E+05 -2.136784E+04  3.523844E+02
      9101   1  1.011519E+07  2.390359E+02  9.046155E+02  6.307048E+05 -1.907131E+04  9.450876E+01
      9102   1  1.011510E+07  1.516384E+02  7.120122E+02  6.158934E+05 -1.089087E+04  7.665236E+01
      9103   1  1.011525E+07  2.626160E+02  1.051027E+03  6.110967E+05 -1.555556E-02  1.388667E-02
      9104   1  1.011510E+07  1.516391E+02  7.120130E+02  6.158934E+05  1.089084E+04 -7.662541E+01
      9105   1  1.011519E+07  2.390379E+02  9.046168E+02  6.307048E+05  1.907128E+04 -9.448593E+01
      9106   1  1.011514E+07  7.903780E+02  1.913465E+02  6.575685E+05  2.136782E+04 -3.523667E+02
      9107   1  1.011449E+07 -3.252881E+02 -6.553244E+02  7.010097E+05  1.675538E+04  8.891185E+02
      9108   1  1.011498E+07 -9.870007E+02  1.474484E+03  7.642280E+05  6.642080E+03 -8.886684E+01
      9109   1  6.742700E+06 -7.135733E+02 -8.362191E+02  9.329138E+05 -3.075388E+03 -3.538750E+02
      9110   1  6.743354E+06 -3.783649E+01  4.713289E+02  8.659395E+05 -8.493743E+03  2.844200E+01
      9111   1  6.743210E+06  1.271083E+01 -1.627877E+01  8.176718E+05 -1.088441E+04 -6.745085E+02
      9112   1  6.743409E+06  4.652478E+02  1.332249E+02  7.853650E+05 -9.832551E+03  1.044596E+02
      9113   1  6.743460E+06  1.607250E+02  5.932463E+02  7.671564E+05 -5.811814E+03 -1.022239E+02
      9114   1  6.743403E+06  2.252975E+02  3.559868E+02  7.612532E+05 -1.132630E-02  1.744993E-02
      9115   1  6.743460E+06  1.607254E+02  5.932469E+02  7.671564E+05  5.811792E+03  1.022578E+02
      9116   1  6.743409E+06  4.652479E+02  1.332255E+02  7.853650E+05  9.832531E+03 -1.044303E+02
      9117   1  6.743210E+06  1.270926E+01 -1.627866E+01  8.176718E+05  1.088440E+04  6.745317E+02
      9118   1  6.743354E+06 -3.784163E+01  4.713272E+02  8.659395E+05  8.493733E+03 -2.842760E+01
      9119   1  6.742700E+06 -7.135836E+02 -8.362216E+02  9.329139E+05  3.075385E+03  3.538802E+02
      9120   1  3.371621E+06 -3.237771E+02  3.703694E+02  1.032769E+06 -1.354277E+03 -4.677232E+01
      9121   1  3.371479E+06 -1.456829E+02 -2.379510E+02  9.644275E+05 -3.495947E+03 -6.845218E+02
      9122   1  3.371690E+06  1.536925E+02  1.017667E+02  9.135277E+05 -4.584903E+03 -4.762126E+01
      9123   1  3.371668E+06  5.918843E+01  1.293330E+02  8.788894E+05 -4.176451E+03 -5.319868E+02
      9124   1  3.371703E+06  2.157592E+02  7.942861E+01  8.587673E+05 -2.459780E+03  9.181553E+00
      9125   1  3.371730E+06  8.178276E+01  2.946502E+02  8.522425E+05 -5.946710E-03  1.964846E-02
      9126   1  3.371703E+06  2.157597E+02  7.942901E+01  8.587673E+05  2.459768E+03 -9.143264E+00
      9127   1  3.371668E+06  5.918978E+01  1.293338E+02  8.788894E+05  4.176441E+03  5.320203E+02
      9128   1  3.371690E+06  1.536957E+02  1.017682E+02  9.135278E+05  4.584895E+03  4.764829E+01
      9129   1  3.371479E+06 -1.456779E+02 -2.379488E+02  9.644275E+05  3.495942E+03  6.845393E+02
      9130   1  3.371621E+06 -3.237720E+02  3.703723E+02  1.032769E+06  1.354276E+03  4.677901E+01
      9131   1  2.886585E-03  8.404155E-04 -1.025770E-03  1.065912E+06  1.368993E-04 -2.750270E+02
      9132   1  1.467311E-03 -4.726468E-03 -1.386058E-03  9.970620E+05  4.363453E-04 -1.157680E+02
      9133   1  3.112214E-05 -1.330074E-02 -6.956938E-03  9.455725E+05  5.447627E-04 -7.319400E+02
      9134   1 -5.472007E-04 -1.820211E-02 -7.071730E-03  9.100684E+05  4.606103E-04 -4.488276E+01
      9135   1 -1.092347E-03 -2.199603E-02 -1.063444E-02  8.894857E+05  2.509550E-04 -3.040717E+02
      9136   1 -9.214750E-04 -2.202170E-02 -8.745919E-03  8.826903E+05  3.442052E-06  2.042795E-02
      9137   1 -1.090280E-03 -2.205082E-02 -1.064652E-02  8.894857E+05 -2.653562E-04  3.041114E+02
      9138   1 -6.355735E-04 -1.876006E-02 -7.287587E-03  9.100684E+05 -4.407370E-04  4.491761E+01
      9139   1 -3.587028E-04 -1.543651E-02 -7.769797E-03  9.455725E+05 -5.242001E-04  7.319682E+02
      9140   1  4.705418E-04 -9.534310E-03 -3.321774E-03  9.970621E+05 -4.145361E-04  1.157861E+02
      9141   1  1.373726E-03 -6.188425E-03 -3.815081E-03  1.065912E+06 -1.788128E-04  2.750336E+02
      9142   1 -3.371621E+06  3.237768E+02 -3.703764E+02  1.032769E+06  1.354278E+03 -4.677230E+01
      9143   1 -3.371479E+06  1.456993E+02  2.379620E+02  9.644275E+05  3.495948E+03 -6.845218E+02
      9144   1 -3.371690E+06 -1.536657E+02 -1.017628E+02  9.135277E+05  4.584904E+03 -4.762128E+01
      9145   1 -3.371668E+06 -5.914577E+01 -1.293124E+02  8.788894E+05  4.176452E+03 -5.319868E+02
      9146   1 -3.371703E+06 -2.157155E+02 -7.941853E+01  8.587673E+05  2.459780E+03  9.181550E+00
      9147   1 -3.371730E+06 -8.173264E+01 -2.946270E+02  8.522425E+05  5.988209E-03  1.964530E-02
      9148   1 -3.371703E+06 -2.157159E+02 -7.941892E+01  8.587673E+05 -2.459769E+03 -9.143260E+00
      9149   1 -3.371668E+06 -5.914600E+01 -1.293127E+02  8.788894E+05 -4.176442E+03  5.320203E+02
      9150   1 -3.371690E+06 -1.536645E+02 -1.017627E+02  9.135278E+05 -4.584896E+03  4.764830E+01
      9151   1 -3.371479E+06  1.457039E+02  2.379636E+02  9.644275E+05 -3.495943E+03  6.845393E+02
      9152   1 -3.371621E+06  3.237858E+02 -3.703739E+02  1.032769E+06 -1.354276E+03  4.677901E+01
      9153   1 -6.742700E+06  7.135687E+02  8.361997E+02  9.329138E+05  3.075389E+03 -3.538751E+02
      9154   1 -6.743354E+06  3.783259E+01 -4.713146E+02  8.659395E+05  8.493744E+03  2.844199E+01
      9155   1 -6.743210E+06 -1.274438E+01  1.624816E+01  8.176718E+05  1.088442E+04 -6.745085E+02
      9156   1 -6.743409E+06 -4.652783E+02 -1.332221E+02  7.853650E+05  9.832552E+03  1.044596E+02
      9157   1 -6.743460E+06 -1.607762E+02 -5.932841E+02  7.671564E+05  5.811814E+03 -1.022239E+02
      9158   1 -6.743403E+06 -2.253355E+02 -3.559874E+02  7.612533E+05  1.142804E-02  1.744815E-02
      9159   1 -6.743460E+06 -1.607767E+02 -5.932849E+02  7.671564E+05 -5.811793E+03  1.022578E+02
      9160   1 -6.743409E+06 -4.652794E+02 -1.332229E+02  7.853650E+05 -9.832533E+03 -1.044303E+02
      9161   1 -6.743210E+06 -1.274723E+01  1.624608E+01  8.176718E+05 -1.088440E+04  6.745317E+02
      9162   1 -6.743354E+06  3.782818E+01 -4.713163E+02  8.659395E+05 -8.493734E+03 -2.842759E+01
      9163   1 -6.742700E+06  7.135647E+02  8.361962E+02  9.329139E+05 -3.075385E+03  3.538803E+02
      9164   1 -1.011498E+07  9.869914E+02 -1.474521E+03  7.642280E+05  6.642085E+03  8.887087E+01
      9165   1 -1.011449E+07  3.253218E+02  6.553707E+02  7.010096E+05  1.675540E+04 -8.891079E+02
      9166   1 -1.011514E+07 -7.903595E+02 -1.913729E+02  6.575685E+05  2.136784E+04  3.523843E+02
      9167   1 -1.011519E+07 -2.389809E+02 -9.045632E+02  6.307048E+05  1.907131E+04  9.450881E+01
      9168   1 -1.011510E+07 -1.516076E+02 -7.120351E+02  6.158934E+05  1.089087E+04  7.665235E+01
      9169   1 -1.011525E+07 -2.625531E+02 -1.050972E+03  6.110967E+05  1.572818E-02  1.388779E-02
      9170   1 -1.011510E+07 -1.516083E+02 -7.120361E+02  6.158934E+05 -1.089084E+04 -7.662540E+01
      9171   1 -1.011519E+07 -2.389817E+02 -9.045637E+02  6.307048E+05 -1.907128E+04 -9.448597E+01
      9172   1 -1.011514E+07 -7.903598E+02 -1.913745E+02  6.575685E+05 -2.136782E+04 -3.523667E+02
      9173   1 -1.011449E+07  3.253258E+02  6.553725E+02  7.010097E+05 -1.675539E+04  8.891185E+02
      9174   1 -1.011498E+07  9.870015E+02 -1.474520E+03  7.642280E+05 -6.642080E+03 -8.886687E+01
      9175   1 -1.348498E+07  1.722342E+03  2.659694E+03  5.227687E+05  1.217252E+04 -8.340718E+02
      9176   1 -1.348699E+07 -1.053108E+03 -6.812158E+02  4.661104E+05  3.333751E+04  8.128839E+02
      9177   1 -1.348707E+07 -4.353312E+02 -1.515363E+03  4.350906E+05  4.075530E+04  5.811043E+02
      9178   1 -1.348681E+07  6.356970E+01 -1.239585E+03  4.171033E+05  3.372439E+04  1.707455E+02
      9179   1 -1.348704E+07 -3.952777E+02 -1.485175E+03  4.071877E+05  1.884677E+04  1.424637E+02
      9180   1 -1.348678E+07  1.954714E+02 -1.281594E+03  4.041610E+05  1.809201E-02  9.111444E-03
      9181   1 -1.348704E+07 -3.952780E+02 -1.485175E+03  4.071877E+05 -1.884673E+04 -1.424459E+02
      9182   1 -1.348681E+07  6.356946E+01 -1.239584E+03  4.171033E+05 -3.372436E+04 -1.707310E+02
      9183   1 -1.348707E+07 -4.353333E+02 -1.515364E+03  4.350906E+05 -4.075527E+04 -5.810935E+02
      9184   1 -1.348699E+07 -1.053112E+03 -6.812162E+02  4.661104E+05 -3.333749E+04 -8.128786E+02
      9185   1 -1.348498E+07  1.722337E+03  2.659690E+03  5.227687E+05 -1.217251E+04  8.340732E+02
      9186   1 -1.685934E+07  1.186183E+03 -5.160326E+03  1.920011E+05  3.281552E+04  1.283372E+03
      9187   1 -1.685965E+07 -1.523253E+03 -3.380805E+03  1.649970E+05  7.094650E+04  7.902174E+02
      9188   1 -1.685854E+07  7.891717E+02 -2.326782E+03  1.546711E+05  7.223702E+04  1.546595E+02
      9189   1 -1.685894E+07 -6.969453E+02 -2.058518E+03  1.478530E+05  5.632983E+04  1.847757E+02
      9190   1 -1.685846E+07  5.049805E+02 -1.800758E+03  1.445899E+05  3.040079E+04  2.603387E+01
      9191   1 -1.685880E+07 -5.200712E+02 -1.814626E+03  1.433907E+05  1.798980E-02  3.144184E-03
      9192   1 -1.685846E+07  5.049802E+02 -1.800756E+03  1.445899E+05 -3.040075E+04 -2.602732E+01
      9193   1 -1.685894E+07 -6.969456E+02 -2.058515E+03  1.478530E+05 -5.632980E+04 -1.847709E+02
      9194   1 -1.685854E+07  7.891722E+02 -2.326778E+03  1.546711E+05 -7.223699E+04 -1.546556E+02
      9195   1 -1.685965E+07 -1.523250E+03 -3.380802E+03  1.649970E+05 -7.094648E+04 -7.902161E+02
      9196   1 -1.685934E+07  1.186190E+03 -5.160324E+03  1.920011E+05 -3.281551E+04 -1.283371E+03
      9197   1  1.654124E+07 -1.163745E+03  5.063102E+03  1.920011E+05 -3.281552E+04  1.259159E+03
      9198   1  1.654154E+07  1.494468E+03  3.316886E+03  1.649970E+05 -7.094650E+04  7.753070E+02
      9199   1  1.654045E+07 -7.742295E+02  2.283013E+03  1.546711E+05 -7.223702E+04  1.517422E+02
      9200   1  1.654084E+07  6.837439E+02  2.019548E+03  1.478530E+05 -5.632983E+04  1.812902E+02
      9201   1  1.654037E+07 -4.954037E+02  1.766910E+03  1.445899E+05 -3.040079E+04  2.554356E+01
      9202   1  1.654071E+07  5.102037E+02  1.780256E+03  1.433907E+05 -2.511565E-02  4.615563E-03
      9203   1  1.654037E+07 -4.954038E+02  1.766907E+03  1.445899E+05  3.040074E+04 -2.553566E+01
      9204   1  1.654084E+07  6.837423E+02  2.019543E+03  1.478530E+05  5.632979E+04 -1.812829E+02
      9205   1  1.654045E+07 -7.742338E+02  2.283008E+03  1.546711E+05  7.223699E+04 -1.517379E+02
      9206   1  1.654154E+07  1.494460E+03  3.316880E+03  1.649970E+05  7.094648E+04 -7.753046E+02
      9207   1  1.654124E+07 -1.163756E+03  5.063099E+03  1.920011E+05  3.281551E+04 -1.259159E+03
      9208   1  1.323054E+07 -1.689805E+03 -2.609385E+03  5.227687E+05 -1.217252E+04 -8.183344E+02
      9209   1  1.323252E+07  1.033192E+03  6.682346E+02  4.661104E+05 -3.333750E+04  7.975481E+02
      9210   1  1.323259E+07  4.271658E+02  1.486893E+03  4.350906E+05 -4.075530E+04  5.701418E+02
      9211   1  1.323234E+07 -6.241443E+01  1.216072E+03  4.171033E+05 -3.372439E+04  1.675269E+02
      9212   1  1.323257E+07  3.878735E+02  1.457274E+03  4.071877E+05 -1.884678E+04  1.397785E+02
      9213   1  1.323231E+07 -1.918257E+02  1.257290E+03  4.041610E+05 -2.430400E-02  1.254107E-02
      9214   1  1.323257E+07  3.878742E+02  1.457274E+03  4.071877E+05  1.884673E+04 -1.397554E+02
      9215   1  1.323234E+07 -6.241210E+01  1.216073E+03  4.171033E+05  3.372435E+04 -1.675066E+02
      9216   1  1.323259E+07  4.271710E+02  1.486895E+03  4.350906E+05  4.075527E+04 -5.701279E+02
      9217   1  1.323252E+07  1.033200E+03  6.682382E+02  4.661104E+05  3.333748E+04 -7.975399E+02
      9218   1  1.323054E+07 -1.689799E+03 -2.609382E+03  5.227687E+05  1.217251E+04  8.183365E+02
      9219   1  9.924129E+06 -9.683256E+02  1.446815E+03  7.642280E+05 -6.642086E+03  8.719431E+01
      9220   1  9.923654E+06 -3.192222E+02 -6.431148E+02  7.010096E+05 -1.675540E+04 -8.723304E+02
      9221   1  9.924289E+06  7.754870E+02  1.878690E+02  6.575685E+05 -2.136785E+04  3.457382E+02
      9222   1  9.924342E+06  2.344274E+02  8.873866E+02  6.307048E+05 -1.907131E+04  9.272992E+01
      9223   1  9.924251E+06  1.487847E+02  6.987036E+02  6.158934E+05 -1.089088E+04  7.521044E+01
      9224   1  9.924397E+06  2.575525E+02  1.031033E+03  6.110967E+05 -2.061829E-02  1.875595E-02
      9225   1  9.924251E+06  1.487850E+02  6.987043E+02  6.158934E+05  1.089084E+04 -7.517520E+01
      9226   1  9.924341E+06  2.344275E+02  8.873880E+02  6.307048E+05  1.907128E+04 -9.269893E+01
      9227   1  9.924289E+06  7.754847E+02  1.878688E+02  6.575685E+05  2.136782E+04 -3.457153E+02
      9228   1  9.923654E+06 -3.192283E+02 -6.431159E+02  7.010097E+05  1.675538E+04  8.723448E+02
      9229   1  9.924129E+06 -9.683389E+02  1.446811E+03  7.642281E+05  6.642079E+03 -8.719019E+01
      9230   1  6.615479E+06 -7.000751E+02 -8.203385E+02  9.329138E+05 -3.075390E+03 -3.471972E+02
      9231   1  6.616121E+06 -3.714682E+01  4.623380E+02  8.659395E+05 -8.493743E+03  2.790861E+01
      9232   1  6.615980E+06  1.253858E+01 -1.586004E+01  8.176718E+05 -1.088442E+04 -6.617780E+02
      9233   1  6.616175E+06  4.564730E+02  1.306271E+02  7.853650E+05 -9.832553E+03  1.024941E+02
      9234   1  6.616225E+06  1.577811E+02  5.821709E+02  7.671564E+05 -5.811818E+03 -1.002896E+02
      9235   1  6.616169E+06  2.210588E+02  3.491901E+02  7.612532E+05 -1.496689E-02  2.342576E-02
      9236   1  6.616225E+06  1.577820E+02  5.821718E+02  7.671564E+05  5.811789E+03  1.003339E+02
      9237   1  6.616175E+06  4.564755E+02  1.306289E+02  7.853650E+05  9.832527E+03 -1.024546E+02
      9238   1  6.615980E+06  1.254343E+01 -1.585761E+01  8.176718E+05  1.088440E+04  6.618085E+02
      9239   1  6.616121E+06 -3.714005E+01  4.623416E+02  8.659395E+05  8.493729E+03 -2.788821E+01
      9240   1  6.615479E+06 -7.000711E+02 -8.203351E+02  9.329139E+05  3.075385E+03  3.472041E+02
      9241   1  3.308006E+06 -3.176481E+02  3.634358E+02  1.032769E+06 -1.354278E+03 -4.588921E+01
      9242   1  3.307866E+06 -1.429659E+02 -2.335186E+02  9.644274E+05 -3.495947E+03 -6.716032E+02
      9243   1  3.308073E+06  1.507823E+02  9.988619E+01  9.135277E+05 -4.584905E+03 -4.671858E+01
      9244   1  3.308051E+06  5.800947E+01  1.268248E+02  8.788894E+05 -4.176452E+03 -5.219433E+02
      9245   1  3.308086E+06  2.116593E+02  7.796125E+01  8.587673E+05 -2.459782E+03  9.014550E+00
      9246   1  3.308112E+06  8.016869E+01  2.890197E+02  8.522425E+05 -7.862106E-03  2.634120E-02
      9247   1  3.308086E+06  2.116596E+02  7.796163E+01  8.587673E+05  2.459767E+03 -8.964492E+00
      9248   1  3.308051E+06  5.800944E+01  1.268253E+02  8.788894E+05  4.176438E+03  5.219882E+02
      9249   1  3.308073E+06  1.507802E+02  9.988563E+01  9.135278E+05  4.584894E+03  4.675367E+01
      9250   1  3.307866E+06 -1.429719E+02 -2.335206E+02  9.644275E+05  3.495940E+03  6.716267E+02
      9251   1  3.308006E+06 -3.176593E+02  3.634323E+02  1.032769E+06  1.354275E+03  4.589691E+01
      9252   1  7.880644E-04  1.695171E-03  9.958589E-04  1.065912E+06  2.268883E-04 -2.698365E+02
      9253   1  3.295371E-03  8.257668E-03  1.415829E-03  9.970620E+05  4.852103E-04 -1.135798E+02
      9254   1  6.060121E-03  1.844715E-02  7.600125E-03  9.455725E+05  6.004362E-04 -7.181250E+02
      9255   1  7.769625E-03  2.435709E-02  7.505739E-03  9.100684E+05  5.561515E-04 -4.402950E+01
      9256   1  9.087967E-03  2.879270E-02  1.129484E-02  8.894857E+05  3.400208E-04 -2.983280E+02
      9257   1  9.152162E-03  2.883340E-02  9.072541E-03  8.826903E+05 -1.137989E-05  2.734470E-02
      9258   1  9.072501E-03  2.882609E-02  1.130550E-02  8.894857E+05 -3.242209E-04  2.983800E+02
      9259   1  7.860111E-03  2.500889E-02  7.756610E-03  9.100684E+05 -5.832968E-04  4.407640E+01
      9260   1  6.500569E-03  2.102021E-02  8.586511E-03  9.455725E+05 -6.264131E-04  7.181620E+02
      9261   1  4.476743E-03  1.415251E-02  3.784978E-03  9.970621E+05 -5.175584E-04  1.136051E+02
      9262   1  2.605720E-03  1.036045E-02  4.441628E-03  1.065912E+06 -1.754519E-04  2.698453E+02
      9263   1 -3.308006E+06  3.176540E+02 -3.634275E+02  1.032769E+06  1.354278E+03 -4.588925E+01
      9264   1 -3.307866E+06  1.429507E+02  2.335048E+02  9.644275E+05  3.495949E+03 -6.716032E+02
      9265   1 -3.308073E+06 -1.508113E+02 -9.989298E+01  9.135277E+05  4.584907E+03 -4.671856E+01
      9266   1 -3.308051E+06 -5.805798E+01 -1.268524E+02  8.788894E+05  4.176453E+03 -5.219433E+02
      9267   1 -3.308086E+06 -2.117094E+02 -7.797717E+01  8.587673E+05  2.459783E+03  9.014562E+00
      9268   1 -3.308112E+06 -8.022645E+01 -2.890514E+02  8.522425E+05  7.799566E-03  2.632929E-02
      9269   1 -3.308086E+06 -2.117098E+02 -7.797753E+01  8.587673E+05 -2.459767E+03 -8.964486E+00
      9270   1 -3.308051E+06 -5.805926E+01 -1.268534E+02  8.788894E+05 -4.176440E+03  5.219882E+02
      9271   1 -3.308073E+06 -1.508144E+02 -9.989431E+01  9.135278E+05 -4.584896E+03  4.675366E+01
      9272   1 -3.307866E+06  1.429448E+02  2.335020E+02  9.644275E+05 -3.495941E+03  6.716267E+02
      9273   1 -3.308006E+06  3.176478E+02 -3.634308E+02  1.032769E+06 -1.354276E+03  4.589691E+01
      9274   1 -6.615479E+06  7.000848E+02  8.203617E+02  9.329138E+05  3.075390E+03 -3.471971E+02
      9275   1 -6.616121E+06  3.715529E+01 -4.623560E+02  8.659395E+05  8.493744E+03  2.790860E+01
      9276   1 -6.615980E+06 -1.249435E+01  1.589548E+01  8.176718E+05  1.088442E+04 -6.617780E+02
      9277   1 -6.616175E+06 -4.564326E+02 -1.306329E+02  7.853650E+05  9.832554E+03  1.024941E+02
      9278   1 -6.616225E+06 -1.577157E+02 -5.821284E+02  7.671564E+05  5.811819E+03 -1.002896E+02
      9279   1 -6.616169E+06 -2.210094E+02 -3.491929E+02  7.612533E+05  1.483430E-02  2.343044E-02
      9280   1 -6.616225E+06 -1.577165E+02 -5.821290E+02  7.671564E+05 -5.811790E+03  1.003339E+02
      9281   1 -6.616175E+06 -4.564338E+02 -1.306345E+02  7.853650E+05 -9.832528E+03 -1.024546E+02
      9282   1 -6.615980E+06 -1.249387E+01  1.589544E+01  8.176718E+05 -1.088440E+04  6.618085E+02
      9283   1 -6.616121E+06  3.716016E+01 -4.623555E+02  8.659395E+05 -8.493730E+03 -2.788818E+01
      9284   1 -6.615479E+06  7.000984E+02  8.203658E+02  9.329139E+05 -3.075385E+03  3.472041E+02
      9285   1 -9.924129E+06  9.683449E+02 -1.446765E+03  7.642280E+05  6.642087E+03  8.719418E+01
      9286   1 -9.923654E+06  3.191908E+02  6.430606E+02  7.010096E+05  1.675540E+04 -8.723305E+02
      9287   1 -9.924289E+06 -7.755022E+02 -1.878355E+02  6.575685E+05  2.136785E+04  3.457383E+02
      9288   1 -9.924342E+06 -2.344928E+02 -8.874535E+02  6.307048E+05  1.907131E+04  9.272988E+01
      9289   1 -9.924251E+06 -1.488206E+02 -6.986795E+02  6.158934E+05  1.089088E+04  7.521049E+01
      9290   1 -9.924397E+06 -2.576276E+02 -1.031104E+03  6.110967E+05  2.040915E-02  1.875223E-02
      9291   1 -9.924251E+06 -1.488210E+02 -6.986799E+02  6.158934E+05 -1.089084E+04 -7.517524E+01
      9292   1 -9.924341E+06 -2.344945E+02 -8.874560E+02  6.307048E+05 -1.907128E+04 -9.269891E+01
      9293   1 -9.924289E+06 -7.755049E+02 -1.878365E+02  6.575685E+05 -2.136782E+04 -3.457154E+02
      9294   1 -9.923654E+06  3.191847E+02  6.430562E+02  7.010097E+05 -1.675538E+04  8.723448E+02
      9295   1 -9.924129E+06  9.683411E+02 -1.446767E+03  7.642281E+05 -6.642080E+03 -8.719015E+01
      9296   1 -1.323054E+07  1.689829E+03  2.609458E+03  5.227687E+05  1.217252E+04 -8.183341E+02
      9297   1 -1.323252E+07 -1.033202E+03 -6.683023E+02  4.661104E+05  3.333750E+04  7.975480E+02
      9298   1 -1.323259E+07 -4.271034E+02 -1.486810E+03  4.350906E+05  4.075531E+04  5.701418E+02
      9299   1 -1.323234E+07  6.243574E+01 -1.216128E+03  4.171033E+05  3.372439E+04  1.675269E+02
      9300   1 -1.323257E+07 -3.877885E+02 -1.457184E+03  4.071877E+05  1.884678E+04  1.397785E+02
      9301   1 -1.323231E+07  1.918557E+02 -1.257343E+03  4.041610E+05  2.409844E-02  1.254997E-02
      9302   1 -1.323257E+07 -3.877889E+02 -1.457184E+03  4.071877E+05 -1.884673E+04 -1.397555E+02
      9303   1 -1.323234E+07  6.243448E+01 -1.216129E+03  4.171033E+05 -3.372435E+04 -1.675066E+02
      9304   1 -1.323259E+07 -4.271029E+02 -1.486809E+03  4.350906E+05 -4.075527E+04 -5.701279E+02
      9305   1 -1.323252E+07 -1.033199E+03 -6.683030E+02  4.661104E+05 -3.333748E+04 -7.975398E+02
      9306   1 -1.323054E+07  1.689842E+03  2.609464E+03  5.227687E+05 -1.217251E+04  8.183364E+02
      9307   1 -1.654124E+07  1.163779E+03 -5.063011E+03  1.920011E+05  3.281552E+04  1.259157E+03
      9308   1 -1.654154E+07 -1.494517E+03 -3.316981E+03  1.649970E+05  7.094650E+04  7.753078E+02
      9309   1 -1.654045E+07  7.742277E+02 -2.282939E+03  1.546711E+05  7.223703E+04  1.517417E+02
      9310   1 -1.654084E+07 -6.838280E+02 -2.019655E+03  1.478530E+05  5.632983E+04  1.812905E+02
      9311   1 -1.654037E+07  4.953807E+02 -1.766845E+03  1.445899E+05  3.040079E+04  2.554343E+01
      9312   1 -1.654071E+07 -5.102979E+02 -1.780366E+03  1.433907E+05  2.499895E-02  4.626304E-03
      9313   1 -1.654037E+07  4.953808E+02 -1.766843E+03  1.445899E+05 -3.040075E+04 -2.553554E+01
      9314   1 -1.654084E+07 -6.838279E+02 -2.019650E+03  1.478530E+05 -5.632979E+04 -1.812832E+02
      9315   1 -1.654045E+07  7.742268E+02 -2.282935E+03  1.546711E+05 -7.223699E+04 -1.517375E+02
      9316   1 -1.654154E+07 -1.494521E+03 -3.316980E+03  1.649970E+05 -7.094648E+04 -7.753053E+02
      9317   1 -1.654124E+07  1.163772E+03 -5.063012E+03  1.920011E+05 -3.281551E+04 -1.259158E+03
      9318   1  1.622314E+07 -1.141432E+03  4.965563E+03  1.920011E+05 -3.281552E+04  1.234943E+03
      9319   1  1.622343E+07  1.465802E+03  3.253269E+03  1.649970E+05 -7.094650E+04  7.603988E+02
      9320   1  1.622236E+07 -7.593684E+02  2.238958E+03  1.546711E+05 -7.223703E+04  1.488248E+02
      9321   1  1.622275E+07  6.707103E+02  1.980890E+03  1.478530E+05 -5.632984E+04  1.778052E+02
      9322   1  1.622229E+07 -4.858786E+02  1.732791E+03  1.445899E+05 -3.040080E+04  2.505410E+01
      9323   1  1.622262E+07  5.005211E+02  1.746203E+03  1.433907E+05 -3.251993E-02  5.531239E-03
      9324   1  1.622229E+07 -4.858782E+02  1.732787E+03  1.445899E+05  3.040073E+04 -2.504243E+01
      9325   1  1.622275E+07  6.707129E+02  1.980886E+03  1.478530E+05  5.632978E+04 -1.777965E+02
      9326   1  1.622236E+07 -7.593626E+02  2.238953E+03  1.546711E+05  7.223698E+04 -1.488177E+02
      9327   1  1.622343E+07  1.465812E+03  3.253270E+03  1.649970E+05  7.094647E+04 -7.603963E+02
      9328   1  1.622314E+07 -1.141421E+03  4.965565E+03  1.920011E+05  3.281551E+04 -1.234942E+03
      9329   1  1.297611E+07 -1.657355E+03 -2.559356E+03  5.227687E+05 -1.217252E+04 -8.025968E+02
      9330   1  1.297805E+07  1.013364E+03  6.555297E+02  4.661104E+05 -3.333751E+04  7.822111E+02
      9331   1  1.297812E+07  4.188608E+02  1.458139E+03  4.350906E+05 -4.075531E+04  5.591803E+02
      9332   1  1.297787E+07 -6.120798E+01  1.192814E+03  4.171033E+05 -3.372440E+04  1.643081E+02
      9333   1  1.297810E+07  3.802961E+02  1.429082E+03  4.071877E+05 -1.884678E+04  1.370949E+02
      9334   1  1.297785E+07 -1.881416E+02  1.233235E+03  4.041610E+05 -3.218823E-02  1.599446E-02
      9335   1  1.297810E+07  3.802963E+02  1.429082E+03  4.071877E+05  1.884672E+04 -1.370633E+02
      9336   1  1.297787E+07 -6.120891E+01  1.192814E+03  4.171033E+05  3.372435E+04 -1.642824E+02
      9337   1  1.297812E+07  4.188571E+02  1.458138E+03  4.350906E+05  4.075526E+04 -5.591609E+02
      9338   1  1.297805E+07  1.013356E+03  6.555266E+02  4.661104E+05  3.333748E+04 -7.822016E+02
      9339   1  1.297611E+07 -1.657370E+03 -2.559359E+03  5.227687E+05  1.217251E+04  8.025997E+02
      9340   1  9.733281E+06 -9.497476E+02  1.418865E+03  7.642280E+05 -6.642086E+03  8.551907E+01
      9341   1  9.732814E+06 -3.130243E+02 -6.306212E+02  7.010096E+05 -1.675540E+04 -8.555523E+02
      9342   1  9.733437E+06  7.605641E+02  1.841493E+02  6.575685E+05 -2.136785E+04  3.390941E+02
      9343   1  9.733489E+06  2.300168E+02  8.704585E+02  6.307048E+05 -1.907132E+04  9.095150E+01
      9344   1  9.733400E+06  1.459378E+02  6.851715E+02  6.158934E+05 -1.089088E+04  7.377048E+01
      9345   1  9.733543E+06  2.527094E+02  1.011346E+03  6.110967E+05 -2.773418E-02  2.424974E-02
      9346   1  9.733400E+06  1.459390E+02  6.851730E+02  6.158934E+05  1.089083E+04 -7.372321E+01
      9347   1  9.733489E+06  2.300199E+02  8.704607E+02  6.307048E+05  1.907127E+04 -9.091139E+01
      9348   1  9.733437E+06  7.605710E+02  1.841537E+02  6.575685E+05  2.136781E+04 -3.390627E+02
      9349   1  9.732814E+06 -3.130156E+02 -6.306173E+02  7.010097E+05  1.675538E+04  8.555712E+02
      9350   1  9.733280E+06 -9.497430E+02  1.418871E+03  7.642281E+05  6.642078E+03 -8.551185E+01
      9351   1  6.488258E+06 -6.866393E+02 -8.046470E+02  9.329138E+05 -3.075390E+03 -3.405193E+02
      9352   1  6.488888E+06 -3.641755E+01  4.535247E+02  8.659395E+05 -8.493746E+03  2.737446E+01
      9353   1  6.488749E+06  1.223031E+01 -1.565150E+01  8.176718E+05 -1.088442E+04 -6.490462E+02
      9354   1  6.488941E+06  4.476747E+02  1.281763E+02  7.853650E+05 -9.832558E+03  1.005292E+02
      9355   1  6.488990E+06  1.546546E+02  5.708705E+02  7.671564E+05 -5.811822E+03 -9.835316E+01
      9356   1  6.488935E+06  2.167773E+02  3.425317E+02  7.612532E+05 -2.007142E-02  3.031338E-02
      9357   1  6.488990E+06  1.546554E+02  5.708716E+02  7.671564E+05  5.811784E+03  9.841222E+01
      9358   1  6.488940E+06  4.476750E+02  1.281774E+02  7.853650E+05  9.832523E+03 -1.004781E+02
      9359   1  6.488749E+06  1.222832E+01 -1.565109E+01  8.176718E+05  1.088439E+04  6.490870E+02
      9360   1  6.488888E+06 -3.642490E+01  4.535223E+02  8.659395E+05  8.493728E+03 -2.734902E+01
      9361   1  6.488258E+06 -6.866548E+02 -8.046505E+02  9.329139E+05  3.075383E+03  3.405286E+02
      9362   1  3.244390E+06 -3.115545E+02  3.564016E+02  1.032769E+06 -1.354278E+03 -4.500443E+01
      9363   1  3.244253E+06 -1.401847E+02 -2.289790E+02  9.644274E+05 -3.495949E+03 -6.586836E+02
      9364   1  3.244456E+06  1.479034E+02  9.793711E+01  9.135277E+05 -4.584906E+03 -4.581346E+01
      9365   1  3.244435E+06  5.696243E+01  1.244480E+02  8.788894E+05 -4.176455E+03 -5.118988E+02
      9366   1  3.244469E+06  2.076329E+02  7.644358E+01  8.587673E+05 -2.459784E+03  8.849938E+00
      9367   1  3.244495E+06  7.870630E+01  2.835277E+02  8.522425E+05 -1.050420E-02  3.403825E-02
      9368   1  3.244469E+06  2.076336E+02  7.644423E+01  8.587673E+05  2.459764E+03 -8.783394E+00
      9369   1  3.244435E+06  5.696452E+01  1.244493E+02  8.788894E+05  4.176437E+03  5.119570E+02
      9370   1  3.244456E+06  1.479082E+02  9.793947E+01  9.135278E+05  4.584892E+03  4.586090E+01
      9371   1  3.244253E+06 -1.401773E+02 -2.289756E+02  9.644275E+05  3.495939E+03  6.587145E+02
      9372   1  3.244390E+06 -3.115475E+02  3.564061E+02  1.032769E+06  1.354275E+03  4.501640E+01
      9373   1  9.220292E-04  1.685855E-03 -1.135719E-03  1.065912E+06  3.145284E-04 -2.646461E+02
      9374   1 -8.190457E-04 -7.074618E-03 -2.347192E-03  9.970620E+05  9.135596E-04 -1.113924E+02
      9375   1 -2.542086E-03 -1.989981E-02 -1.025964E-02  9.455725E+05  1.098751E-03 -7.043086E+02
      9376   1 -3.153262E-03 -2.744105E-02 -1.099349E-02  9.100684E+05  9.149067E-04 -4.317556E+01
      9377   1 -3.684128E-03 -3.283472E-02 -1.577384E-02  8.894857E+05  4.955980E-04 -2.925819E+02
      9378   1 -3.424371E-03 -3.298028E-02 -1.344260E-02  8.826903E+05  1.590170E-05  3.533126E-02
      9379   1 -3.663783E-03 -3.285859E-02 -1.577231E-02  8.894857E+05 -5.262370E-04  2.926509E+02
      9380   1 -3.280081E-03 -2.820370E-02 -1.128491E-02  9.100684E+05 -8.797795E-04  4.323608E+01
      9381   1 -3.087740E-03 -2.299109E-02 -1.143653E-02  9.455725E+05 -1.072931E-03  7.043579E+02
      9382   1 -2.297625E-03 -1.429929E-02 -5.249056E-03  9.970621E+05 -8.736540E-04  1.114240E+02
      9383   1 -1.366444E-03 -9.030498E-03 -5.377570E-03  1.065912E+06 -3.794614E-04  2.646578E+02
      9384   1 -3.244390E+06  3.115537E+02 -3.564118E+02  1.032769E+06  1.354279E+03 -4.500440E+01
      9385   1 -3.244253E+06  1.402088E+02  2.289946E+02  9.644274E+05  3.495950E+03 -6.586836E+02
      9386   1 -3.244456E+06 -1.478627E+02 -9.793059E+01  9.135277E+05  4.584908E+03 -4.581348E+01
      9387   1 -3.244435E+06 -5.689847E+01 -1.244179E+02  8.788894E+05  4.176456E+03 -5.118988E+02
      9388   1 -3.244469E+06 -2.075669E+02 -7.642791E+01  8.587673E+05  2.459785E+03  8.849933E+00
      9389   1 -3.244495E+06 -7.863137E+01 -2.834938E+02  8.522425E+05  1.058328E-02  3.403834E-02
      9390   1 -3.244469E+06 -2.075675E+02 -7.642861E+01  8.587673E+05 -2.459765E+03 -8.783393E+00
      9391   1 -3.244435E+06 -5.689901E+01 -1.244184E+02  8.788895E+05 -4.176438E+03  5.119570E+02
      9392   1 -3.244456E+06 -1.478613E+02 -9.793071E+01  9.135278E+05 -4.584893E+03  4.586092E+01
      9393   1 -3.244253E+06  1.402158E+02  2.289971E+02  9.644275E+05 -3.495941E+03  6.587145E+02
      9394   1 -3.244390E+06  3.115682E+02 -3.564079E+02  1.032769E+06 -1.354275E+03  4.501640E+01
      9395   1 -6.488258E+06  6.866334E+02  8.046190E+02  9.329138E+05  3.075390E+03 -3.405194E+02
      9396   1 -6.488888E+06  3.641166E+01 -4.535040E+02  8.659395E+05  8.493749E+03  2.737446E+01
      9397   1 -6.488749E+06 -1.228042E+01  1.560619E+01  8.176718E+05  1.088442E+04 -6.490462E+02
      9398   1 -6.488941E+06 -4.477208E+02 -1.281731E+02  7.853650E+05  9.832560E+03  1.005292E+02
      9399   1 -6.488990E+06 -1.547310E+02 -5.709266E+02  7.671564E+05  5.811823E+03 -9.835314E+01
      9400   1 -6.488935E+06 -2.168343E+02 -3.425333E+02  7.612533E+05  2.023671E-02  3.030350E-02
      9401   1 -6.488990E+06 -1.547319E+02 -5.709279E+02  7.671564E+05 -5.811785E+03  9.841222E+01
      9402   1 -6.488940E+06 -4.477225E+02 -1.281744E+02  7.853650E+05 -9.832525E+03 -1.004781E+02
      9403   1 -6.488749E+06 -1.228483E+01  1.560287E+01  8.176718E+05 -1.088439E+04  6.490870E+02
      9404   1 -6.488888E+06  3.640480E+01 -4.535066E+02  8.659395E+05 -8.493730E+03 -2.734903E+01
      9405   1 -6.488258E+06  6.866271E+02  8.046132E+02  9.329139E+05 -3.075384E+03  3.405286E+02
      9406   1 -9.733281E+06  9.497274E+02 -1.418926E+03  7.642280E+05  6.642087E+03  8.551925E+01
      9407   1 -9.732814E+06  3.130656E+02  6.306862E+02  7.010096E+05  1.675541E+04 -8.555522E+02
      9408   1 -9.733437E+06 -7.605427E+02 -1.841925E+02  6.575685E+05  2.136785E+04  3.390940E+02
      9409   1 -9.733489E+06 -2.299341E+02 -8.703804E+02  6.307048E+05  1.907132E+04  9.095158E+01
      9410   1 -9.733400E+06 -1.458913E+02 -6.852056E+02  6.158934E+05  1.089088E+04  7.377046E+01
      9411   1 -9.733543E+06 -2.526152E+02 -1.011264E+03  6.110967E+05  2.797532E-02  2.424545E-02
      9412   1 -9.733400E+06 -1.458926E+02 -6.852074E+02  6.158934E+05 -1.089083E+04 -7.372319E+01
      9413   1 -9.733489E+06 -2.299356E+02 -8.703814E+02  6.307048E+05 -1.907127E+04 -9.091146E+01
      9414   1 -9.733437E+06 -7.605437E+02 -1.841956E+02  6.575685E+05 -2.136782E+04 -3.390626E+02
      9415   1 -9.732814E+06  3.130719E+02  6.306891E+02  7.010097E+05 -1.675538E+04  8.555711E+02
      9416   1 -9.733280E+06  9.497440E+02 -1.418925E+03  7.642281E+05 -6.642078E+03 -8.551190E+01
      9417   1 -1.297611E+07  1.657327E+03  2.559266E+03  5.227687E+05  1.217252E+04 -8.025972E+02
      9418   1 -1.297805E+07 -1.013350E+03 -6.554479E+02  4.661104E+05  3.333751E+04  7.822112E+02
      9419   1 -1.297812E+07 -4.189362E+02 -1.458244E+03  4.350906E+05  4.075531E+04  5.591803E+02
      9420   1 -1.297787E+07  6.118292E+01 -1.192750E+03  4.171033E+05  3.372440E+04  1.643081E+02
      9421   1 -1.297810E+07 -3.803993E+02 -1.429197E+03  4.071877E+05  1.884678E+04  1.370949E+02
      9422   1 -1.297785E+07  1.881059E+02 -1.233175E+03  4.041610E+05  3.240461E-02  1.598677E-02
      9423   1 -1.297810E+07 -3.803997E+02 -1.429198E+03  4.071877E+05 -1.884672E+04 -1.370634E+02
      9424   1 -1.297787E+07  6.118265E+01 -1.192750E+03  4.171033E+05 -3.372435E+04 -1.642824E+02
      9425   1 -1.297812E+07 -4.189394E+02 -1.458247E+03  4.350906E+05 -4.075526E+04 -5.591609E+02
      9426   1 -1.297805E+07 -1.013356E+03 -6.554484E+02  4.661104E+05 -3.333748E+04 -7.822017E+02
      9427   1 -1.297611E+07  1.657319E+03  2.559258E+03  5.227687E+05 -1.217251E+04  8.026000E+02
      9428   1 -1.622314E+07  1.141391E+03 -4.965676E+03  1.920011E+05  3.281552E+04  1.234945E+03
      9429   1 -1.622343E+07 -1.465742E+03 -3.253154E+03  1.649970E+05  7.094651E+04  7.603979E+02
      9430   1 -1.622236E+07  7.593708E+02 -2.239053E+03  1.546710E+05  7.223703E+04  1.488255E+02
      9431   1 -1.622275E+07 -6.706070E+02 -1.980765E+03  1.478530E+05  5.632984E+04  1.778048E+02
      9432   1 -1.622229E+07  4.859069E+02 -1.732876E+03  1.445899E+05  3.040080E+04  2.505427E+01
      9433   1 -1.622262E+07 -5.004055E+02 -1.746075E+03  1.433907E+05  3.262315E-02  5.527886E-03
      9434   1 -1.622229E+07  4.859065E+02 -1.732873E+03  1.445899E+05 -3.040073E+04 -2.504259E+01
      9435   1 -1.622275E+07 -6.706078E+02 -1.980760E+03  1.478530E+05 -5.632979E+04 -1.777962E+02
      9436   1 -1.622236E+07  7.593713E+02 -2.239046E+03  1.546711E+05 -7.223698E+04 -1.488183E+02
      9437   1 -1.622343E+07 -1.465737E+03 -3.253149E+03  1.649970E+05 -7.094648E+04 -7.603955E+02
      9438   1 -1.622314E+07  1.141402E+03 -4.965672E+03  1.920011E+05 -3.281551E+04 -1.234943E+03
      9439   1  1.590504E+07 -1.118998E+03  4.868337E+03  1.920011E+05 -3.281552E+04  1.210729E+03
      9440   1  1.590533E+07  1.436995E+03  3.189342E+03  1.649970E+05 -7.094651E+04  7.454889E+02
      9441   1  1.590428E+07 -7.444717E+02  2.195174E+03  1.546710E+05 -7.223704E+04  1.459074E+02
      9442   1  1.590466E+07  6.574435E+02  1.941898E+03  1.478529E+05 -5.632985E+04  1.743206E+02
      9443   1  1.590420E+07 -4.763769E+02  1.698918E+03  1.445899E+05 -3.040081E+04  2.456407E+01
      9444   1  1.590453E+07  4.905751E+02  1.711806E+03  1.433907E+05 -4.568226E-02  8.061396E-03
      9445   1  1.590420E+07 -4.763771E+02  1.698914E+03  1.445899E+05  3.040073E+04 -2.455047E+01
      9446   1  1.590466E+07  6.574409E+02  1.941889E+03  1.478530E+05  5.632977E+04 -1.743076E+02
      9447   1  1.590428E+07 -7.444779E+02  2.195165E+03  1.546711E+05  7.223697E+04 -1.459000E+02
      9448   1  1.590533E+07  1.436983E+03  3.189331E+03  1.649970E+05  7.094647E+04 -7.454843E+02
      9449   1  1.590504E+07 -1.119013E+03  4.868332E+03  1.920011E+05  3.281551E+04 -1.210729E+03
      9450   1  1.272168E+07 -1.624818E+03 -2.509049E+03  5.227687E+05 -1.217252E+04 -7.868589E+02
      9451   1  1.272358E+07  9.934670E+02  6.425596E+02  4.661104E+05 -3.333751E+04  7.668767E+02
      9452   1  1.272365E+07  4.107356E+02  1.429683E+03  4.350906E+05 -4.075531E+04  5.482189E+02
      9453   1  1.272341E+07 -5.999136E+01  1.169329E+03  4.171033E+05 -3.372441E+04  1.610915E+02
      9454   1  1.272363E+07  3.729610E+02  1.401206E+03  4.071877E+05 -1.884679E+04  1.344111E+02
      9455   1  1.272338E+07 -1.844220E+02  1.208963E+03  4.041610E+05 -4.333218E-02  2.167745E-02
      9456   1  1.272363E+07  3.729620E+02  1.401207E+03  4.071877E+05  1.884671E+04 -1.343715E+02
      9457   1  1.272341E+07 -5.998773E+01  1.169330E+03  4.171033E+05  3.372433E+04 -1.610561E+02
      9458   1  1.272365E+07  4.107435E+02  1.429686E+03  4.350906E+05  4.075526E+04 -5.481944E+02
      9459   1  1.272358E+07  9.934791E+02  6.425651E+02  4.661105E+05  3.333747E+04 -7.668619E+02
      9460   1  1.272168E+07 -1.624810E+03 -2.509044E+03  5.227687E+05  1.217251E+04  7.868628E+02
      9461   1  9.542432E+06 -9.310886E+02  1.391147E+03  7.642280E+05 -6.642088E+03  8.384203E+01
      9462   1  9.541975E+06 -3.069410E+02 -6.183619E+02  7.010096E+05 -1.675541E+04 -8.387737E+02
      9463   1  9.542586E+06  7.456446E+02  1.806194E+02  6.575685E+05 -2.136786E+04  3.324494E+02
      9464   1  9.542636E+06  2.254059E+02  8.532698E+02  6.307048E+05 -1.907132E+04  8.917517E+01
      9465   1  9.542549E+06  1.430401E+02  6.718045E+02  6.158934E+05 -1.089089E+04  7.233096E+01
      9466   1  9.542689E+06  2.476396E+02  9.913908E+02  6.110967E+05 -3.629717E-02  3.215672E-02
      9467   1  9.542549E+06  1.430408E+02  6.718056E+02  6.158934E+05  1.089082E+04 -7.227063E+01
      9468   1  9.542636E+06  2.254063E+02  8.532723E+02  6.307048E+05  1.907126E+04 -8.912171E+01
      9469   1  9.542586E+06  7.456415E+02  1.806193E+02  6.575685E+05  2.136781E+04 -3.324097E+02
      9470   1  9.541975E+06 -3.069494E+02 -6.183631E+02  7.010097E+05  1.675537E+04  8.387989E+02
      9471   1  9.542432E+06 -9.311083E+02  1.391142E+03  7.642281E+05  6.642076E+03 -8.383485E+01
      9472   1  6.361038E+06 -6.731508E+02 -7.888007E+02  9.329138E+05 -3.075391E+03 -3.338406E+02
      9473   1  6.361655E+06 -3.570876E+01  4.445706E+02  8.659395E+05 -8.493748E+03  2.684336E+01
      9474   1  6.361519E+06  1.205991E+01 -1.526064E+01  8.176718E+05 -1.088443E+04 -6.363134E+02
      9475   1  6.361706E+06  4.389343E+02  1.256206E+02  7.853650E+05 -9.832562E+03  9.856697E+01
      9476   1  6.361755E+06  1.517223E+02  5.597716E+02  7.671564E+05 -5.811829E+03 -9.641587E+01
      9477   1  6.361701E+06  2.125775E+02  3.357787E+02  7.612532E+05 -2.615491E-02  3.994221E-02
      9478   1  6.361755E+06  1.517237E+02  5.597729E+02  7.671564E+05  5.811778E+03  9.649134E+01
      9479   1  6.361706E+06  4.389381E+02  1.256236E+02  7.853650E+05  9.832517E+03 -9.849913E+01
      9480   1  6.361519E+06  1.206729E+01 -1.525686E+01  8.176718E+05  1.088439E+04  6.363658E+02
      9481   1  6.361655E+06 -3.569889E+01  4.445760E+02  8.659396E+05  8.493724E+03 -2.680771E+01
      9482   1  6.361038E+06 -6.731462E+02 -7.887959E+02  9.329139E+05  3.075383E+03  3.338527E+02
      9483   1  3.180775E+06 -3.054322E+02  3.494506E+02  1.032769E+06 -1.354279E+03 -4.412155E+01
      9484   1  3.180641E+06 -1.374685E+02 -2.245323E+02  9.644274E+05 -3.495950E+03 -6.457635E+02
      9485   1  3.180840E+06  1.449716E+02  9.603377E+01  9.135277E+05 -4.584908E+03 -4.490862E+01
      9486   1  3.180819E+06  5.576818E+01  1.219477E+02  8.788894E+05 -4.176457E+03 -5.018518E+02
      9487   1  3.180852E+06  2.035016E+02  7.494980E+01  8.587673E+05 -2.459787E+03  8.686218E+00
      9488   1  3.180877E+06  7.707312E+01  2.779036E+02  8.522425E+05 -1.367347E-02  4.475244E-02
      9489   1  3.180852E+06  2.035021E+02  7.495044E+01  8.587673E+05  2.459761E+03 -8.601322E+00
      9490   1  3.180819E+06  5.576837E+01  1.219486E+02  8.788895E+05  4.176433E+03  5.019286E+02
      9491   1  3.180840E+06  1.449688E+02  9.603304E+01  9.135278E+05  4.584889E+03  4.496861E+01
      9492   1  3.180641E+06 -1.374771E+02 -2.245351E+02  9.644275E+05  3.495937E+03  6.458041E+02
      9493   1  3.180775E+06 -3.054490E+02  3.494454E+02  1.032769E+06  1.354274E+03  4.413472E+01
      9494   1 -2.720957E-03  1.668076E-03  9.962231E-04  1.065912E+06  4.626421E-04 -2.594547E+02
      9495   1  1.773344E-03  1.202119E-02  2.378989E-03  9.970620E+05  9.875177E-04 -1.092014E+02
      9496   1  6.446352E-03  2.739701E-02  1.112010E-02  9.455724E+05  1.177041E-03 -6.904910E+02
      9497   1  9.449567E-03  3.658126E-02  1.165886E-02  9.100684E+05  1.033682E-03 -4.231858E+01
      9498   1  1.151714E-02  4.291772E-02  1.669377E-02  8.894857E+05  6.251634E-04 -2.868348E+02
      9499   1  1.176912E-02  4.318506E-02  1.397846E-02  8.826903E+05 -2.468277E-05  4.639531E-02
      9500   1  1.148522E-02  4.294317E-02  1.669389E-02  8.894857E+05 -5.795431E-04  2.869229E+02
      9501   1  9.573818E-03  3.744183E-02  1.199051E-02  9.100685E+05 -1.084830E-03  4.239857E+01
      9502   1  7.062435E-03  3.109141E-02  1.252638E-02  9.455725E+05 -1.201037E-03  6.905542E+02
      9503   1  3.549650E-03  2.085746E-02  5.933857E-03  9.970621E+05 -1.044891E-03  1.092453E+02
      9504   1  6.304379E-05  1.487367E-02  6.233314E-03  1.065912E+06 -3.819287E-04  2.594699E+02
      9505   1 -3.180775E+06  3.054409E+02 -3.494388E+02  1.032769E+06  1.354280E+03 -4.412162E+01
      9506   1 -3.180641E+06  1.374456E+02  2.245125E+02  9.644274E+05  3.495952E+03 -6.457635E+02
      9507   1 -3.180840E+06 -1.450161E+02 -9.604489E+01  9.135277E+05  4.584911E+03 -4.490858E+01
      9508   1 -3.180819E+06 -5.584116E+01 -1.219883E+02  8.788894E+05  4.176459E+03 -5.018518E+02
      9509   1 -3.180852E+06 -2.035774E+02 -7.497437E+01  8.587673E+05  2.459789E+03  8.686229E+00
      9510   1 -3.180877E+06 -7.715948E+01 -2.779500E+02  8.522425E+05  1.355948E-02  4.475405E-02
      9511   1 -3.180852E+06 -2.035780E+02 -7.497494E+01  8.587673E+05 -2.459762E+03 -8.601343E+00
      9512   1 -3.180819E+06 -5.584311E+01 -1.219899E+02  8.788895E+05 -4.176435E+03  5.019286E+02
      9513   1 -3.180840E+06 -1.450207E+02 -9.604681E+01  9.135278E+05 -4.584892E+03  4.496858E+01
      9514   1 -3.180641E+06  1.374366E+02  2.245081E+02  9.644275E+05 -3.495939E+03  6.458041E+02
      9515   1 -3.180775E+06  3.054312E+02 -3.494440E+02  1.032769E+06 -1.354275E+03  4.413473E+01
      9516   1 -6.361038E+06  6.731637E+02  7.888341E+02  9.329138E+05  3.075393E+03 -3.338405E+02
      9517   1 -6.361655E+06  3.572120E+01 -4.445967E+02  8.659395E+05  8.493750E+03  2.684338E+01
      9518   1 -6.361519E+06 -1.199403E+01  1.531297E+01  8.176718E+05  1.088443E+04 -6.363134E+02
      9519   1 -6.361706E+06 -4.388732E+02 -1.256280E+02  7.853650E+05  9.832564E+03  9.856699E+01
      9520   1 -6.361755E+06 -1.516247E+02 -5.597084E+02  7.671564E+05  5.811830E+03 -9.641586E+01
      9521   1 -6.361701E+06 -2.125033E+02 -3.357817E+02  7.612533E+05  2.594473E-02  3.994803E-02
      9522   1 -6.361755E+06 -1.516259E+02 -5.597095E+02  7.671564E+05 -5.811779E+03  9.649131E+01
      9523   1 -6.361706E+06 -4.388755E+02 -1.256309E+02  7.853650E+05 -9.832519E+03 -9.849913E+01
      9524   1 -6.361519E+06 -1.199370E+01  1.531276E+01  8.176718E+05 -1.088439E+04  6.363658E+02
      9525   1 -6.361655E+06  3.572871E+01 -4.445961E+02  8.659396E+05 -8.493726E+03 -2.680771E+01
      9526   1 -6.361038E+06  6.731861E+02  7.888408E+02  9.329139E+05 -3.075384E+03  3.338527E+02
      9527   1 -9.542432E+06  9.311180E+02 -1.391073E+03  7.642280E+05  6.642089E+03  8.384183E+01
      9528   1 -9.541975E+06  3.068941E+02  6.182812E+02  7.010096E+05  1.675541E+04 -8.387738E+02
      9529   1 -9.542586E+06 -7.456679E+02 -1.805696E+02  6.575685E+05  2.136786E+04  3.324495E+02
      9530   1 -9.542636E+06 -2.255043E+02 -8.533697E+02  6.307048E+05  1.907133E+04  8.917515E+01
      9531   1 -9.542549E+06 -1.430943E+02 -6.717682E+02  6.158934E+05  1.089089E+04  7.233100E+01
      9532   1 -9.542689E+06 -2.477520E+02 -9.914964E+02  6.110967E+05  3.602202E-02  3.216497E-02
      9533   1 -9.542549E+06 -1.430948E+02 -6.717689E+02  6.158934E+05 -1.089082E+04 -7.227070E+01
      9534   1 -9.542636E+06 -2.255068E+02 -8.533736E+02  6.307049E+05 -1.907126E+04 -8.912167E+01
      9535   1 -9.542586E+06 -7.456719E+02 -1.805710E+02  6.575685E+05 -2.136781E+04 -3.324099E+02
      9536   1 -9.541975E+06  3.068841E+02  6.182740E+02  7.010097E+05 -1.675537E+04  8.387990E+02
      9537   1 -9.542432E+06  9.311115E+02 -1.391076E+03  7.642281E+05 -6.642078E+03 -8.383481E+01
      9538   1 -1.272168E+07  1.624854E+03  2.509159E+03  5.227687E+05  1.217252E+04 -7.868584E+02
      9539   1 -1.272358E+07 -9.934828E+02 -6.426615E+02  4.661104E+05  3.333751E+04  7.668766E+02
      9540   1 -1.272365E+07 -4.106417E+02 -1.429558E+03  4.350906E+05  4.075532E+04  5.482189E+02
      9541   1 -1.272341E+07  6.002343E+01 -1.169413E+03  4.171033E+05  3.372441E+04  1.610915E+02
      9542   1 -1.272363E+07 -3.728333E+02 -1.401071E+03  4.071877E+05  1.884680E+04  1.344111E+02
      9543   1 -1.272338E+07  1.844668E+02 -1.209042E+03  4.041610E+05  4.311689E-02  2.168060E-02
      9544   1 -1.272363E+07 -3.728340E+02 -1.401070E+03  4.071877E+05 -1.884671E+04 -1.343715E+02
      9545   1 -1.272341E+07  6.002116E+01 -1.169414E+03  4.171033E+05 -3.372434E+04 -1.610562E+02
      9546   1 -1.272365E+07 -4.106413E+02 -1.429556E+03  4.350906E+05 -4.075526E+04 -5.481944E+02
      9547   1 -1.272358E+07 -9.934776E+02 -6.426627E+02  4.661105E+05 -3.333747E+04 -7.668618E+02
      9548   1 -1.272168E+07  1.624874E+03  2.509167E+03  5.227687E+05 -1.217251E+04  7.868626E+02
      9549   1 -1.590504E+07  1.119050E+03 -4.868199E+03  1.920011E+05  3.281552E+04  1.210727E+03
      9550   1 -1.590533E+07 -1.437068E+03 -3.189485E+03  1.649970E+05  7.094651E+04  7.454901E+02
      9551   1 -1.590428E+07  7.444690E+02 -2.195062E+03  1.546711E+05  7.223704E+04  1.459067E+02
      9552   1 -1.590466E+07 -6.575700E+02 -1.942057E+03  1.478529E+05  5.632985E+04  1.743210E+02
      9553   1 -1.590420E+07  4.763427E+02 -1.698820E+03  1.445899E+05  3.040081E+04  2.456387E+01
      9554   1 -1.590453E+07 -4.907164E+02 -1.711971E+03  1.433907E+05  4.562497E-02  8.060482E-03
      9555   1 -1.590420E+07  4.763429E+02 -1.698816E+03  1.445899E+05 -3.040073E+04 -2.455028E+01
      9556   1 -1.590466E+07 -6.575695E+02 -1.942050E+03  1.478530E+05 -5.632977E+04 -1.743081E+02
      9557   1 -1.590428E+07  7.444678E+02 -2.195055E+03  1.546711E+05 -7.223698E+04 -1.458993E+02
      9558   1 -1.590533E+07 -1.437075E+03 -3.189482E+03  1.649970E+05 -7.094647E+04 -7.454854E+02
      9559   1 -1.590504E+07  1.119038E+03 -4.868202E+03  1.920011E+05 -3.281551E+04 -1.210728E+03
      9560   1  1.558694E+07 -1.096659E+03  4.770861E+03  1.920011E+05 -3.281552E+04  1.186516E+03
      9561   1  1.558722E+07  1.408314E+03  3.125668E+03  1.649970E+05 -7.094652E+04  7.305801E+02
      9562   1  1.558619E+07 -7.295696E+02  2.151186E+03  1.546710E+05 -7.223705E+04  1.429917E+02
      9563   1  1.558656E+07  6.444145E+02  1.903191E+03  1.478529E+05 -5.632986E+04  1.708355E+02
      9564   1  1.558612E+07 -4.667964E+02  1.664869E+03  1.445899E+05 -3.040083E+04  2.407603E+01
      9565   1  1.558644E+07  4.809032E+02  1.677708E+03  1.433907E+05 -5.796231E-02  9.282967E-03
      9566   1  1.558612E+07 -4.667959E+02  1.664863E+03  1.445899E+05  3.040071E+04 -2.405602E+01
      9567   1  1.558656E+07  6.444187E+02  1.903186E+03  1.478530E+05  5.632976E+04 -1.708209E+02
      9568   1  1.558619E+07 -7.295612E+02  2.151176E+03  1.546711E+05  7.223696E+04 -1.429791E+02
      9569   1  1.558722E+07  1.408330E+03  3.125670E+03  1.649970E+05  7.094646E+04 -7.305757E+02
      9570   1  1.558694E+07 -1.096645E+03  4.770863E+03  1.920011E+05  3.281551E+04 -1.186512E+03
      9571   1  1.246724E+07 -1.592356E+03 -2.458969E+03  5.227687E+05 -1.217252E+04 -7.711215E+02
      9572   1  1.246911E+07  9.736115E+02  6.298000E+02  4.661104E+05 -3.333752E+04  7.515397E+02
      9573   1  1.246917E+07  4.024309E+02  1.400973E+03  4.350906E+05 -4.075532E+04  5.372590E+02
      9574   1  1.246894E+07 -5.883201E+01  1.146011E+03  4.171033E+05 -3.372442E+04  1.578740E+02
      9575   1  1.246915E+07  3.653714E+02  1.373052E+03  4.071877E+05 -1.884681E+04  1.317302E+02
      9576   1  1.246891E+07 -1.807911E+02  1.184845E+03  4.041610E+05 -5.636709E-02  2.684742E-02
      9577   1  1.246915E+07  3.653717E+02  1.373052E+03  4.071877E+05  1.884670E+04 -1.316767E+02
      9578   1  1.246894E+07 -5.883330E+01  1.146011E+03  4.171033E+05  3.372432E+04 -1.578305E+02
      9579   1  1.246917E+07  4.024257E+02  1.400971E+03  4.350906E+05  4.075524E+04 -5.372255E+02
      9580   1  1.246911E+07  9.735996E+02  6.297959E+02  4.661105E+05  3.333747E+04 -7.515232E+02
      9581   1  1.246724E+07 -1.592376E+03 -2.458973E+03  5.227687E+05  1.217251E+04  7.711267E+02
      9582   1  9.351583E+06 -9.124925E+02  1.363240E+03  7.642280E+05 -6.642090E+03  8.216856E+01
      9583   1  9.351135E+06 -3.007495E+02 -6.059056E+02  7.010096E+05 -1.675541E+04 -8.219939E+02
      9584   1  9.351734E+06  7.307544E+02  1.769471E+02  6.575684E+05 -2.136787E+04  3.258080E+02
      9585   1  9.351783E+06  2.210058E+02  8.363124E+02  6.307048E+05 -1.907134E+04  8.739927E+01
      9586   1  9.351698E+06  1.402393E+02  6.583244E+02  6.158934E+05 -1.089090E+04  7.089447E+01
      9587   1  9.351835E+06  2.428122E+02  9.716766E+02  6.110967E+05 -4.803558E-02  4.049842E-02
      9588   1  9.351698E+06  1.402412E+02  6.583268E+02  6.158934E+05  1.089081E+04 -7.081514E+01
      9589   1  9.351783E+06  2.210107E+02  8.363158E+02  6.307049E+05  1.907125E+04 -8.733181E+01
      9590   1  9.351734E+06  7.307650E+02  1.769540E+02  6.575685E+05  2.136780E+04 -3.257544E+02
      9591   1  9.351135E+06 -3.007370E+02 -6.058999E+02  7.010097E+05  1.675537E+04  8.220264E+02
      9592   1  9.351583E+06 -9.124879E+02  1.363248E+03  7.642281E+05  6.642074E+03 -8.215570E+01
      9593   1  6.233817E+06 -6.597080E+02 -7.730813E+02  9.329138E+05 -3.075392E+03 -3.271623E+02
      9594   1  6.234422E+06 -3.499878E+01  4.357259E+02  8.659395E+05 -8.493752E+03  2.630999E+01
      9595   1  6.234289E+06  1.174339E+01 -1.503184E+01  8.176718E+05 -1.088443E+04 -6.235787E+02
      9596   1  6.234472E+06  4.300985E+02  1.231318E+02  7.853650E+05 -9.832570E+03  9.660493E+01
      9597   1  6.234520E+06  1.485759E+02  5.484866E+02  7.671564E+05 -5.811836E+03 -9.447529E+01
      9598   1  6.234467E+06  2.082534E+02  3.290805E+02  7.612532E+05 -3.447976E-02  5.031685E-02
      9599   1  6.234520E+06  1.485771E+02  5.484884E+02  7.671564E+05  5.811770E+03  9.457383E+01
      9600   1  6.234472E+06  4.300993E+02  1.231337E+02  7.853650E+05  9.832510E+03 -9.651965E+01
      9601   1  6.234289E+06  1.174095E+01 -1.503094E+01  8.176718E+05  1.088438E+04  6.236476E+02
      9602   1  6.234422E+06 -3.500904E+01  4.357225E+02  8.659396E+05  8.493720E+03 -2.626703E+01
      9603   1  6.233817E+06 -6.597307E+02 -7.730862E+02  9.329139E+05  3.075381E+03  3.271782E+02
      9604   1  3.117159E+06 -2.993332E+02  3.424305E+02  1.032769E+06 -1.354279E+03 -4.323478E+01
      9605   1  3.117028E+06 -1.346843E+02 -2.200031E+02  9.644274E+05 -3.495952E+03 -6.328415E+02
      9606   1  3.117223E+06  1.421160E+02  9.410569E+01  9.135277E+05 -4.584911E+03 -4.399970E+01
      9607   1  3.117202E+06  5.474210E+01  1.195683E+02  8.788894E+05 -4.176461E+03 -4.918039E+02
      9608   1  3.117235E+06  1.995105E+02  7.345776E+01  8.587673E+05 -2.459791E+03  8.526208E+00
      9609   1  3.117260E+06  7.563652E+01  2.724109E+02  8.522425E+05 -1.796185E-02  5.628824E-02
      9610   1  3.117235E+06  1.995116E+02  7.345880E+01  8.587673E+05  2.459757E+03 -8.415605E+00
      9611   1  3.117202E+06  5.474519E+01  1.195701E+02  8.788895E+05  4.176429E+03  4.919007E+02
      9612   1  3.117223E+06  1.421231E+02  9.410927E+01  9.135278E+05  4.584886E+03  4.407947E+01
      9613   1  3.117028E+06 -1.346734E+02 -2.199981E+02  9.644275E+05  3.495935E+03  6.328936E+02
      9614   1  3.117159E+06 -2.993236E+02  3.424371E+02  1.032769E+06  1.354273E+03  4.325541E+01
      9615   1 -2.521820E-03  2.118731E-03 -1.110769E-03  1.065912E+06  5.770605E-04 -2.542636E+02
      9616   1 -4.425500E-03 -1.149155E-02 -3.803326E-03  9.970620E+05  1.599944E-03 -1.070130E+02
      9617   1 -6.409043E-03 -3.060218E-02 -1.492657E-02  9.455724E+05  1.830816E-03 -6.766711E+02
      9618   1 -7.037501E-03 -4.207597E-02 -1.667681E-02  9.100684E+05  1.492414E-03 -4.146130E+01
      9619   1 -7.486781E-03 -4.963497E-02 -2.290753E-02  8.894857E+05  7.745314E-04 -2.810840E+02
      9620   1 -7.147043E-03 -5.004092E-02 -2.009709E-02  8.826903E+05  3.704021E-05  5.835692E-02
      9621   1 -7.440551E-03 -4.962661E-02 -2.289309E-02  8.894857E+05 -8.458306E-04  2.811986E+02
      9622   1 -7.198905E-03 -4.308333E-02 -1.705109E-02  9.100685E+05 -1.416817E-03  4.156173E+01
      9623   1 -7.156184E-03 -3.501164E-02 -1.661120E-02  9.455725E+05 -1.811287E-03  6.767537E+02
      9624   1 -6.632667E-03 -2.229343E-02 -8.144274E-03  9.970621E+05 -1.526315E-03  1.070659E+02
      9625   1 -6.009396E-03 -1.418340E-02 -7.562315E-03  1.065912E+06 -6.797036E-04  2.542836E+02
      9626   1 -3.117159E+06  2.993297E+02 -3.424449E+02  1.032769E+06  1.354280E+03 -4.323470E+01
      9627   1 -3.117028E+06  1.347181E+02  2.200253E+02  9.644274E+05  3.495954E+03 -6.328414E+02
      9628   1 -3.117223E+06 -1.420556E+02 -9.409440E+01  9.135277E+05  4.584913E+03 -4.399971E+01
      9629   1 -3.117202E+06 -5.464735E+01 -1.195234E+02  8.788894E+05  4.176463E+03 -4.918039E+02
      9630   1 -3.117235E+06 -1.994120E+02 -7.343240E+01  8.587673E+05  2.459792E+03  8.526211E+00
      9631   1 -3.117260E+06 -7.552561E+01 -2.723603E+02  8.522425E+05  1.811592E-02  5.628785E-02
      9632   1 -3.117235E+06 -1.994131E+02 -7.343356E+01  8.587673E+05 -2.459758E+03 -8.415609E+00
      9633   1 -3.117202E+06 -5.464842E+01 -1.195243E+02  8.788895E+05 -4.176432E+03  4.919006E+02
      9634   1 -3.117223E+06 -1.420538E+02 -9.409486E+01  9.135278E+05 -4.584889E+03  4.407948E+01
      9635   1 -3.117028E+06  1.347289E+02  2.200292E+02  9.644275E+05 -3.495938E+03  6.328935E+02
      9636   1 -3.117159E+06  2.993526E+02 -3.424389E+02  1.032769E+06 -1.354274E+03  4.325540E+01
      9637   1 -6.233817E+06  6.596992E+02  7.730411E+02  9.329138E+05  3.075393E+03 -3.271625E+02
      9638   1 -6.234422E+06  3.498859E+01 -4.356960E+02  8.659395E+05  8.493756E+03  2.631002E+01
      9639   1 -6.234289E+06 -1.181929E+01  1.496539E+01  8.176718E+05  1.088443E+04 -6.235786E+02
      9640   1 -6.234472E+06 -4.301692E+02 -1.231277E+02  7.853650E+05  9.832573E+03  9.660495E+01
      9641   1 -6.234520E+06 -1.486907E+02 -5.485686E+02  7.671564E+05  5.811837E+03 -9.447525E+01
      9642   1 -6.234467E+06 -2.083399E+02 -3.290829E+02  7.612533E+05  3.473932E-02  5.028493E-02
      9643   1 -6.234520E+06 -1.486921E+02 -5.485707E+02  7.671564E+05 -5.811771E+03  9.457384E+01
      9644   1 -6.234472E+06 -4.301719E+02 -1.231296E+02  7.853650E+05 -9.832513E+03 -9.651972E+01
      9645   1 -6.234289E+06 -1.182615E+01  1.496014E+01  8.176719E+05 -1.088439E+04  6.236475E+02
      9646   1 -6.234422E+06  3.497761E+01 -4.356997E+02  8.659396E+05 -8.493724E+03 -2.626709E+01
      9647   1 -6.233817E+06  6.596885E+02  7.730316E+02  9.329139E+05 -3.075382E+03  3.271783E+02
      9648   1 -9.351583E+06  9.124606E+02 -1.363332E+03  7.642280E+05  6.642091E+03  8.216884E+01
      9649   1 -9.351135E+06  3.008102E+02  6.060028E+02  7.010096E+05  1.675542E+04 -8.219938E+02
      9650   1 -9.351734E+06 -7.307225E+02 -1.770108E+02  6.575685E+05  2.136787E+04  3.258079E+02
      9651   1 -9.351783E+06 -2.208822E+02 -8.361947E+02  6.307048E+05  1.907134E+04  8.739937E+01
      9652   1 -9.351698E+06 -1.401698E+02 -6.583740E+02  6.158934E+05  1.089090E+04  7.089447E+01
      9653   1 -9.351835E+06 -2.426717E+02 -9.715532E+02  6.110967E+05  4.832339E-02  4.046703E-02
      9654   1 -9.351698E+06 -1.401719E+02 -6.583769E+02  6.158934E+05 -1.089081E+04 -7.081509E+01
      9655   1 -9.351783E+06 -2.208847E+02 -8.361963E+02  6.307049E+05 -1.907126E+04 -8.733194E+01
      9656   1 -9.351734E+06 -7.307245E+02 -1.770160E+02  6.575685E+05 -2.136780E+04 -3.257543E+02
      9657   1 -9.351135E+06  3.008202E+02  6.060074E+02  7.010097E+05 -1.675537E+04  8.220263E+02
      9658   1 -9.351583E+06  9.124881E+02 -1.363329E+03  7.642281E+05 -6.642075E+03 -8.215578E+01
      9659   1 -1.246724E+07  1.592314E+03  2.458834E+03  5.227687E+05  1.217252E+04 -7.711221E+02
      9660   1 -1.246911E+07 -9.735901E+02 -6.296767E+02  4.661104E+05  3.333753E+04  7.515399E+02
      9661   1 -1.246917E+07 -4.025446E+02 -1.401130E+03  4.350906E+05  4.075532E+04  5.372591E+02
      9662   1 -1.246894E+07  5.879413E+01 -1.145913E+03  4.171033E+05  3.372443E+04  1.578740E+02
      9663   1 -1.246915E+07 -3.655264E+02 -1.373224E+03  4.071877E+05  1.884681E+04  1.317302E+02
      9664   1 -1.246891E+07  1.807378E+02 -1.184754E+03  4.041610E+05  5.653846E-02  2.683151E-02
      9665   1 -1.246915E+07 -3.655271E+02 -1.373225E+03  4.071877E+05 -1.884670E+04 -1.316768E+02
      9666   1 -1.246894E+07  5.879388E+01 -1.145912E+03  4.171033E+05 -3.372433E+04 -1.578305E+02
      9667   1 -1.246917E+07 -4.025494E+02 -1.401134E+03  4.350906E+05 -4.075525E+04 -5.372256E+02
      9668   1 -1.246911E+07 -9.735994E+02 -6.296776E+02  4.661105E+05 -3.333747E+04 -7.515233E+02
      9669   1 -1.246724E+07  1.592299E+03  2.458822E+03  5.227688E+05 -1.217251E+04  7.711270E+02
      9670   1 -1.558694E+07  1.096596E+03 -4.771031E+03  1.920010E+05  3.281553E+04  1.186518E+03
      9671   1 -1.558722E+07 -1.408224E+03 -3.125495E+03  1.649970E+05  7.094652E+04  7.305787E+02
      9672   1 -1.558619E+07  7.295733E+02 -2.151327E+03  1.546710E+05  7.223705E+04  1.429926E+02
      9673   1 -1.558656E+07 -6.442589E+02 -1.903002E+03  1.478529E+05  5.632986E+04  1.708350E+02
      9674   1 -1.558612E+07  4.668386E+02 -1.664996E+03  1.445899E+05  3.040083E+04  2.407629E+01
      9675   1 -1.558644E+07 -4.807298E+02 -1.677513E+03  1.433907E+05  5.791531E-02  9.282003E-03
      9676   1 -1.558612E+07  4.668380E+02 -1.664990E+03  1.445899E+05 -3.040071E+04 -2.405628E+01
      9677   1 -1.558656E+07 -6.442607E+02 -1.902994E+03  1.478530E+05 -5.632976E+04 -1.708203E+02
      9678   1 -1.558619E+07  7.295737E+02 -2.151316E+03  1.546711E+05 -7.223696E+04 -1.429799E+02
      9679   1 -1.558722E+07 -1.408217E+03 -3.125487E+03  1.649970E+05 -7.094647E+04 -7.305744E+02
      9680   1 -1.558694E+07  1.096615E+03 -4.771024E+03  1.920011E+05 -3.281551E+04 -1.186514E+03
      9681   1  1.526884E+07 -1.074248E+03  4.673581E+03  1.920011E+05 -3.281553E+04  1.162298E+03
      9682   1  1.526911E+07  1.379518E+03  3.061790E+03  1.649970E+05 -7.094652E+04  7.156714E+02
      9683   1  1.526811E+07 -7.147139E+02  2.107344E+03  1.546710E+05 -7.223706E+04  1.400734E+02
      9684   1  1.526847E+07  6.311341E+02  1.864238E+03  1.478529E+05 -5.632988E+04  1.673526E+02
      9685   1  1.526804E+07 -4.573529E+02  1.630935E+03  1.445899E+05 -3.040084E+04  2.358606E+01
      9686   1  1.526835E+07  4.709358E+02  1.643345E+03  1.433907E+05 -8.103638E-02  1.347861E-02
      9687   1  1.526804E+07 -4.573529E+02  1.630930E+03  1.445899E+05  3.040069E+04 -2.356379E+01
      9688   1  1.526847E+07  6.311298E+02  1.864223E+03  1.478530E+05  5.632974E+04 -1.673306E+02
      9689   1  1.526811E+07 -7.147225E+02  2.107333E+03  1.546711E+05  7.223695E+04 -1.400612E+02
      9690   1  1.526911E+07  1.379499E+03  3.061772E+03  1.649970E+05  7.094645E+04 -7.156631E+02
      9691   1  1.526884E+07 -1.074268E+03  4.673576E+03  1.920011E+05  3.281550E+04 -1.162300E+03
      9692   1  1.221281E+07 -1.559825E+03 -2.408703E+03  5.227687E+05 -1.217253E+04 -7.553826E+02
      9693   1  1.221464E+07  9.537407E+02  6.168758E+02  4.661104E+05 -3.333753E+04  7.362076E+02
      9694   1  1.221470E+07  3.943130E+02  1.372484E+03  4.350906E+05 -4.075534E+04  5.262990E+02
      9695   1  1.221447E+07 -5.756592E+01  1.122580E+03  4.171033E+05 -3.372444E+04  1.546604E+02
      9696   1  1.221468E+07  3.580590E+02  1.345150E+03  4.071877E+05 -1.884682E+04  1.290482E+02
      9697   1  1.221444E+07 -1.770146E+02  1.160630E+03  4.041610E+05 -7.497686E-02  3.579025E-02
      9698   1  1.221468E+07  3.580606E+02  1.345151E+03  4.071877E+05  1.884668E+04 -1.289831E+02
      9699   1  1.221447E+07 -5.756042E+01  1.122582E+03  4.171033E+05  3.372431E+04 -1.546014E+02
      9700   1  1.221470E+07  3.943248E+02  1.372489E+03  4.350906E+05  4.075523E+04 -5.262580E+02
      9701   1  1.221464E+07  9.537578E+02  6.168839E+02  4.661105E+05  3.333746E+04 -7.361817E+02
      9702   1  1.221281E+07 -1.559817E+03 -2.408697E+03  5.227688E+05  1.217250E+04  7.553896E+02
      9703   1  9.160735E+06 -8.938513E+02  1.335487E+03  7.642280E+05 -6.642092E+03  8.049053E+01
      9704   1  9.160296E+06 -2.946664E+02 -5.936174E+02  7.010096E+05 -1.675542E+04 -8.052139E+02
      9705   1  9.160882E+06  7.157992E+02  1.733757E+02  6.575684E+05 -2.136788E+04  3.191650E+02
      9706   1  9.160931E+06  2.163744E+02  8.191437E+02  6.307048E+05 -1.907135E+04  8.562648E+01
      9707   1  9.160847E+06  1.372905E+02  6.449105E+02  6.158934E+05 -1.089092E+04  6.945790E+01
      9708   1  9.160981E+06  2.377157E+02  9.517395E+02  6.110967E+05 -6.177367E-02  5.258251E-02
      9709   1  9.160847E+06  1.372915E+02  6.449123E+02  6.158934E+05  1.089080E+04 -6.935958E+01
      9710   1  9.160931E+06  2.163753E+02  8.191478E+02  6.307049E+05  1.907124E+04 -8.553837E+01
      9711   1  9.160882E+06  7.157951E+02  1.733757E+02  6.575685E+05  2.136779E+04 -3.190995E+02
      9712   1  9.160296E+06 -2.946774E+02 -5.936185E+02  7.010097E+05  1.675536E+04  8.052564E+02
      9713   1  9.160734E+06 -8.938788E+02  1.335479E+03  7.642281E+05  6.642071E+03 -8.047868E+01
      9714   1  6.106596E+06 -6.462243E+02 -7.572576E+02  9.329138E+05 -3.075394E+03 -3.204824E+02
      9715   1  6.107189E+06 -3.427135E+01  4.267989E+02  8.659395E+05 -8.493756E+03  2.578257E+01
      9716   1  6.107058E+06  1.158627E+01 -1.465451E+01  8.176718E+05 -1.088444E+04 -6.108429E+02
      9717   1  6.107238E+06  4.213986E+02  1.206118E+02  7.853650E+05 -9.832577E+03  9.464720E+01
      9718   1  6.107285E+06  1.456713E+02  5.373802E+02  7.671564E+05 -5.811846E+03 -9.253437E+01
      9719   1  6.107233E+06  2.041006E+02  3.223658E+02  7.612532E+05 -4.408705E-02  6.486131E-02
      9720   1  6.107285E+06  1.456734E+02  5.373823E+02  7.671564E+05  5.811760E+03  9.265659E+01
      9721   1  6.107238E+06  4.214044E+02  1.206164E+02  7.853650E+05  9.832501E+03 -9.453625E+01
      9722   1  6.107058E+06  1.159719E+01 -1.464886E+01  8.176719E+05  1.088438E+04  6.109290E+02
      9723   1  6.107189E+06 -3.425737E+01  4.268069E+02  8.659396E+05  8.493715E+03 -2.572287E+01
      9724   1  6.106596E+06 -6.462197E+02 -7.572508E+02  9.329139E+05  3.075379E+03  3.205026E+02
      9725   1  3.053544E+06 -2.932170E+02  3.354683E+02  1.032769E+06 -1.354280E+03 -4.235261E+01
      9726   1  3.053415E+06 -1.319755E+02 -2.155494E+02  9.644274E+05 -3.495953E+03 -6.199193E+02
      9727   1  3.053606E+06  1.391563E+02  9.218253E+01  9.135277E+05 -4.584914E+03 -4.309243E+01
      9728   1  3.053586E+06  5.351870E+01  1.170659E+02  8.788894E+05 -4.176464E+03 -4.817522E+02
      9729   1  3.053618E+06  1.953372E+02  7.193888E+01  8.587673E+05 -2.459796E+03  8.366412E+00
      9730   1  3.053642E+06  7.396861E+01  2.667827E+02  8.522425E+05 -2.291437E-02  7.238654E-02
      9731   1  3.053618E+06  1.953381E+02  7.193986E+01  8.587673E+05  2.459751E+03 -8.229548E+00
      9732   1  3.053586E+06  5.351925E+01  1.170673E+02  8.788895E+05  4.176424E+03  4.818771E+02
      9733   1  3.053606E+06  1.391525E+02  9.218152E+01  9.135278E+05  4.584882E+03  4.319006E+01
      9734   1  3.053415E+06 -1.319878E+02 -2.155534E+02  9.644275E+05  3.495932E+03  6.199863E+02
      9735   1  3.053544E+06 -2.932414E+02  3.354607E+02  1.032769E+06  1.354272E+03  4.237397E+01
      9736   1 -8.182332E-03 -3.429680E-04  8.286414E-04  1.065912E+06  7.588565E-04 -2.490710E+02
      9737   1 -3.106272E-04  1.619523E-02  4.120689E-03  9.970620E+05  1.552311E-03 -1.048178E+02
      9738   1  7.305078E-03  3.952479E-02  1.666487E-02  9.455724E+05  1.744208E-03 -6.628501E+02
      9739   1  1.222491E-02  5.387877E-02  1.868028E-02  9.100684E+05  1.433830E-03 -4.059925E+01
      9740   1  1.526503E-02  6.300452E-02  2.547529E-02  8.894857E+05  8.717568E-04 -2.753328E+02
      9741   1  1.577701E-02  6.367007E-02  2.234073E-02  8.826903E+05 -5.754132E-05  7.492772E-02
      9742   1  1.520945E-02  6.300305E-02  2.546753E-02  8.894857E+05 -7.603455E-04  2.754746E+02
      9743   1  1.239014E-02  5.501925E-02  1.910086E-02  9.100685E+05 -1.544873E-03  4.072923E+01
      9744   1  8.169721E-03  4.483525E-02  1.868970E-02  9.455725E+05 -1.757446E-03  6.629530E+02
      9745   1  2.353269E-03  2.939694E-02  9.421940E-03  9.970621E+05 -1.651996E-03  1.048905E+02
      9746   1 -3.931744E-03  1.973001E-02  8.788845E-03  1.065912E+06 -6.313862E-04  2.490960E+02
      9747   1 -3.053544E+06  2.932268E+02 -3.354514E+02  1.032769E+06  1.354281E+03 -4.235268E+01
      9748   1 -3.053415E+06  1.319387E+02  2.155216E+02  9.644274E+05  3.495957E+03 -6.199193E+02
      9749   1 -3.053606E+06 -1.392267E+02 -9.219988E+01  9.135277E+05  4.584919E+03 -4.309233E+01
      9750   1 -3.053586E+06 -5.363047E+01 -1.171242E+02  8.788894E+05  4.176467E+03 -4.817522E+02
      9751   1 -3.053618E+06 -1.954536E+02 -7.197514E+01  8.587673E+05  2.459798E+03  8.366428E+00
      9752   1 -3.053642E+06 -7.409946E+01 -2.668488E+02  8.522425E+05  2.269986E-02  7.238611E-02
      9753   1 -3.053618E+06 -1.954545E+02 -7.197594E+01  8.587673E+05 -2.459753E+03 -8.229574E+00
      9754   1 -3.053586E+06 -5.363334E+01 -1.171268E+02  8.788895E+05 -4.176428E+03  4.818771E+02
      9755   1 -3.053606E+06 -1.392335E+02 -9.220256E+01  9.135278E+05 -4.584886E+03  4.318997E+01
      9756   1 -3.053415E+06  1.319245E+02  2.155147E+02  9.644275E+05 -3.495936E+03  6.199862E+02
      9757   1 -3.053544E+06  2.932110E+02 -3.354594E+02  1.032769E+06 -1.354274E+03  4.237395E+01
      9758   1 -6.106596E+06  6.462389E+02  7.573056E+02  9.329138E+05  3.075396E+03 -3.204822E+02
      9759   1 -6.107189E+06  3.428764E+01 -4.268361E+02  8.659395E+05  8.493758E+03  2.578267E+01
      9760   1 -6.107058E+06 -1.148990E+01  1.473253E+01  8.176718E+05  1.088444E+04 -6.108429E+02
      9761   1 -6.107238E+06 -4.213078E+02 -1.206197E+02  7.853650E+05  9.832580E+03  9.464725E+01
      9762   1 -6.107285E+06 -1.455272E+02 -5.372848E+02  7.671564E+05  5.811848E+03 -9.253438E+01
      9763   1 -6.107233E+06 -2.039906E+02 -3.223666E+02  7.612533E+05  4.376725E-02  6.489221E-02
      9764   1 -6.107285E+06 -1.455292E+02 -5.372865E+02  7.671564E+05 -5.811761E+03  9.265653E+01
      9765   1 -6.107238E+06 -4.213116E+02 -1.206244E+02  7.853650E+05 -9.832504E+03 -9.453623E+01
      9766   1 -6.107058E+06 -1.148966E+01  1.473218E+01  8.176719E+05 -1.088438E+04  6.109289E+02
      9767   1 -6.107189E+06  3.429957E+01 -4.268355E+02  8.659396E+05 -8.493718E+03 -2.572292E+01
      9768   1 -6.106596E+06  6.462754E+02  7.573167E+02  9.329139E+05 -3.075381E+03  3.205025E+02
      9769   1 -9.160735E+06  8.938945E+02 -1.335375E+03  7.642280E+05  6.642094E+03  8.049025E+01
      9770   1 -9.160296E+06  2.945951E+02  5.934975E+02  7.010096E+05  1.675542E+04 -8.052139E+02
      9771   1 -9.160882E+06 -7.158360E+02 -1.733005E+02  6.575684E+05  2.136788E+04  3.191652E+02
      9772   1 -9.160931E+06 -2.165231E+02 -8.192912E+02  6.307048E+05  1.907135E+04  8.562644E+01
      9773   1 -9.160847E+06 -1.373728E+02 -6.448540E+02  6.158934E+05  1.089092E+04  6.945794E+01
      9774   1 -9.160981E+06 -2.378847E+02 -9.518945E+02  6.110967E+05  6.148554E-02  5.261598E-02
      9775   1 -9.160847E+06 -1.373736E+02 -6.448551E+02  6.158934E+05 -1.089080E+04 -6.935969E+01
      9776   1 -9.160931E+06 -2.165269E+02 -8.192974E+02  6.307049E+05 -1.907124E+04 -8.553828E+01
      9777   1 -9.160882E+06 -7.158421E+02 -1.733026E+02  6.575685E+05 -2.136780E+04 -3.190998E+02
      9778   1 -9.160296E+06  2.945785E+02  5.934859E+02  7.010097E+05 -1.675536E+04  8.052564E+02
      9779   1 -9.160734E+06  8.938822E+02 -1.335380E+03  7.642281E+05 -6.642074E+03 -8.047866E+01
      9780   1 -1.221281E+07  1.559878E+03  2.408868E+03  5.227687E+05  1.217253E+04 -7.553818E+02
      9781   1 -1.221464E+07 -9.537656E+02 -6.170286E+02  4.661104E+05  3.333753E+04  7.362075E+02
      9782   1 -1.221470E+07 -3.941722E+02 -1.372293E+03  4.350906E+05  4.075534E+04  5.262989E+02
      9783   1 -1.221447E+07  5.761376E+01 -1.122703E+03  4.171033E+05  3.372444E+04  1.546605E+02
      9784   1 -1.221468E+07 -3.578677E+02 -1.344943E+03  4.071877E+05  1.884683E+04  1.290481E+02
      9785   1 -1.221444E+07  1.770810E+02 -1.160746E+03  4.041610E+05  7.490922E-02  3.580363E-02
      9786   1 -1.221468E+07 -3.578689E+02 -1.344943E+03  4.071877E+05 -1.884668E+04 -1.289831E+02
      9787   1 -1.221447E+07  5.760995E+01 -1.122706E+03  4.171033E+05 -3.372431E+04 -1.546015E+02
      9788   1 -1.221470E+07 -3.941720E+02 -1.372292E+03  4.350906E+05 -4.075524E+04 -5.262579E+02
      9789   1 -1.221464E+07 -9.537571E+02 -6.170305E+02  4.661105E+05 -3.333746E+04 -7.361817E+02
      9790   1 -1.221281E+07  1.559913E+03  2.408882E+03  5.227688E+05 -1.217251E+04  7.553892E+02
      9791   1 -1.526884E+07  1.074327E+03 -4.673373E+03  1.920011E+05  3.281553E+04  1.162295E+03
      9792   1 -1.526911E+07 -1.379627E+03 -3.062004E+03  1.649970E+05  7.094653E+04  7.156731E+02
      9793   1 -1.526811E+07  7.147096E+02 -2.107174E+03  1.546710E+05  7.223707E+04  1.400724E+02
      9794   1 -1.526847E+07 -6.313246E+02 -1.864475E+03  1.478529E+05  5.632988E+04  1.673532E+02
      9795   1 -1.526804E+07  4.573017E+02 -1.630784E+03  1.445899E+05  3.040084E+04  2.358576E+01
      9796   1 -1.526835E+07 -4.711478E+02 -1.643589E+03  1.433907E+05  8.127626E-02  1.347188E-02
      9797   1 -1.526804E+07  4.573020E+02 -1.630778E+03  1.445899E+05 -3.040070E+04 -2.356348E+01
      9798   1 -1.526847E+07 -6.313231E+02 -1.864462E+03  1.478530E+05 -5.632974E+04 -1.673312E+02
      9799   1 -1.526811E+07  7.147077E+02 -2.107164E+03  1.546711E+05 -7.223696E+04 -1.400602E+02
      9800   1 -1.526911E+07 -1.379637E+03 -3.061998E+03  1.649970E+05 -7.094645E+04 -7.156647E+02
      9801   1 -1.526884E+07  1.074305E+03 -4.673379E+03  1.920011E+05 -3.281551E+04 -1.162298E+03
      9802   1  1.495074E+07 -1.051885E+03  4.576154E+03  1.920010E+05 -3.281553E+04  1.138089E+03
      9803   1  1.495101E+07  1.350833E+03  2.998075E+03  1.649970E+05 -7.094653E+04  7.007620E+02
      9804   1  1.495002E+07 -6.997679E+02  2.063410E+03  1.546710E+05 -7.223708E+04  1.371603E+02
      9805   1  1.495038E+07  6.181295E+02  1.825505E+03  1.478529E+05 -5.632990E+04  1.638673E+02
      9806   1  1.494995E+07 -4.477078E+02  1.596946E+03  1.445899E+05 -3.040087E+04  2.310023E+01
      9807   1  1.495026E+07  4.612980E+02  1.609226E+03  1.433907E+05 -1.001691E-01  1.470986E-02
      9808   1  1.494995E+07 -4.477073E+02  1.596936E+03  1.445899E+05  3.040066E+04 -2.306741E+01
      9809   1  1.495038E+07  6.181363E+02  1.825498E+03  1.478530E+05  5.632972E+04 -1.638438E+02
      9810   1  1.495002E+07 -6.997559E+02  2.063394E+03  1.546711E+05  7.223693E+04 -1.371388E+02
      9811   1  1.495101E+07  1.350857E+03  2.998080E+03  1.649970E+05  7.094644E+04 -7.007548E+02
      9812   1  1.495073E+07 -1.051869E+03  4.576152E+03  1.920011E+05  3.281550E+04 -1.138082E+03
      9813   1  1.195838E+07 -1.527361E+03 -2.358591E+03  5.227687E+05 -1.217253E+04 -7.396457E+02
      9814   1  1.196017E+07  9.338579E+02  6.040770E+02  4.661104E+05 -3.333754E+04  7.208701E+02
      9815   1  1.196023E+07  3.859927E+02  1.343797E+03  4.350906E+05 -4.075535E+04  5.153415E+02
      9816   1  1.196000E+07 -5.646053E+01  1.099213E+03  4.171033E+05 -3.372445E+04  1.514442E+02
      9817   1  1.196021E+07  3.504352E+02  1.317013E+03  4.071877E+05 -1.884684E+04  1.263709E+02
      9818   1  1.195998E+07 -1.734463E+02  1.136461E+03  4.041610E+05 -9.530288E-02  4.271619E-02
      9819   1  1.196021E+07  3.504357E+02  1.317014E+03  4.071877E+05  1.884666E+04 -1.262847E+02
      9820   1  1.196000E+07 -5.646235E+01  1.099213E+03  4.171033E+05  3.372429E+04 -1.513743E+02
      9821   1  1.196023E+07  3.859855E+02  1.343796E+03  4.350906E+05  4.075521E+04 -5.152862E+02
      9822   1  1.196017E+07  9.338423E+02  6.040717E+02  4.661105E+05  3.333745E+04 -7.208427E+02
      9823   1  1.195838E+07 -1.527387E+03 -2.358596E+03  5.227688E+05  1.217250E+04  7.396547E+02
      9824   1  8.969886E+06 -8.752383E+02  1.307610E+03  7.642280E+05 -6.642095E+03  7.881998E+01
      9825   1  8.969456E+06 -2.884709E+02 -5.811828E+02  7.010096E+05 -1.675543E+04 -7.884318E+02
      9826   1  8.970031E+06  7.009461E+02  1.697410E+02  6.575684E+05 -2.136789E+04  3.125277E+02
      9827   1  8.970078E+06  2.120030E+02  8.021757E+02  6.307048E+05 -1.907136E+04  8.385338E+01
      9828   1  8.969996E+06  1.345454E+02  6.314757E+02  6.158934E+05 -1.089093E+04  6.802597E+01
      9829   1  8.970128E+06  2.329248E+02  9.320177E+02  6.110967E+05 -8.008787E-02  6.399373E-02
      9830   1  8.969996E+06  1.345483E+02  6.314794E+02  6.158934E+05  1.089078E+04 -6.789950E+01
      9831   1  8.970078E+06  2.120101E+02  8.021807E+02  6.307049E+05  1.907122E+04 -8.374581E+01
      9832   1  8.970031E+06  7.009615E+02  1.697517E+02  6.575685E+05  2.136778E+04 -3.124405E+02
      9833   1  8.969456E+06 -2.884539E+02 -5.811748E+02  7.010097E+05  1.675535E+04  7.884851E+02
      9834   1  8.969886E+06 -8.752352E+02  1.307621E+03  7.642281E+05  6.642068E+03 -7.879787E+01
      9835   1  5.979375E+06 -6.327819E+02 -7.415201E+02  9.329138E+05 -3.075395E+03 -3.138039E+02
      9836   1  5.979956E+06 -3.358378E+01  4.179304E+02  8.659394E+05 -8.493762E+03  2.524940E+01
      9837   1  5.979828E+06  1.124758E+01 -1.441786E+01  8.176717E+05 -1.088444E+04 -5.981046E+02
      9838   1  5.980004E+06  4.125148E+02  1.180893E+02  7.853649E+05 -9.832589E+03  9.268813E+01
      9839   1  5.980050E+06  1.424859E+02  5.260966E+02  7.671564E+05 -5.811857E+03 -9.058860E+01
      9840   1  5.979999E+06  1.997211E+02  3.156312E+02  7.612532E+05 -5.689141E-02  7.893283E-02
      9841   1  5.980050E+06  1.424877E+02  5.260993E+02  7.671564E+05  5.811748E+03  9.074441E+01
      9842   1  5.980004E+06  4.125162E+02  1.180921E+02  7.853650E+05  9.832490E+03 -9.255346E+01
      9843   1  5.979828E+06  1.124461E+01 -1.441630E+01  8.176719E+05  1.088437E+04  5.982151E+02
      9844   1  5.979956E+06 -3.359744E+01  4.179255E+02  8.659396E+05  8.493709E+03 -2.518065E+01
      9845   1  5.979375E+06 -6.328129E+02 -7.415267E+02  9.329139E+05  3.075376E+03  3.138299E+02
      9846   1  2.989928E+06 -2.871146E+02  3.284569E+02  1.032769E+06 -1.354281E+03 -4.146266E+01
      9847   1  2.989802E+06 -1.291827E+02 -2.110237E+02  9.644274E+05 -3.495957E+03 -6.069941E+02
      9848   1  2.989989E+06  1.363308E+02  9.027442E+01  9.135277E+05 -4.584918E+03 -4.217835E+01
      9849   1  2.989970E+06  5.252818E+01  1.146946E+02  8.788894E+05 -4.176470E+03 -4.717008E+02
      9850   1  2.990001E+06  1.913938E+02  7.047405E+01  8.587673E+05 -2.459802E+03  8.212067E+00
      9851   1  2.990025E+06  7.257466E+01  2.613011E+02  8.522425E+05 -2.946251E-02  8.789223E-02
      9852   1  2.990001E+06  1.913954E+02  7.047564E+01  8.587673E+05  2.459745E+03 -8.038077E+00
      9853   1  2.989970E+06  5.253265E+01  1.146972E+02  8.788895E+05  4.176419E+03  4.718528E+02
      9854   1  2.989989E+06  1.363411E+02  9.027975E+01  9.135278E+05  4.584877E+03  4.230574E+01
      9855   1  2.989802E+06 -1.291672E+02 -2.110166E+02  9.644276E+05  3.495929E+03  6.070777E+02
      9856   1  2.989928E+06 -2.871013E+02  3.284667E+02  1.032769E+06  1.354271E+03  4.149678E+01
      9857   1 -6.955883E-03  2.705756E-04 -7.493581E-04  1.065912E+06  8.142539E-04 -2.438794E+02
      9858   1 -8.903054E-03 -2.048863E-02 -5.833104E-03  9.970620E+05  2.178683E-03 -1.026291E+02
      9859   1 -1.141199E-02 -4.870787E-02 -2.114790E-02  9.455724E+05  2.278674E-03 -6.490262E+02
      9860   1 -1.237681E-02 -6.596400E-02 -2.432309E-02  9.100684E+05  1.748820E-03 -3.973865E+01
      9861   1 -1.293052E-02 -7.646776E-02 -3.209000E-02  8.894857E+05  7.992740E-04 -2.695762E+02
      9862   1 -1.259262E-02 -7.726753E-02 -2.871661E-02  8.826903E+05  8.870927E-05  9.097420E-02
      9863   1 -1.285407E-02 -7.643117E-02 -3.207910E-02  8.894857E+05 -9.640064E-04  2.697562E+02
      9864   1 -1.258716E-02 -6.729454E-02 -2.479466E-02  9.100685E+05 -1.586786E-03  3.989610E+01
      9865   1 -1.243301E-02 -5.506196E-02 -2.357658E-02  9.455726E+05 -2.277611E-03  6.491574E+02
      9866   1 -1.219043E-02 -3.666248E-02 -1.231397E-02  9.970621E+05 -2.040391E-03  1.027129E+02
      9867   1 -1.225175E-02 -2.455275E-02 -1.056971E-02  1.065912E+06 -9.725494E-04  2.439117E+02
      9868   1 -2.989928E+06  2.871013E+02 -3.284773E+02  1.032769E+06  1.354283E+03 -4.146250E+01
      9869   1 -2.989802E+06  1.292263E+02  2.110558E+02  9.644274E+05  3.495960E+03 -6.069941E+02
      9870   1 -2.989989E+06 -1.362444E+02 -9.025403E+01  9.135277E+05  4.584922E+03 -4.217830E+01
      9871   1 -2.989970E+06 -5.239080E+01 -1.146260E+02  8.788894E+05  4.176473E+03 -4.717007E+02
      9872   1 -2.990001E+06 -1.912496E+02 -7.043088E+01  8.587673E+05  2.459803E+03  8.212091E+00
      9873   1 -2.990025E+06 -7.241326E+01 -2.612229E+02  8.522425E+05  2.975563E-02  8.788269E-02
      9874   1 -2.990001E+06 -1.912513E+02 -7.043273E+01  8.587673E+05 -2.459747E+03 -8.038087E+00
      9875   1 -2.989970E+06 -5.239256E+01 -1.146273E+02  8.788895E+05 -4.176422E+03  4.718527E+02
      9876   1 -2.989989E+06 -1.362421E+02 -9.025504E+01  9.135278E+05 -4.584881E+03  4.230571E+01
      9877   1 -2.989802E+06  1.292431E+02  2.110621E+02  9.644276E+05 -3.495932E+03  6.070775E+02
      9878   1 -2.989928E+06  2.871375E+02 -3.284679E+02  1.032769E+06 -1.354273E+03  4.149673E+01
      9879   1 -5.979375E+06  6.327652E+02  7.414626E+02  9.329138E+05  3.075397E+03 -3.138040E+02
      9880   1 -5.979956E+06  3.356351E+01 -4.178866E+02  8.659394E+05  8.493768E+03  2.524955E+01
      9881   1 -5.979828E+06 -1.136512E+01  1.432177E+01  8.176717E+05  1.088445E+04 -5.981044E+02
      9882   1 -5.980004E+06 -4.126256E+02 -1.180820E+02  7.853649E+05  9.832593E+03  9.268815E+01
      9883   1 -5.980050E+06 -1.426604E+02 -5.262138E+02  7.671564E+05  5.811858E+03 -9.058854E+01
      9884   1 -5.979999E+06 -1.998543E+02 -3.156323E+02  7.612533E+05  5.726899E-02  7.887289E-02
      9885   1 -5.980050E+06 -1.426624E+02 -5.262170E+02  7.671564E+05 -5.811750E+03  9.074444E+01
      9886   1 -5.980004E+06 -4.126292E+02 -1.180847E+02  7.853650E+05 -9.832494E+03 -9.255359E+01
      9887   1 -5.979828E+06 -1.137556E+01  1.431375E+01  8.176719E+05 -1.088437E+04  5.982150E+02
      9888   1 -5.979956E+06  3.354550E+01 -4.178922E+02  8.659396E+05 -8.493713E+03 -2.518086E+01
      9889   1 -5.979375E+06  6.327453E+02  7.414469E+02  9.329139E+05 -3.075378E+03  3.138299E+02
      9890   1 -8.969886E+06  8.751856E+02 -1.307746E+03  7.642280E+05  6.642096E+03  7.882047E+01
      9891   1 -8.969456E+06  2.885584E+02  5.813285E+02  7.010096E+05  1.675543E+04 -7.884316E+02
      9892   1 -8.970031E+06 -7.008999E+02 -1.698335E+02  6.575684E+05  2.136789E+04  3.125276E+02
      9893   1 -8.970078E+06 -2.118195E+02 -8.019959E+02  6.307048E+05  1.907137E+04  8.385347E+01
      9894   1 -8.969996E+06 -1.344430E+02 -6.315448E+02  6.158934E+05  1.089093E+04  6.802595E+01
      9895   1 -8.970128E+06 -2.327164E+02 -9.318283E+02  6.110967E+05  8.031585E-02  6.393058E-02
      9896   1 -8.969996E+06 -1.344462E+02 -6.315493E+02  6.158934E+05 -1.089078E+04 -6.789937E+01
      9897   1 -8.970078E+06 -2.118234E+02 -8.019985E+02  6.307049E+05 -1.907123E+04 -8.374600E+01
      9898   1 -8.970031E+06 -7.009033E+02 -1.698420E+02  6.575685E+05 -2.136778E+04 -3.124403E+02
      9899   1 -8.969456E+06  2.885750E+02  5.813361E+02  7.010097E+05 -1.675536E+04  7.884848E+02
      9900   1 -8.969886E+06  8.752314E+02 -1.307742E+03  7.642281E+05 -6.642069E+03 -7.879803E+01
      9901   1 -1.195838E+07  1.527299E+03  2.358389E+03  5.227687E+05  1.217253E+04 -7.396466E+02
      9902   1 -1.196017E+07 -9.338264E+02 -6.038900E+02  4.661104E+05  3.333755E+04  7.208704E+02
      9903   1 -1.196023E+07 -3.861650E+02 -1.344032E+03  4.350906E+05  4.075535E+04  5.153417E+02
      9904   1 -1.196000E+07  5.640263E+01 -1.099062E+03  4.171033E+05  3.372446E+04  1.514441E+02
      9905   1 -1.196021E+07 -3.506688E+02 -1.317267E+03  4.071877E+05  1.884684E+04  1.263709E+02
      9906   1 -1.195998E+07  1.733663E+02 -1.136318E+03  4.041610E+05  9.514444E-02  4.267486E-02
      9907   1 -1.196021E+07 -3.506696E+02 -1.317267E+03  4.071877E+05 -1.884666E+04 -1.262847E+02
      9908   1 -1.196000E+07  5.640257E+01 -1.099061E+03  4.171033E+05 -3.372430E+04 -1.513742E+02
      9909   1 -1.196023E+07 -3.861721E+02 -1.344038E+03  4.350907E+05 -4.075522E+04 -5.152862E+02
      9910   1 -1.196017E+07 -9.338423E+02 -6.038923E+02  4.661105E+05 -3.333746E+04 -7.208429E+02
      9911   1 -1.195838E+07  1.527271E+03  2.358369E+03  5.227688E+05 -1.217250E+04  7.396551E+02
      9912   1 -1.495074E+07  1.051788E+03 -4.576410E+03  1.920010E+05  3.281553E+04  1.138093E+03
      9913   1 -1.495101E+07 -1.350698E+03 -2.997814E+03  1.649970E+05  7.094654E+04  7.007599E+02
      9914   1 -1.495002E+07  6.997733E+02 -2.063619E+03  1.546710E+05  7.223708E+04  1.371616E+02
      9915   1 -1.495038E+07 -6.178955E+02 -1.825214E+03  1.478529E+05  5.632990E+04  1.638665E+02
      9916   1 -1.494995E+07  4.477705E+02 -1.597130E+03  1.445899E+05  3.040087E+04  2.310055E+01
      9917   1 -1.495026E+07 -4.610381E+02 -1.608926E+03  1.433907E+05  9.957672E-02  1.472588E-02
      9918   1 -1.494995E+07  4.477697E+02 -1.597121E+03  1.445899E+05 -3.040066E+04 -2.306777E+01
      9919   1 -1.495038E+07 -6.178991E+02 -1.825204E+03  1.478530E+05 -5.632973E+04 -1.638430E+02
      9920   1 -1.495002E+07  6.997740E+02 -2.063601E+03  1.546711E+05 -7.223693E+04 -1.371401E+02
      9921   1 -1.495101E+07 -1.350687E+03 -2.997804E+03  1.649970E+05 -7.094645E+04 -7.007528E+02
      9922   1 -1.495074E+07  1.051823E+03 -4.576395E+03  1.920011E+05 -3.281550E+04 -1.138085E+03
      9923   1  1.463263E+07 -1.029502E+03  4.478828E+03  1.920010E+05 -3.281554E+04  1.113867E+03
      9924   1  1.463290E+07  1.322033E+03  2.934231E+03  1.649970E+05 -7.094655E+04  6.858550E+02
      9925   1  1.463194E+07 -6.849620E+02  2.019517E+03  1.546710E+05 -7.223709E+04  1.342404E+02
      9926   1  1.463229E+07  6.048119E+02  1.786571E+03  1.478529E+05 -5.632993E+04  1.603869E+02
      9927   1  1.463187E+07 -4.383387E+02  1.562957E+03  1.445899E+05 -3.040089E+04  2.260966E+01
      9928   1  1.463216E+07  4.512816E+02  1.574877E+03  1.433907E+05 -1.390733E-01  2.143639E-02
      9929   1  1.463187E+07 -4.383384E+02  1.562950E+03  1.445899E+05  3.040064E+04 -2.257547E+01
      9930   1  1.463229E+07  6.048047E+02  1.786547E+03  1.478530E+05  5.632969E+04 -1.603513E+02
      9931   1  1.463194E+07 -6.849736E+02  2.019504E+03  1.546711E+05  7.223691E+04 -1.342213E+02
      9932   1  1.463290E+07  1.322006E+03  2.934201E+03  1.649970E+05  7.094642E+04 -6.858405E+02
      9933   1  1.463263E+07 -1.029524E+03  4.478827E+03  1.920011E+05  3.281549E+04 -1.113871E+03
      9934   1  1.170394E+07 -1.494828E+03 -2.308348E+03  5.227687E+05 -1.217254E+04 -7.239050E+02
      9935   1  1.170569E+07  9.140139E+02  5.911874E+02  4.661104E+05 -3.333755E+04  7.055419E+02
      9936   1  1.170576E+07  3.778970E+02  1.315294E+03  4.350906E+05 -4.075537E+04  5.043828E+02
      9937   1  1.170553E+07 -5.513607E+01  1.075829E+03  4.171033E+05 -3.372448E+04  1.482347E+02
      9938   1  1.170574E+07  3.431677E+02  1.289107E+03  4.071877E+05 -1.884687E+04  1.236902E+02
      9939   1  1.170551E+07 -1.696009E+02  1.112298E+03  4.041610E+05 -1.247671E-01  5.585404E-02
      9940   1  1.170574E+07  3.431700E+02  1.289108E+03  4.071877E+05  1.884663E+04 -1.235897E+02
      9941   1  1.170553E+07 -5.512807E+01  1.075833E+03  4.171033E+05  3.372426E+04 -1.481413E+02
      9942   1  1.170576E+07  3.779140E+02  1.315302E+03  4.350907E+05  4.075520E+04 -5.043177E+02
      9943   1  1.170569E+07  9.140370E+02  5.911990E+02  4.661105E+05  3.333743E+04 -7.054985E+02
      9944   1  1.170394E+07 -1.494823E+03 -2.308342E+03  5.227688E+05  1.217249E+04  7.239170E+02
      9945   1  8.779038E+06 -8.566180E+02  1.279831E+03  7.642280E+05 -6.642098E+03  7.713946E+01
      9946   1  8.778617E+06 -2.824001E+02 -5.688789E+02  7.010096E+05 -1.675544E+04 -7.716503E+02
      9947   1  8.779179E+06  6.859472E+02  1.661354E+02  6.575684E+05 -2.136790E+04  3.058856E+02
      9948   1  8.779225E+06  2.073306E+02  7.850110E+02  6.307048E+05 -1.907138E+04  8.208478E+01
      9949   1  8.779145E+06  1.315312E+02  6.180197E+02  6.158934E+05 -1.089095E+04  6.659188E+01
      9950   1  8.779274E+06  2.277782E+02  9.120822E+02  6.110967E+05 -1.006480E-01  8.098778E-02
      9951   1  8.779145E+06  1.315325E+02  6.180222E+02  6.158934E+05  1.089076E+04 -6.644135E+01
      9952   1  8.779225E+06  2.073320E+02  7.850173E+02  6.307049E+05  1.907121E+04 -8.194766E+01
      9953   1  8.779179E+06  6.859419E+02  1.661353E+02  6.575685E+05  2.136776E+04 -3.057836E+02
      9954   1  8.778617E+06 -2.824132E+02 -5.688795E+02  7.010097E+05  1.675534E+04  7.717183E+02
      9955   1  8.779037E+06 -8.566528E+02  1.279820E+03  7.642281E+05  6.642064E+03 -7.712128E+01
      9956   1  5.852155E+06 -6.192970E+02 -7.257103E+02  9.329137E+05 -3.075399E+03 -3.071223E+02
      9957   1  5.852723E+06 -3.283409E+01  4.090254E+02  8.659394E+05 -8.493769E+03  2.472742E+01
      9958   1  5.852598E+06  1.111778E+01 -1.404181E+01  8.176717E+05 -1.088446E+04 -5.853660E+02
      9959   1  5.852770E+06  4.038683E+02  1.156047E+02  7.853649E+05 -9.832601E+03  9.073568E+01
      9960   1  5.852815E+06  1.396297E+02  5.149981E+02  7.671564E+05 -5.811872E+03 -8.864471E+01
      9961   1  5.852765E+06  1.956310E+02  3.089561E+02  7.612532E+05 -7.092027E-02  9.896764E-02
      9962   1  5.852814E+06  1.396327E+02  5.150010E+02  7.671564E+05  5.811734E+03  8.883022E+01
      9963   1  5.852770E+06  4.038766E+02  1.156114E+02  7.853651E+05  9.832478E+03 -9.056474E+01
      9964   1  5.852597E+06  1.113328E+01 -1.403382E+01  8.176719E+05  1.088436E+04  5.854989E+02
      9965   1  5.852722E+06 -3.281516E+01  4.090369E+02  8.659396E+05  8.493702E+03 -2.463245E+01
      9966   1  5.852154E+06 -6.192934E+02 -7.257015E+02  9.329140E+05  3.075374E+03  3.071542E+02
      9967   1  2.926313E+06 -2.810065E+02  3.214881E+02  1.032769E+06 -1.354282E+03 -4.058263E+01
      9968   1  2.926189E+06 -1.264908E+02 -2.065695E+02  9.644274E+05 -3.495960E+03 -5.940700E+02
      9969   1  2.926372E+06  1.333317E+02  8.833173E+01  9.135277E+05 -4.584924E+03 -4.126974E+01
      9970   1  2.926353E+06  5.125628E+01  1.121800E+02  8.788894E+05 -4.176476E+03 -4.616440E+02
      9971   1  2.926384E+06  1.871606E+02  6.892804E+01  8.587673E+05 -2.459810E+03  8.055272E+00
      9972   1  2.926407E+06  7.085009E+01  2.556580E+02  8.522425E+05 -3.657449E-02  1.098125E-01
      9973   1  2.926384E+06  1.871619E+02  6.892937E+01  8.587673E+05  2.459738E+03 -7.848803E+00
      9974   1  2.926353E+06  5.125722E+01  1.121822E+02  8.788895E+05  4.176413E+03  4.618349E+02
      9975   1  2.926372E+06  1.333265E+02  8.833013E+01  9.135278E+05  4.584872E+03  4.141885E+01
      9976   1  2.926189E+06 -1.265078E+02 -2.065751E+02  9.644276E+05  3.495925E+03  5.941744E+02
      9977   1  2.926312E+06 -2.810406E+02  3.214770E+02  1.032769E+06  1.354269E+03  4.061493E+01
      9978   1 -1.425870E-02 -8.025175E-03  3.462305E-04  1.065912E+06  8.797802E-04 -2.386852E+02
      9979   1 -1.254142E-03  1.878660E-02  7.314829E-03  9.970619E+05  1.485615E-03 -1.004279E+02
      9980   1  1.031163E-02  5.465793E-02  2.588664E-02  9.455724E+05  1.413369E-03 -6.352021E+02
      9981   1  1.739244E-02  7.717794E-02  3.104595E-02  9.100684E+05  9.151388E-04 -3.887088E+01
      9982   1  2.127559E-02  9.039752E-02  4.055744E-02  8.894857E+05  6.134884E-04 -2.638219E+02
      9983   1  2.198158E-02  9.177973E-02  3.724867E-02  8.826903E+05 -1.306880E-04  1.134219E-01
      9984   1  2.118294E-02  9.034332E-02  4.054176E-02  8.894857E+05 -3.515414E-04  2.640355E+02
      9985   1  1.763504E-02  7.863011E-02  3.155654E-02  9.100685E+05 -1.144137E-03  3.906935E+01
      9986   1  1.150138E-02  6.221233E-02  2.878713E-02  9.455726E+05 -1.376418E-03  6.353594E+02
      9987   1  2.758936E-03  3.850977E-02  1.522085E-02  9.970622E+05 -1.675339E-03  1.005418E+02
      9988   1 -7.716313E-03  2.258579E-02  1.248429E-02  1.065912E+06 -6.789192E-04  2.387240E+02
      9989   1 -2.926313E+06  2.810106E+02 -3.214639E+02  1.032769E+06  1.354284E+03 -4.058268E+01
      9990   1 -2.926189E+06  1.264268E+02  2.065312E+02  9.644274E+05  3.495964E+03 -5.940699E+02
      9991   1 -2.926372E+06 -1.334473E+02 -8.835716E+01  9.135277E+05  4.584928E+03 -4.126954E+01
      9992   1 -2.926353E+06 -5.143139E+01 -1.122610E+02  8.788894E+05  4.176478E+03 -4.616439E+02
      9993   1 -2.926384E+06 -1.873430E+02 -6.897825E+01  8.587673E+05  2.459811E+03  8.055278E+00
      9994   1 -2.926407E+06 -7.105213E+01 -2.557484E+02  8.522425E+05  3.617357E-02  1.098283E-01
      9995   1 -2.926384E+06 -1.873441E+02 -6.897921E+01  8.587673E+05 -2.459739E+03 -7.848859E+00
      9996   1 -2.926353E+06 -5.143539E+01 -1.122648E+02  8.788895E+05 -4.176416E+03  4.618349E+02
      9997   1 -2.926372E+06 -1.334571E+02 -8.836058E+01  9.135278E+05 -4.584875E+03  4.141864E+01
      9998   1 -2.926189E+06  1.264041E+02  2.065204E+02  9.644276E+05 -3.495929E+03  5.941742E+02
      9999   1 -2.926313E+06  2.809833E+02 -3.214765E+02  1.032769E+06 -1.354271E+03  4.061482E+01
     10000   1 -5.852155E+06  6.193067E+02  7.257791E+02  9.329137E+05  3.075401E+03 -3.071219E+02
     10001   1 -5.852723E+06  3.285102E+01 -4.090776E+02  8.659394E+05  8.493770E+03  2.472772E+01
     10002   1 -5.852598E+06 -1.098036E+01  1.415984E+01  8.176717E+05  1.088446E+04 -5.853659E+02
     10003   1 -5.852770E+06 -4.037365E+02 -1.156088E+02  7.853649E+05  9.832602E+03  9.073581E+01
     10004   1 -5.852814E+06 -1.394200E+02 -5.148506E+02  7.671564E+05  5.811874E+03 -8.864479E+01
     10005   1 -5.852765E+06 -1.954708E+02 -3.089479E+02  7.612533E+05  7.047666E-02  9.905230E-02
     10006   1 -5.852814E+06 -1.394229E+02 -5.148528E+02  7.671564E+05 -5.811734E+03  8.883010E+01
     10007   1 -5.852770E+06 -4.037424E+02 -1.156159E+02  7.853651E+05 -9.832479E+03 -9.056471E+01
     10008   1 -5.852597E+06 -1.097982E+01  1.415970E+01  8.176719E+05 -1.088436E+04  5.854987E+02
     10009   1 -5.852722E+06  3.287062E+01 -4.090765E+02  8.659396E+05 -8.493704E+03 -2.463264E+01
     10010   1 -5.852154E+06  6.193659E+02  7.257980E+02  9.329139E+05 -3.075376E+03  3.071539E+02
     10011   1 -8.779038E+06  8.566782E+02 -1.279663E+03  7.642280E+05  6.642100E+03  7.713911E+01
     10012   1 -8.778617E+06  2.822891E+02  5.687017E+02  7.010096E+05  1.675544E+04 -7.716501E+02
     10013   1 -8.779179E+06 -6.860074E+02 -1.660199E+02  6.575684E+05  2.136791E+04  3.058860E+02
     10014   1 -8.779225E+06 -2.075576E+02 -7.852257E+02  6.307048E+05  1.907138E+04  8.208471E+01
     10015   1 -8.779145E+06 -1.316583E+02 -6.179279E+02  6.158934E+05  1.089096E+04  6.659183E+01
     10016   1 -8.779274E+06 -2.280343E+02 -9.123052E+02  6.110967E+05  1.005407E-01  8.107884E-02
     10017   1 -8.779145E+06 -1.316592E+02 -6.179295E+02  6.158934E+05 -1.089076E+04 -6.644151E+01
     10018   1 -8.779225E+06 -2.075628E+02 -7.852348E+02  6.307049E+05 -1.907121E+04 -8.194745E+01
     10019   1 -8.779179E+06 -6.860165E+02 -1.660226E+02  6.575686E+05 -2.136777E+04 -3.057841E+02
     10020   1 -8.778617E+06  2.822609E+02  5.686833E+02  7.010097E+05 -1.675534E+04  7.717182E+02
     10021   1 -8.779037E+06  8.566526E+02 -1.279672E+03  7.642281E+05 -6.642067E+03 -7.712136E+01
     10022   1 -1.170394E+07  1.494902E+03  2.308597E+03  5.227687E+05  1.217254E+04 -7.239037E+02
     10023   1 -1.170569E+07 -9.140543E+02 -5.914157E+02  4.661104E+05  3.333755E+04  7.055417E+02
     10024   1 -1.170576E+07 -3.776866E+02 -1.315002E+03  4.350906E+05  4.075538E+04  5.043826E+02
     10025   1 -1.170553E+07  5.520654E+01 -1.076008E+03  4.171033E+05  3.372448E+04  1.482347E+02
     10026   1 -1.170574E+07 -3.428818E+02 -1.288786E+03  4.071877E+05  1.884687E+04  1.236900E+02
     10027   1 -1.170551E+07  1.696983E+02 -1.112463E+03  4.041610E+05  1.253022E-01  5.590050E-02
     10028   1 -1.170574E+07 -3.428838E+02 -1.288786E+03  4.071877E+05 -1.884664E+04 -1.235897E+02
     10029   1 -1.170553E+07  5.520060E+01 -1.076012E+03  4.171033E+05 -3.372426E+04 -1.481412E+02
     10030   1 -1.170576E+07 -3.776864E+02 -1.315002E+03  4.350907E+05 -4.075521E+04 -5.043176E+02
     10031   1 -1.170569E+07 -9.140391E+02 -5.914178E+02  4.661105E+05 -3.333743E+04 -7.054985E+02
     10032   1 -1.170394E+07  1.494962E+03  2.308621E+03  5.227688E+05 -1.217250E+04  7.239163E+02
     10033   1 -1.463263E+07  1.029622E+03 -4.478513E+03  1.920011E+05  3.281554E+04  1.113863E+03
     10034   1 -1.463290E+07 -1.322197E+03 -2.934550E+03  1.649970E+05  7.094655E+04  6.858576E+02
     10035   1 -1.463194E+07  6.849551E+02 -2.019255E+03  1.546710E+05  7.223710E+04  1.342388E+02
     10036   1 -1.463229E+07 -6.050991E+02 -1.786920E+03  1.478529E+05  5.632993E+04  1.603878E+02
     10037   1 -1.463187E+07  4.382622E+02 -1.562717E+03  1.445899E+05  3.040089E+04  2.260919E+01
     10038   1 -1.463216E+07 -4.516000E+02 -1.575231E+03  1.433907E+05  1.402256E-01  2.140690E-02
     10039   1 -1.463187E+07  4.382623E+02 -1.562710E+03  1.445899E+05 -3.040065E+04 -2.257494E+01
     10040   1 -1.463229E+07 -6.050956E+02 -1.786898E+03  1.478530E+05 -5.632968E+04 -1.603522E+02
     10041   1 -1.463194E+07  6.849516E+02 -2.019245E+03  1.546711E+05 -7.223692E+04 -1.342197E+02
     10042   1 -1.463290E+07 -1.322213E+03 -2.934538E+03  1.649970E+05 -7.094642E+04 -6.858430E+02
     10043   1 -1.463263E+07  1.029581E+03 -4.478529E+03  1.920011E+05 -3.281550E+04 -1.113868E+03
     10044   1  1.431453E+07 -1.007107E+03  4.381446E+03  1.920010E+05 -3.281555E+04  1.089664E+03
     10045   1  1.431479E+07  1.293356E+03  2.870488E+03  1.649970E+05 -7.094657E+04  6.709444E+02
     10046   1  1.431385E+07 -6.699605E+02  1.975636E+03  1.546710E+05 -7.223713E+04  1.313314E+02
     10047   1  1.431419E+07  5.918558E+02  1.747829E+03  1.478529E+05 -5.632995E+04  1.569003E+02
     10048   1  1.431378E+07 -4.286088E+02  1.529027E+03  1.445899E+05 -3.040094E+04  2.212703E+01
     10049   1  1.431407E+07  4.417070E+02  1.540759E+03  1.433907E+05 -1.662776E-01  2.159672E-02
     10050   1  1.431378E+07 -4.286086E+02  1.529013E+03  1.445899E+05  3.040059E+04 -2.207614E+01
     10051   1  1.431419E+07  5.918669E+02  1.747823E+03  1.478530E+05  5.632967E+04 -1.568653E+02
     10052   1  1.431385E+07 -6.699447E+02  1.975611E+03  1.546711E+05  7.223688E+04 -1.312961E+02
     10053   1  1.431479E+07  1.293390E+03  2.870500E+03  1.649970E+05  7.094641E+04 -6.709331E+02
     10054   1  1.431453E+07 -1.007094E+03  4.381435E+03  1.920011E+05  3.281549E+04 -1.089651E+03
     10055   1  1.144951E+07 -1.462377E+03 -2.258221E+03  5.227687E+05 -1.217254E+04 -7.081691E+02
     10056   1  1.145122E+07  8.940985E+02  5.783584E+02  4.661104E+05 -3.333757E+04  6.902022E+02
     10057   1  1.145128E+07  3.695431E+02  1.286617E+03  4.350906E+05 -4.075539E+04  4.934284E+02
     10058   1  1.145107E+07 -5.409903E+01  1.052420E+03  4.171033E+05 -3.372451E+04  1.450184E+02
     10059   1  1.145126E+07  3.354835E+02  1.260970E+03  4.071877E+05 -1.884690E+04  1.210172E+02
     10060   1  1.145104E+07 -1.661135E+02  1.088083E+03  4.041610E+05 -1.539563E-01  6.318943E-02
     10061   1  1.145126E+07  3.354840E+02  1.260970E+03  4.071877E+05  1.884660E+04 -1.208869E+02
     10062   1  1.145107E+07 -5.410188E+01  1.052421E+03  4.171033E+05  3.372424E+04 -1.449136E+02
     10063   1  1.145128E+07  3.695332E+02  1.286614E+03  4.350907E+05  4.075517E+04 -4.933419E+02
     10064   1  1.145122E+07  8.940801E+02  5.783523E+02  4.661105E+05  3.333742E+04 -6.901597E+02
     10065   1  1.144951E+07 -1.462405E+03 -2.258225E+03  5.227688E+05  1.217249E+04  7.081839E+02
     10066   1  8.588189E+06 -8.379824E+02  1.251976E+03  7.642279E+05 -6.642104E+03  7.547434E+01
     10067   1  8.587778E+06 -2.761874E+02 -5.564535E+02  7.010095E+05 -1.675545E+04 -7.548656E+02
     10068   1  8.588327E+06  6.711423E+02  1.625353E+02  6.575684E+05 -2.136792E+04  2.992535E+02
     10069   1  8.588373E+06  2.030110E+02  7.680498E+02  6.307048E+05 -1.907141E+04  8.031328E+01
     10070   1  8.588294E+06  1.288611E+02  6.046315E+02  6.158934E+05 -1.089098E+04  6.516455E+01
     10071   1  8.588420E+06  2.230502E+02  8.923715E+02  6.110967E+05 -1.270675E-01  9.382584E-02
     10072   1  8.588294E+06  1.288652E+02  6.046369E+02  6.158934E+05  1.089074E+04 -6.497649E+01
     10073   1  8.588372E+06  2.030207E+02  7.680566E+02  6.307049E+05  1.907118E+04 -8.015357E+01
     10074   1  8.588327E+06  6.711640E+02  1.625512E+02  6.575686E+05  2.136774E+04 -2.991200E+02
     10075   1  8.587777E+06 -2.761659E+02 -5.564433E+02  7.010098E+05  1.675533E+04  7.549479E+02
     10076   1  8.588188E+06 -8.379842E+02  1.251991E+03  7.642282E+05  6.642060E+03 -7.543777E+01
     10077   1  5.724934E+06 -6.058667E+02 -7.099627E+02  9.329137E+05 -3.075401E+03 -3.004437E+02
     10078   1  5.725490E+06 -3.217845E+01  4.001365E+02  8.659394E+05 -8.493778E+03  2.419201E+01
     10079   1  5.725367E+06  1.073821E+01 -1.380792E+01  8.176717E+05 -1.088447E+04 -5.726243E+02
     10080   1  5.725536E+06  3.949172E+02  1.130476E+02  7.853649E+05 -9.832618E+03  8.877746E+01
     10081   1  5.725579E+06  1.363790E+02  5.037028E+02  7.671564E+05 -5.811888E+03 -8.669417E+01
     10082   1  5.725531E+06  1.911736E+02  3.021833E+02  7.612532E+05 -8.900348E-02  1.145057E-01
     10083   1  5.725579E+06  1.363813E+02  5.037065E+02  7.671564E+05  5.811718E+03  8.692315E+01
     10084   1  5.725536E+06  3.949191E+02  1.130512E+02  7.853651E+05  9.832463E+03 -8.858024E+01
     10085   1  5.725367E+06  1.073451E+01 -1.380573E+01  8.176719E+05  1.088434E+04  5.727900E+02
     10086   1  5.725489E+06 -3.219521E+01  4.001296E+02  8.659397E+05  8.493693E+03 -2.408958E+01
     10087   1  5.724934E+06 -6.059046E+02 -7.099707E+02  9.329140E+05  3.075371E+03  3.004839E+02
     10088   1  2.862697E+06 -2.749017E+02  3.144817E+02  1.032769E+06 -1.354284E+03 -3.968723E+01
     10089   1  2.862577E+06 -1.236818E+02 -2.020401E+02  9.644273E+05 -3.495965E+03 -5.811419E+02
     10090   1  2.862756E+06  1.305481E+02  8.644601E+01  9.135276E+05 -4.584931E+03 -4.034979E+01
     10091   1  2.862737E+06  5.032168E+01  1.098299E+02  8.788893E+05 -4.176486E+03 -4.515911E+02
     10092   1  2.862767E+06  1.832846E+02  6.749679E+01  8.587672E+05 -2.459818E+03  7.905911E+00
     10093   1  2.862790E+06  6.952229E+01  2.502018E+02  8.522425E+05 -4.572477E-02  1.265987E-01
     10094   1  2.862767E+06  1.832869E+02  6.749901E+01  8.587673E+05  2.459731E+03 -7.652092E+00
     10095   1  2.862737E+06  5.032763E+01  1.098331E+02  8.788895E+05  4.176406E+03  4.518122E+02
     10096   1  2.862756E+06  1.305624E+02  8.645359E+01  9.135279E+05  4.584867E+03  4.053984E+01
     10097   1  2.862576E+06 -1.236604E+02 -2.020303E+02  9.644276E+05  3.495921E+03  5.812668E+02
     10098   1  2.862697E+06 -2.748833E+02  3.144958E+02  1.032769E+06  1.354268E+03  3.974086E+01
     10099   1 -8.675486E-03 -8.112254E-03  3.072005E-04  1.065912E+06  5.871257E-04 -2.334932E+02
     10100   1 -1.131781E-02 -3.914140E-02 -8.372892E-03  9.970619E+05  1.521873E-03 -9.824173E+01
     10101   1 -1.591104E-02 -8.058280E-02 -2.886511E-02  9.455724E+05  9.227737E-04 -6.213747E+02
     10102   1 -1.871603E-02 -1.062034E-01 -3.367777E-02  9.100683E+05  3.574739E-04 -3.800964E+01
     10103   1 -2.037747E-02 -1.205282E-01 -4.264579E-02  8.894856E+05 -2.615409E-04 -2.580605E+02
     10104   1 -2.042631E-02 -1.218987E-01 -3.851626E-02  8.826903E+05  2.120207E-04  1.307172E-01
     10105   1 -2.024629E-02 -1.204670E-01 -4.264156E-02  8.894857E+05 -1.042544E-04  2.583223E+02
     10106   1 -1.897916E-02 -1.078669E-01 -3.421951E-02  9.100685E+05  1.444882E-05  3.823781E+01
     10107   1 -1.724061E-02 -8.960887E-02 -3.233210E-02  9.455726E+05 -9.969733E-04  6.215690E+02
     10108   1 -1.619091E-02 -6.328924E-02 -1.800270E-02  9.970622E+05 -1.243593E-03  9.836485E+01
     10109   1 -1.675032E-02 -4.597999E-02 -1.469372E-02  1.065912E+06 -8.367709E-04  2.335423E+02
     10110   1 -2.862697E+06  2.748619E+02 -3.145102E+02  1.032769E+06  1.354285E+03 -3.968691E+01
     10111   1 -2.862577E+06  1.237298E+02  2.020875E+02  9.644273E+05  3.495967E+03 -5.811416E+02
     10112   1 -2.862756E+06 -1.304304E+02 -8.640787E+01  9.135276E+05  4.584931E+03 -4.034965E+01
     10113   1 -2.862737E+06 -5.012802E+01 -1.097215E+02  8.788893E+05  4.176486E+03 -4.515910E+02
     10114   1 -2.862767E+06 -1.830789E+02 -6.741988E+01  8.587672E+05  2.459817E+03  7.905950E+00
     10115   1 -2.862789E+06 -6.929275E+01 -2.500766E+02  8.522425E+05  4.631109E-02  1.265453E-01
     10116   1 -2.862767E+06 -1.830814E+02 -6.742262E+01  8.587673E+05 -2.459731E+03 -7.652078E+00
     10117   1 -2.862737E+06 -5.013051E+01 -1.097228E+02  8.788895E+05 -4.176405E+03  4.518120E+02
     10118   1 -2.862756E+06 -1.304269E+02 -8.640966E+01  9.135279E+05 -4.584868E+03  4.053972E+01
     10119   1 -2.862576E+06  1.237568E+02  2.020980E+02  9.644276E+05 -3.495923E+03  5.812664E+02
     10120   1 -2.862697E+06  2.749190E+02 -3.144951E+02  1.032769E+06 -1.354269E+03  3.974074E+01
     10121   1 -5.724934E+06  6.058304E+02  7.098810E+02  9.329137E+05  3.075401E+03 -3.004437E+02
     10122   1 -5.725490E+06  3.213507E+01 -4.000714E+02  8.659394E+05  8.493782E+03  2.419239E+01
     10123   1 -5.725367E+06 -1.092476E+01  1.367165E+01  8.176717E+05  1.088447E+04 -5.726239E+02
     10124   1 -5.725536E+06 -3.950948E+02 -1.130318E+02  7.853649E+05  9.832619E+03  8.877744E+01
     10125   1 -5.725579E+06 -1.366483E+02 -5.038649E+02  7.671564E+05  5.811887E+03 -8.669405E+01
     10126   1 -5.725531E+06 -1.913826E+02 -3.021760E+02  7.612533E+05  8.952801E-02  1.143354E-01
     10127   1 -5.725579E+06 -1.366508E+02 -5.038695E+02  7.671564E+05 -5.811718E+03  8.692329E+01
     10128   1 -5.725536E+06 -3.950994E+02 -1.130348E+02  7.853651E+05 -9.832463E+03 -8.858053E+01
     10129   1 -5.725367E+06 -1.094028E+01  1.365995E+01  8.176719E+05 -1.088434E+04  5.727898E+02
     10130   1 -5.725489E+06  3.210471E+01 -4.000797E+02  8.659397E+05 -8.493696E+03 -2.409014E+01
     10131   1 -5.724934E+06  6.057906E+02  7.098546E+02  9.329140E+05 -3.075372E+03  3.004838E+02
     10132   1 -8.588189E+06  8.378919E+02 -1.252181E+03  7.642279E+05  6.642104E+03  7.547520E+01
     10133   1 -8.587777E+06  2.763096E+02  5.566735E+02  7.010095E+05  1.675545E+04 -7.548651E+02
     10134   1 -8.588327E+06 -6.710787E+02 -1.626672E+02  6.575684E+05  2.136792E+04  2.992533E+02
     10135   1 -8.588373E+06 -2.027412E+02 -7.677712E+02  6.307048E+05  1.907141E+04  8.031327E+01
     10136   1 -8.588294E+06 -1.287126E+02 -6.047222E+02  6.158934E+05  1.089098E+04  6.516450E+01
     10137   1 -8.588420E+06 -2.227439E+02 -8.920755E+02  6.110967E+05  1.269046E-01  9.364255E-02
     10138   1 -8.588294E+06 -1.287172E+02 -6.047286E+02  6.158934E+05 -1.089073E+04 -6.497616E+01
     10139   1 -8.588372E+06 -2.027468E+02 -7.677748E+02  6.307049E+05 -1.907118E+04 -8.015388E+01
     10140   1 -8.588327E+06 -6.710831E+02 -1.626796E+02  6.575686E+05 -2.136774E+04 -2.991198E+02
     10141   1 -8.587777E+06  2.763385E+02  5.566865E+02  7.010098E+05 -1.675533E+04  7.549473E+02
     10142   1 -8.588188E+06  8.379683E+02 -1.252172E+03  7.642282E+05 -6.642060E+03 -7.543810E+01
     10143   1 -1.144951E+07  1.462281E+03  2.257917E+03  5.227687E+05  1.217254E+04 -7.081704E+02
     10144   1 -1.145122E+07 -8.940537E+02 -5.780731E+02  4.661104E+05  3.333757E+04  6.902027E+02
     10145   1 -1.145128E+07 -3.698056E+02 -1.286963E+03  4.350906E+05  4.075539E+04  4.934285E+02
     10146   1 -1.145107E+07  5.400935E+01 -1.052180E+03  4.171033E+05  3.372451E+04  1.450181E+02
     10147   1 -1.145126E+07 -3.358366E+02 -1.261337E+03  4.071877E+05  1.884690E+04  1.210172E+02
     10148   1 -1.145104E+07  1.659922E+02 -1.087851E+03  4.041610E+05  1.527231E-01  6.310338E-02
     10149   1 -1.145126E+07 -3.358374E+02 -1.261337E+03  4.071877E+05 -1.884659E+04 -1.208867E+02
     10150   1 -1.145107E+07  5.400989E+01 -1.052181E+03  4.171033E+05 -3.372424E+04 -1.449134E+02
     10151   1 -1.145128E+07 -3.698161E+02 -1.286971E+03  4.350907E+05 -4.075517E+04 -4.933419E+02
     10152   1 -1.145122E+07 -8.940822E+02 -5.780790E+02  4.661105E+05 -3.333743E+04 -6.901601E+02
     10153   1 -1.144951E+07  1.462228E+03  2.257884E+03  5.227688E+05 -1.217249E+04  7.081844E+02
     10154   1 -1.431453E+07  1.006958E+03 -4.381831E+03  1.920010E+05  3.281555E+04  1.089670E+03
     10155   1 -1.431479E+07 -1.293156E+03 -2.870089E+03  1.649970E+05  7.094657E+04  6.709412E+02
     10156   1 -1.431385E+07  6.699681E+02 -1.975943E+03  1.546710E+05  7.223713E+04  1.313332E+02
     10157   1 -1.431419E+07 -5.915040E+02 -1.747376E+03  1.478529E+05  5.632995E+04  1.568991E+02
     10158   1 -1.431378E+07  4.287017E+02 -1.529289E+03  1.445899E+05  3.040094E+04  2.212740E+01
     10159   1 -1.431407E+07 -4.413176E+02 -1.540289E+03  1.433907E+05  1.641497E-01  2.167832E-02
     10160   1 -1.431378E+07  4.287010E+02 -1.529274E+03  1.445899E+05 -3.040059E+04 -2.207666E+01
     10161   1 -1.431419E+07 -5.915110E+02 -1.747368E+03  1.478530E+05 -5.632967E+04 -1.568640E+02
     10162   1 -1.431385E+07  6.699704E+02 -1.975913E+03  1.546711E+05 -7.223687E+04 -1.312980E+02
     10163   1 -1.431479E+07 -1.293138E+03 -2.870080E+03  1.649970E+05 -7.094642E+04 -6.709301E+02
     10164   1 -1.431453E+07  1.007022E+03 -4.381800E+03  1.920011E+05 -3.281548E+04 -1.089655E+03
     10165   1  1.399643E+07 -9.847633E+02  4.284074E+03  1.920010E+05 -3.281555E+04  1.065434E+03
     10166   1  1.399669E+07  1.264543E+03  2.806675E+03  1.649970E+05 -7.094660E+04  6.560404E+02
     10167   1  1.399577E+07 -6.552174E+02  1.931696E+03  1.546710E+05 -7.223716E+04  1.284075E+02
     10168   1  1.399610E+07  5.784780E+02  1.708908E+03  1.478529E+05 -5.633001E+04  1.534237E+02
     10169   1  1.399570E+07 -4.193370E+02  1.494986E+03  1.445899E+05 -3.040097E+04  2.163398E+01
     10170   1  1.399598E+07  4.316123E+02  1.506412E+03  1.433907E+05 -2.289621E-01  3.189561E-02
     10171   1  1.399570E+07 -4.193360E+02  1.494982E+03  1.445899E+05  3.040057E+04 -2.158625E+01
     10172   1  1.399610E+07  5.784658E+02  1.708872E+03  1.478530E+05  5.632961E+04 -1.533693E+02
     10173   1  1.399577E+07 -6.552318E+02  1.931685E+03  1.546711E+05  7.223686E+04 -1.283805E+02
     10174   1  1.399669E+07  1.264507E+03  2.806627E+03  1.649970E+05  7.094638E+04 -6.560159E+02
     10175   1  1.399643E+07 -9.847787E+02  4.284085E+03  1.920011E+05  3.281548E+04 -1.065443E+03
     10176   1  1.119508E+07 -1.429820E+03 -2.207987E+03  5.227686E+05 -1.217255E+04 -6.924260E+02
     10177   1  1.119675E+07  8.742942E+02  5.654978E+02  4.661103E+05 -3.333759E+04  6.748804E+02
     10178   1  1.119681E+07  3.614936E+02  1.258115E+03  4.350905E+05 -4.075542E+04  4.824699E+02
     10179   1  1.119660E+07 -5.269351E+01  1.029085E+03  4.171033E+05 -3.372455E+04  1.418137E+02
     10180   1  1.119679E+07  3.282947E+02  1.233079E+03  4.071877E+05 -1.884694E+04  1.183352E+02
     10181   1  1.119657E+07 -1.621721E+02  1.063974E+03  4.041610E+05 -1.973943E-01  8.061815E-02
     10182   1  1.119679E+07  3.282977E+02  1.233082E+03  4.071877E+05  1.884657E+04 -1.181931E+02
     10183   1  1.119660E+07 -5.268249E+01  1.029089E+03  4.171034E+05  3.372420E+04 -1.416760E+02
     10184   1  1.119681E+07  3.615166E+02  1.258128E+03  4.350907E+05  4.075515E+04 -4.823740E+02
     10185   1  1.119675E+07  8.743222E+02  5.655132E+02  4.661105E+05  3.333740E+04 -6.748111E+02
     10186   1  1.119507E+07 -1.429824E+03 -2.207981E+03  5.227688E+05  1.217248E+04  6.924455E+02
     10187   1  8.397340E+06 -8.193988E+02  1.224176E+03  7.642279E+05 -6.642108E+03  7.378807E+01
     10188   1  8.396938E+06 -2.701487E+02 -5.441451E+02  7.010095E+05 -1.675546E+04 -7.380836E+02
     10189   1  8.397476E+06  6.560821E+02  1.588977E+02  6.575684E+05 -2.136795E+04  2.926094E+02
     10190   1  8.397520E+06  1.982684E+02  7.508747E+02  6.307048E+05 -1.907143E+04  7.854791E+01
     10191   1  8.397443E+06  1.257545E+02  5.911322E+02  6.158934E+05 -1.089101E+04  6.372938E+01
     10192   1  8.397566E+06  2.178204E+02  8.724224E+02  6.110967E+05 -1.546991E-01  1.144304E-01
     10193   1  8.397443E+06  1.257558E+02  5.911351E+02  6.158934E+05  1.089071E+04 -6.351902E+01
     10194   1  8.397520E+06  1.982700E+02  7.508836E+02  6.307049E+05  1.907116E+04 -7.835103E+01
     10195   1  8.397475E+06  6.560748E+02  1.588965E+02  6.575686E+05  2.136772E+04 -2.924632E+02
     10196   1  8.396937E+06 -2.701612E+02 -5.441444E+02  7.010098E+05  1.675532E+04  7.381854E+02
     10197   1  8.397340E+06 -8.194344E+02  1.224164E+03  7.642282E+05  6.642055E+03 -7.376297E+01
     10198   1  5.597713E+06 -5.923708E+02 -6.941592E+02  9.329136E+05 -3.075406E+03 -2.937604E+02
     10199   1  5.598257E+06 -3.139676E+01  3.912533E+02  8.659393E+05 -8.493788E+03  2.367756E+01
     10200   1  5.598137E+06  1.065484E+01 -1.342064E+01  8.176717E+05 -1.088449E+04 -5.598853E+02
     10201   1  5.598302E+06  3.863462E+02  1.106052E+02  7.853649E+05 -9.832636E+03  8.682902E+01
     10202   1  5.598344E+06  1.335995E+02  4.926290E+02  7.671564E+05 -5.811910E+03 -8.475200E+01
     10203   1  5.598297E+06  1.871719E+02  2.955563E+02  7.612533E+05 -1.070911E-01  1.378149E-01
     10204   1  5.598344E+06  1.336033E+02  4.926326E+02  7.671565E+05  5.811700E+03  8.500762E+01
     10205   1  5.598302E+06  3.863570E+02  1.106141E+02  7.853651E+05  9.832449E+03 -8.658727E+01
     10206   1  5.598137E+06  1.067532E+01 -1.341037E+01  8.176719E+05  1.088433E+04  5.600736E+02
     10207   1  5.598256E+06 -3.137304E+01  3.912689E+02  8.659397E+05  8.493685E+03 -2.353644E+01
     10208   1  5.597713E+06 -5.923704E+02 -6.941490E+02  9.329140E+05  3.075368E+03  2.938072E+02
     10209   1  2.799082E+06 -2.688093E+02  3.075097E+02  1.032769E+06 -1.354286E+03 -3.881305E+01
     10210   1  2.798964E+06 -1.210219E+02 -1.975923E+02  9.644273E+05 -3.495971E+03 -5.682179E+02
     10211   1  2.799139E+06  1.274897E+02  8.448159E+01  9.135276E+05 -4.584940E+03 -3.944470E+01
     10212   1  2.799120E+06  4.897234E+01  1.072910E+02  8.788893E+05 -4.176495E+03 -4.415316E+02
     10213   1  2.799150E+06  1.789628E+02  6.591829E+01  8.587672E+05 -2.459829E+03  7.746536E+00
     10214   1  2.799172E+06  6.770869E+01  2.445310E+02  8.522425E+05 -5.461332E-02  1.515140E-01
     10215   1  2.799150E+06  1.789643E+02  6.591975E+01  8.587673E+05  2.459722E+03 -7.464802E+00
     10216   1  2.799120E+06  4.897346E+01  1.072939E+02  8.788895E+05  4.176400E+03  4.417985E+02
     10217   1  2.799139E+06  1.274824E+02  8.447858E+01  9.135279E+05  4.584861E+03  3.965212E+01
     10218   1  2.798964E+06 -1.210442E+02 -1.976001E+02  9.644277E+05  3.495918E+03  5.683679E+02
     10219   1  2.799081E+06 -2.688532E+02  3.074938E+02  1.032769E+06  1.354267E+03  3.885681E+01
     10220   1 -1.451756E-02 -2.840379E-02 -5.889882E-04  1.065912E+06  1.126242E-04 -2.282979E+02
     10221   1  4.750539E-03  1.548338E-02  1.322855E-02  9.970618E+05 -1.128597E-03 -9.603274E+01
     10222   1  2.003341E-02  7.118216E-02  4.168427E-02  9.455723E+05 -2.174845E-03 -6.075508E+02
     10223   1  2.802455E-02  1.066104E-01  5.323000E-02  9.100683E+05 -2.702956E-03 -3.713827E+01
     10224   1  3.144220E-02  1.259523E-01  6.716112E-02  8.894856E+05 -1.341146E-03 -2.523089E+02
     10225   1  3.182825E-02  1.285455E-01  6.430954E-02  8.826903E+05 -2.888304E-04  1.559477E-01
     10226   1  3.128102E-02  1.258069E-01  6.717025E-02  8.894857E+05  1.953040E-03  2.525995E+02
     10227   1  2.838649E-02  1.084305E-01  5.377353E-02  9.100685E+05  2.213724E-03  3.741503E+01
     10228   1  2.163716E-02  8.189778E-02  4.586092E-02  9.455726E+05  2.372646E-03  6.077702E+02
     10229   1  1.080289E-02  4.488828E-02  2.495138E-02  9.970622E+05  7.674438E-04  9.619869E+01
     10230   1 -4.440511E-03  1.825941E-02  1.794694E-02  1.065912E+06  2.138631E-04  2.283532E+02
     10231   1 -2.799082E+06  2.687897E+02 -3.074747E+02  1.032769E+06  1.354286E+03 -3.881308E+01
     10232   1 -2.798964E+06  1.209044E+02  1.975415E+02  9.644273E+05  3.495970E+03 -5.682175E+02
     10233   1 -2.799139E+06 -1.276856E+02 -8.451603E+01  9.135276E+05  4.584938E+03 -3.944437E+01
     10234   1 -2.799121E+06 -4.925305E+01 -1.073982E+02  8.788893E+05  4.176490E+03 -4.415315E+02
     10235   1 -2.799150E+06 -1.792546E+02 -6.598177E+01  8.587672E+05  2.459827E+03  7.746501E+00
     10236   1 -2.799172E+06 -6.802674E+01 -2.446475E+02  8.522425E+05  5.383279E-02  1.515522E-01
     10237   1 -2.799150E+06 -1.792557E+02 -6.598248E+01  8.587673E+05 -2.459718E+03 -7.464916E+00
     10238   1 -2.799120E+06 -4.925818E+01 -1.074036E+02  8.788895E+05 -4.176396E+03  4.417984E+02
     10239   1 -2.799139E+06 -1.276995E+02 -8.451965E+01  9.135279E+05 -4.584857E+03  3.965167E+01
     10240   1 -2.798964E+06  1.208674E+02  1.975243E+02  9.644277E+05 -3.495917E+03  5.683675E+02
     10241   1 -2.799081E+06  2.687403E+02 -3.074947E+02  1.032769E+06 -1.354267E+03  3.885655E+01
     10242   1 -5.597713E+06  5.923591E+02  6.942578E+02  9.329136E+05  3.075407E+03 -2.937597E+02
     10243   1 -5.598257E+06  3.140429E+01 -3.913246E+02  8.659393E+05  8.493784E+03  2.367829E+01
     10244   1 -5.598137E+06 -1.046527E+01  1.360202E+01  8.176717E+05  1.088448E+04 -5.598852E+02
     10245   1 -5.598302E+06 -3.861604E+02 -1.105948E+02  7.853649E+05  9.832628E+03  8.682927E+01
     10246   1 -5.598344E+06 -1.333001E+02 -4.923957E+02  7.671563E+05  5.811907E+03 -8.475224E+01
     10247   1 -5.598297E+06 -1.869439E+02 -2.955234E+02  7.612532E+05  1.065130E-01  1.380031E-01
     10248   1 -5.598344E+06 -1.333037E+02 -4.923983E+02  7.671564E+05 -5.811696E+03  8.500738E+01
     10249   1 -5.598301E+06 -3.861685E+02 -1.106047E+02  7.853651E+05 -9.832442E+03 -8.658717E+01
     10250   1 -5.598136E+06 -1.046283E+01  1.360333E+01  8.176719E+05 -1.088433E+04  5.600731E+02
     10251   1 -5.598256E+06  3.143783E+01 -3.913219E+02  8.659397E+05 -8.493682E+03 -2.353694E+01
     10252   1 -5.597713E+06  5.924547E+02  6.942904E+02  9.329140E+05 -3.075368E+03  2.938066E+02
     10253   1 -8.397340E+06  8.194773E+02 -1.223925E+03  7.642279E+05  6.642108E+03  7.378769E+01
     10254   1 -8.396938E+06  2.699715E+02  5.438844E+02  7.010095E+05  1.675546E+04 -7.380830E+02
     10255   1 -8.397476E+06 -6.561838E+02 -1.587168E+02  6.575684E+05  2.136795E+04  2.926098E+02
     10256   1 -8.397520E+06 -1.986186E+02 -7.511822E+02  6.307048E+05  1.907142E+04  7.854774E+01
     10257   1 -8.397443E+06 -1.259540E+02 -5.909776E+02  6.158934E+05  1.089101E+04  6.372909E+01
     10258   1 -8.397566E+06 -2.182118E+02 -8.727362E+02  6.110967E+05  1.553058E-01  1.146650E-01
     10259   1 -8.397443E+06 -1.259545E+02 -5.909793E+02  6.158934E+05 -1.089070E+04 -6.351929E+01
     10260   1 -8.397520E+06 -1.986249E+02 -7.511944E+02  6.307049E+05 -1.907115E+04 -7.835050E+01
     10261   1 -8.397475E+06 -6.561970E+02 -1.587199E+02  6.575686E+05 -2.136772E+04 -2.924640E+02
     10262   1 -8.396937E+06  2.699225E+02  5.438557E+02  7.010098E+05 -1.675531E+04  7.381851E+02
     10263   1 -8.397340E+06  8.194207E+02 -1.223941E+03  7.642282E+05 -6.642056E+03 -7.376330E+01
     10264   1 -1.119508E+07  1.429922E+03  2.208361E+03  5.227686E+05  1.217255E+04 -6.924240E+02
     10265   1 -1.119675E+07 -8.743615E+02 -5.658380E+02  4.661103E+05  3.333758E+04  6.748802E+02
     10266   1 -1.119681E+07 -3.611807E+02 -1.257664E+03  4.350905E+05  4.075542E+04  4.824694E+02
     10267   1 -1.119660E+07  5.279545E+01 -1.029337E+03  4.171032E+05  3.372453E+04  1.418135E+02
     10268   1 -1.119679E+07 -3.278690E+02 -1.232575E+03  4.071877E+05  1.884693E+04  1.183347E+02
     10269   1 -1.119657E+07  1.623133E+02 -1.064201E+03  4.041610E+05  1.996759E-01  8.071763E-02
     10270   1 -1.119679E+07 -3.278718E+02 -1.232578E+03  4.071877E+05 -1.884657E+04 -1.181929E+02
     10271   1 -1.119660E+07  5.278706E+01 -1.029342E+03  4.171034E+05 -3.372419E+04 -1.416757E+02
     10272   1 -1.119681E+07 -3.611796E+02 -1.257665E+03  4.350907E+05 -4.075515E+04 -4.823738E+02
     10273   1 -1.119675E+07 -8.743322E+02 -5.658379E+02  4.661105E+05 -3.333739E+04 -6.748111E+02
     10274   1 -1.119507E+07  1.430026E+03  2.208401E+03  5.227688E+05 -1.217248E+04  6.924444E+02
     10275   1 -1.399643E+07  9.849447E+02 -4.283598E+03  1.920010E+05  3.281555E+04  1.065427E+03
     10276   1 -1.399669E+07 -1.264790E+03 -2.807150E+03  1.649970E+05  7.094659E+04  6.560442E+02
     10277   1 -1.399577E+07  6.552060E+02 -1.931287E+03  1.546710E+05  7.223715E+04  1.284051E+02
     10278   1 -1.399610E+07 -5.789114E+02 -1.709413E+03  1.478529E+05  5.633000E+04  1.534248E+02
     10279   1 -1.399570E+07  4.192223E+02 -1.494600E+03  1.445899E+05  3.040097E+04  2.163328E+01
     10280   1 -1.399598E+07 -4.320905E+02 -1.506918E+03  1.433907E+05  2.325216E-01  3.175707E-02
     10281   1 -1.399570E+07  4.192218E+02 -1.494595E+03  1.445899E+05 -3.040057E+04 -2.158531E+01
     10282   1 -1.399610E+07 -5.789036E+02 -1.709379E+03  1.478530E+05 -5.632959E+04 -1.533706E+02
     10283   1 -1.399576E+07  6.551986E+02 -1.931283E+03  1.546711E+05 -7.223686E+04 -1.283779E+02
     10284   1 -1.399669E+07 -1.264818E+03 -2.807128E+03  1.649970E+05 -7.094637E+04 -6.560196E+02
     10285   1 -1.399643E+07  9.848644E+02 -4.283635E+03  1.920011E+05 -3.281548E+04 -1.065437E+03
     10286   1  1.367833E+07 -9.623147E+02  4.186747E+03  1.920010E+05 -3.281557E+04  1.041244E+03
     10287   1  1.367858E+07  1.235889E+03  2.742903E+03  1.649970E+05 -7.094662E+04  6.411273E+02
     10288   1  1.367768E+07 -6.401406E+02  1.887873E+03  1.546710E+05 -7.223722E+04  1.255057E+02
     10289   1  1.367801E+07  5.655984E+02  1.670167E+03  1.478529E+05 -5.633005E+04  1.499333E+02
     10290   1  1.367762E+07 -4.094914E+02  1.461125E+03  1.445899E+05 -3.040105E+04  2.115586E+01
     10291   1  1.367789E+07  4.221363E+02  1.472313E+03  1.433907E+05 -2.618514E-01  2.797001E-02
     10292   1  1.367761E+07 -4.094922E+02  1.461105E+03  1.445899E+05  3.040049E+04 -2.108285E+01
     10293   1  1.367801E+07  5.656163E+02  1.670171E+03  1.478530E+05  5.632959E+04 -1.498869E+02
     10294   1  1.367768E+07 -6.401220E+02  1.887833E+03  1.546711E+05  7.223681E+04 -1.254508E+02
     10295   1  1.367858E+07  1.235934E+03  2.742932E+03  1.649971E+05  7.094637E+04 -6.411114E+02
     10296   1  1.367833E+07 -9.623189E+02  4.186714E+03  1.920011E+05  3.281547E+04 -1.041218E+03
     10297   1  1.094064E+07 -1.397415E+03 -2.157858E+03  5.227686E+05 -1.217256E+04 -6.766926E+02
     10298   1  1.094228E+07  8.543254E+02  5.526423E+02  4.661103E+05 -3.333761E+04  6.595347E+02
     10299   1  1.094234E+07  3.530765E+02  1.229433E+03  4.350905E+05 -4.075546E+04  4.715183E+02
     10300   1  1.094213E+07 -5.175480E+01  1.005632E+03  4.171032E+05 -3.372458E+04  1.385929E+02
     10301   1  1.094232E+07  3.205093E+02  1.204926E+03  4.071877E+05 -1.884699E+04  1.156657E+02
     10302   1  1.094211E+07 -1.588009E+02  1.039712E+03  4.041610E+05 -2.338262E-01  8.334651E-02
     10303   1  1.094232E+07  3.205093E+02  1.204926E+03  4.071877E+05  1.884652E+04 -1.154864E+02
     10304   1  1.094213E+07 -5.175983E+01  1.005635E+03  4.171034E+05  3.372417E+04 -1.384515E+02
     10305   1  1.094234E+07  3.530631E+02  1.229430E+03  4.350907E+05  4.075512E+04 -4.713932E+02
     10306   1  1.094228E+07  8.543083E+02  5.526370E+02  4.661106E+05  3.333738E+04 -6.594745E+02
     10307   1  1.094064E+07 -1.397431E+03 -2.157858E+03  5.227689E+05  1.217247E+04  6.767156E+02
     10308   1  8.206492E+06 -8.007220E+02  1.196345E+03  7.642278E+05 -6.642117E+03  7.213224E+01
     10309   1  8.206099E+06 -2.638971E+02 -5.317160E+02  7.010095E+05 -1.675548E+04 -7.212970E+02
     10310   1  8.206624E+06  6.413465E+02  1.553360E+02  6.575684E+05 -2.136797E+04  2.859822E+02
     10311   1  8.206667E+06  1.940329E+02  7.339396E+02  6.307047E+05 -1.907147E+04  7.677265E+01
     10312   1  8.206592E+06  1.231909E+02  5.778005E+02  6.158934E+05 -1.089104E+04  6.230344E+01
     10313   1  8.206713E+06  2.131921E+02  8.527438E+02  6.110967E+05 -1.881916E-01  1.219051E-01
     10314   1  8.206592E+06  1.231959E+02  5.778076E+02  6.158935E+05  1.089068E+04 -6.205230E+01
     10315   1  8.206667E+06  1.940447E+02  7.339472E+02  6.307049E+05  1.907114E+04 -7.656060E+01
     10316   1  8.206623E+06  6.413743E+02  1.553578E+02  6.575686E+05  2.136771E+04 -2.857953E+02
     10317   1  8.206098E+06 -2.638744E+02 -5.317052E+02  7.010098E+05  1.675530E+04  7.214136E+02
     10318   1  8.206491E+06 -8.007359E+02  1.196361E+03  7.642282E+05  6.642050E+03 -7.207448E+01
     10319   1  5.470493E+06 -5.789757E+02 -6.784088E+02  9.329137E+05 -3.075409E+03 -2.870834E+02
     10320   1  5.471024E+06 -3.079334E+01  3.823430E+02  8.659394E+05 -8.493803E+03  2.313305E+01
     10321   1  5.470907E+06  1.020666E+01 -1.320004E+01  8.176717E+05 -1.088450E+04 -5.471439E+02
     10322   1  5.471068E+06  3.772957E+02  1.080072E+02  7.853649E+05 -9.832659E+03  8.486362E+01
     10323   1  5.471109E+06  1.302455E+02  4.813083E+02  7.671563E+05 -5.811930E+03 -8.280167E+01
     10324   1  5.471063E+06  1.825998E+02  2.887374E+02  7.612533E+05 -1.291045E-01  1.460075E-01
     10325   1  5.471109E+06  1.302478E+02  4.813127E+02  7.671565E+05  5.811683E+03  8.310121E+01
     10326   1  5.471067E+06  3.772969E+02  1.080105E+02  7.853651E+05  9.832432E+03 -8.460792E+01
     10327   1  5.470906E+06  1.020144E+01 -1.319811E+01  8.176720E+05  1.088432E+04  5.473683E+02
     10328   1  5.471023E+06 -3.081083E+01  3.823330E+02  8.659397E+05  8.493676E+03 -2.299664E+01
     10329   1  5.470492E+06 -5.790115E+02 -6.784170E+02  9.329141E+05  3.075365E+03  2.871406E+02
     10330   1  2.735466E+06 -2.627010E+02  3.005057E+02  1.032769E+06 -1.354290E+03 -3.790903E+01
     10331   1  2.735351E+06 -1.181851E+02 -1.930501E+02  9.644272E+05 -3.495979E+03 -5.552891E+02
     10332   1  2.735522E+06  1.247666E+02  8.262446E+01  9.135276E+05 -4.584952E+03 -3.852101E+01
     10333   1  2.735504E+06  4.812326E+01  1.049800E+02  8.788893E+05 -4.176509E+03 -4.314859E+02
     10334   1  2.735533E+06  1.751843E+02  6.453277E+01  8.587672E+05 -2.459840E+03  7.596131E+00
     10335   1  2.735554E+06  6.648072E+01  2.391201E+02  8.522425E+05 -6.553356E-02  1.592791E-01
     10336   1  2.735533E+06  1.751869E+02  6.453545E+01  8.587674E+05  2.459715E+03 -7.268372E+00
     10337   1  2.735504E+06  4.813026E+01  1.049832E+02  8.788896E+05  4.176394E+03  4.317692E+02
     10338   1  2.735522E+06  1.247852E+02  8.263460E+01  9.135279E+05  4.584859E+03  3.877631E+01
     10339   1  2.735351E+06 -1.181569E+02 -1.930377E+02  9.644277E+05  3.495916E+03  5.554572E+02
     10340   1  2.735466E+06 -2.626751E+02  3.005254E+02  1.032769E+06  1.354266E+03  3.798780E+01
     10341   1  4.009674E-03 -3.071566E-02  2.671150E-03  1.065912E+06 -1.222149E-03 -2.231071E+02
     10342   1 -2.826591E-03 -7.620502E-02 -1.108865E-02  9.970619E+05 -3.180323E-03 -9.385757E+01
     10343   1 -1.459445E-02 -1.366159E-01 -3.738274E-02  9.455723E+05 -5.800311E-03 -5.937250E+02
     10344   1 -2.383239E-02 -1.742894E-01 -4.360209E-02  9.100683E+05 -5.736464E-03 -3.628629E+01
     10345   1 -2.970829E-02 -1.936630E-01 -5.264832E-02  8.894856E+05 -4.282324E-03 -2.465492E+02
     10346   1 -3.121973E-02 -1.957977E-01 -4.736437E-02  8.826903E+05  4.840240E-04  1.637530E-01
     10347   1 -2.944749E-02 -1.935180E-01 -5.268463E-02  8.894858E+05  3.467975E-03  2.468856E+02
     10348   1 -2.418166E-02 -1.763608E-01 -4.412792E-02  9.100686E+05  6.559191E-03  3.657657E+01
     10349   1 -1.627628E-02 -1.494369E-01 -4.241514E-02  9.455727E+05  5.534208E-03  5.939824E+02
     10350   1 -1.006386E-02 -1.122169E-01 -2.532753E-02  9.970623E+05  3.748432E-03  9.401732E+01
     10351   1 -8.295590E-03 -8.849211E-02 -2.026863E-02  1.065912E+06  8.284275E-04  2.231753E+02
     10352   1 -2.735466E+06  2.626004E+02 -3.005448E+02  1.032769E+06  1.354287E+03 -3.790842E+01
     10353   1 -2.735351E+06  1.182217E+02  1.931216E+02  9.644272E+05  3.495971E+03 -5.552886E+02
     10354   1 -2.735522E+06 -1.246161E+02 -8.255231E+01  9.135276E+05  4.584937E+03 -3.852066E+01
     10355   1 -2.735504E+06 -4.785916E+01 -1.048042E+02  8.788893E+05  4.176497E+03 -4.314858E+02
     10356   1 -2.735533E+06 -1.748991E+02 -6.439268E+01  8.587672E+05  2.459831E+03  7.596203E+00
     10357   1 -2.735554E+06 -6.616295E+01 -2.389134E+02  8.522425E+05  6.671879E-02  1.591553E-01
     10358   1 -2.735533E+06 -1.749023E+02 -6.439640E+01  8.587673E+05 -2.459708E+03 -7.268318E+00
     10359   1 -2.735504E+06 -4.786175E+01 -1.048043E+02  8.788895E+05 -4.176379E+03  4.317689E+02
     10360   1 -2.735522E+06 -1.246098E+02 -8.255495E+01  9.135279E+05 -4.584846E+03  3.877606E+01
     10361   1 -2.735351E+06  1.182659E+02  1.931399E+02  9.644277E+05 -3.495906E+03  5.554565E+02
     10362   1 -2.735466E+06  2.626894E+02 -3.005206E+02  1.032769E+06 -1.354264E+03  3.798755E+01
     10363   1 -5.470493E+06  5.788957E+02  6.782941E+02  9.329136E+05  3.075405E+03 -2.870832E+02
     10364   1 -5.471024E+06  3.070113E+01 -3.822450E+02  8.659393E+05  8.493797E+03  2.313381E+01
     10365   1 -5.470907E+06 -1.050852E+01  1.301127E+01  8.176716E+05  1.088449E+04 -5.471430E+02
     10366   1 -5.471068E+06 -3.775858E+02 -1.079710E+02  7.853649E+05  9.832646E+03  8.486342E+01
     10367   1 -5.471109E+06 -1.306668E+02 -4.815242E+02  7.671563E+05  5.811920E+03 -8.280146E+01
     10368   1 -5.471063E+06 -1.829335E+02 -2.887065E+02  7.612532E+05  1.297675E-01  1.456113E-01
     10369   1 -5.471109E+06 -1.306693E+02 -4.815298E+02  7.671565E+05 -5.811674E+03  8.310157E+01
     10370   1 -5.471067E+06 -3.775900E+02 -1.079728E+02  7.853651E+05 -9.832419E+03 -8.460843E+01
     10371   1 -5.470906E+06 -1.053082E+01  1.299531E+01  8.176720E+05 -1.088431E+04  5.473679E+02
     10372   1 -5.471023E+06  3.064865E+01 -3.822571E+02  8.659397E+05 -8.493669E+03 -2.299787E+01
     10373   1 -5.470492E+06  5.788125E+02  6.782490E+02  9.329141E+05 -3.075362E+03  2.871403E+02
     10374   1 -8.206492E+06  8.005626E+02 -1.196650E+03  7.642278E+05  6.642113E+03  7.213371E+01
     10375   1 -8.206099E+06  2.640622E+02  5.320504E+02  7.010095E+05  1.675547E+04 -7.212962E+02
     10376   1 -8.206624E+06 -6.412638E+02 -1.555199E+02  6.575683E+05  2.136795E+04  2.859821E+02
     10377   1 -8.206667E+06 -1.936406E+02 -7.335023E+02  6.307047E+05  1.907145E+04  7.677230E+01
     10378   1 -8.206592E+06 -1.229802E+02 -5.779103E+02  6.158933E+05  1.089103E+04  6.230333E+01
     10379   1 -8.206712E+06 -2.127461E+02 -8.522744E+02  6.110967E+05  1.867792E-01  1.214442E-01
     10380   1 -8.206592E+06 -1.229861E+02 -5.779184E+02  6.158934E+05 -1.089067E+04 -6.205153E+01
     10381   1 -8.206667E+06 -1.936473E+02 -7.335064E+02  6.307049E+05 -1.907112E+04 -7.656102E+01
     10382   1 -8.206623E+06 -6.412673E+02 -1.555359E+02  6.575686E+05 -2.136768E+04 -2.857948E+02
     10383   1 -8.206098E+06  2.641144E+02  5.320731E+02  7.010098E+05 -1.675529E+04  7.214123E+02
     10384   1 -8.206491E+06  8.006903E+02 -1.196630E+03  7.642282E+05 -6.642044E+03 -7.207509E+01
     10385   1 -1.094064E+07  1.397264E+03  2.157404E+03  5.227686E+05  1.217255E+04 -6.766945E+02
     10386   1 -1.094228E+07 -8.542638E+02 -5.522041E+02  4.661103E+05  3.333761E+04  6.595354E+02
     10387   1 -1.094234E+07 -3.534790E+02 -1.229941E+03  4.350905E+05  4.075544E+04  4.715181E+02
     10388   1 -1.094213E+07  5.161431E+01 -1.005247E+03  4.171032E+05  3.372457E+04  1.385920E+02
     10389   1 -1.094232E+07 -3.210451E+02 -1.205449E+03  4.071876E+05  1.884698E+04  1.156654E+02
     10390   1 -1.094211E+07  1.586152E+02 -1.039330E+03  4.041610E+05  2.297247E-01  8.311644E-02
     10391   1 -1.094232E+07 -3.210452E+02 -1.205449E+03  4.071877E+05 -1.884650E+04 -1.154859E+02
     10392   1 -1.094213E+07  5.161629E+01 -1.005251E+03  4.171034E+05 -3.372416E+04 -1.384510E+02
     10393   1 -1.094234E+07 -3.534941E+02 -1.229950E+03  4.350907E+05 -4.075509E+04 -4.713929E+02
     10394   1 -1.094228E+07 -8.543171E+02 -5.522190E+02  4.661105E+05 -3.333738E+04 -6.594750E+02
     10395   1 -1.094064E+07  1.397156E+03  2.157347E+03  5.227689E+05 -1.217247E+04  6.767162E+02
     10396   1 -1.367833E+07  9.620837E+02 -4.187326E+03  1.920010E+05  3.281556E+04  1.041252E+03
     10397   1 -1.367858E+07 -1.235590E+03 -2.742294E+03  1.649970E+05  7.094660E+04  6.411225E+02
     10398   1 -1.367768E+07  6.401508E+02 -1.888317E+03  1.546710E+05  7.223719E+04  1.255081E+02
     10399   1 -1.367801E+07 -5.650697E+02 -1.669456E+03  1.478529E+05  5.633002E+04  1.499313E+02
     10400   1 -1.367762E+07  4.096283E+02 -1.461485E+03  1.445899E+05  3.040104E+04  2.115618E+01
     10401   1 -1.367789E+07 -4.215535E+02 -1.471570E+03  1.433907E+05  2.558689E-01  2.817547E-02
     10402   1 -1.367762E+07  4.096287E+02 -1.461464E+03  1.445899E+05 -3.040047E+04 -2.108362E+01
     10403   1 -1.367801E+07 -5.650830E+02 -1.669459E+03  1.478530E+05 -5.632957E+04 -1.498846E+02
     10404   1 -1.367768E+07  6.401584E+02 -1.888268E+03  1.546711E+05 -7.223677E+04 -1.254535E+02
     10405   1 -1.367858E+07 -1.235558E+03 -2.742294E+03  1.649971E+05 -7.094636E+04 -6.411068E+02
     10406   1 -1.367833E+07  9.622067E+02 -4.187261E+03  1.920011E+05 -3.281546E+04 -1.041224E+03
     10407   1  1.336023E+07 -9.400527E+02  4.089307E+03  1.920010E+05 -3.281557E+04  1.016995E+03
     10408   1  1.336048E+07  1.207036E+03  2.679119E+03  1.649970E+05 -7.094668E+04  6.262279E+02
     10409   1  1.335959E+07 -6.254930E+02  1.843868E+03  1.546710E+05 -7.223725E+04  1.225726E+02
     10410   1  1.335991E+07  5.521217E+02  1.631247E+03  1.478529E+05 -5.633014E+04  1.464618E+02
     10411   1  1.335953E+07 -4.003619E+02  1.427019E+03  1.445899E+05 -3.040109E+04  2.065548E+01
     10412   1  1.335980E+07  4.119153E+02  1.437952E+03  1.433907E+05 -3.572098E-01  4.283914E-02
     10413   1  1.335953E+07 -4.003593E+02  1.427024E+03  1.445899E+05  3.040047E+04 -2.059940E+01
     10414   1  1.335991E+07  5.521007E+02  1.631199E+03  1.478530E+05  5.632952E+04 -1.463856E+02
     10415   1  1.335959E+07 -6.255082E+02  1.843876E+03  1.546711E+05  7.223679E+04 -1.225402E+02
     10416   1  1.336047E+07  1.206991E+03  2.679047E+03  1.649971E+05  7.094633E+04 -6.261883E+02
     10417   1  1.336023E+07 -9.400383E+02  4.089349E+03  1.920011E+05  3.281546E+04 -1.017016E+03
     10418   1  1.068621E+07 -1.364794E+03 -2.107613E+03  5.227685E+05 -1.217257E+04 -6.609445E+02
     10419   1  1.068781E+07  8.345849E+02  5.398130E+02  4.661103E+05 -3.333764E+04  6.442234E+02
     10420   1  1.068786E+07  3.451046E+02  1.200951E+03  4.350905E+05 -4.075550E+04  4.605559E+02
     10421   1  1.068766E+07 -5.023510E+01  9.823554E+02  4.171032E+05 -3.372464E+04  1.353921E+02
     10422   1  1.068785E+07  3.134427E+02  1.177076E+03  4.071877E+05 -1.884703E+04  1.129741E+02
     10423   1  1.068764E+07 -1.547243E+02  1.015670E+03  4.041610E+05 -2.911184E-01  1.022414E-01
     10424   1  1.068785E+07  3.134463E+02  1.177081E+03  4.071877E+05  1.884649E+04 -1.128017E+02
     10425   1  1.068766E+07 -5.022137E+01  9.823606E+02  4.171034E+05  3.372413E+04 -1.352104E+02
     10426   1  1.068786E+07  3.451329E+02  1.200971E+03  4.350907E+05  4.075510E+04 -4.604305E+02
     10427   1  1.068781E+07  8.346118E+02  5.398309E+02  4.661106E+05  3.333736E+04 -6.441194E+02
     10428   1  1.068621E+07 -1.364824E+03 -2.107614E+03  5.227689E+05  1.217247E+04  6.609743E+02
     10429   1  8.015643E+06 -7.822136E+02  1.168519E+03  7.642279E+05 -6.642122E+03  7.043319E+01
     10430   1  8.015259E+06 -2.579238E+02 -5.194154E+02  7.010095E+05 -1.675551E+04 -7.045181E+02
     10431   1  8.015772E+06  6.261937E+02  1.516626E+02  6.575683E+05 -2.136801E+04  2.793270E+02
     10432   1  8.015815E+06  1.891785E+02  7.167382E+02  6.307047E+05 -1.907150E+04  7.500485E+01
     10433   1  8.015741E+06  1.199491E+02  5.642496E+02  6.158934E+05 -1.089108E+04  6.085582E+01
     10434   1  8.015859E+06  2.078314E+02  8.327640E+02  6.110967E+05 -2.182352E-01  1.392748E-01
     10435   1  8.015741E+06  1.199490E+02  5.642514E+02  6.158935E+05  1.089065E+04 -6.060638E+01
     10436   1  8.015814E+06  1.891782E+02  7.167486E+02  6.307050E+05  1.907111E+04 -7.475777E+01
     10437   1  8.015772E+06  6.261829E+02  1.516574E+02  6.575687E+05  2.136769E+04 -2.791451E+02
     10438   1  8.015258E+06 -2.579283E+02 -5.194121E+02  7.010099E+05  1.675529E+04  7.046556E+02
     10439   1  8.015642E+06 -7.822284E+02  1.168507E+03  7.642283E+05  6.642045E+03 -7.040502E+01
     10440   1  5.343272E+06 -5.654490E+02 -6.626025E+02  9.329135E+05 -3.075418E+03 -2.803986E+02
     10441   1  5.343791E+06 -2.995943E+01  3.734874E+02  8.659393E+05 -8.493816E+03  2.262774E+01
     10442   1  5.343676E+06  1.019793E+01 -1.278632E+01  8.176716E+05 -1.088453E+04 -5.344132E+02
     10443   1  5.343834E+06  3.688349E+02  1.056222E+02  7.853649E+05 -9.832681E+03  8.291195E+01
     10444   1  5.343874E+06  1.275830E+02  4.702808E+02  7.671564E+05 -5.811955E+03 -8.087582E+01
     10445   1  5.343829E+06  1.787263E+02  2.821764E+02  7.612533E+05 -1.468170E-01  1.628606E-01
     10446   1  5.343874E+06  1.275866E+02  4.702839E+02  7.671565E+05  5.811665E+03  8.117024E+01
     10447   1  5.343833E+06  3.688469E+02  1.056318E+02  7.853651E+05  9.832422E+03 -8.261722E+01
     10448   1  5.343676E+06  1.022168E+01 -1.277549E+01  8.176720E+05  1.088431E+04  5.346426E+02
     10449   1  5.343790E+06 -2.993409E+01  3.735063E+02  8.659398E+05  8.493672E+03 -2.243889E+01
     10450   1  5.343271E+06 -5.654553E+02 -6.625935E+02  9.329142E+05  3.075363E+03  2.804594E+02
     10451   1  2.671851E+06 -2.566403E+02  2.935327E+02  1.032769E+06 -1.354292E+03 -3.704880E+01
     10452   1  2.671738E+06 -1.155814E+02 -1.886181E+02  9.644273E+05 -3.495989E+03 -5.423723E+02
     10453   1  2.671905E+06  1.216183E+02  8.063343E+01  9.135276E+05 -4.584965E+03 -3.763353E+01
     10454   1  2.671888E+06  4.665349E+01  1.024004E+02  8.788893E+05 -4.176522E+03 -4.214339E+02
     10455   1  2.671916E+06  1.707302E+02  6.291237E+01  8.587672E+05 -2.459854E+03  7.417101E+00
     10456   1  2.671937E+06  6.452997E+01  2.334040E+02  8.522425E+05 -7.346912E-02  1.756402E-01
     10457   1  2.671916E+06  1.707311E+02  6.291305E+01  8.587674E+05  2.459708E+03 -7.099338E+00
     10458   1  2.671888E+06  4.665364E+01  1.024033E+02  8.788896E+05  4.176392E+03  4.217516E+02
     10459   1  2.671905E+06  1.216071E+02  8.062704E+01  9.135280E+05  4.584856E+03  3.787684E+01
     10460   1  2.671738E+06 -1.156085E+02 -1.886287E+02  9.644278E+05  3.495915E+03  5.425608E+02
     10461   1  2.671850E+06 -2.566889E+02  2.935105E+02  1.032769E+06  1.354265E+03  3.709650E+01
     10462   1  8.791854E-03 -7.283503E-02 -2.227128E-03  1.065911E+06 -3.184243E-03 -2.179123E+02
     10463   1  3.213244E-02 -5.856070E-04  2.401173E-02  9.970617E+05 -1.053322E-02 -9.164021E+01
     10464   1  4.689508E-02  8.637599E-02  6.886862E-02  9.455723E+05 -1.402142E-02 -5.799126E+02
     10465   1  5.058980E-02  1.419695E-01  9.245852E-02  9.100683E+05 -1.387879E-02 -3.542100E+01
     10466   1  4.948284E-02  1.702894E-01  1.137315E-01  8.894856E+05 -7.369108E-03 -2.408179E+02
     10467   1  4.799213E-02  1.747796E-01  1.124173E-01  8.826903E+05 -6.361923E-04  1.794353E-01
     10468   1  4.921457E-02  1.700336E-01  1.138281E-01  8.894858E+05  8.761960E-03  2.411435E+02
     10469   1  5.118897E-02  1.441549E-01  9.290343E-02  9.100686E+05  1.282144E-02  3.574901E+01
     10470   1  4.900789E-02  1.014835E-01  7.493233E-02  9.455727E+05  1.462726E-02  5.801713E+02
     10471   1  4.128492E-02  4.318548E-02  4.127285E-02  9.970623E+05  9.816962E-03  9.185461E+01
     10472   1  2.437255E-02 -1.617501E-03  2.618073E-02  1.065912E+06  3.726076E-03  2.179803E+02
     10473   1 -2.671851E+06  2.565620E+02 -2.934821E+02  1.032769E+06  1.354285E+03 -3.704876E+01
     10474   1 -2.671738E+06  1.153641E+02  1.885539E+02  9.644272E+05  3.495970E+03 -5.423714E+02
     10475   1 -2.671905E+06 -1.219542E+02 -8.067600E+01  9.135275E+05  4.584940E+03 -3.763304E+01
     10476   1 -2.671888E+06 -4.710970E+01 -1.025343E+02  8.788893E+05  4.176494E+03 -4.214336E+02
     10477   1 -2.671916E+06 -1.712032E+02 -6.298331E+01  8.587672E+05  2.459840E+03  7.416921E+00
     10478   1 -2.671937E+06 -6.503738E+01 -2.335430E+02  8.522425E+05  7.192485E-02  1.757404E-01
     10479   1 -2.671916E+06 -1.712033E+02 -6.298252E+01  8.587673E+05 -2.459691E+03 -7.099546E+00
     10480   1 -2.671888E+06 -4.711500E+01 -1.025411E+02  8.788896E+05 -4.176367E+03  4.217516E+02
     10481   1 -2.671905E+06 -1.219726E+02 -8.067793E+01  9.135279E+05 -4.584828E+03  3.787606E+01
     10482   1 -2.671738E+06  1.153025E+02  1.885264E+02  9.644277E+05 -3.495897E+03  5.425602E+02
     10483   1 -2.671850E+06  2.564684E+02 -2.935138E+02  1.032769E+06 -1.354259E+03  3.709595E+01
     10484   1 -5.343272E+06  5.653827E+02  6.627434E+02  9.329134E+05  3.075412E+03 -2.803976E+02
     10485   1 -5.343791E+06  2.993663E+01 -3.735815E+02  8.659392E+05  8.493791E+03  2.262915E+01
     10486   1 -5.343676E+06 -9.945309E+00  1.306828E+01  8.176716E+05  1.088450E+04 -5.344132E+02
     10487   1 -5.343834E+06 -3.685804E+02 -1.055759E+02  7.853648E+05  9.832649E+03  8.291234E+01
     10488   1 -5.343874E+06 -1.271634E+02 -4.699065E+02  7.671563E+05  5.811939E+03 -8.087652E+01
     10489   1 -5.343829E+06 -1.784094E+02 -2.820890E+02  7.612532E+05  1.461753E-01  1.632919E-01
     10490   1 -5.343874E+06 -1.271668E+02 -4.699080E+02  7.671564E+05 -5.811647E+03  8.116978E+01
     10491   1 -5.343833E+06 -3.685894E+02 -1.055877E+02  7.853651E+05 -9.832391E+03 -8.261679E+01
     10492   1 -5.343676E+06 -9.936444E+00  1.307447E+01  8.176720E+05 -1.088428E+04  5.346415E+02
     10493   1 -5.343790E+06  2.999628E+01 -3.735739E+02  8.659397E+05 -8.493648E+03 -2.243977E+01
     10494   1 -5.343271E+06  5.655358E+02  6.628009E+02  9.329141E+05 -3.075355E+03  2.804583E+02
     10495   1 -8.015643E+06  7.823075E+02 -1.168139E+03  7.642278E+05  6.642114E+03  7.043281E+01
     10496   1 -8.015259E+06  2.576367E+02  5.190332E+02  7.010095E+05  1.675548E+04 -7.045170E+02
     10497   1 -8.015772E+06 -6.263682E+02 -1.513755E+02  6.575683E+05  2.136798E+04  2.793275E+02
     10498   1 -8.015815E+06 -1.897229E+02 -7.171723E+02  6.307047E+05  1.907146E+04  7.500444E+01
     10499   1 -8.015741E+06 -1.202657E+02 -5.639852E+02  6.158933E+05  1.089106E+04  6.085490E+01
     10500   1 -8.015859E+06 -2.084335E+02 -8.331966E+02  6.110967E+05  2.208689E-01  1.397893E-01
     10501   1 -8.015741E+06 -1.202646E+02 -5.639862E+02  6.158934E+05 -1.089063E+04 -6.060680E+01
     10502   1 -8.015814E+06 -1.897282E+02 -7.171859E+02  6.307049E+05 -1.907107E+04 -7.475649E+01
     10503   1 -8.015772E+06 -6.263865E+02 -1.513779E+02  6.575686E+05 -2.136766E+04 -2.791464E+02
     10504   1 -8.015258E+06  2.575499E+02  5.189900E+02  7.010098E+05 -1.675526E+04  7.046550E+02
     10505   1 -8.015642E+06  7.821812E+02 -1.168172E+03  7.642283E+05 -6.642039E+03 -7.040583E+01
     10506   1 -1.068621E+07  1.364930E+03  2.108179E+03  5.227685E+05  1.217257E+04 -6.609414E+02
     10507   1 -1.068781E+07 -8.346989E+02 -5.403190E+02  4.661103E+05  3.333760E+04  6.442229E+02
     10508   1 -1.068786E+07 -3.446411E+02 -1.200249E+03  4.350905E+05  4.075546E+04  4.605547E+02
     10509   1 -1.068766E+07  5.038007E+01 -9.827066E+02  4.171032E+05  3.372460E+04  1.353913E+02
     10510   1 -1.068785E+07 -3.128109E+02 -1.176279E+03  4.071876E+05  1.884700E+04  1.129730E+02
     10511   1 -1.068764E+07  1.549264E+02 -1.015971E+03  4.041610E+05  2.977960E-01  1.024380E-01
     10512   1 -1.068785E+07 -3.128146E+02 -1.176285E+03  4.071877E+05 -1.884647E+04 -1.128012E+02
     10513   1 -1.068766E+07  5.036987E+01 -9.827092E+02  4.171034E+05 -3.372408E+04 -1.352093E+02
     10514   1 -1.068786E+07 -3.446361E+02 -1.200257E+03  4.350907E+05 -4.075507E+04 -4.604298E+02
     10515   1 -1.068781E+07 -8.346396E+02 -5.403099E+02  4.661106E+05 -3.333732E+04 -6.441193E+02
     10516   1 -1.068621E+07  1.365112E+03  2.108247E+03  5.227689E+05 -1.217246E+04  6.609727E+02
     10517   1 -1.336023E+07  9.403279E+02 -4.088583E+03  1.920010E+05  3.281556E+04  1.016986E+03
     10518   1 -1.336048E+07 -1.207410E+03 -2.679824E+03  1.649970E+05  7.094664E+04  6.262335E+02
     10519   1 -1.335959E+07  6.254737E+02 -1.843226E+03  1.546710E+05  7.223720E+04  1.225688E+02
     10520   1 -1.335991E+07 -5.527764E+02 -1.631972E+03  1.478529E+05  5.633009E+04  1.464629E+02
     10521   1 -1.335953E+07  4.001896E+02 -1.426390E+03  1.445899E+05  3.040105E+04  2.065443E+01
     10522   1 -1.335980E+07 -4.126340E+02 -1.438663E+03  1.433907E+05  3.665436E-01  4.244595E-02
     10523   1 -1.335953E+07  4.001874E+02 -1.426397E+03  1.445899E+05 -3.040045E+04 -2.059771E+01
     10524   1 -1.335991E+07 -5.527600E+02 -1.631922E+03  1.478530E+05 -5.632945E+04 -1.463874E+02
     10525   1 -1.335959E+07  6.254572E+02 -1.843247E+03  1.546711E+05 -7.223676E+04 -1.225360E+02
     10526   1 -1.336047E+07 -1.207458E+03 -2.679785E+03  1.649970E+05 -7.094628E+04 -6.261936E+02
     10527   1 -1.336023E+07  9.401661E+02 -4.088669E+03  1.920011E+05 -3.281546E+04 -1.017008E+03
     10528   1  1.304213E+07 -9.174857E+02  3.992069E+03  1.920010E+05 -3.281561E+04  9.928317E+02
     10529   1  1.304237E+07  1.178440E+03  2.615320E+03  1.649970E+05 -7.094670E+04  6.113094E+02
     10530   1  1.304151E+07 -6.102966E+02  1.800129E+03  1.546710E+05 -7.223735E+04  1.196830E+02
     10531   1  1.304182E+07  5.393655E+02  1.592520E+03  1.478529E+05 -5.633017E+04  1.429611E+02
     10532   1  1.304145E+07 -3.903432E+02  1.393252E+03  1.445899E+05 -3.040121E+04  2.018309E+01
     10533   1  1.304171E+07  4.025962E+02  1.403902E+03  1.433907E+05 -3.827919E-01  2.748425E-02
     10534   1  1.304145E+07 -3.903467E+02  1.393229E+03  1.445899E+05  3.040037E+04 -2.009094E+01
     10535   1  1.304182E+07  5.393944E+02  1.592556E+03  1.478530E+05  5.632950E+04 -1.429127E+02
     10536   1  1.304151E+07 -6.102802E+02  1.800074E+03  1.546711E+05  7.223673E+04 -1.196032E+02
     10537   1  1.304237E+07  1.178494E+03  2.615386E+03  1.649971E+05  7.094633E+04 -6.112905E+02
     10538   1  1.304213E+07 -9.175413E+02  3.991989E+03  1.920012E+05  3.281545E+04 -9.927807E+02
     10539   1  1.043178E+07 -1.332499E+03 -2.057511E+03  5.227686E+05 -1.217258E+04 -6.452173E+02
     10540   1  1.043334E+07  8.145236E+02  5.269254E+02  4.661103E+05 -3.333768E+04  6.288622E+02
     10541   1  1.043339E+07  3.365829E+02  1.172247E+03  4.350905E+05 -4.075556E+04  4.496042E+02
     10542   1  1.043319E+07 -4.943874E+01  9.588493E+02  4.171032E+05 -3.372468E+04  1.321546E+02
     10543   1  1.043337E+07  3.055010E+02  1.148885E+03  4.071877E+05 -1.884710E+04  1.103028E+02
     10544   1  1.043317E+07 -1.515212E+02  9.913511E+02  4.041610E+05 -3.236195E-01  8.665869E-02
     10545   1  1.043337E+07  3.054990E+02  1.148884E+03  4.071877E+05  1.884643E+04 -1.100960E+02
     10546   1  1.043319E+07 -4.944856E+01  9.588561E+02  4.171034E+05  3.372411E+04 -1.319995E+02
     10547   1  1.043339E+07  3.365648E+02  1.172241E+03  4.350908E+05  4.075506E+04 -4.494449E+02
     10548   1  1.043333E+07  8.145199E+02  5.269249E+02  4.661106E+05  3.333735E+04 -6.287899E+02
     10549   1  1.043177E+07 -1.332467E+03 -2.057496E+03  5.227690E+05  1.217246E+04  6.452501E+02
     10550   1  7.824795E+06 -7.634516E+02  1.140721E+03  7.642277E+05 -6.642137E+03  6.879433E+01
     10551   1  7.824420E+06 -2.515949E+02 -5.069655E+02  7.010094E+05 -1.675553E+04 -6.877334E+02
     10552   1  7.824921E+06  6.115632E+02  1.481518E+02  6.575683E+05 -2.136804E+04  2.727012E+02
     10553   1  7.824962E+06  1.850734E+02  6.998541E+02  6.307047E+05 -1.907154E+04  7.321045E+01
     10554   1  7.824890E+06  1.175407E+02  5.509947E+02  6.158934E+05 -1.089111E+04  5.941964E+01
     10555   1  7.825005E+06  2.033550E+02  8.131441E+02  6.110967E+05 -2.499417E-01  1.222493E-01
     10556   1  7.824890E+06  1.175453E+02  5.510021E+02  6.158935E+05  1.089063E+04 -5.914870E+01
     10557   1  7.824961E+06  1.850844E+02  6.998586E+02  6.307050E+05  1.907109E+04 -7.298600E+01
     10558   1  7.824920E+06  6.115936E+02  1.481781E+02  6.575687E+05  2.136767E+04 -2.724771E+02
     10559   1  7.824419E+06 -2.515816E+02 -5.069595E+02  7.010099E+05  1.675528E+04  6.878755E+02
     10560   1  7.824793E+06 -7.634913E+02  1.140734E+03  7.642284E+05  6.642042E+03 -6.870835E+01
     10561   1  5.216051E+06 -5.521336E+02 -6.468605E+02  9.329137E+05 -3.075420E+03 -2.737274E+02
     10562   1  5.216558E+06 -2.944513E+01  3.645482E+02  8.659393E+05 -8.493837E+03  2.205733E+01
     10563   1  5.216446E+06  9.640277E+00 -1.259163E+01  8.176716E+05 -1.088455E+04 -5.216837E+02
     10564   1  5.216599E+06  3.596359E+02  1.029695E+02  7.853649E+05 -9.832706E+03  8.091757E+01
     10565   1  5.216639E+06  1.240710E+02  4.589173E+02  7.671564E+05 -5.811973E+03 -7.894194E+01
     10566   1  5.216595E+06  1.739834E+02  2.752950E+02  7.612533E+05 -1.652542E-01  1.392753E-01
     10567   1  5.216639E+06  1.240712E+02  4.589204E+02  7.671565E+05  5.811657E+03  7.924932E+01
     10568   1  5.216599E+06  3.596328E+02  1.029689E+02  7.853652E+05  9.832413E+03 -8.066258E+01
     10569   1  5.216445E+06  9.631296E+00 -1.259292E+01  8.176721E+05  1.088431E+04  5.219336E+02
     10570   1  5.216557E+06 -2.945600E+01  3.645335E+02  8.659399E+05  8.493667E+03 -2.191286E+01
     10571   1  5.216050E+06 -5.521394E+02 -6.468650E+02  9.329142E+05  3.075361E+03  2.737978E+02
     10572   1  2.608235E+06 -2.505208E+02  2.865300E+02  1.032768E+06 -1.354299E+03 -3.613052E+01
     10573   1  2.608126E+06 -1.126958E+02 -1.840492E+02  9.644271E+05 -3.496001E+03 -5.294513E+02
     10574   1  2.608289E+06  1.189855E+02  7.881563E+01  9.135275E+05 -4.584981E+03 -3.671535E+01
     10575   1  2.608272E+06  4.593479E+01  1.001548E+02  8.788893E+05 -4.176540E+03 -4.114192E+02
     10576   1  2.608299E+06  1.670946E+02  6.159169E+01  8.587672E+05 -2.459865E+03  7.246570E+00
     10577   1  2.608319E+06  6.345211E+01  2.280669E+02  8.522425E+05 -8.204206E-02  1.462720E-01
     10578   1  2.608299E+06  1.670966E+02  6.159396E+01  8.587674E+05  2.459709E+03 -6.921260E+00
     10579   1  2.608271E+06  4.594066E+01  1.001554E+02  8.788896E+05  4.176394E+03  4.116928E+02
     10580   1  2.608288E+06  1.190071E+02  7.882775E+01  9.135280E+05  4.584864E+03  3.699495E+01
     10581   1  2.608125E+06 -1.126618E+02 -1.840355E+02  9.644278E+05  3.495919E+03  5.296350E+02
     10582   1  2.608235E+06 -2.504831E+02  2.865563E+02  1.032769E+06  1.354268E+03  3.623478E+01
     10583   1  5.895351E-02 -7.774666E-02  7.390411E-03  1.065912E+06 -6.913041E-03 -2.127270E+02
     10584   1  3.672760E-02 -1.437441E-01 -1.340230E-02  9.970618E+05 -1.751377E-02 -8.949655E+01
     10585   1  4.532025E-03 -2.318532E-01 -4.573983E-02  9.455723E+05 -2.472694E-02 -5.661034E+02
     10586   1 -2.219428E-02 -2.871568E-01 -5.248197E-02  9.100683E+05 -2.214216E-02 -3.460476E+01
     10587   1 -3.966658E-02 -3.133253E-01 -5.946275E-02  8.894856E+05 -1.467574E-02 -2.350803E+02
     10588   1 -4.510461E-02 -3.164704E-01 -5.232196E-02  8.826903E+05  1.085770E-03  1.485304E-01
     10589   1 -3.917891E-02 -3.130734E-01 -5.965209E-02  8.894858E+05  1.289644E-02  2.354098E+02
     10590   1 -2.267036E-02 -2.895636E-01 -5.274342E-02  9.100686E+05  2.397260E-02  3.487979E+01
     10591   1  2.593613E-03 -2.498638E-01 -5.307447E-02  9.455727E+05  2.399164E-02  5.663761E+02
     10592   1  2.602246E-02 -1.972666E-01 -3.428310E-02  9.970624E+05  1.869919E-02  8.965528E+01
     10593   1  4.019527E-02 -1.659114E-01 -2.783797E-02  1.065912E+06  6.283136E-03  2.128072E+02
     10594   1 -2.608235E+06  2.503009E+02 -2.865827E+02  1.032768E+06  1.354285E+03 -3.612953E+01
     10595   1 -2.608125E+06  1.126915E+02  1.841583E+02  9.644271E+05  3.495962E+03 -5.294506E+02
     10596   1 -2.608289E+06 -1.188049E+02 -7.868138E+01  9.135275E+05  4.584926E+03 -3.671480E+01
     10597   1 -2.608271E+06 -4.558458E+01 -9.986662E+01  8.788892E+05  4.176493E+03 -4.114193E+02
     10598   1 -2.608299E+06 -1.667086E+02 -6.133912E+01  8.587672E+05  2.459834E+03  7.246662E+00
     10599   1 -2.608319E+06 -6.302215E+01 -2.277232E+02  8.522425E+05  8.448558E-02  1.459747E-01
     10600   1 -2.608298E+06 -1.667117E+02 -6.134344E+01  8.587673E+05 -2.459682E+03 -6.921047E+00
     10601   1 -2.608271E+06 -4.558485E+01 -9.986226E+01  8.788896E+05 -4.176343E+03  4.116924E+02
     10602   1 -2.608288E+06 -1.187918E+02 -7.868446E+01  9.135280E+05 -4.584812E+03  3.699463E+01
     10603   1 -2.608125E+06  1.127656E+02  1.841918E+02  9.644278E+05 -3.495879E+03  5.296338E+02
     10604   1 -2.608235E+06  2.504385E+02 -2.865429E+02  1.032769E+06 -1.354254E+03  3.623442E+01
     10605   1 -5.216051E+06  5.519686E+02  6.467012E+02  9.329136E+05  3.075404E+03 -2.737268E+02
     10606   1 -5.216557E+06  2.926024E+01 -3.643997E+02  8.659393E+05  8.493800E+03  2.205849E+01
     10607   1 -5.216446E+06 -1.013149E+01  1.233543E+01  8.176716E+05  1.088449E+04 -5.216822E+02
     10608   1 -5.216599E+06 -3.601125E+02 -1.028928E+02  7.853648E+05  9.832658E+03  8.091674E+01
     10609   1 -5.216639E+06 -1.247344E+02 -4.591947E+02  7.671563E+05  5.811941E+03 -7.894162E+01
     10610   1 -5.216595E+06 -1.745201E+02 -2.752142E+02  7.612532E+05  1.659945E-01  1.383700E-01
     10611   1 -5.216639E+06 -1.247349E+02 -4.591998E+02  7.671564E+05 -5.811627E+03  7.925029E+01
     10612   1 -5.216599E+06 -3.601124E+02 -1.028891E+02  7.853651E+05 -9.832363E+03 -8.066337E+01
     10613   1 -5.216445E+06 -1.016150E+01  1.231619E+01  8.176720E+05 -1.088425E+04  5.219333E+02
     10614   1 -5.216557E+06  2.916747E+01 -3.644168E+02  8.659398E+05 -8.493628E+03 -2.191504E+01
     10615   1 -5.216050E+06  5.517924E+02  6.466231E+02  9.329142E+05 -3.075347E+03  2.737974E+02
     10616   1 -7.824795E+06  7.631713E+02 -1.141178E+03  7.642276E+05  6.642119E+03  6.879670E+01
     10617   1 -7.824420E+06  2.518113E+02  5.074759E+02  7.010093E+05  1.675548E+04 -6.877324E+02
     10618   1 -7.824921E+06 -6.114625E+02 -1.484043E+02  6.575683E+05  2.136797E+04  2.727008E+02
     10619   1 -7.824962E+06 -1.845073E+02 -6.991645E+02  6.307047E+05  1.907148E+04  7.320911E+01
     10620   1 -7.824890E+06 -1.172471E+02 -5.511161E+02  6.158933E+05  1.089108E+04  5.941942E+01
     10621   1 -7.825005E+06 -2.027105E+02 -8.123976E+02  6.110966E+05  2.452775E-01  1.211546E-01
     10622   1 -7.824890E+06 -1.172528E+02 -5.511238E+02  6.158934E+05 -1.089059E+04 -5.914693E+01
     10623   1 -7.824961E+06 -1.845123E+02 -6.991668E+02  6.307049E+05 -1.907104E+04 -7.298650E+01
     10624   1 -7.824920E+06 -6.114582E+02 -1.484199E+02  6.575686E+05 -2.136760E+04 -2.724758E+02
     10625   1 -7.824419E+06  2.519087E+02  5.075169E+02  7.010099E+05 -1.675524E+04  6.878731E+02
     10626   1 -7.824793E+06  7.633857E+02 -1.141134E+03  7.642283E+05 -6.642021E+03 -6.870925E+01
     10627   1 -1.043178E+07  1.332260E+03  2.056827E+03  5.227686E+05  1.217255E+04 -6.452199E+02
     10628   1 -1.043334E+07 -8.144414E+02 -5.262494E+02  4.661103E+05  3.333763E+04  6.288633E+02
     10629   1 -1.043339E+07 -3.372024E+02 -1.172992E+03  4.350905E+05  4.075548E+04  4.496034E+02
     10630   1 -1.043319E+07  4.921721E+01 -9.582284E+02  4.171032E+05  3.372462E+04  1.321525E+02
     10631   1 -1.043337E+07 -3.063162E+02 -1.149626E+03  4.071876E+05  1.884706E+04  1.103020E+02
     10632   1 -1.043317E+07  1.512353E+02 -9.907236E+02  4.041610E+05  3.125727E-01  8.614418E-02
     10633   1 -1.043337E+07 -3.063137E+02 -1.149622E+03  4.071877E+05 -1.884638E+04 -1.100947E+02
     10634   1 -1.043319E+07  4.922261E+01 -9.582410E+02  4.171034E+05 -3.372406E+04 -1.319982E+02
     10635   1 -1.043339E+07 -3.372229E+02 -1.172996E+03  4.350907E+05 -4.075497E+04 -4.494438E+02
     10636   1 -1.043333E+07 -8.145438E+02 -5.262854E+02  4.661106E+05 -3.333731E+04 -6.287907E+02
     10637   1 -1.043177E+07  1.332040E+03  2.056732E+03  5.227689E+05 -1.217244E+04  6.452508E+02
     10638   1 -1.304213E+07  9.171275E+02 -3.992943E+03  1.920009E+05  3.281558E+04  9.928434E+02
     10639   1 -1.304237E+07 -1.177994E+03 -2.614384E+03  1.649969E+05  7.094662E+04  6.113021E+02
     10640   1 -1.304151E+07  6.103095E+02 -1.800769E+03  1.546710E+05  7.223725E+04  1.196859E+02
     10641   1 -1.304182E+07 -5.385710E+02 -1.591400E+03  1.478529E+05  5.633009E+04  1.429580E+02
     10642   1 -1.304145E+07  3.905445E+02 -1.393739E+03  1.445899E+05  3.040117E+04  2.018309E+01
     10643   1 -1.304171E+07 -4.017246E+02 -1.402723E+03  1.433907E+05  3.677805E-01  2.802657E-02
     10644   1 -1.304145E+07  3.905479E+02 -1.393712E+03  1.445899E+05 -3.040030E+04 -2.009215E+01
     10645   1 -1.304182E+07 -5.385959E+02 -1.591441E+03  1.478530E+05 -5.632944E+04 -1.429087E+02
     10646   1 -1.304151E+07  6.103316E+02 -1.800694E+03  1.546711E+05 -7.223661E+04 -1.196069E+02
     10647   1 -1.304237E+07 -1.177935E+03 -2.614414E+03  1.649971E+05 -7.094627E+04 -6.112834E+02
     10648   1 -1.304213E+07  9.173664E+02 -3.992806E+03  1.920011E+05 -3.281541E+04 -9.927905E+02
     10649   1  1.272403E+07 -8.954021E+02  3.894507E+03  1.920010E+05 -3.281561E+04  9.685476E+02
     10650   1  1.272426E+07  1.149500E+03  2.551568E+03  1.649970E+05 -7.094680E+04  5.964177E+02
     10651   1  1.272342E+07 -5.958010E+02  1.756026E+03  1.546710E+05 -7.223738E+04  1.167292E+02
     10652   1  1.272373E+07  5.257349E+02  1.553593E+03  1.478529E+05 -5.633031E+04  1.394963E+02
     10653   1  1.272336E+07 -3.814263E+02  1.359055E+03  1.445899E+05 -3.040123E+04  1.966417E+01
     10654   1  1.272362E+07  3.921798E+02  1.369506E+03  1.433907E+05 -5.163929E-01  4.727416E-02
     10655   1  1.272336E+07 -3.814206E+02  1.359088E+03  1.445899E+05  3.040036E+04 -1.962432E+01
     10656   1  1.272373E+07  5.256982E+02  1.553538E+03  1.478530E+05  5.632941E+04 -1.394043E+02
     10657   1  1.272342E+07 -5.958108E+02  1.756090E+03  1.546711E+05  7.223674E+04 -1.167051E+02
     10658   1  1.272426E+07  1.149455E+03  2.551462E+03  1.649971E+05  7.094628E+04 -5.963564E+02
     10659   1  1.272403E+07 -8.953006E+02  3.894624E+03  1.920012E+05  3.281545E+04 -9.685916E+02
     10660   1  1.017734E+07 -1.299727E+03 -2.007218E+03  5.227685E+05 -1.217260E+04 -6.294606E+02
     10661   1  1.017887E+07  7.949028E+02  5.141404E+02  4.661103E+05 -3.333772E+04  6.135679E+02
     10662   1  1.017892E+07  3.287425E+02  1.143810E+03  4.350905E+05 -4.075560E+04  4.386268E+02
     10663   1  1.017873E+07 -4.774851E+01  9.356518E+02  4.171033E+05 -3.372475E+04  1.289516E+02
     10664   1  1.017890E+07  2.986245E+02  1.121110E+03  4.071877E+05 -1.884713E+04  1.075810E+02
     10665   1  1.017870E+07 -1.472452E+02  9.673979E+02  4.041611E+05 -3.838234E-01  9.687334E-02
     10666   1  1.017890E+07  2.986274E+02  1.121119E+03  4.071878E+05  1.884642E+04 -1.074403E+02
     10667   1  1.017872E+07 -4.773438E+01  9.356568E+02  4.171034E+05  3.372407E+04 -1.287607E+02
     10668   1  1.017892E+07  3.287705E+02  1.143840E+03  4.350908E+05  4.075506E+04 -4.384995E+02
     10669   1  1.017886E+07  7.949102E+02  5.141550E+02  4.661107E+05  3.333733E+04 -6.134256E+02
     10670   1  1.017734E+07 -1.299819E+03 -2.007239E+03  5.227690E+05  1.217246E+04  6.295022E+02
     10671   1  7.633946E+06 -7.450992E+02  1.112851E+03  7.642279E+05 -6.642138E+03  6.706700E+01
     10672   1  7.633581E+06 -2.457452E+02 -4.946906E+02  7.010095E+05 -1.675556E+04 -6.709679E+02
     10673   1  7.634069E+06  5.962686E+02  1.444311E+02  6.575684E+05 -2.136807E+04  2.660124E+02
     10674   1  7.634109E+06  1.800479E+02  6.826055E+02  6.307048E+05 -1.907156E+04  7.142353E+01
     10675   1  7.634039E+06  1.140994E+02  5.373738E+02  6.158934E+05 -1.089114E+04  5.793044E+01
     10676   1  7.634151E+06  1.977952E+02  7.931105E+02  6.110967E+05 -2.647361E-01  1.161297E-01
     10677   1  7.634039E+06  1.140942E+02  5.373704E+02  6.158935E+05  1.089061E+04 -5.774245E+01
     10678   1  7.634108E+06  1.800400E+02  6.826131E+02  6.307050E+05  1.907109E+04 -7.119669E+01
     10679   1  7.634068E+06  5.962508E+02  1.444146E+02  6.575687E+05  2.136767E+04 -2.658515E+02
     10680   1  7.633579E+06 -2.457236E+02 -4.946826E+02  7.010100E+05  1.675528E+04  6.711198E+02
     10681   1  7.633945E+06 -7.450363E+02  1.112846E+03  7.642285E+05  6.642040E+03 -6.705204E+01
     10682   1  5.088831E+06 -5.385308E+02 -6.310356E+02  9.329133E+05 -3.075433E+03 -2.670434E+02
     10683   1  5.089325E+06 -2.851677E+01  3.557351E+02  8.659392E+05 -8.493849E+03  2.156101E+01
     10684   1  5.089216E+06  9.751805E+00 -1.213093E+01  8.176716E+05 -1.088457E+04 -5.089845E+02
     10685   1  5.089365E+06  3.513411E+02  1.006684E+02  7.853649E+05 -9.832724E+03  7.894147E+01
     10686   1  5.089404E+06  1.215858E+02  4.479645E+02  7.671564E+05 -5.811991E+03 -7.706963E+01
     10687   1  5.089361E+06  1.703000E+02  2.688293E+02  7.612533E+05 -1.678777E-01  1.223424E-01
     10688   1  5.089404E+06  1.215863E+02  4.479634E+02  7.671565E+05  5.811655E+03  7.726671E+01
     10689   1  5.089365E+06  3.513491E+02  1.006738E+02  7.853652E+05  9.832422E+03 -7.869408E+01
     10690   1  5.089215E+06  9.771646E+00 -1.212546E+01  8.176721E+05  1.088431E+04  5.091745E+02
     10691   1  5.089324E+06 -2.850019E+01  3.557530E+02  8.659399E+05  8.493675E+03 -2.135488E+01
     10692   1  5.088830E+06 -5.385493E+02 -6.310358E+02  9.329144E+05  3.075364E+03  2.671040E+02
     10693   1  2.544620E+06 -2.445216E+02  2.795570E+02  1.032769E+06 -1.354301E+03 -3.530267E+01
     10694   1  2.544513E+06 -1.101862E+02 -1.796485E+02  9.644273E+05 -3.496016E+03 -5.165597E+02
     10695   1  2.544672E+06  1.157023E+02  7.678980E+01  9.135276E+05 -4.584999E+03 -3.587998E+01
     10696   1  2.544655E+06  4.428203E+01  9.750911E+01  8.788893E+05 -4.176552E+03 -4.014020E+02
     10697   1  2.544682E+06  1.624446E+02  5.991396E+01  8.587672E+05 -2.459876E+03  7.005008E+00
     10698   1  2.544702E+06  6.129404E+01  2.222782E+02  8.522425E+05 -8.051075E-02  1.222414E-01
     10699   1  2.544681E+06  1.624426E+02  5.991134E+01  8.587674E+05  2.459713E+03 -6.812013E+00
     10700   1  2.544655E+06  4.427795E+01  9.750963E+01  8.788896E+05  4.176407E+03  4.016476E+02
     10701   1  2.544671E+06  1.156836E+02  7.677547E+01  9.135280E+05  4.584873E+03  3.605524E+01
     10702   1  2.544512E+06 -1.102141E+02 -1.796624E+02  9.644279E+05  3.495930E+03  5.167333E+02
     10703   1  2.544619E+06 -2.445560E+02  2.795272E+02  1.032769E+06  1.354271E+03  3.532481E+01
     10704   1  9.417947E-02 -1.539228E-01 -4.977869E-03  1.065911E+06 -1.205402E-02 -2.075378E+02
     10705   1  1.100326E-01 -3.584600E-02  4.263831E-02  9.970616E+05 -3.432266E-02 -8.727407E+01
     10706   1  1.109524E-01  9.949522E-02  1.140720E-01  9.455722E+05 -4.263142E-02 -5.523318E+02
     10707   1  9.707399E-02  1.855494E-01  1.583882E-01  9.100682E+05 -4.000130E-02 -3.377272E+01
     10708   1  8.223207E-02  2.266422E-01  1.912154E-01  8.894856E+05 -2.126949E-02 -2.294140E+02
     10709   1  7.536262E-02  2.337764E-01  1.929949E-01  8.826902E+05 -1.377087E-03  1.209639E-01
     10710   1  8.178767E-02  2.262860E-01  1.915901E-01  8.894858E+05  2.434650E-02  2.296051E+02
     10711   1  9.810367E-02  1.880406E-01  1.583516E-01  9.100686E+05  3.773362E-02  3.402201E+01
     10712   1  1.136038E-01  1.207345E-01  1.230089E-01  9.455727E+05  4.417953E-02  5.525230E+02
     10713   1  1.239241E-01  2.929560E-02  6.781778E-02  9.970624E+05  3.288441E-02  8.748856E+01
     10714   1  1.183662E-01 -4.498753E-02  3.876388E-02  1.065912E+06  1.295473E-02  2.075959E+02
     10715   1 -2.544620E+06  2.443316E+02 -2.794836E+02  1.032769E+06  1.354277E+03 -3.530265E+01
     10716   1 -2.544513E+06  1.097999E+02  1.795715E+02  9.644272E+05  3.495951E+03 -5.165582E+02
     10717   1 -2.544672E+06 -1.162695E+02 -7.683871E+01  9.135275E+05  4.584918E+03 -3.587959E+01
     10718   1 -2.544655E+06 -4.502016E+01 -9.766781E+01  8.788892E+05  4.176472E+03 -4.014018E+02
     10719   1 -2.544682E+06 -1.632090E+02 -5.998275E+01  8.587672E+05  2.459834E+03  7.004454E+00
     10720   1 -2.544702E+06 -6.210290E+01 -2.224318E+02  8.522425E+05  7.739389E-02  1.224587E-01
     10721   1 -2.544682E+06 -1.632055E+02 -5.997723E+01  8.587673E+05 -2.459664E+03 -6.812269E+00
     10722   1 -2.544655E+06 -4.502255E+01 -9.767483E+01  8.788896E+05 -4.176332E+03  4.016478E+02
     10723   1 -2.544671E+06 -1.162916E+02 -7.683381E+01  9.135280E+05 -4.584786E+03  3.605420E+01
     10724   1 -2.544512E+06  1.096954E+02  1.795269E+02  9.644278E+05 -3.495866E+03  5.167324E+02
     10725   1 -2.544619E+06  2.441496E+02 -2.795346E+02  1.032769E+06 -1.354246E+03  3.532389E+01
     10726   1 -5.088831E+06  5.383573E+02  6.312360E+02  9.329132E+05  3.075408E+03 -2.670422E+02
     10727   1 -5.089324E+06  2.843178E+01 -3.558555E+02  8.659390E+05  8.493773E+03  2.156311E+01
     10728   1 -5.089215E+06 -9.421203E+00  1.256934E+01  8.176715E+05  1.088448E+04 -5.089852E+02
     10729   1 -5.089365E+06 -3.509970E+02 -1.005514E+02  7.853648E+05  9.832638E+03  7.894186E+01
     10730   1 -5.089404E+06 -1.210034E+02 -4.473673E+02  7.671563E+05  5.811943E+03 -7.707143E+01
     10731   1 -5.089361E+06 -1.698646E+02 -2.686404E+02  7.612532E+05  1.673635E-01  1.233320E-01
     10732   1 -5.089404E+06 -1.210035E+02 -4.473635E+02  7.671564E+05 -5.811606E+03  7.726590E+01
     10733   1 -5.089365E+06 -3.510022E+02 -1.005609E+02  7.853651E+05 -9.832336E+03 -7.869265E+01
     10734   1 -5.089215E+06 -9.394808E+00  1.258876E+01  8.176720E+05 -1.088422E+04  5.091729E+02
     10735   1 -5.089323E+06  2.854119E+01 -3.558352E+02  8.659398E+05 -8.493602E+03 -2.135580E+01
     10736   1 -5.088829E+06  5.386009E+02  6.313391E+02  9.329142E+05 -3.075337E+03  2.671021E+02
     10737   1 -7.633946E+06  7.452037E+02 -1.112277E+03  7.642278E+05  6.642110E+03  6.706654E+01
     10738   1 -7.633581E+06  2.452810E+02  4.941300E+02  7.010094E+05  1.675548E+04 -6.709659E+02
     10739   1 -7.634069E+06 -5.965643E+02 -1.439755E+02  6.575682E+05  2.136798E+04  2.660121E+02
     10740   1 -7.634109E+06 -1.808951E+02 -6.832176E+02  6.307047E+05  1.907147E+04  7.142255E+01
     10741   1 -7.634039E+06 -1.146026E+02 -5.369298E+02  6.158933E+05  1.089108E+04  5.792808E+01
     10742   1 -7.634151E+06 -1.987234E+02 -7.937042E+02  6.110966E+05  2.723570E-01  1.173451E-01
     10743   1 -7.634039E+06 -1.145962E+02 -5.369272E+02  6.158934E+05 -1.089057E+04 -5.774320E+01
     10744   1 -7.634109E+06 -1.808933E+02 -6.832255E+02  6.307049E+05 -1.907098E+04 -7.119364E+01
     10745   1 -7.634068E+06 -5.965880E+02 -1.439741E+02  6.575686E+05 -2.136758E+04 -2.658532E+02
     10746   1 -7.633579E+06  2.451252E+02  4.940675E+02  7.010099E+05 -1.675519E+04  6.711194E+02
     10747   1 -7.633944E+06  7.449240E+02 -1.112345E+03  7.642283E+05 -6.642015E+03 -6.705361E+01
     10748   1 -1.017734E+07  1.299907E+03  2.008075E+03  5.227683E+05  1.217257E+04 -6.294560E+02
     10749   1 -1.017887E+07 -7.950950E+02 -5.148956E+02  4.661102E+05  3.333761E+04  6.135667E+02
     10750   1 -1.017892E+07 -3.280560E+02 -1.142716E+03  4.350904E+05  4.075548E+04  4.386242E+02
     10751   1 -1.017873E+07  4.795235E+01 -9.361409E+02  4.171032E+05  3.372464E+04  1.289496E+02
     10752   1 -1.017890E+07 -2.976880E+02 -1.119852E+03  4.071876E+05  1.884705E+04  1.075786E+02
     10753   1 -1.017870E+07  1.475319E+02 -9.677963E+02  4.041610E+05  4.008016E-01  9.729036E-02
     10754   1 -1.017890E+07 -2.976923E+02 -1.119867E+03  4.071877E+05 -1.884638E+04 -1.074394E+02
     10755   1 -1.017872E+07  4.794386E+01 -9.361346E+02  4.171033E+05 -3.372394E+04 -1.287581E+02
     10756   1 -1.017892E+07 -3.280399E+02 -1.142740E+03  4.350907E+05 -4.075496E+04 -4.384979E+02
     10757   1 -1.017886E+07 -7.949716E+02 -5.148598E+02  4.661106E+05 -3.333722E+04 -6.134251E+02
     10758   1 -1.017734E+07  1.300228E+03  2.008190E+03  5.227689E+05 -1.217243E+04  6.294998E+02
     10759   1 -1.272403E+07  8.958200E+02 -3.893407E+03  1.920010E+05  3.281556E+04  9.685338E+02
     10760   1 -1.272426E+07 -1.150066E+03 -2.552617E+03  1.649969E+05  7.094667E+04  5.964256E+02
     10761   1 -1.272342E+07  5.957688E+02 -1.755016E+03  1.546710E+05  7.223723E+04  1.167235E+02
     10762   1 -1.272373E+07 -5.267248E+02 -1.554635E+03  1.478529E+05  5.633019E+04  1.394973E+02
     10763   1 -1.272336E+07  3.811672E+02 -1.358040E+03  1.445899E+05  3.040113E+04  1.966274E+01
     10764   1 -1.272362E+07 -3.932601E+02 -1.370506E+03  1.433907E+05  5.388723E-01  4.627577E-02
     10765   1 -1.272336E+07  3.811609E+02 -1.358082E+03  1.445899E+05 -3.040032E+04 -1.962126E+01
     10766   1 -1.272373E+07 -5.266910E+02 -1.554567E+03  1.478530E+05 -5.632924E+04 -1.394069E+02
     10767   1 -1.272342E+07  5.957312E+02 -1.755111E+03  1.546711E+05 -7.223661E+04 -1.166982E+02
     10768   1 -1.272426E+07 -1.150156E+03 -2.552547E+03  1.649971E+05 -7.094613E+04 -5.963643E+02
     10769   1 -1.272403E+07  8.954899E+02 -3.893600E+03  1.920011E+05 -3.281541E+04 -9.685800E+02
     10770   1  1.240593E+07 -8.725775E+02  3.797437E+03  1.920010E+05 -3.281567E+04  9.444346E+02
     10771   1  1.240616E+07  1.121030E+03  2.487731E+03  1.649970E+05 -7.094680E+04  5.814870E+02
     10772   1  1.240534E+07 -5.804109E+02  1.712414E+03  1.546710E+05 -7.223753E+04  1.138606E+02
     10773   1  1.240563E+07  5.131685E+02  1.514885E+03  1.478529E+05 -5.633032E+04  1.359709E+02
     10774   1  1.240528E+07 -3.711474E+02  1.325420E+03  1.445899E+05 -3.040139E+04  1.919798E+01
     10775   1  1.240553E+07  3.831009E+02  1.335535E+03  1.433907E+05 -4.953992E-01  3.875832E-03
     10776   1  1.240528E+07 -3.711572E+02  1.325404E+03  1.445899E+05  3.040023E+04 -1.911078E+01
     10777   1  1.240563E+07  5.132154E+02  1.515002E+03  1.478530E+05  5.632945E+04 -1.359545E+02
     10778   1  1.240534E+07 -5.804100E+02  1.712346E+03  1.546711E+05  7.223666E+04 -1.137564E+02
     10779   1  1.240615E+07  1.121077E+03  2.487877E+03  1.649971E+05  7.094631E+04 -5.814740E+02
     10780   1  1.240593E+07 -8.727619E+02  3.797255E+03  1.920012E+05  3.281544E+04 -9.443369E+02
     10781   1  9.922909E+06 -1.267680E+03 -1.957190E+03  5.227687E+05 -1.217260E+04 -6.137473E+02
     10782   1  9.924394E+06  7.746687E+02  5.012036E+02  4.661104E+05 -3.333776E+04  5.981707E+02
     10783   1  9.924446E+06  3.200477E+02  1.115059E+03  4.350906E+05 -4.075566E+04  4.276660E+02
     10784   1  9.924257E+06 -4.716444E+01  9.120732E+02  4.171033E+05 -3.372477E+04  1.256690E+02
     10785   1  9.924428E+06  2.904424E+02  1.092848E+03  4.071877E+05 -1.884719E+04  1.048920E+02
     10786   1  9.924235E+06 -1.442914E+02  9.430015E+02  4.041611E+05 -3.774567E-01  3.027102E-02
     10787   1  9.924428E+06  2.904351E+02  1.092845E+03  4.071878E+05  1.884638E+04 -1.047504E+02
     10788   1  9.924256E+06 -4.718519E+01  9.120868E+02  4.171035E+05  3.372409E+04 -1.255890E+02
     10789   1  9.924444E+06  3.200232E+02  1.115048E+03  4.350908E+05  4.075504E+04 -4.275130E+02
     10790   1  9.924391E+06  7.747072E+02  5.012172E+02  4.661107E+05  3.333734E+04 -5.981156E+02
     10791   1  9.922906E+06 -1.267511E+03 -1.957140E+03  5.227691E+05  1.217245E+04  6.137880E+02
     10792   1  7.443098E+06 -7.261512E+02  1.085118E+03  7.642276E+05 -6.642160E+03  6.545931E+01
     10793   1  7.442741E+06 -2.392627E+02 -4.821928E+02  7.010094E+05 -1.675558E+04 -6.541960E+02
     10794   1  7.443218E+06  5.818071E+02  1.409948E+02  6.575683E+05 -2.136809E+04  2.593753E+02
     10795   1  7.443257E+06  1.761454E+02  6.658057E+02  6.307048E+05 -1.907159E+04  6.957241E+01
     10796   1  7.443188E+06  1.119236E+02  5.242288E+02  6.158934E+05 -1.089114E+04  5.645342E+01
     10797   1  7.443297E+06  1.935496E+02  7.735832E+02  6.110967E+05 -2.662432E-01  2.842347E-02
     10798   1  7.443188E+06  1.119237E+02  5.242319E+02  6.158935E+05  1.089063E+04 -5.632316E+01
     10799   1  7.443256E+06  1.761468E+02  6.657965E+02  6.307050E+05  1.907110E+04 -6.948061E+01
     10800   1  7.443216E+06  5.818274E+02  1.410183E+02  6.575688E+05  2.136769E+04 -2.591970E+02
     10801   1  7.442739E+06 -2.392860E+02 -4.822060E+02  7.010101E+05  1.675529E+04  6.543137E+02
     10802   1  7.443096E+06 -7.262432E+02  1.085112E+03  7.642286E+05  6.642044E+03 -6.534177E+01
     10803   1  4.961610E+06 -5.253795E+02 -6.153227E+02  9.329137E+05 -3.075430E+03 -2.603875E+02
     10804   1  4.962092E+06 -2.815553E+01  3.467493E+02  8.659394E+05 -8.493872E+03  2.092654E+01
     10805   1  4.961985E+06  9.025579E+00 -1.197928E+01  8.176717E+05 -1.088459E+04 -4.962959E+02
     10806   1  4.962131E+06  3.419221E+02  9.793615E+01  7.853649E+05 -9.832737E+03  7.686648E+01
     10807   1  4.962169E+06  1.178384E+02  4.365337E+02  7.671564E+05 -5.811985E+03 -7.519331E+01
     10808   1  4.962127E+06  1.653038E+02  2.618554E+02  7.612533E+05 -1.602890E-01  8.405784E-03
     10809   1  4.962169E+06  1.178310E+02  4.365299E+02  7.671565E+05  5.811680E+03  7.529181E+01
     10810   1  4.962131E+06  3.419051E+02  9.792173E+01  7.853652E+05  9.832443E+03 -7.681213E+01
     10811   1  4.961984E+06  9.006848E+00 -1.199177E+01  8.176721E+05  1.088434E+04  4.964406E+02
     10812   1  4.962090E+06 -2.814172E+01  3.467272E+02  8.659400E+05  8.493689E+03 -2.086889E+01
     10813   1  4.961609E+06 -5.252854E+02 -6.153138E+02  9.329144E+05  3.075370E+03  2.604487E+02
     10814   1  2.481005E+06 -2.383629E+02  2.725564E+02  1.032768E+06 -1.354312E+03 -3.436049E+01
     10815   1  2.480900E+06 -1.072081E+02 -1.750295E+02  9.644270E+05 -3.496031E+03 -5.036689E+02
     10816   1  2.481055E+06  1.132121E+02  7.502683E+01  9.135275E+05 -4.585016E+03 -3.499288E+01
     10817   1  2.481039E+06  4.376654E+01  9.536780E+01  8.788893E+05 -4.176568E+03 -3.914753E+02
     10818   1  2.481065E+06  1.590242E+02  5.868438E+01  8.587672E+05 -2.459875E+03  6.766558E+00
     10819   1  2.481084E+06  6.044549E+01  2.170554E+02  8.522425E+05 -7.480147E-02 -1.128399E-02
     10820   1  2.481065E+06  1.590226E+02  5.868373E+01  8.587674E+05  2.459737E+03 -6.698486E+00
     10821   1  2.481039E+06  4.376543E+01  9.535952E+01  8.788896E+05  4.176430E+03  3.915036E+02
     10822   1  2.481055E+06  1.132310E+02  7.503812E+01  9.135281E+05  4.584904E+03  3.514105E+01
     10823   1  2.480900E+06 -1.071736E+02 -1.750196E+02  9.644279E+05  3.495950E+03  5.037629E+02
     10824   1  2.481004E+06 -2.383056E+02  2.725887E+02  1.032770E+06  1.354280E+03  3.447327E+01
     10825   1  2.101792E-01 -1.541583E-01  1.590951E-02  1.065912E+06 -2.025779E-02 -2.023683E+02
     10826   1  1.446644E-01 -2.507096E-01 -1.509734E-02  9.970618E+05 -5.029475E-02 -8.520833E+01
     10827   1  6.305330E-02 -3.812577E-01 -5.425870E-02  9.455723E+05 -6.616194E-02 -5.385765E+02
     10828   1 -3.574040E-03 -4.635385E-01 -6.100907E-02  9.100683E+05 -5.682738E-02 -3.305439E+01
     10829   1 -4.721741E-02 -4.997608E-01 -6.337966E-02  8.894856E+05 -3.628678E-02 -2.237491E+02
     10830   1 -6.116675E-02 -5.043333E-01 -5.345731E-02  8.826902E+05  2.363182E-03 -1.820255E-02
     10831   1 -4.632533E-02 -4.993415E-01 -6.400509E-02  8.894857E+05  3.244547E-02  2.238030E+02
     10832   1 -4.317290E-03 -4.660129E-01 -6.043103E-02  9.100686E+05  6.078487E-02  3.306420E+01
     10833   1  6.108932E-02 -4.062664E-01 -6.518213E-02  9.455728E+05  6.433590E-02  5.386919E+02
     10834   1  1.287689E-01 -3.298968E-01 -4.534483E-02  9.970625E+05  5.276718E-02  8.523839E+01
     10835   1  1.814952E-01 -2.885871E-01 -3.846579E-02  1.065912E+06  1.925945E-02  2.024280E+02
     10836   1 -2.481004E+06  2.379476E+02 -2.726262E+02  1.032768E+06  1.354270E+03 -3.435914E+01
     10837   1 -2.480900E+06  1.071288E+02  1.751954E+02  9.644269E+05  3.495922E+03 -5.036685E+02
     10838   1 -2.481055E+06 -1.129953E+02 -7.478780E+01  9.135274E+05  4.584874E+03 -3.499246E+01
     10839   1 -2.481039E+06 -4.330009E+01 -9.490382E+01  8.788892E+05  4.176451E+03 -3.914761E+02
     10840   1 -2.481065E+06 -1.584999E+02 -5.824867E+01  8.587672E+05  2.459800E+03  6.766558E+00
     10841   1 -2.481084E+06 -5.986340E+01 -2.164975E+02  8.522424E+05  7.984893E-02 -1.188673E-02
     10842   1 -2.481064E+06 -1.585003E+02 -5.825207E+01  8.587673E+05 -2.459670E+03 -6.697805E+00
     10843   1 -2.481038E+06 -4.329162E+01 -9.488684E+01  8.788895E+05 -4.176304E+03  3.915033E+02
     10844   1 -2.481054E+06 -1.129665E+02 -7.478968E+01  9.135280E+05 -4.584770E+03  3.514119E+01
     10845   1 -2.480899E+06  1.072563E+02  1.752584E+02  9.644278E+05 -3.495839E+03  5.037614E+02
     10846   1 -2.481004E+06  2.381575E+02 -2.725599E+02  1.032769E+06 -1.354238E+03  3.447306E+01
     10847   1 -4.961610E+06  5.250785E+02  6.151037E+02  9.329135E+05  3.075386E+03 -2.603864E+02
     10848   1 -4.962091E+06  2.781939E+01 -3.465261E+02  8.659392E+05  8.493765E+03  2.092730E+01
     10849   1 -4.961985E+06 -9.810874E+00  1.163313E+01  8.176715E+05  1.088444E+04 -4.962942E+02
     10850   1 -4.962131E+06 -3.426928E+02 -9.779474E+01  7.853648E+05  9.832613E+03  7.686385E+01
     10851   1 -4.962169E+06 -1.188748E+02 -4.368886E+02  7.671563E+05  5.811909E+03 -7.519283E+01
     10852   1 -4.962127E+06 -1.661585E+02 -2.616937E+02  7.612532E+05  1.609044E-01  6.442378E-03
     10853   1 -4.962169E+06 -1.188679E+02 -4.368880E+02  7.671564E+05 -5.811605E+03  7.529427E+01
     10854   1 -4.962131E+06 -3.426781E+02 -9.777460E+01  7.853651E+05 -9.832317E+03 -7.681306E+01
     10855   1 -4.961984E+06 -9.846916E+00  1.161563E+01  8.176720E+05 -1.088420E+04  4.964416E+02
     10856   1 -4.962090E+06  2.765261E+01 -3.465497E+02  8.659398E+05 -8.493579E+03 -2.087187E+01
     10857   1 -4.961608E+06  5.247060E+02  6.149666E+02  9.329142E+05 -3.075328E+03  2.604486E+02
     10858   1 -7.443098E+06  7.256754E+02 -1.085803E+03  7.642273E+05  6.642111E+03  6.546253E+01
     10859   1 -7.442741E+06  2.395470E+02  4.829718E+02  7.010092E+05  1.675545E+04 -6.541957E+02
     10860   1 -7.443218E+06 -5.816863E+02 -1.413452E+02  6.575682E+05  2.136793E+04  2.593740E+02
     10861   1 -7.443256E+06 -1.753260E+02 -6.647290E+02  6.307046E+05  1.907144E+04  6.956868E+01
     10862   1 -7.443189E+06 -1.115147E+02 -5.243596E+02  6.158932E+05  1.089107E+04  5.645312E+01
     10863   1 -7.443297E+06 -1.926180E+02 -7.724141E+02  6.110966E+05  2.539445E-01  2.600479E-02
     10864   1 -7.443188E+06 -1.115158E+02 -5.243598E+02  6.158934E+05 -1.089053E+04 -5.631929E+01
     10865   1 -7.443256E+06 -1.753217E+02 -6.647229E+02  6.307048E+05 -1.907098E+04 -6.948105E+01
     10866   1 -7.443216E+06 -5.816567E+02 -1.413467E+02  6.575686E+05 -2.136751E+04 -2.591933E+02
     10867   1 -7.442739E+06  2.397328E+02  4.830471E+02  7.010099E+05 -1.675517E+04  6.543104E+02
     10868   1 -7.443096E+06  7.260366E+02 -1.085703E+03  7.642283E+05 -6.641989E+03 -6.534251E+01
     10869   1 -9.922909E+06  1.267301E+03  1.956158E+03  5.227685E+05  1.217254E+04 -6.137512E+02
     10870   1 -9.924394E+06 -7.745574E+02 -5.001600E+02  4.661102E+05  3.333762E+04  5.981720E+02
     10871   1 -9.924446E+06 -3.210008E+02 -1.116159E+03  4.350904E+05  4.075548E+04  4.276637E+02
     10872   1 -9.924257E+06  4.681759E+01 -9.110860E+02  4.171031E+05  3.372460E+04  1.256646E+02
     10873   1 -9.924429E+06 -2.916826E+02 -1.093913E+03  4.071876E+05  1.884711E+04  1.048906E+02
     10874   1 -9.924235E+06  1.438521E+02 -9.419962E+02  4.041610E+05  3.506279E-01  2.914444E-02
     10875   1 -9.924428E+06 -2.916729E+02 -1.093899E+03  4.071877E+05 -1.884626E+04 -1.047478E+02
     10876   1 -9.924256E+06  4.683067E+01 -9.111196E+02  4.171033E+05 -3.372396E+04 -1.255864E+02
     10877   1 -9.924444E+06 -3.210261E+02 -1.116146E+03  4.350907E+05 -4.075482E+04 -4.275100E+02
     10878   1 -9.924391E+06 -7.747576E+02 -5.002441E+02  4.661106E+05 -3.333721E+04 -5.981163E+02
     10879   1 -9.922906E+06  1.266851E+03  1.956000E+03  5.227689E+05 -1.217239E+04  6.137890E+02
     10880   1 -1.240593E+07  8.720216E+02 -3.798759E+03  1.920008E+05  3.281559E+04  9.444511E+02
     10881   1 -1.240616E+07 -1.120363E+03 -2.486293E+03  1.649969E+05  7.094660E+04  5.814760E+02
     10882   1 -1.240534E+07  5.804262E+02 -1.713346E+03  1.546709E+05  7.223730E+04  1.138636E+02
     10883   1 -1.240563E+07 -5.119739E+02 -1.513137E+03  1.478529E+05  5.633010E+04  1.359664E+02
     10884   1 -1.240528E+07  3.714428E+02 -1.326093E+03  1.445898E+05  3.040130E+04  1.919711E+01
     10885   1 -1.240553E+07 -3.817980E+02 -1.333696E+03  1.433907E+05  4.602471E-01  5.198085E-03
     10886   1 -1.240528E+07  3.714545E+02 -1.326063E+03  1.445899E+05 -3.040008E+04 -1.911284E+01
     10887   1 -1.240563E+07 -5.120204E+02 -1.513279E+03  1.478530E+05 -5.632929E+04 -1.359479E+02
     10888   1 -1.240534E+07  5.804838E+02 -1.713231E+03  1.546711E+05 -7.223639E+04 -1.137616E+02
     10889   1 -1.240615E+07 -1.120249E+03 -2.486407E+03  1.649971E+05 -7.094614E+04 -5.814629E+02
     10890   1 -1.240593E+07  8.724917E+02 -3.798474E+03  1.920011E+05 -3.281534E+04 -9.443512E+02
     10891   1  1.208783E+07 -8.508793E+02  3.699638E+03  1.920011E+05 -3.281564E+04  9.200792E+02
     10892   1  1.208805E+07  1.091907E+03  2.424016E+03  1.649970E+05 -7.094696E+04  5.666084E+02
     10893   1  1.208725E+07 -5.661648E+02  1.668137E+03  1.546711E+05 -7.223751E+04  1.108617E+02
     10894   1  1.208754E+07  4.993027E+02  1.475935E+03  1.478530E+05 -5.633050E+04  1.325143E+02
     10895   1  1.208719E+07 -3.625521E+02  1.291076E+03  1.445899E+05 -3.040133E+04  1.863604E+01
     10896   1  1.208744E+07  3.723860E+02  1.301071E+03  1.433907E+05 -6.580321E-01  2.687626E-02
     10897   1  1.208719E+07 -3.625404E+02  1.291181E+03  1.445899E+05  3.040032E+04 -1.868389E+01
     10898   1  1.208754E+07  4.992374E+02  1.475896E+03  1.478530E+05  5.632934E+04 -1.324374E+02
     10899   1  1.208725E+07 -5.661538E+02  1.668343E+03  1.546711E+05  7.223674E+04 -1.108870E+02
     10900   1  1.208805E+07  1.091886E+03  2.423872E+03  1.649971E+05  7.094626E+04 -5.665200E+02
     10901   1  1.208783E+07 -8.505618E+02  3.699922E+03  1.920012E+05  3.281546E+04 -9.201742E+02
     10902   1  9.668475E+06 -1.234574E+03 -1.906780E+03  5.227684E+05 -1.217264E+04 -5.979752E+02
     10903   1  9.669922E+06  7.552790E+02  4.884907E+02  4.661103E+05 -3.333779E+04  5.829044E+02
     10904   1  9.669973E+06  3.124276E+02  1.086701E+03  4.350906E+05 -4.075568E+04  4.166476E+02
     10905   1  9.669789E+06 -4.521734E+01  8.889833E+02  4.171033E+05 -3.372483E+04  1.224467E+02
     10906   1  9.669956E+06  2.838574E+02  1.065189E+03  4.071877E+05 -1.884715E+04  1.020928E+02
     10907   1  9.669767E+06 -1.397194E+02  9.191674E+02  4.041611E+05 -4.018484E-01  5.166857E-03
     10908   1  9.669955E+06  2.838563E+02  1.065206E+03  4.071878E+05  1.884645E+04 -1.021700E+02
     10909   1  9.669788E+06 -4.520985E+01  8.889847E+02  4.171035E+05  3.372409E+04 -1.223696E+02
     10910   1  9.669971E+06  3.124388E+02  1.086743E+03  4.350909E+05  4.075510E+04 -4.166136E+02
     10911   1  9.669919E+06  7.552212E+02  4.884863E+02  4.661108E+05  3.333735E+04 -5.827394E+02
     10912   1  9.668472E+06 -1.234803E+03 -1.906854E+03  5.227692E+05  1.217246E+04  5.980244E+02
     10913   1  7.252250E+06 -7.081187E+02  1.057158E+03  7.642281E+05 -6.642149E+03  6.367122E+01
     10914   1  7.251902E+06 -2.336408E+02 -4.699736E+02  7.010097E+05 -1.675560E+04 -6.374672E+02
     10915   1  7.252366E+06  5.662929E+02  1.372041E+02  6.575685E+05 -2.136811E+04  2.526024E+02
     10916   1  7.252404E+06  1.708630E+02  6.484798E+02  6.307048E+05 -1.907158E+04  6.772620E+01
     10917   1  7.252337E+06  1.081873E+02  5.105042E+02  6.158934E+05 -1.089112E+04  5.485597E+01
     10918   1  7.252443E+06  1.876919E+02  7.534611E+02  6.110968E+05 -2.178326E-01 -5.042895E-02
     10919   1  7.252337E+06  1.081686E+02  5.104853E+02  6.158935E+05  1.089068E+04 -5.502217E+01
     10920   1  7.252403E+06  1.708339E+02  6.484719E+02  6.307050E+05  1.907116E+04 -6.774054E+01
     10921   1  7.252364E+06  5.662592E+02  1.371595E+02  6.575688E+05  2.136773E+04 -2.526387E+02
     10922   1  7.251900E+06 -2.335538E+02 -4.699576E+02  7.010101E+05  1.675532E+04  6.375517E+02
     10923   1  7.252247E+06 -7.078455E+02  1.057180E+03  7.642287E+05  6.642055E+03 -6.371620E+01
     10924   1  4.834390E+06 -5.115956E+02 -5.994492E+02  9.329132E+05 -3.075448E+03 -2.537108E+02
     10925   1  4.834859E+06 -2.704291E+01  3.380088E+02  8.659391E+05 -8.493870E+03  2.043443E+01
     10926   1  4.834755E+06  9.337758E+00 -1.144358E+01  8.176717E+05 -1.088459E+04 -4.836819E+02
     10927   1  4.834897E+06  3.338867E+02  9.576010E+01  7.853650E+05 -9.832723E+03  7.481509E+01
     10928   1  4.834934E+06  1.156262E+02  4.256919E+02  7.671564E+05 -5.811963E+03 -7.345931E+01
     10929   1  4.834893E+06  1.619108E+02  2.555280E+02  7.612533E+05 -1.096878E-01 -1.074284E-01
     10930   1  4.834934E+06  1.156161E+02  4.256775E+02  7.671565E+05  5.811730E+03  7.317380E+01
     10931   1  4.834897E+06  3.338769E+02  9.574779E+01  7.853652E+05  9.832507E+03 -7.491566E+01
     10932   1  4.834754E+06  9.334204E+00 -1.145879E+01  8.176721E+05  1.088439E+04  4.835910E+02
     10933   1  4.834857E+06 -2.706157E+01  3.380131E+02  8.659400E+05  8.493731E+03 -2.032518E+01
     10934   1  4.834388E+06 -5.116352E+02 -5.994773E+02  9.329146E+05  3.075383E+03  2.537233E+02
     10935   1  2.417389E+06 -2.324749E+02  2.655816E+02  1.032769E+06 -1.354312E+03 -3.360407E+01
     10936   1  2.417287E+06 -1.048489E+02 -1.706878E+02  9.644274E+05 -3.496047E+03 -4.908429E+02
     10937   1  2.417438E+06  1.097332E+02  7.295310E+01  9.135277E+05 -4.585031E+03 -3.428639E+01
     10938   1  2.417422E+06  4.184358E+01  9.261376E+01  8.788894E+05 -4.176567E+03 -3.815566E+02
     10939   1  2.417447E+06  1.540904E+02  5.692337E+01  8.587673E+05 -2.459868E+03  6.365576E+00
     10940   1  2.417467E+06  5.798125E+01  2.111481E+02  8.522425E+05 -4.218848E-02 -1.507666E-01
     10941   1  2.417447E+06  1.540799E+02  5.691138E+01  8.587674E+05  2.459771E+03 -6.744569E+00
     10942   1  2.417422E+06  4.182719E+01  9.260583E+01  8.788896E+05  4.176481E+03  3.813721E+02
     10943   1  2.417438E+06  1.096993E+02  7.292064E+01  9.135280E+05  4.584943E+03  3.409397E+01
     10944   1  2.417287E+06 -1.048657E+02 -1.707051E+02  9.644279E+05  3.495985E+03  4.908336E+02
     10945   1  2.417388E+06 -2.324451E+02  2.655439E+02  1.032770E+06  1.354291E+03  3.351882E+01
     10946   1  3.090153E-01 -2.714640E-01 -9.838195E-03  1.065911E+06 -3.092140E-02 -1.971977E+02
     10947   1  2.860010E-01 -8.307095E-02  7.200376E-02  9.970615E+05 -8.291660E-02 -8.299255E+01
     10948   1  2.435396E-01  1.241463E-01  1.835886E-01  9.455722E+05 -9.852884E-02 -5.249129E+02
     10949   1  1.859954E-01  2.537677E-01  2.592033E-01  9.100683E+05 -8.986823E-02 -3.231952E+01
     10950   1  1.408217E-01  3.116566E-01  3.078816E-01  8.894856E+05 -4.704887E-02 -2.182485E+02
     10951   1  1.222096E-01  3.218025E-01  3.139829E-01  8.826902E+05 -2.959412E-03 -1.681397E-01
     10952   1  1.400287E-01  3.113616E-01  3.089493E-01  8.894857E+05  5.363699E-02  2.178364E+02
     10953   1  1.877643E-01  2.564338E-01  2.578153E-01  9.100685E+05  8.500821E-02  3.211387E+01
     10954   1  2.465888E-01  1.540902E-01  1.970866E-01  9.455727E+05  1.021529E-01  5.247270E+02
     10955   1  3.071312E-01  1.385486E-02  1.082296E-01  9.970625E+05  7.995663E-02  8.304623E+01
     10956   1  3.466547E-01 -1.044280E-01  5.787994E-02  1.065913E+06  3.239121E-02  1.971766E+02
     10957   1 -2.417389E+06  2.321299E+02 -2.654765E+02  1.032769E+06  1.354250E+03 -3.360457E+01
     10958   1 -2.417287E+06  1.042212E+02  1.705986E+02  9.644273E+05  3.495886E+03 -4.908415E+02
     10959   1 -2.417438E+06 -1.106437E+02 -7.301377E+01  9.135275E+05  4.584838E+03 -3.428714E+01
     10960   1 -2.417422E+06 -4.300126E+01 -9.280416E+01  8.788893E+05  4.176386E+03 -3.815568E+02
     10961   1 -2.417448E+06 -1.552924E+02 -5.699235E+01  8.587672E+05  2.459773E+03  6.364064E+00
     10962   1 -2.417467E+06 -5.924019E+01 -2.113203E+02  8.522424E+05  3.578751E-02 -1.502393E-01
     10963   1 -2.417447E+06 -1.552792E+02 -5.697458E+01  8.587673E+05 -2.459662E+03 -6.744720E+00
     10964   1 -2.417422E+06 -4.299260E+01 -9.280784E+01  8.788895E+05 -4.176312E+03  3.813734E+02
     10965   1 -2.417438E+06 -1.106643E+02 -7.298971E+01  9.135279E+05 -4.584739E+03  3.409337E+01
     10966   1 -2.417286E+06  1.040411E+02  1.705249E+02  9.644278E+05 -3.495827E+03  4.908336E+02
     10967   1 -2.417388E+06  2.317719E+02 -2.655586E+02  1.032769E+06 -1.354228E+03  3.351767E+01
     10968   1 -4.834389E+06  5.112606E+02  5.997311E+02  9.329128E+05  3.075383E+03 -2.537105E+02
     10969   1 -4.834858E+06  2.687201E+01 -3.381609E+02  8.659389E+05  8.493691E+03  2.043615E+01
     10970   1 -4.834755E+06 -8.887770E+00  1.211236E+01  8.176714E+05  1.088438E+04 -4.836855E+02
     10971   1 -4.834897E+06 -3.334038E+02 -9.553103E+01  7.853647E+05  9.832533E+03  7.481497E+01
     10972   1 -4.834934E+06 -1.148043E+02 -4.247696E+02  7.671562E+05  5.811857E+03 -7.346352E+01
     10973   1 -4.834893E+06 -1.612988E+02 -2.551856E+02  7.612531E+05  1.097487E-01 -1.051621E-01
     10974   1 -4.834933E+06 -1.147932E+02 -4.247510E+02  7.671563E+05 -5.811623E+03  7.317244E+01
     10975   1 -4.834897E+06 -3.333923E+02 -9.552633E+01  7.853650E+05 -9.832318E+03 -7.491142E+01
     10976   1 -4.834754E+06 -8.818710E+00  1.216393E+01  8.176719E+05 -1.088418E+04  4.835897E+02
     10977   1 -4.834857E+06  2.707729E+01 -3.381106E+02  8.659398E+05 -8.493556E+03 -2.032426E+01
     10978   1 -4.834387E+06  5.116458E+02  5.999190E+02  9.329142E+05 -3.075316E+03  2.537209E+02
     10979   1 -7.252249E+06  7.082445E+02 -1.056288E+03  7.642277E+05  6.642076E+03  6.367003E+01
     10980   1 -7.251902E+06  2.329124E+02  4.691433E+02  7.010094E+05  1.675541E+04 -6.374652E+02
     10981   1 -7.252366E+06 -5.667720E+02 -1.364955E+02  6.575682E+05  2.136788E+04  2.525993E+02
     10982   1 -7.252404E+06 -1.721681E+02 -6.493655E+02  6.307046E+05  1.907138E+04  6.772409E+01
     10983   1 -7.252338E+06 -1.089731E+02 -5.097985E+02  6.158932E+05  1.089099E+04  5.485060E+01
     10984   1 -7.252444E+06 -1.891112E+02 -7.543044E+02  6.110965E+05  2.368599E-01 -4.759886E-02
     10985   1 -7.252337E+06 -1.089537E+02 -5.097856E+02  6.158933E+05 -1.089058E+04 -5.502365E+01
     10986   1 -7.252403E+06 -1.721435E+02 -6.493484E+02  6.307048E+05 -1.907093E+04 -6.773356E+01
     10987   1 -7.252364E+06 -5.667980E+02 -1.364830E+02  6.575685E+05 -2.136752E+04 -2.526402E+02
     10988   1 -7.251900E+06  2.326297E+02  4.690587E+02  7.010098E+05 -1.675511E+04  6.375535E+02
     10989   1 -7.252247E+06  7.076369E+02 -1.056431E+03  7.642283E+05 -6.641990E+03 -6.371849E+01
     10990   1 -9.668475E+06  1.234816E+03  1.908085E+03  5.227681E+05  1.217256E+04 -5.979691E+02
     10991   1 -9.669922E+06 -7.555932E+02 -4.896315E+02  4.661100E+05  3.333755E+04  5.829008E+02
     10992   1 -9.669973E+06 -3.114029E+02 -1.085014E+03  4.350903E+05  4.075539E+04  4.166418E+02
     10993   1 -9.669790E+06  4.550639E+01 -8.896958E+02  4.171031E+05  3.372461E+04  1.224427E+02
     10994   1 -9.669956E+06 -2.824649E+02 -1.063251E+03  4.071875E+05  1.884699E+04  1.020883E+02
     10995   1 -9.669768E+06  1.401280E+02 -9.197306E+02  4.041609E+05  4.418063E-01  6.126345E-03
     10996   1 -9.669955E+06 -2.824681E+02 -1.063286E+03  4.071876E+05 -1.884636E+04 -1.021685E+02
     10997   1 -9.669788E+06  4.550977E+01 -8.896630E+02  4.171033E+05 -3.372380E+04 -1.223642E+02
     10998   1 -9.669971E+06 -3.113591E+02 -1.085072E+03  4.350906E+05 -4.075486E+04 -4.166099E+02
     10999   1 -9.669919E+06 -7.553347E+02 -4.895268E+02  4.661105E+05 -3.333709E+04 -5.827372E+02
     11000   1 -9.668472E+06  1.235390E+03  1.908279E+03  5.227689E+05 -1.217239E+04  5.980215E+02
     11001   1 -1.208783E+07  8.515179E+02 -3.697961E+03  1.920010E+05  3.281552E+04  9.200601E+02
     11002   1 -1.208805E+07 -1.092764E+03 -2.425590E+03  1.649969E+05  7.094667E+04  5.666191E+02
     11003   1 -1.208725E+07  5.661133E+02 -1.666574E+03  1.546710E+05  7.223716E+04  1.108535E+02
     11004   1 -1.208754E+07 -5.007996E+02 -1.477472E+03  1.478529E+05  5.633025E+04  1.325142E+02
     11005   1 -1.208720E+07  3.621638E+02 -1.289496E+03  1.445899E+05  3.040113E+04  1.863455E+01
     11006   1 -1.208744E+07 -3.740088E+02 -1.302526E+03  1.433906E+05  7.092962E-01  2.453972E-02
     11007   1 -1.208719E+07  3.621483E+02 -1.289624E+03  1.445899E+05 -3.040022E+04 -1.867844E+01
     11008   1 -1.208754E+07 -5.007307E+02 -1.477391E+03  1.478529E+05 -5.632899E+04 -1.324413E+02
     11009   1 -1.208725E+07  5.660292E+02 -1.666852E+03  1.546711E+05 -7.223646E+04 -1.108757E+02
     11010   1 -1.208805E+07 -1.092934E+03 -2.425470E+03  1.649970E+05 -7.094593E+04 -5.665312E+02
     11011   1 -1.208783E+07  8.508421E+02 -3.698387E+03  1.920011E+05 -3.281535E+04 -9.201571E+02
     11012   1  1.176973E+07 -8.275026E+02  3.602897E+03  1.920010E+05 -3.281575E+04  8.960674E+02
     11013   1  1.176994E+07  1.063696E+03  2.360118E+03  1.649970E+05 -7.094689E+04  5.516512E+02
     11014   1  1.176917E+07 -5.504530E+02  1.624725E+03  1.546711E+05 -7.223771E+04  1.080299E+02
     11015   1  1.176945E+07  4.870243E+02  1.437234E+03  1.478530E+05 -5.633040E+04  1.289326E+02
     11016   1  1.176911E+07 -3.518791E+02  1.257625E+03  1.445899E+05 -3.040152E+04  1.817435E+01
     11017   1  1.176935E+07  3.636718E+02  1.267217E+03  1.433908E+05 -4.918812E-01 -8.032752E-02
     11018   1  1.176911E+07 -3.519024E+02  1.257643E+03  1.445899E+05  3.040019E+04 -1.816791E+01
     11019   1  1.176945E+07  4.871009E+02  1.437543E+03  1.478530E+05  5.632951E+04 -1.290404E+02
     11020   1  1.176916E+07 -5.504990E+02  1.624665E+03  1.546712E+05  7.223668E+04 -1.079198E+02
     11021   1  1.176994E+07  1.063694E+03  2.360432E+03  1.649972E+05  7.094637E+04 -5.516705E+02
     11022   1  1.176972E+07 -8.279834E+02  3.602504E+03  1.920013E+05  3.281545E+04 -8.958808E+02
     11023   1  9.414042E+06 -1.203048E+03 -1.856926E+03  5.227689E+05 -1.217262E+04 -5.822917E+02
     11024   1  9.415451E+06  7.347205E+02  4.754675E+02  4.661105E+05 -3.333782E+04  5.674274E+02
     11025   1  9.415500E+06  3.034523E+02  1.057863E+03  4.350907E+05 -4.075571E+04  4.056558E+02
     11026   1  9.415321E+06 -4.494731E+01  8.652974E+02  4.171034E+05 -3.372476E+04  1.190569E+02
     11027   1  9.415483E+06  2.753128E+02  1.036804E+03  4.071878E+05 -1.884715E+04  9.934854E+01
     11028   1  9.415300E+06 -1.371331E+02  8.946562E+02  4.041611E+05 -2.682259E-01 -1.847886E-01
     11029   1  9.415482E+06  2.752925E+02  1.036797E+03  4.071878E+05  1.884649E+04 -9.953281E+01
     11030   1  9.415320E+06 -4.499239E+01  8.653222E+02  4.171035E+05  3.372423E+04 -1.192949E+02
     11031   1  9.415498E+06  3.034181E+02  1.057839E+03  4.350909E+05  4.075514E+04 -4.056395E+02
     11032   1  9.415447E+06  7.348651E+02  4.755144E+02  4.661108E+05  3.333741E+04 -5.674771E+02
     11033   1  9.414038E+06 -1.202546E+03 -1.856794E+03  5.227693E+05  1.217247E+04  5.823278E+02
     11034   1  7.061401E+06 -6.887642E+02  1.029559E+03  7.642275E+05 -6.642176E+03  6.212239E+01
     11035   1  7.061062E+06 -2.268500E+02 -4.573821E+02  7.010094E+05 -1.675558E+04 -6.207342E+02
     11036   1  7.061514E+06  5.521154E+02  1.338816E+02  6.575685E+05 -2.136808E+04  2.459232E+02
     11037   1  7.061551E+06  1.672806E+02  6.318082E+02  6.307049E+05 -1.907153E+04  6.573544E+01
     11038   1  7.061486E+06  1.063695E+02  4.975164E+02  6.158935E+05 -1.089103E+04  5.326832E+01
     11039   1  7.061590E+06  1.838017E+02  7.340673E+02  6.110968E+05 -1.168463E-01 -3.113690E-01
     11040   1  7.061486E+06  1.063554E+02  4.975032E+02  6.158935E+05  1.089081E+04 -5.371005E+01
     11041   1  7.061550E+06  1.672515E+02  6.317601E+02  6.307050E+05  1.907127E+04 -6.616464E+01
     11042   1  7.061513E+06  5.520931E+02  1.338812E+02  6.575688E+05  2.136783E+04 -2.460331E+02
     11043   1  7.061060E+06 -2.269723E+02 -4.574480E+02  7.010102E+05  1.675539E+04  6.206779E+02
     11044   1  7.061398E+06 -6.889598E+02  1.029496E+03  7.642288E+05  6.642077E+03 -6.198357E+01
     11045   1  4.707169E+06 -4.987664E+02 -5.838063E+02  9.329141E+05 -3.075428E+03 -2.470906E+02
     11046   1  4.707626E+06 -2.694242E+01  3.289395E+02  8.659397E+05 -8.493880E+03  1.965490E+01
     11047   1  4.707525E+06  8.360736E+00 -1.136059E+01  8.176719E+05 -1.088457E+04 -4.710983E+02
     11048   1  4.707663E+06  3.241472E+02  9.290370E+01  7.853651E+05 -9.832680E+03  7.254754E+01
     11049   1  4.707699E+06  1.115371E+02  4.141552E+02  7.671565E+05 -5.811880E+03 -7.173240E+01
     11050   1  4.707659E+06  1.565438E+02  2.484071E+02  7.612534E+05 -2.060543E-02 -4.411295E-01
     11051   1  4.707698E+06  1.115095E+02  4.141314E+02  7.671565E+05  5.811847E+03  7.105405E+01
     11052   1  4.707662E+06  3.240945E+02  9.285286E+01  7.853652E+05  9.832609E+03 -7.321523E+01
     11053   1  4.707524E+06  8.317731E+00 -1.140319E+01  8.176721E+05  1.088449E+04  4.707796E+02
     11054   1  4.707624E+06 -2.686374E+01  3.289054E+02  8.659400E+05  8.493791E+03 -1.993984E+01
     11055   1  4.707167E+06 -4.984133E+02 -5.837620E+02  9.329146E+05  3.075408E+03  2.470747E+02
     11056   1  2.353774E+06 -2.261973E+02  2.585878E+02  1.032768E+06 -1.354327E+03 -3.261975E+01
     11057   1  2.353675E+06 -1.016823E+02 -1.659789E+02  9.644270E+05 -3.496054E+03 -4.780327E+02
     11058   1  2.353822E+06  1.074821E+02  7.126383E+01  9.135276E+05 -4.585030E+03 -3.348852E+01
     11059   1  2.353806E+06  4.165654E+01  9.063303E+01  8.788895E+05 -4.176559E+03 -3.718417E+02
     11060   1  2.353831E+06  1.510054E+02  5.581565E+01  8.587673E+05 -2.459826E+03  5.953004E+00
     11061   1  2.353849E+06  5.749349E+01  2.060940E+02  8.522425E+05  6.768729E-03 -5.357639E-01
     11062   1  2.353831E+06  1.509939E+02  5.580600E+01  8.587673E+05  2.459851E+03 -6.801096E+00
     11063   1  2.353806E+06  4.163435E+01  9.060100E+01  8.788895E+05  4.176554E+03  3.710172E+02
     11064   1  2.353821E+06  1.074833E+02  7.126662E+01  9.135280E+05  4.585025E+03  3.308369E+01
     11065   1  2.353674E+06 -1.016634E+02 -1.659862E+02  9.644279E+05  3.496038E+03  4.777501E+02
     11066   1  2.353773E+06 -2.261056E+02  2.586218E+02  1.032770E+06  1.354315E+03  3.268035E+01
     11067   1  5.409421E-01 -2.340186E-01  2.991037E-02  1.065912E+06 -4.559924E-02 -1.920657E+02
     11068   1  3.738116E-01 -3.818275E-01 -1.863947E-02  9.970621E+05 -1.107052E-01 -8.110301E+01
     11069   1  1.892020E-01 -5.822557E-01 -7.027845E-02  9.455725E+05 -1.397700E-01 -5.112928E+02
     11070   1  4.504319E-02 -7.092291E-01 -8.123474E-02  9.100684E+05 -1.157221E-01 -3.183292E+01
     11071   1 -4.811397E-02 -7.624537E-01 -7.932912E-02  8.894857E+05 -7.294278E-02 -2.127679E+02
     11072   1 -7.731122E-02 -7.694587E-01 -6.624867E-02  8.826902E+05  4.972889E-03 -5.682530E-01
     11073   1 -4.656538E-02 -7.617806E-01 -8.102516E-02  8.894856E+05  6.469783E-02  2.118551E+02
     11074   1  4.367634E-02 -7.109222E-01 -7.854897E-02  9.100684E+05  1.240489E-01  3.093709E+01
     11075   1  1.876433E-01 -6.164661E-01 -8.705042E-02  9.455726E+05  1.354564E-01  5.107918E+02
     11076   1  3.498665E-01 -4.980878E-01 -6.176732E-02  9.970624E+05  1.157848E-01  8.067007E+01
     11077   1  4.966485E-01 -4.386063E-01 -5.454599E-02  1.065913E+06  4.405770E-02  1.920119E+02
     11078   1 -2.353773E+06  2.255449E+02 -2.586794E+02  1.032768E+06  1.354232E+03 -3.261878E+01
     11079   1 -2.353674E+06  1.015402E+02  1.662218E+02  9.644268E+05  3.495819E+03 -4.780348E+02
     11080   1 -2.353821E+06 -1.071635E+02 -7.086852E+01  9.135275E+05  4.584736E+03 -3.348958E+01
     11081   1 -2.353806E+06 -4.098072E+01 -8.992527E+01  8.788893E+05  4.176321E+03 -3.718447E+02
     11082   1 -2.353830E+06 -1.502428E+02 -5.512334E+01  8.587672E+05  2.459676E+03  5.952686E+00
     11083   1 -2.353849E+06 -5.665849E+01 -2.052453E+02  8.522423E+05  3.620602E-03 -5.369121E-01
     11084   1 -2.353830E+06 -1.502341E+02 -5.512181E+01  8.587671E+05 -2.459719E+03 -6.799144E+00
     11085   1 -2.353805E+06 -4.094826E+01 -8.987726E+01  8.788893E+05 -4.176298E+03  3.710179E+02
     11086   1 -2.353821E+06 -1.070996E+02 -7.086513E+01  9.135278E+05 -4.584745E+03  3.308614E+01
     11087   1 -2.353673E+06  1.017648E+02  1.663432E+02  9.644277E+05 -3.495797E+03  4.777498E+02
     11088   1 -2.353772E+06  2.258612E+02 -2.585681E+02  1.032769E+06 -1.354221E+03  3.268139E+01
     11089   1 -4.707168E+06  4.983125E+02  5.835080E+02  9.329136E+05  3.075331E+03 -2.470892E+02
     11090   1 -4.707625E+06  2.641539E+01 -3.286156E+02  8.659393E+05  8.493643E+03  1.965218E+01
     11091   1 -4.707525E+06 -9.554833E+00  1.087614E+01  8.176716E+05  1.088427E+04 -4.710979E+02
     11092   1 -4.707663E+06 -3.253394E+02 -9.269441E+01  7.853648E+05  9.832427E+03  7.254049E+01
     11093   1 -4.707699E+06 -1.131087E+02 -4.146473E+02  7.671562E+05  5.811732E+03 -7.173157E+01
     11094   1 -4.707659E+06 -1.578582E+02 -2.481638E+02  7.612531E+05  2.069398E-02 -4.451851E-01
     11095   1 -4.707699E+06 -1.130820E+02 -4.146288E+02  7.671562E+05 -5.811699E+03  7.105992E+01
     11096   1 -4.707662E+06 -3.252862E+02 -9.263315E+01  7.853649E+05 -9.832355E+03 -7.321558E+01
     11097   1 -4.707524E+06 -9.587751E+00  1.087482E+01  8.176718E+05 -1.088419E+04  4.707852E+02
     11098   1 -4.707624E+06  2.611231E+01 -3.286463E+02  8.659396E+05 -8.493550E+03 -1.994181E+01
     11099   1 -4.707166E+06  4.975343E+02  5.832645E+02  9.329142E+05 -3.075313E+03  2.470767E+02
     11100   1 -7.061401E+06  6.880134E+02 -1.030594E+03  7.642270E+05  6.642068E+03  6.212522E+01
     11101   1 -7.061062E+06  2.272577E+02  4.585625E+02  7.010090E+05  1.675530E+04 -6.207384E+02
     11102   1 -7.061514E+06 -5.519465E+02 -1.343970E+02  6.575681E+05  2.136775E+04  2.459191E+02
     11103   1 -7.061551E+06 -1.660663E+02 -6.301763E+02  6.307046E+05  1.907124E+04  6.572649E+01
     11104   1 -7.061487E+06 -1.057784E+02 -4.977014E+02  6.158932E+05  1.089089E+04  5.326840E+01
     11105   1 -7.061590E+06 -1.824323E+02 -7.323099E+02  6.110964E+05  8.767461E-02 -3.165105E-01
     11106   1 -7.061486E+06 -1.057637E+02 -4.976768E+02  6.158932E+05 -1.089061E+04 -5.370183E+01
     11107   1 -7.061550E+06 -1.660341E+02 -6.301469E+02  6.307046E+05 -1.907102E+04 -6.616465E+01
     11108   1 -7.061513E+06 -5.518508E+02 -1.343490E+02  6.575684E+05 -2.136747E+04 -2.460235E+02
     11109   1 -7.061060E+06  2.276163E+02  4.587017E+02  7.010097E+05 -1.675514E+04  6.206754E+02
     11110   1 -7.061398E+06  6.886269E+02 -1.030371E+03  7.642283E+05 -6.641959E+03 -6.198221E+01
     11111   1 -9.414042E+06  1.202471E+03  1.855357E+03  5.227685E+05  1.217249E+04 -5.822978E+02
     11112   1 -9.415451E+06 -7.345521E+02 -4.738654E+02  4.661102E+05  3.333751E+04  5.674277E+02
     11113   1 -9.415501E+06 -3.049068E+02 -1.059533E+03  4.350904E+05  4.075534E+04  4.056504E+02
     11114   1 -9.415321E+06  4.441829E+01 -8.637887E+02  4.171031E+05  3.372441E+04  1.190489E+02
     11115   1 -9.415484E+06 -2.771898E+02 -1.038414E+03  4.071875E+05  1.884701E+04  9.934624E+01
     11116   1 -9.415300E+06  1.364692E+02 -8.931368E+02  4.041609E+05  2.070505E-01 -1.870587E-01
     11117   1 -9.415483E+06 -2.771622E+02 -1.038376E+03  4.071875E+05 -1.884624E+04 -9.952778E+01
     11118   1 -9.415320E+06  4.444788E+01 -8.638692E+02  4.171032E+05 -3.372397E+04 -1.192903E+02
     11119   1 -9.415498E+06 -3.049310E+02 -1.059469E+03  4.350906E+05 -4.075470E+04 -4.056323E+02
     11120   1 -9.415447E+06 -7.349464E+02 -4.740555E+02  4.661105E+05 -3.333714E+04 -5.674761E+02
     11121   1 -9.414038E+06  1.201550E+03  1.855095E+03  5.227689E+05 -1.217234E+04  5.823300E+02
     11122   1 -1.176973E+07  8.266426E+02 -3.604908E+03  1.920007E+05  3.281557E+04  8.960893E+02
     11123   1 -1.176994E+07 -1.062693E+03 -2.357926E+03  1.649969E+05  7.094646E+04  5.516348E+02
     11124   1 -1.176917E+07  5.504720E+02 -1.626137E+03  1.546709E+05  7.223726E+04  1.080319E+02
     11125   1 -1.176945E+07 -4.852245E+02 -1.434583E+03  1.478529E+05  5.632996E+04  1.289269E+02
     11126   1 -1.176911E+07  3.523139E+02 -1.258648E+03  1.445898E+05  3.040136E+04  1.817158E+01
     11127   1 -1.176935E+07 -3.617227E+02 -1.264457E+03  1.433906E+05  4.134532E-01 -7.715460E-02
     11128   1 -1.176911E+07  3.523445E+02 -1.258628E+03  1.445898E+05 -3.039989E+04 -1.817193E+01
     11129   1 -1.176945E+07 -4.853116E+02 -1.434960E+03  1.478529E+05 -5.632921E+04 -1.290294E+02
     11130   1 -1.176917E+07  5.506106E+02 -1.625968E+03  1.546710E+05 -7.223613E+04 -1.079273E+02
     11131   1 -1.176994E+07 -1.062467E+03 -2.358236E+03  1.649971E+05 -7.094600E+04 -5.516532E+02
     11132   1 -1.176972E+07  8.275740E+02 -3.604317E+03  1.920011E+05 -3.281524E+04 -8.959014E+02
     11133   1  1.145163E+07 -8.066143E+02  3.504629E+03  1.920012E+05 -3.281566E+04  8.715689E+02
     11134   1  1.145184E+07  1.034206E+03  2.296450E+03  1.649971E+05 -7.094711E+04  5.367952E+02
     11135   1  1.145108E+07 -5.366171E+02  1.580141E+03  1.546712E+05 -7.223754E+04  1.049361E+02
     11136   1  1.145135E+07  4.728100E+02  1.398240E+03  1.478530E+05 -5.633059E+04  1.254851E+02
     11137   1  1.145103E+07 -3.437667E+02  1.223037E+03  1.445900E+05 -3.040124E+04  1.751837E+01
     11138   1  1.145126E+07  3.525100E+02  1.232628E+03  1.433908E+05 -6.329095E-01 -6.041071E-02
     11139   1  1.145103E+07 -3.437439E+02  1.223304E+03  1.445899E+05  3.040051E+04 -1.782956E+01
     11140   1  1.145135E+07  4.726916E+02  1.398277E+03  1.478530E+05  5.632944E+04 -1.255141E+02
     11141   1  1.145108E+07 -5.365523E+02  1.580670E+03  1.546712E+05  7.223692E+04 -1.051140E+02
     11142   1  1.145183E+07  1.034274E+03  2.296276E+03  1.649972E+05  7.094634E+04 -5.366799E+02
     11143   1  1.145162E+07 -8.058030E+02  3.505267E+03  1.920013E+05  3.281551E+04 -8.717718E+02
     11144   1  9.159609E+06 -1.169222E+03 -1.806259E+03  5.227684E+05 -1.217266E+04 -5.664920E+02
     11145   1  9.160979E+06  7.157895E+02  4.628805E+02  4.661104E+05 -3.333778E+04  5.522084E+02
     11146   1  9.161027E+06  2.962094E+02  1.029636E+03  4.350907E+05 -4.075561E+04  3.945401E+02
     11147   1  9.160853E+06 -4.260302E+01  8.423515E+02  4.171035E+05 -3.372471E+04  1.157758E+02
     11148   1  9.161010E+06  2.691808E+02  1.009318E+03  4.071879E+05 -1.884692E+04  9.637116E+01
     11149   1  9.160832E+06 -1.321122E+02  8.709748E+02  4.041612E+05 -1.545368E-01 -3.058940E-01
     11150   1  9.161010E+06  2.691680E+02  1.009348E+03  4.071878E+05  1.884676E+04 -9.712801E+01
     11151   1  9.160851E+06 -4.261908E+01  8.423406E+02  4.171034E+05  3.372436E+04 -1.161374E+02
     11152   1  9.161025E+06  2.961643E+02  1.029688E+03  4.350908E+05  4.075534E+04 -3.948506E+02
     11153   1  9.160976E+06  7.155636E+02  4.628190E+02  4.661108E+05  3.333749E+04 -5.520881E+02
     11154   1  9.159604E+06 -1.169743E+03 -1.806454E+03  5.227694E+05  1.217251E+04  5.665291E+02
     11155   1  6.870553E+06 -6.713737E+02  1.001412E+03  7.642286E+05 -6.642128E+03  6.020695E+01
     11156   1  6.870223E+06 -2.216425E+02 -4.452733E+02  7.010101E+05 -1.675556E+04 -6.040922E+02
     11157   1  6.870662E+06  5.362641E+02  1.299789E+02  6.575688E+05 -2.136801E+04  2.389605E+02
     11158   1  6.870698E+06  1.616219E+02  6.143586E+02  6.307051E+05 -1.907138E+04  6.374390E+01
     11159   1  6.870635E+06  1.022015E+02  4.836278E+02  6.158936E+05 -1.089086E+04  5.142073E+01
     11160   1  6.870736E+06  1.775057E+02  7.137999E+02  6.110968E+05  1.080049E-01 -5.711541E-01
     11161   1  6.870635E+06  1.021507E+02  4.835705E+02  6.158935E+05  1.089102E+04 -5.265749E+01
     11162   1  6.870697E+06  1.615400E+02  6.143040E+02  6.307050E+05  1.907149E+04 -6.455650E+01
     11163   1  6.870661E+06  5.361941E+02  1.298691E+02  6.575687E+05  2.136800E+04 -2.396392E+02
     11164   1  6.870221E+06 -2.214078E+02 -4.452447E+02  7.010101E+05  1.675550E+04  6.038858E+02
     11165   1  6.870549E+06 -6.706008E+02  1.001502E+03  7.642288E+05  6.642121E+03 -6.042724E+01
     11166   1  4.579948E+06 -4.845657E+02 -5.678247E+02  9.329131E+05 -3.075446E+03 -2.404359E+02
     11167   1  4.580393E+06 -2.545698E+01  3.203284E+02  8.659393E+05 -8.493823E+03  1.915435E+01
     11168   1  4.580294E+06  9.020465E+00 -1.071182E+01  8.176720E+05 -1.088450E+04 -4.586834E+02
     11169   1  4.580429E+06  3.165324E+02  9.091389E+01  7.853653E+05 -9.832562E+03  7.031245E+01
     11170   1  4.580464E+06  1.097565E+02  4.034680E+02  7.671566E+05 -5.811740E+03 -7.031641E+01
     11171   1  4.580425E+06  1.536086E+02  2.422774E+02  7.612534E+05  1.709669E-01 -7.969722E-01
     11172   1  4.580463E+06  1.097192E+02  4.034198E+02  7.671564E+05  5.812031E+03  6.861854E+01
     11173   1  4.580429E+06  3.164739E+02  9.085279E+01  7.853650E+05  9.832805E+03 -7.150393E+01
     11174   1  4.580294E+06  8.948421E+00 -1.078260E+01  8.176720E+05  1.088464E+04  4.577109E+02
     11175   1  4.580391E+06 -2.557095E+01  3.202883E+02  8.659400E+05  8.493910E+03 -1.944837E+01
     11176   1  4.579946E+06 -4.846407E+02 -5.679225E+02  9.329147E+05  3.075448E+03  2.402750E+02
     11177   1  2.290159E+06 -2.204966E+02  2.516036E+02  1.032769E+06 -1.354314E+03 -3.201531E+01
     11178   1  2.290062E+06 -9.955037E+01 -1.617485E+02  9.644280E+05 -3.496055E+03 -4.653560E+02
     11179   1  2.290205E+06  1.037368E+02  6.912111E+01  9.135281E+05 -4.585015E+03 -3.306958E+01
     11180   1  2.290190E+06  3.935073E+01  8.769565E+01  8.788897E+05 -4.176502E+03 -3.621547E+02
     11181   1  2.290213E+06  1.456766E+02  5.392570E+01  8.587674E+05 -2.459758E+03  5.188456E+00
     11182   1  2.290231E+06  5.459189E+01  1.999850E+02  8.522425E+05  1.196835E-01 -9.524469E-01
     11183   1  2.290213E+06  1.456455E+02  5.389082E+01  8.587672E+05  2.459958E+03 -7.209424E+00
     11184   1  2.290189E+06  3.930370E+01  8.766536E+01  8.788894E+05  4.176685E+03  3.606675E+02
     11185   1  2.290205E+06  1.036706E+02  6.904866E+01  9.135278E+05  4.585124E+03  3.177938E+01
     11186   1  2.290061E+06 -9.952742E+01 -1.617677E+02  9.644278E+05  3.496123E+03  4.647398E+02
     11187   1  2.290158E+06 -2.202864E+02  2.515608E+02  1.032770E+06  1.354343E+03  3.162498E+01
     11188   1  7.401047E-01 -3.723811E-01 -1.928652E-02  1.065911E+06 -6.342324E-02 -1.869420E+02
     11189   1  6.140089E-01 -8.541958E-02  1.116093E-01  9.970616E+05 -1.633713E-01 -7.892107E+01
     11190   1  4.779458E-01  2.214568E-01  2.759318E-01  9.455725E+05 -1.853272E-01 -4.978779E+02
     11191   1  3.371550E-01  4.076065E-01  3.891820E-01  9.100685E+05 -1.655202E-01 -3.133004E+01
     11192   1  2.394701E-01  4.845308E-01  4.531768E-01  8.894857E+05 -8.369654E-02 -2.076452E+02
     11193   1  2.002570E-01  4.964788E-01  4.619429E-01  8.826902E+05 -6.332699E-03 -1.010683E+00
     11194   1  2.378990E-01  4.848120E-01  4.558707E-01  8.894855E+05  9.731021E-02  2.055114E+02
     11195   1  3.400796E-01  4.104915E-01  3.845877E-01  9.100682E+05  1.551013E-01  2.975433E+01
     11196   1  4.806223E-01  2.641969E-01  2.969952E-01  9.455724E+05  1.932182E-01  4.965589E+02
     11197   1  6.459999E-01  5.885294E-02  1.626719E-01  9.970622E+05  1.571517E-01  7.839956E+01
     11198   1  7.985911E-01 -1.156064E-01  8.623190E-02  1.065913E+06  6.569832E-02  1.866675E+02
     11199   1 -2.290157E+06  2.200661E+02 -2.514580E+02  1.032769E+06  1.354189E+03 -3.201772E+01
     11200   1 -2.290061E+06  9.869055E+01  1.616390E+02  9.644277E+05  3.495737E+03 -4.653569E+02
     11201   1 -2.290204E+06 -1.050596E+02 -6.923393E+01  9.135279E+05  4.584651E+03 -3.307439E+01
     11202   1 -2.290190E+06 -4.104486E+01 -8.797418E+01  8.788895E+05  4.176170E+03 -3.621566E+02
     11203   1 -2.290214E+06 -1.474539E+02 -5.406368E+01  8.587672E+05  2.459590E+03  5.184927E+00
     11204   1 -2.290232E+06 -5.644239E+01 -2.002488E+02  8.522423E+05 -1.330984E-01 -9.511530E-01
     11205   1 -2.290213E+06 -1.474172E+02 -5.401722E+01  8.587670E+05 -2.459761E+03 -7.208940E+00
     11206   1 -2.290189E+06 -4.100654E+01 -8.796595E+01  8.788892E+05 -4.176376E+03  3.606720E+02
     11207   1 -2.290204E+06 -1.050634E+02 -6.916316E+01  9.135276E+05 -4.584738E+03  3.178153E+01
     11208   1 -2.290060E+06  9.837590E+01  1.615143E+02  9.644275E+05 -3.495812E+03  4.647439E+02
     11209   1 -2.290156E+06  2.193605E+02 -2.515905E+02  1.032769E+06 -1.354214E+03  3.162453E+01
     11210   1 -4.579947E+06  4.840889E+02  5.682131E+02  9.329125E+05  3.075312E+03 -2.404404E+02
     11211   1 -4.580392E+06  2.525624E+01 -3.205302E+02  8.659388E+05  8.493478E+03  1.915165E+01
     11212   1 -4.580294E+06 -8.312135E+00  1.168511E+01  8.176715E+05  1.088410E+04 -4.586953E+02
     11213   1 -4.580429E+06 -3.157663E+02 -9.056075E+01  7.853649E+05  9.832221E+03  7.031065E+01
     11214   1 -4.580464E+06 -1.085194E+02 -4.021429E+02  7.671562E+05  5.811549E+03 -7.032547E+01
     11215   1 -4.580425E+06 -1.526709E+02 -2.417770E+02  7.612530E+05 -1.696092E-01 -7.917636E-01
     11216   1 -4.580463E+06 -1.084794E+02 -4.020877E+02  7.671560E+05 -5.811841E+03  6.861640E+01
     11217   1 -4.580428E+06 -3.157080E+02 -9.051359E+01  7.853646E+05 -9.832462E+03 -7.149269E+01
     11218   1 -4.580293E+06 -8.146811E+00  1.180934E+01  8.176715E+05 -1.088425E+04  4.577127E+02
     11219   1 -4.580390E+06  2.564670E+01 -3.204131E+02  8.659395E+05 -8.493569E+03 -1.943975E+01
     11220   1 -4.579945E+06  4.846956E+02  5.685595E+02  9.329141E+05 -3.075311E+03  2.402736E+02
     11221   1 -6.870552E+06  6.716066E+02 -1.000092E+03  7.642279E+05  6.641981E+03  6.020295E+01
     11222   1 -6.870223E+06  2.205739E+02  4.440161E+02  7.010095E+05  1.675521E+04 -6.040933E+02
     11223   1 -6.870662E+06 -5.369723E+02 -1.289274E+02  6.575683E+05  2.136757E+04  2.389498E+02
     11224   1 -6.870699E+06 -1.635773E+02 -6.157287E+02  6.307047E+05  1.907104E+04  6.374013E+01
     11225   1 -6.870636E+06 -1.033757E+02 -4.826203E+02  6.158932E+05  1.089062E+04  5.140967E+01
     11226   1 -6.870737E+06 -1.796263E+02 -7.151166E+02  6.110964E+05 -6.416401E-02 -5.645499E-01
     11227   1 -6.870635E+06 -1.033264E+02 -4.825825E+02  6.158931E+05 -1.089087E+04 -5.266069E+01
     11228   1 -6.870698E+06 -1.634934E+02 -6.156401E+02  6.307045E+05 -1.907108E+04 -6.454124E+01
     11229   1 -6.870661E+06 -5.369899E+02 -1.288879E+02  6.575682E+05 -2.136762E+04 -2.396384E+02
     11230   1 -6.870221E+06  2.200588E+02  4.439140E+02  7.010096E+05 -1.675511E+04  6.038959E+02
     11231   1 -6.870549E+06  6.703156E+02 -1.000395E+03  7.642281E+05 -6.641989E+03 -6.042907E+01
     11232   1 -9.159609E+06  1.169588E+03  1.808250E+03  5.227678E+05  1.217250E+04 -5.664860E+02
     11233   1 -9.160979E+06 -7.162718E+02 -4.646440E+02  4.661099E+05  3.333735E+04  5.521983E+02
     11234   1 -9.161027E+06 -2.946494E+02 -1.027091E+03  4.350903E+05  4.075508E+04  3.945285E+02
     11235   1 -9.160854E+06  4.303257E+01 -8.435027E+02  4.171031E+05  3.372434E+04  1.157690E+02
     11236   1 -9.161011E+06 -2.670881E+02 -1.006463E+03  4.071875E+05  1.884662E+04  9.636369E+01
     11237   1 -9.160833E+06  1.327124E+02 -8.719171E+02  4.041608E+05  2.440174E-01 -3.036066E-01
     11238   1 -9.161010E+06 -2.670868E+02 -1.006542E+03  4.071874E+05 -1.884663E+04 -9.712644E+01
     11239   1 -9.160853E+06  4.307231E+01 -8.434027E+02  4.171030E+05 -3.372384E+04 -1.161273E+02
     11240   1 -9.161025E+06 -2.945437E+02 -1.027222E+03  4.350904E+05 -4.075492E+04 -3.948430E+02
     11241   1 -9.160976E+06 -7.157322E+02 -4.643760E+02  4.661104E+05 -3.333700E+04 -5.520807E+02
     11242   1 -9.159604E+06  1.170621E+03  1.808576E+03  5.227687E+05 -1.217236E+04  5.665269E+02
     11243   1 -1.145163E+07  8.076026E+02 -3.502071E+03  1.920010E+05  3.281541E+04  8.715438E+02
     11244   1 -1.145184E+07 -1.035501E+03 -2.298861E+03  1.649969E+05  7.094658E+04  5.368087E+02
     11245   1 -1.145108E+07  5.365424E+02 -1.577799E+03  1.546710E+05  7.223689E+04  1.049256E+02
     11246   1 -1.145136E+07 -4.750705E+02 -1.400644E+03  1.478528E+05  5.633017E+04  1.254828E+02
     11247   1 -1.145103E+07  3.431899E+02 -1.220743E+03  1.445898E+05  3.040087E+04  1.751828E+01
     11248   1 -1.145126E+07 -3.549426E+02 -1.234919E+03  1.433906E+05  7.453809E-01 -6.567962E-02
     11249   1 -1.145103E+07  3.431545E+02 -1.221070E+03  1.445898E+05 -3.040036E+04 -1.782005E+01
     11250   1 -1.145135E+07 -4.749308E+02 -1.400572E+03  1.478528E+05 -5.632883E+04 -1.255209E+02
     11251   1 -1.145108E+07  5.363595E+02 -1.578492E+03  1.546710E+05 -7.223642E+04 -1.050957E+02
     11252   1 -1.145183E+07 -1.035829E+03 -2.298654E+03  1.649970E+05 -7.094571E+04 -5.366958E+02
     11253   1 -1.145162E+07  8.062227E+02 -3.502988E+03  1.920011E+05 -3.281530E+04 -8.717465E+02
     11254   1  1.113353E+07 -7.820781E+02  3.408534E+03  1.920010E+05 -3.281583E+04  8.477583E+02
     11255   1  1.113373E+07  1.006522E+03  2.232443E+03  1.649971E+05 -7.094685E+04  5.217837E+02
     11256   1  1.113300E+07 -5.203646E+02  1.537043E+03  1.546712E+05 -7.223773E+04  1.021709E+02
     11257   1  1.113326E+07  4.609638E+02  1.359493E+03  1.478531E+05 -5.633016E+04  1.217831E+02
     11258   1  1.113294E+07 -3.324942E+02  1.189830E+03  1.445900E+05 -3.040136E+04  1.705539E+01
     11259   1  1.113317E+07  3.443464E+02  1.198924E+03  1.433908E+05 -9.711807E-02 -3.055186E-01
     11260   1  1.113294E+07 -3.325451E+02  1.189947E+03  1.445899E+05  3.040046E+04 -1.732005E+01
     11261   1  1.113326E+07  4.610903E+02  1.360219E+03  1.478530E+05  5.632993E+04 -1.222330E+02
     11262   1  1.113299E+07 -5.205249E+02  1.537049E+03  1.546711E+05  7.223694E+04 -1.021184E+02
     11263   1  1.113373E+07  1.006371E+03  2.233096E+03  1.649972E+05  7.094663E+04 -5.219015E+02
     11264   1  1.113352E+07 -7.832061E+02  3.407712E+03  1.920014E+05  3.281551E+04 -8.474026E+02
     11265   1  8.905176E+06 -1.138770E+03 -1.756776E+03  5.227694E+05 -1.217258E+04 -5.508713E+02
     11266   1  8.906508E+06  6.946155E+02  4.496945E+02  4.661110E+05 -3.333774E+04  5.365625E+02
     11267   1  8.906554E+06  2.867780E+02  1.000635E+03  4.350911E+05 -4.075551E+04  3.834715E+02
     11268   1  8.906384E+06 -4.279813E+01  8.184975E+02  4.171037E+05 -3.372439E+04  1.121517E+02
     11269   1  8.906537E+06  2.600905E+02  9.807169E+02  4.071880E+05 -1.884670E+04  9.349108E+01
     11270   1  8.906364E+06 -1.300694E+02  8.462836E+02  4.041612E+05  3.073136E-01 -7.707845E-01
     11271   1  8.906537E+06  2.600411E+02  9.806993E+02  4.071878E+05  1.884703E+04 -9.462619E+01
     11272   1  8.906383E+06 -4.289631E+01  8.185395E+02  4.171034E+05  3.372478E+04 -1.132850E+02
     11273   1  8.906552E+06  2.867263E+02  1.000584E+03  4.350907E+05  4.075555E+04 -3.839239E+02
     11274   1  8.906504E+06  6.949996E+02  4.498132E+02  4.661108E+05  3.333769E+04 -5.369361E+02
     11275   1  8.905170E+06 -1.137523E+03 -1.756465E+03  5.227694E+05  1.217257E+04  5.508638E+02
     11276   1  6.679704E+06 -6.511456E+02  9.740904E+02  7.642276E+05 -6.642151E+03  5.877199E+01
     11277   1  6.679383E+06 -2.142341E+02 -4.325061E+02  7.010097E+05 -1.675543E+04 -5.874518E+02
     11278   1  6.679811E+06  5.225773E+02  1.268342E+02  6.575689E+05 -2.136780E+04  2.321755E+02
     11279   1  6.679845E+06  1.585528E+02  5.978736E+02  6.307053E+05 -1.907113E+04  6.144307E+01
     11280   1  6.679784E+06  1.009473E+02  4.708648E+02  6.158938E+05 -1.089051E+04  4.957716E+01
     11281   1  6.679882E+06  1.741712E+02  6.945884E+02  6.110969E+05  4.759742E-01 -1.220274E+00
     11282   1  6.679784E+06  1.008972E+02  4.708076E+02  6.158934E+05  1.089142E+04 -5.160151E+01
     11283   1  6.679845E+06  1.584476E+02  5.977317E+02  6.307048E+05  1.907184E+04 -6.330432E+01
     11284   1  6.679810E+06  5.224400E+02  1.267593E+02  6.575685E+05  2.136830E+04 -2.331658E+02
     11285   1  6.679381E+06 -2.145893E+02 -4.326970E+02  7.010100E+05  1.675570E+04  5.868497E+02
     11286   1  6.679701E+06 -6.515450E+02  9.738886E+02  7.642289E+05  6.642187E+03 -5.865729E+01
     11287   1  4.452728E+06 -4.723465E+02 -5.523350E+02  9.329150E+05 -3.075382E+03 -2.338927E+02
     11288   1  4.453160E+06 -2.579280E+01  3.111026E+02  8.659405E+05 -8.493775E+03  1.806683E+01
     11289   1  4.453064E+06  7.688455E+00 -1.073772E+01  8.176726E+05 -1.088435E+04 -4.463322E+02
     11290   1  4.453194E+06  3.063430E+02  8.785524E+01  7.853656E+05 -9.832358E+03  6.762539E+01
     11291   1  4.453228E+06  1.051903E+02  3.917627E+02  7.671568E+05 -5.811454E+03 -6.892738E+01
     11292   1  4.453190E+06  1.477132E+02  2.349120E+02  7.612534E+05  4.654384E-01 -1.620539E+00
     11293   1  4.453228E+06  1.051155E+02  3.916897E+02  7.671563E+05  5.812364E+03  6.615928E+01
     11294   1  4.453194E+06  3.062070E+02  8.771901E+01  7.853648E+05  9.833093E+03 -7.022044E+01
     11295   1  4.453063E+06  7.587992E+00 -1.085200E+01  8.176717E+05  1.088490E+04  4.447020E+02
     11296   1  4.453158E+06 -2.556528E+01  3.110482E+02  8.659397E+05  8.494073E+03 -1.929846E+01
     11297   1  4.452726E+06 -4.713948E+02 -5.522074E+02  9.329145E+05  3.075514E+03  2.336313E+02
     11298   1  2.226543E+06 -2.138998E+02  2.446294E+02  1.032768E+06 -1.354328E+03 -3.095189E+01
     11299   1  2.226449E+06 -9.598881E+01 -1.568794E+02  9.644273E+05 -3.496023E+03 -4.527288E+02
     11300   1  2.226588E+06  1.019076E+02  6.752321E+01  9.135282E+05 -4.584945E+03 -3.247762E+01
     11301   1  2.226574E+06  3.971511E+01  8.595545E+01  8.788899E+05 -4.176414E+03 -3.529031E+02
     11302   1  2.226597E+06  1.431349E+02  5.296721E+01  8.587676E+05 -2.459603E+03  4.384694E+00
     11303   1  2.226614E+06  5.469243E+01  1.951697E+02  8.522425E+05  2.756872E-01 -1.895185E+00
     11304   1  2.226597E+06  1.430993E+02  5.293536E+01  8.587671E+05  2.460161E+03 -7.660724E+00
     11305   1  2.226573E+06  3.964160E+01  8.586765E+01  8.788890E+05  4.176857E+03  3.498308E+02
     11306   1  2.226588E+06  1.018576E+02  6.750011E+01  9.135274E+05  4.585306E+03  3.052909E+01
     11307   1  2.226449E+06 -9.602377E+01 -1.569353E+02  9.644275E+05  3.496239E+03  4.513906E+02
     11308   1  2.226543E+06 -2.137471E+02  2.446521E+02  1.032770E+06  1.354393E+03  3.080207E+01
     11309   1  1.132850E+00 -1.983408E-01  5.026430E-02  1.065913E+06 -8.329145E-02 -1.818909E+02
     11310   1  7.626256E-01 -4.445891E-01 -3.510001E-02  9.970630E+05 -1.960517E-01 -7.740411E+01
     11311   1  3.946362E-01 -7.701349E-01 -1.221971E-01  9.455732E+05 -2.388875E-01 -4.845532E+02
     11312   1  1.260134E-01 -9.770285E-01 -1.584198E-01  9.100689E+05 -1.878874E-01 -3.134480E+01
     11313   1 -4.312707E-02 -1.063082E+00 -1.649359E-01  8.894859E+05 -1.191434E-01 -2.025767E+02
     11314   1 -9.341206E-02 -1.075023E+00 -1.513437E-01  8.826902E+05  1.006453E-02 -1.988736E+00
     11315   1 -4.069117E-02 -1.061945E+00 -1.691171E-01  8.894853E+05  1.014810E-01  1.991156E+02
     11316   1  1.228610E-01 -9.758185E-01 -1.509886E-01  9.100679E+05  2.047323E-01  2.807804E+01
     11317   1  3.938330E-01 -8.154773E-01 -1.488981E-01  9.455720E+05  2.289542E-01  4.823669E+02
     11318   1  7.251944E-01 -6.132387E-01 -9.513088E-02  9.970619E+05  2.062648E-01  7.573176E+01
     11319   1  1.063053E+00 -5.083958E-01 -8.182186E-02  1.065912E+06  8.104596E-02  1.814994E+02
     11320   1 -2.226541E+06  2.131696E+02 -2.447516E+02  1.032768E+06  1.354152E+03 -3.095355E+01
     11321   1 -2.226448E+06  9.599447E+01  1.572043E+02  9.644270E+05  3.495609E+03 -4.527389E+02
     11322   1 -2.226587E+06 -1.012171E+02 -6.694038E+01  9.135279E+05  4.584447E+03 -3.248356E+01
     11323   1 -2.226573E+06 -3.853926E+01 -8.498683E+01  8.788896E+05  4.176029E+03 -3.529111E+02
     11324   1 -2.226596E+06 -1.418422E+02 -5.201163E+01  8.587673E+05  2.459360E+03  4.383742E+00
     11325   1 -2.226614E+06 -5.331722E+01 -1.940327E+02  8.522422E+05 -2.545995E-01 -1.897144E+00
     11326   1 -2.226596E+06 -1.418105E+02 -5.199627E+01  8.587668E+05 -2.459956E+03 -7.655660E+00
     11327   1 -2.226573E+06 -3.844932E+01 -8.486827E+01  8.788888E+05 -4.176436E+03  3.498348E+02
     11328   1 -2.226587E+06 -1.010790E+02 -6.692339E+01  9.135271E+05 -4.584835E+03  3.053851E+01
     11329   1 -2.226447E+06  9.639729E+01  1.574421E+02  9.644272E+05 -3.495811E+03  4.513957E+02
     11330   1 -2.226541E+06  2.136397E+02 -2.445641E+02  1.032769E+06 -1.354222E+03  3.080733E+01
     11331   1 -4.452726E+06  4.718952E+02  5.519296E+02  9.329143E+05  3.075207E+03 -2.338925E+02
     11332   1 -4.453158E+06  2.516476E+01 -3.106684E+02  8.659400E+05  8.493356E+03  1.805240E+01
     11333   1 -4.453063E+06 -9.331185E+00  9.991857E+00  8.176721E+05  1.088386E+04 -4.463373E+02
     11334   1 -4.453195E+06 -3.080340E+02 -8.766984E+01  7.853651E+05  9.831948E+03  6.760872E+01
     11335   1 -4.453229E+06 -1.074289E+02 -3.925936E+02  7.671563E+05  5.811223E+03 -6.892523E+01
     11336   1 -4.453191E+06 -1.495951E+02 -2.347181E+02  7.612529E+05 -4.665558E-01 -1.628496E+00
     11337   1 -4.453229E+06 -1.073555E+02 -3.925297E+02  7.671559E+05 -5.812128E+03  6.617274E+01
     11338   1 -4.453194E+06 -3.078903E+02 -8.751468E+01  7.853643E+05 -9.832684E+03 -7.021834E+01
     11339   1 -4.453063E+06 -9.333986E+00  1.004095E+01  8.176712E+05 -1.088440E+04  4.447209E+02
     11340   1 -4.453157E+06  2.461127E+01 -3.107047E+02  8.659391E+05 -8.493648E+03 -1.929341E+01
     11341   1 -4.452724E+06  4.702957E+02  5.514917E+02  9.329139E+05 -3.075340E+03  2.336403E+02
     11342   1 -6.679703E+06  6.501092E+02 -9.756707E+02  7.642267E+05  6.641958E+03  5.876987E+01
     11343   1 -6.679383E+06  2.149442E+02  4.342636E+02  7.010090E+05  1.675494E+04 -5.874702E+02
     11344   1 -6.679811E+06 -5.222371E+02 -1.276853E+02  6.575683E+05  2.136728E+04  2.321647E+02
     11345   1 -6.679845E+06 -1.566575E+02 -5.955373E+02  6.307047E+05  1.907065E+04  6.142398E+01
     11346   1 -6.679785E+06 -1.000074E+02 -4.713100E+02  6.158932E+05  1.089031E+04  4.957983E+01
     11347   1 -6.679882E+06 -1.720741E+02 -6.921426E+02  6.110963E+05 -5.408391E-01 -1.230714E+00
     11348   1 -6.679785E+06 -9.995163E+01 -4.712207E+02  6.158928E+05 -1.089110E+04 -5.158455E+01
     11349   1 -6.679845E+06 -1.565579E+02 -5.954526E+02  6.307042E+05 -1.907146E+04 -6.330373E+01
     11350   1 -6.679810E+06 -5.219878E+02 -1.275060E+02  6.575679E+05 -2.136770E+04 -2.331416E+02
     11351   1 -6.679381E+06  2.156390E+02  4.345210E+02  7.010093E+05 -1.675527E+04  5.868535E+02
     11352   1 -6.679700E+06  6.511623E+02 -9.751842E+02  7.642280E+05 -6.641974E+03 -5.864810E+01
     11353   1 -8.905175E+06  1.137954E+03  1.754363E+03  5.227687E+05  1.217236E+04 -5.508818E+02
     11354   1 -8.906508E+06 -6.943013E+02 -4.472673E+02  4.661103E+05  3.333720E+04  5.365588E+02
     11355   1 -8.906555E+06 -2.889564E+02 -1.003294E+03  4.350906E+05  4.075495E+04  3.834608E+02
     11356   1 -8.906385E+06  4.203483E+01 -8.163538E+02  4.171032E+05  3.372381E+04  1.121389E+02
     11357   1 -8.906540E+06 -2.628954E+02 -9.833775E+02  4.071875E+05  1.884654E+04  9.348915E+01
     11358   1 -8.906365E+06  1.291040E+02 -8.442205E+02  4.041607E+05 -4.407156E-01 -7.749617E-01
     11359   1 -8.906539E+06 -2.628272E+02 -9.832834E+02  4.071873E+05 -1.884662E+04 -9.461751E+01
     11360   1 -8.906384E+06  4.209889E+01 -8.165349E+02  4.171029E+05 -3.372442E+04 -1.132785E+02
     11361   1 -8.906553E+06 -2.889604E+02 -1.003102E+03  4.350902E+05 -4.075482E+04 -3.839088E+02
     11362   1 -8.906504E+06 -6.950780E+02 -4.476845E+02  4.661102E+05 -3.333725E+04 -5.369296E+02
     11363   1 -8.905170E+06  1.136090E+03  1.753935E+03  5.227686E+05 -1.217232E+04  5.508703E+02
     11364   1 -1.113353E+07  7.807586E+02 -3.411624E+03  1.920006E+05  3.281552E+04  8.477835E+02
     11365   1 -1.113373E+07 -1.004997E+03 -2.229150E+03  1.649969E+05  7.094609E+04  5.217599E+02
     11366   1 -1.113300E+07  5.203949E+02 -1.539330E+03  1.546709E+05  7.223704E+04  1.021698E+02
     11367   1 -1.113326E+07 -4.582413E+02 -1.355677E+03  1.478529E+05  5.632946E+04  1.217784E+02
     11368   1 -1.113294E+07  3.331409E+02 -1.191653E+03  1.445898E+05  3.040118E+04  1.704890E+01
     11369   1 -1.113317E+07 -3.414244E+02 -1.195068E+03  1.433906E+05 -7.136880E-02 -2.980435E-01
     11370   1 -1.113294E+07  3.332129E+02 -1.191678E+03  1.445897E+05 -3.039997E+04 -1.732869E+01
     11371   1 -1.113326E+07 -4.584056E+02 -1.356572E+03  1.478528E+05 -5.632951E+04 -1.222154E+02
     11372   1 -1.113299E+07  5.207085E+02 -1.539087E+03  1.546709E+05 -7.223603E+04 -1.021300E+02
     11373   1 -1.113373E+07 -1.004546E+03 -2.229899E+03  1.649970E+05 -7.094602E+04 -5.218742E+02
     11374   1 -1.113352E+07  7.826075E+02 -3.410407E+03  1.920010E+05 -3.281515E+04 -8.474312E+02
     11375   1  1.081543E+07 -7.628704E+02  3.309330E+03  1.920015E+05 -3.281558E+04  8.229726E+02
     11376   1  1.081562E+07  9.762950E+02  2.168817E+03  1.649973E+05 -7.094710E+04  5.069668E+02
     11377   1  1.081491E+07 -5.072201E+02  1.491891E+03  1.546714E+05 -7.223715E+04  9.888334E+01
     11378   1  1.081517E+07  4.462284E+02  1.320408E+03  1.478532E+05 -5.633025E+04  1.183460E+02
     11379   1  1.081486E+07 -3.251180E+02  1.154815E+03  1.445901E+05 -3.040053E+04  1.620269E+01
     11380   1  1.081508E+07  3.325086E+02  1.164097E+03  1.433908E+05 -6.766883E-02 -3.038173E-01
     11381   1  1.081486E+07 -3.250749E+02  1.155429E+03  1.445899E+05  3.040132E+04 -1.717109E+01
     11382   1  1.081517E+07  4.460107E+02  1.320659E+03  1.478529E+05  5.633002E+04 -1.187011E+02
     11383   1  1.081491E+07 -5.070342E+02  1.493110E+03  1.546711E+05  7.223756E+04 -9.944949E+01
     11384   1  1.081562E+07  9.765931E+02  2.168655E+03  1.649971E+05  7.094667E+04 -5.068434E+02
     11385   1  1.081542E+07 -7.609883E+02  3.310701E+03  1.920013E+05  3.281567E+04 -8.234017E+02
     11386   1  8.650742E+06 -1.103439E+03 -1.705568E+03  5.227685E+05 -1.217262E+04 -5.350175E+02
     11387   1  8.652036E+06  6.765868E+02  4.373374E+02  4.661107E+05 -3.333751E+04  5.214302E+02
     11388   1  8.652081E+06  2.801811E+02  9.726219E+02  4.350912E+05 -4.075511E+04  3.721460E+02
     11389   1  8.651916E+06 -3.983727E+01  7.957418E+02  4.171039E+05 -3.372403E+04  1.087316E+02
     11390   1  8.652065E+06  2.546639E+02  9.534815E+02  4.071882E+05 -1.884601E+04  9.013209E+01
     11391   1  8.651896E+06 -1.243641E+02  8.227918E+02  4.041612E+05  7.962549E-01 -1.114859E+00
     11392   1  8.652065E+06  2.546226E+02  9.535327E+02  4.071877E+05  1.884780E+04 -9.260664E+01
     11393   1  8.651915E+06 -3.991285E+01  7.957001E+02  4.171032E+05  3.372524E+04 -1.102856E+02
     11394   1  8.652079E+06  2.799946E+02  9.726761E+02  4.350906E+05  4.075610E+04 -3.733858E+02
     11395   1  8.652033E+06  6.759748E+02  4.371358E+02  4.661106E+05  3.333795E+04 -5.215410E+02
     11396   1  8.650737E+06 -1.104564E+03 -1.706034E+03  5.227694E+05  1.217268E+04  5.349853E+02
     11397   1  6.488856E+06 -6.350175E+02  9.455500E+02  7.642297E+05 -6.642011E+03  5.659575E+01
     11398   1  6.488544E+06 -2.097701E+02 -4.206090E+02  7.010111E+05 -1.675528E+04 -5.709928E+02
     11399   1  6.488958E+06  5.062174E+02  1.227454E+02  6.575696E+05 -2.136749E+04  2.248157E+02
     11400   1  6.488992E+06  1.523604E+02  5.802289E+02  6.307057E+05 -1.907064E+04  5.913818E+01
     11401   1  6.488933E+06  9.615973E+01  4.567098E+02  6.158940E+05 -1.088995E+04  4.719432E+01
     11402   1  6.489028E+06  1.672460E+02  6.740853E+02  6.110969E+05  1.123448E+00 -1.882804E+00
     11403   1  6.488933E+06  9.603876E+01  4.565661E+02  6.158933E+05  1.089204E+04 -5.109654E+01
     11404   1  6.488992E+06  1.521589E+02  5.800586E+02  6.307045E+05  1.907243E+04 -6.200819E+01
     11405   1  6.488958E+06  5.060661E+02  1.224932E+02  6.575682E+05  2.136876E+04 -2.271475E+02
     11406   1  6.488542E+06 -2.092239E+02 -4.205617E+02  7.010096E+05  1.675600E+04  5.699681E+02
     11407   1  6.488853E+06 -6.331428E+02  9.458027E+02  7.642286E+05  6.642306E+03 -5.725348E+01
     11408   1  4.325507E+06 -4.572216E+02 -5.361248E+02  9.329132E+05 -3.075386E+03 -2.272875E+02
     11409   1  4.325926E+06 -2.355043E+01  3.027270E+02  8.659399E+05 -8.493574E+03  1.753750E+01
     11410   1  4.325833E+06  8.965807E+00 -9.923739E+00  8.176728E+05 -1.088409E+04 -4.343396E+02
     11411   1  4.325960E+06  2.994306E+02  8.614333E+01  7.853660E+05 -9.831976E+03  6.499566E+01
     11412   1  4.325993E+06  1.041105E+02  3.812803E+02  7.671570E+05 -5.811020E+03 -6.818946E+01
     11413   1  4.325957E+06  1.455218E+02  2.290627E+02  7.612534E+05  9.854902E-01 -2.502888E+00
     11414   1  4.325994E+06  1.040111E+02  3.811552E+02  7.671561E+05  5.812853E+03  6.302726E+01
     11415   1  4.325961E+06  2.992578E+02  8.596684E+01  7.853644E+05  9.833578E+03 -6.893735E+01
     11416   1  4.325833E+06  8.730103E+00 -1.012379E+01  8.176712E+05  1.088528E+04  4.311351E+02
     11417   1  4.325926E+06 -2.388685E+01  3.025749E+02  8.659393E+05  8.494354E+03 -1.894930E+01
     11418   1  4.325506E+06 -4.573581E+02 -5.363809E+02  9.329144E+05  3.075608E+03  2.266626E+02
     11419   1  2.162928E+06 -2.084959E+02  2.376150E+02  1.032771E+06 -1.354279E+03 -3.065948E+01
     11420   1  2.162837E+06 -9.417861E+01 -1.528607E+02  9.644294E+05 -3.495961E+03 -4.403596E+02
     11421   1  2.162971E+06  9.783440E+01  6.527800E+01  9.135292E+05 -4.584829E+03 -3.265416E+01
     11422   1  2.162957E+06  3.689750E+01  8.269972E+01  8.788905E+05 -4.176202E+03 -3.437036E+02
     11423   1  2.162979E+06  1.372891E+02  5.086822E+01  8.587679E+05 -2.459380E+03  2.849723E+00
     11424   1  2.162996E+06  5.119492E+01  1.887081E+02  8.522425E+05  5.736304E-01 -2.915992E+00
     11425   1  2.162979E+06  1.372118E+02  5.078196E+01  8.587668E+05  2.460423E+03 -8.860774E+00
     11426   1  2.162957E+06  3.678155E+01  8.261819E+01  8.788886E+05  4.177148E+03  3.389810E+02
     11427   1  2.162971E+06  9.770047E+01  6.512007E+01  9.135269E+05  4.585516E+03  2.864384E+01
     11428   1  2.162836E+06 -9.405258E+01 -1.528752E+02  9.644269E+05  3.496414E+03  4.381772E+02
     11429   1  2.162928E+06 -2.078555E+02  2.375769E+02  1.032769E+06  1.354452E+03  2.952364E+01
     11430   1  1.424758E+00 -2.621859E-01 -3.941750E-02  1.065911E+06 -1.050428E-01 -1.768678E+02
     11431   1  1.094543E+00  1.425825E-01  1.494653E-01  9.970622E+05 -2.593423E-01 -7.530286E+01
     11432   1  8.073035E-01  5.725834E-01  3.642624E-01  9.455733E+05 -2.733360E-01 -4.716610E+02
     11433   1  5.475959E-01  8.201958E-01  5.000864E-01  9.100693E+05 -2.390969E-01 -3.133410E+01
     11434   1  3.851000E-01  9.114359E-01  5.614314E-01  8.894861E+05 -1.111072E-01 -1.982543E+02
     11435   1  3.187286E-01  9.197217E-01  5.619781E-01  8.826901E+05 -1.353199E-02 -3.066895E+00
     11436   1  3.815987E-01  9.138052E-01  5.676702E-01  8.894850E+05  1.380562E-01  1.919490E+02
     11437   1  5.516140E-01  8.235944E-01  4.883219E-01  9.100673E+05  2.166568E-01  2.636464E+01
     11438   1  8.070131E-01  6.347466E-01  3.983043E-01  9.455713E+05  2.894325E-01  4.675289E+02
     11439   1  1.142151E+00  3.574997E-01  2.193036E-01  9.970613E+05  2.459949E-01  7.326102E+01
     11440   1  1.514798E+00  1.336644E-01  1.262243E-01  1.065912E+06  1.080583E-01  1.759455E+02
     11441   1 -2.162926E+06  2.084331E+02 -2.374275E+02  1.032771E+06  1.354078E+03 -3.066698E+01
     11442   1 -2.162835E+06  9.340414E+01  1.526893E+02  9.644290E+05  3.495461E+03 -4.403684E+02
     11443   1 -2.162970E+06 -9.941105E+01 -6.558939E+01  9.135289E+05  4.584295E+03 -3.266932E+01
     11444   1 -2.162957E+06 -3.906280E+01 -8.327645E+01  8.788902E+05  4.175725E+03 -3.437095E+02
     11445   1 -2.162979E+06 -1.396229E+02 -5.134763E+01  8.587676E+05  2.459158E+03  2.842507E+00
     11446   1 -2.162997E+06 -5.362553E+01 -1.893492E+02  8.522422E+05 -6.022335E-01 -2.912711E+00
     11447   1 -2.162980E+06 -1.395344E+02 -5.123811E+01  8.587665E+05 -2.460144E+03 -8.858271E+00
     11448   1 -2.162957E+06 -3.895473E+01 -8.323856E+01  8.788883E+05 -4.176720E+03  3.389933E+02
     11449   1 -2.162971E+06 -9.935964E+01 -6.541288E+01  9.135266E+05 -4.584939E+03  2.865442E+01
     11450   1 -2.162835E+06  9.284939E+01  1.524722E+02  9.644266E+05 -3.495930E+03  4.381934E+02
     11451   1 -2.162925E+06  2.070512E+02 -2.376399E+02  1.032769E+06 -1.354239E+03  2.952650E+01
     11452   1 -4.325505E+06  4.569043E+02  5.366402E+02  9.329124E+05  3.075165E+03 -2.273064E+02
     11453   1 -4.325925E+06  2.364530E+01 -3.030359E+02  8.659393E+05  8.493037E+03  1.752019E+01
     11454   1 -4.325832E+06 -7.584093E+00  1.121792E+01  8.176722E+05  1.088350E+04 -4.343711E+02
     11455   1 -4.325960E+06 -2.979732E+02 -8.578166E+01  7.853654E+05  9.831502E+03  6.499066E+01
     11456   1 -4.325993E+06 -1.020226E+02 -3.796242E+02  7.671564E+05  5.810762E+03 -6.820731E+01
     11457   1 -4.325957E+06 -1.438605E+02 -2.285878E+02  7.612528E+05 -9.820919E-01 -2.490644E+00
     11458   1 -4.325993E+06 -1.019157E+02 -3.794870E+02  7.671555E+05 -5.812599E+03  6.302384E+01
     11459   1 -4.325960E+06 -2.978039E+02 -8.563125E+01  7.853638E+05 -9.833099E+03 -6.891032E+01
     11460   1 -4.325832E+06 -7.213727E+00  1.149789E+01  8.176706E+05 -1.088470E+04  4.311470E+02
     11461   1 -4.325924E+06  2.439143E+01 -3.027781E+02  8.659387E+05 -8.493824E+03 -1.891852E+01
     11462   1 -4.325503E+06  4.578611E+02  5.372845E+02  9.329136E+05 -3.075385E+03  2.266667E+02
     11463   1 -6.488854E+06  6.356713E+02 -9.435509E+02  7.642288E+05  6.641773E+03  5.658397E+01
     11464   1 -6.488543E+06  2.083967E+02  4.186374E+02  7.010103E+05  1.675476E+04 -5.710049E+02
     11465   1 -6.488958E+06 -5.070939E+02 -1.213124E+02  6.575689E+05  2.136685E+04  2.247876E+02
     11466   1 -6.488993E+06 -1.551408E+02 -5.825687E+02  6.307051E+05  1.907021E+04  5.913388E+01
     11467   1 -6.488934E+06 -9.777064E+01 -4.555470E+02  6.158933E+05  1.088960E+04  4.717363E+01
     11468   1 -6.489030E+06 -1.702745E+02 -6.764361E+02  6.110963E+05 -1.027550E+00 -1.867110E+00
     11469   1 -6.488934E+06 -9.765734E+01 -4.554541E+02  6.158926E+05 -1.089187E+04 -5.110418E+01
     11470   1 -6.488993E+06 -1.549188E+02 -5.823063E+02  6.307039E+05 -1.907183E+04 -6.197637E+01
     11471   1 -6.488958E+06 -5.070736E+02 -1.212147E+02  6.575675E+05 -2.136823E+04 -2.271397E+02
     11472   1 -6.488542E+06  2.074576E+02  4.185427E+02  7.010089E+05 -1.675539E+04  5.700015E+02
     11473   1 -6.488851E+06  6.329897E+02 -9.441874E+02  7.642276E+05 -6.642096E+03 -5.725102E+01
     11474   1 -8.650741E+06  1.104107E+03  1.708614E+03  5.227675E+05  1.217235E+04 -5.350177E+02
     11475   1 -8.652036E+06 -6.772482E+02 -4.401579E+02  4.661100E+05  3.333690E+04  5.214043E+02
     11476   1 -8.652081E+06 -2.777259E+02 -9.689295E+02  4.350905E+05  4.075432E+04  3.721255E+02
     11477   1 -8.651918E+06  4.053759E+01 -7.978678E+02  4.171033E+05  3.372361E+04  1.087232E+02
     11478   1 -8.652066E+06 -2.514553E+02 -9.495988E+02  4.071875E+05  1.884554E+04  9.012220E+01
     11479   1 -8.651899E+06  1.253042E+02 -8.247098E+02  4.041606E+05 -6.027232E-01 -1.109049E+00
     11480   1 -8.652066E+06 -2.514417E+02 -9.497672E+02  4.071870E+05 -1.884771E+04 -9.260702E+01
     11481   1 -8.651917E+06  4.066725E+01 -7.976120E+02  4.171025E+05 -3.372449E+04 -1.102687E+02
     11482   1 -8.652079E+06 -2.774913E+02 -9.692184E+02  4.350899E+05 -4.075556E+04 -3.733727E+02
     11483   1 -8.652033E+06 -6.761345E+02 -4.395232E+02  4.661099E+05 -3.333720E+04 -5.215202E+02
     11484   1 -8.650736E+06  1.105980E+03  1.709160E+03  5.227684E+05 -1.217245E+04  5.349882E+02
     11485   1 -1.081543E+07  7.644313E+02 -3.305432E+03  1.920012E+05  3.281519E+04  8.229440E+02
     11486   1 -1.081563E+07 -9.782368E+02 -2.172628E+03  1.649970E+05  7.094635E+04  5.069822E+02
     11487   1 -1.081491E+07  5.071308E+02 -1.488577E+03  1.546711E+05  7.223621E+04  9.887358E+01
     11488   1 -1.081517E+07 -4.496318E+02 -1.324496E+03  1.478529E+05  5.632977E+04  1.183396E+02
     11489   1 -1.081486E+07  3.242760E+02 -1.151883E+03  1.445899E+05  3.039998E+04  1.620852E+01
     11490   1 -1.081508E+07 -3.361412E+02 -1.168125E+03  1.433905E+05  3.073830E-01 -3.152800E-01
     11491   1 -1.081486E+07  3.241993E+02 -1.152638E+03  1.445897E+05 -3.040124E+04 -1.715476E+01
     11492   1 -1.081517E+07 -4.493503E+02 -1.324487E+03  1.478527E+05 -5.632914E+04 -1.187147E+02
     11493   1 -1.081491E+07  5.067447E+02 -1.490166E+03  1.546708E+05 -7.223693E+04 -9.942081E+01
     11494   1 -1.081562E+07 -9.788738E+02 -2.172270E+03  1.649968E+05 -7.094571E+04 -5.068654E+02
     11495   1 -1.081542E+07  7.616329E+02 -3.307365E+03  1.920010E+05 -3.281536E+04 -8.233642E+02
     11496   1  1.049733E+07 -7.359359E+02  3.214512E+03  1.920010E+05 -3.281582E+04  7.995636E+02
     11497   1  1.049752E+07  9.496736E+02  2.104629E+03  1.649973E+05 -7.094635E+04  4.918471E+02
     11498   1  1.049682E+07 -4.900411E+02  1.449307E+03  1.546714E+05 -7.223719E+04  9.624456E+01
     11499   1  1.049707E+07  4.350377E+02  1.281503E+03  1.478534E+05 -5.632906E+04  1.143970E+02
     11500   1  1.049677E+07 -3.129195E+02  1.121937E+03  1.445901E+05 -3.040037E+04  1.572689E+01
     11501   1  1.049699E+07  3.251876E+02  1.130589E+03  1.433908E+05  1.317159E+00 -8.357687E-01
     11502   1  1.049677E+07 -3.130251E+02  1.122290E+03  1.445899E+05  3.040159E+04 -1.668940E+01
     11503   1  1.049707E+07  4.352504E+02  1.283092E+03  1.478528E+05  5.633122E+04 -1.156663E+02
     11504   1  1.049682E+07 -4.904505E+02  1.449517E+03  1.546709E+05  7.223779E+04 -9.641136E+01
     11505   1  1.049751E+07  9.491495E+02  2.105951E+03  1.649970E+05  7.094734E+04 -4.922157E+02
     11506   1  1.049732E+07 -7.384271E+02  3.212838E+03  1.920013E+05  3.281570E+04 -7.988852E+02
     11507   1  8.396309E+06 -1.075148E+03 -1.656858E+03  5.227705E+05 -1.217238E+04 -5.195258E+02
     11508   1  8.397564E+06  6.542560E+02  4.238400E+02  4.661119E+05 -3.333725E+04  5.054402E+02
     11509   1  8.397607E+06  2.700158E+02  9.433305E+02  4.350919E+05 -4.075464E+04  3.609160E+02
     11510   1  8.397447E+06 -4.070887E+01  7.716261E+02  4.171043E+05 -3.372310E+04  1.046277E+02
     11511   1  8.397591E+06  2.447625E+02  9.245131E+02  4.071883E+05 -1.884523E+04  8.695919E+01
     11512   1  8.397429E+06 -1.231153E+02  7.978221E+02  4.041613E+05  2.012864E+00 -2.159178E+00
     11513   1  8.397592E+06  2.446518E+02  9.244735E+02  4.071875E+05  1.884863E+04 -9.041385E+01
     11514   1  8.397448E+06 -4.091990E+01  7.716913E+02  4.171029E+05  3.372630E+04 -1.079190E+02
     11515   1  8.397607E+06  2.699285E+02  9.432197E+02  4.350901E+05  4.075670E+04 -3.625907E+02
     11516   1  8.397562E+06  6.551467E+02  4.241039E+02  4.661102E+05  3.333847E+04 -5.066360E+02
     11517   1  8.396304E+06 -1.072308E+03 -1.656170E+03  5.227690E+05  1.217283E+04  5.193765E+02
     11518   1  6.298006E+06 -6.129577E+02  9.188057E+02  7.642278E+05 -6.642007E+03  5.539030E+01
     11519   1  6.297704E+06 -2.011400E+02 -4.075153E+02  7.010105E+05 -1.675486E+04 -5.545444E+02
     11520   1  6.298106E+06  4.933906E+02  1.198885E+02  6.575699E+05 -2.136689E+04  2.178098E+02
     11521   1  6.298139E+06  1.501258E+02  5.640154E+02  6.307062E+05 -1.906990E+04  5.619798E+01
     11522   1  6.298082E+06  9.581042E+01  4.442780E+02  6.158943E+05 -1.088900E+04  4.481376E+01
     11523   1  6.298174E+06  1.647944E+02  6.551207E+02  6.110969E+05  2.106847E+00 -3.350955E+00
     11524   1  6.298082E+06  9.567962E+01  4.441177E+02  6.158930E+05  1.089305E+04 -5.060314E+01
     11525   1  6.298140E+06  1.498527E+02  5.636670E+02  6.307040E+05  1.907332E+04 -6.146624E+01
     11526   1  6.298107E+06  4.929886E+02  1.196289E+02  6.575675E+05  2.136950E+04 -2.209920E+02
     11527   1  6.297704E+06 -2.020018E+02 -4.079791E+02  7.010090E+05  1.675650E+04  5.525604E+02
     11528   1  6.298005E+06 -6.137583E+02  9.182877E+02  7.642282E+05  6.642466E+03 -5.542252E+01
     11529   1  4.198287E+06 -4.461356E+02 -5.209566E+02  9.329170E+05 -3.075217E+03 -2.208981E+02
     11530   1  4.198693E+06 -2.460713E+01  2.932044E+02  8.659424E+05 -8.493363E+03  1.583102E+01
     11531   1  4.198602E+06  7.161948E+00 -1.011925E+01  8.176741E+05 -1.088364E+04 -4.224506E+02
     11532   1  4.198725E+06  2.886399E+02  8.275127E+01  7.853667E+05 -9.831384E+03  6.145567E+01
     11533   1  4.198758E+06  9.891126E+01  3.693101E+02  7.671574E+05 -5.810272E+03 -6.749854E+01
     11534   1  4.198722E+06  1.389002E+02  2.212875E+02  7.612534E+05  1.744336E+00 -4.356071E+00
     11535   1  4.198758E+06  9.873453E+01  3.691274E+02  7.671558E+05  5.813656E+03  5.983180E+01
     11536   1  4.198727E+06  2.883225E+02  8.242946E+01  7.853637E+05  9.834268E+03 -6.856470E+01
     11537   1  4.198603E+06  6.932183E+00 -1.039175E+01  8.176704E+05  1.088587E+04  4.176672E+02
     11538   1  4.198693E+06 -2.406271E+01  2.931161E+02  8.659383E+05  8.494734E+03 -1.932804E+01
     11539   1  4.198286E+06 -4.438919E+02 -5.206467E+02  9.329135E+05  3.075758E+03  2.200149E+02
     11540   1  2.099313E+06 -2.011272E+02  2.306897E+02  1.032768E+06 -1.354276E+03 -2.943264E+01
     11541   1  2.099224E+06 -8.979538E+01 -1.477050E+02  9.644284E+05 -3.495811E+03 -4.281046E+02
     11542   1  2.099355E+06  9.677116E+01  6.377797E+01  9.135296E+05 -4.584567E+03 -3.247523E+01
     11543   1  2.099341E+06  3.821456E+01  8.131565E+01  8.788911E+05 -4.175900E+03 -3.353959E+02
     11544   1  2.099362E+06  1.356562E+02  5.006872E+01  8.587682E+05 -2.458955E+03  1.241078E+00
     11545   1  2.099379E+06  5.228432E+01  1.842196E+02  8.522424E+05  9.680848E-01 -5.026434E+00
     11546   1  2.099363E+06  1.355683E+02  4.998799E+01  8.587663E+05  2.460882E+03 -1.016290E+01
     11547   1  2.099341E+06  3.802837E+01  8.110604E+01  8.788878E+05  4.177512E+03  3.270959E+02
     11548   1  2.099355E+06  9.660127E+01  6.369379E+01  9.135258E+05  4.585880E+03  2.684150E+01
     11549   1  2.099224E+06 -8.996825E+01 -1.478778E+02  9.644260E+05  3.496639E+03  4.242299E+02
     11550   1  2.099313E+06 -2.008673E+02  2.306706E+02  1.032769E+06  1.354547E+03  2.871416E+01
     11551   1  1.940064E+00  2.892024E-01  7.478768E-02  1.065915E+06 -1.169134E-01 -1.719757E+02
     11552   1  1.230805E+00 -1.638033E-01 -9.651334E-02  9.970653E+05 -2.592003E-01 -7.452994E+01
     11553   1  6.001631E-01 -7.259327E-01 -2.876548E-01  9.455749E+05 -3.006878E-01 -4.589194E+02
     11554   1  1.873143E-01 -1.082895E+00 -4.141575E-01  9.100701E+05 -2.094794E-01 -3.236150E+01
     11555   1 -6.037691E-02 -1.235921E+00 -4.753612E-01  8.894866E+05 -1.400476E-01 -1.940305E+02
     11556   1 -1.253565E-01 -1.258097E+00 -4.721221E-01  8.826902E+05  1.943596E-02 -5.253400E+00
     11557   1 -5.729357E-02 -1.233601E+00 -4.849638E-01  8.894846E+05  1.021771E-01  1.846610E+02
     11558   1  1.789688E-01 -1.073879E+00 -3.967623E-01  9.100666E+05  2.419600E-01  2.360244E+01
     11559   1  5.988249E-01 -7.831905E-01 -3.319533E-01  9.455704E+05  2.780708E-01  4.527496E+02
     11560   1  1.168346E+00 -4.034978E-01 -1.770610E-01  9.970602E+05  2.790031E-01  6.994332E+01
     11561   1  1.825850E+00 -1.773930E-01 -1.333437E-01  1.065911E+06  1.140271E-01  1.707549E+02
     11562   1 -2.099309E+06  2.010760E+02 -2.308616E+02  1.032768E+06  1.354019E+03 -2.944260E+01
     11563   1 -2.099221E+06  9.071245E+01  1.480596E+02  9.644281E+05  3.495257E+03 -4.281345E+02
     11564   1 -2.099353E+06 -9.490247E+01 -6.307440E+01  9.135293E+05  4.583939E+03 -3.249269E+01
     11565   1 -2.099339E+06 -3.574142E+01 -8.025772E+01  8.788908E+05  4.175473E+03 -3.354138E+02
     11566   1 -2.099362E+06 -1.330529E+02 -4.908119E+01  8.587679E+05  2.458672E+03  1.239693E+00
     11567   1 -2.099379E+06 -4.960421E+01 -1.830671E+02  8.522421E+05 -9.262015E-01 -5.028954E+00
     11568   1 -2.099362E+06 -1.329687E+02 -4.903416E+01  8.587660E+05 -2.460679E+03 -1.015105E+01
     11569   1 -2.099340E+06 -3.552456E+01 -7.998707E+01  8.788875E+05 -4.177015E+03  3.271079E+02
     11570   1 -2.099354E+06 -9.461354E+01 -6.302950E+01  9.135255E+05 -4.585312E+03  2.686776E+01
     11571   1 -2.099222E+06  9.144452E+01  1.485281E+02  9.644257E+05 -3.496058E+03  4.242503E+02
     11572   1 -2.099309E+06  2.017660E+02 -2.305469E+02  1.032768E+06 -1.354306E+03  2.873035E+01
     11573   1 -4.198283E+06  4.463413E+02  5.204029E+02  9.329164E+05  3.074975E+03 -2.209016E+02
     11574   1 -4.198691E+06  2.436431E+01 -2.927139E+02  8.659418E+05  8.492812E+03  1.578735E+01
     11575   1 -4.198602E+06 -8.999102E+00  8.805811E+00  8.176736E+05  1.088304E+04 -4.224693E+02
     11576   1 -4.198726E+06 -2.906675E+02 -8.294574E+01  7.853661E+05  9.830928E+03  6.142095E+01
     11577   1 -4.198758E+06 -1.017412E+02 -3.710384E+02  7.671569E+05  5.810029E+03 -6.749110E+01
     11578   1 -4.198723E+06 -1.412497E+02 -2.216337E+02  7.612529E+05 -1.747511E+00 -4.370572E+00
     11579   1 -4.198759E+06 -1.015666E+02 -3.708729E+02  7.671552E+05 -5.813406E+03  5.986115E+01
     11580   1 -4.198727E+06 -2.903255E+02 -8.258883E+01  7.853632E+05 -9.833815E+03 -6.855691E+01
     11581   1 -4.198603E+06 -8.905844E+00  8.978374E+00  8.176698E+05 -1.088527E+04  4.177174E+02
     11582   1 -4.198692E+06  2.335396E+01 -2.927477E+02  8.659378E+05 -8.494173E+03 -1.930213E+01
     11583   1 -4.198283E+06  4.431145E+02  5.196064E+02  9.329129E+05 -3.075516E+03  2.200423E+02
     11584   1 -6.298004E+06  6.118819E+02 -9.212502E+02  7.642269E+05  6.641743E+03  5.537138E+01
     11585   1 -6.297702E+06  2.026507E+02  4.100581E+02  7.010096E+05  1.675422E+04 -5.545990E+02
     11586   1 -6.298106E+06 -4.924973E+02 -1.214902E+02  6.575692E+05  2.136630E+04  2.177870E+02
     11587   1 -6.298139E+06 -1.469389E+02 -5.609815E+02  6.307054E+05  1.906933E+04  5.616191E+01
     11588   1 -6.298083E+06 -9.410525E+01 -4.455992E+02  6.158935E+05  1.088887E+04  4.482669E+01
     11589   1 -6.298175E+06 -1.613705E+02 -6.521630E+02  6.110961E+05 -2.244572E+00 -3.371052E+00
     11590   1 -6.298084E+06 -9.395470E+01 -4.453607E+02  6.158922E+05 -1.089266E+04 -5.056898E+01
     11591   1 -6.298140E+06 -1.466920E+02 -5.607782E+02  6.307032E+05 -1.907298E+04 -6.146647E+01
     11592   1 -6.298107E+06 -4.919169E+02 -1.210035E+02  6.575668E+05 -2.136874E+04 -2.209363E+02
     11593   1 -6.297702E+06  2.039929E+02  4.105305E+02  7.010082E+05 -1.675597E+04  5.525841E+02
     11594   1 -6.298003E+06  6.137152E+02 -9.202114E+02  7.642273E+05 -6.642163E+03 -5.539174E+01
     11595   1 -8.396307E+06  1.074149E+03  1.653093E+03  5.227696E+05  1.217210E+04 -5.195442E+02
     11596   1 -8.397563E+06 -6.535505E+02 -4.202384E+02  4.661111E+05  3.333654E+04  5.054272E+02
     11597   1 -8.397609E+06 -2.731764E+02 -9.478171E+02  4.350912E+05  4.075409E+04  3.608988E+02
     11598   1 -8.397449E+06  3.971624E+01 -7.689425E+02  4.171036E+05  3.372240E+04  1.046124E+02
     11599   1 -8.397595E+06 -2.488619E+02 -9.293547E+02  4.071877E+05  1.884521E+04  8.696306E+01
     11600   1 -8.397431E+06  1.218087E+02 -7.955504E+02  4.041606E+05 -2.293815E+00 -2.165925E+00
     11601   1 -8.397595E+06 -2.487063E+02 -9.291383E+02  4.071869E+05 -1.884808E+04 -9.040018E+01
     11602   1 -8.397449E+06  3.985027E+01 -7.693332E+02  4.171022E+05 -3.372608E+04 -1.079138E+02
     11603   1 -8.397609E+06 -2.731089E+02 -9.473289E+02  4.350895E+05 -4.075578E+04 -3.625618E+02
     11604   1 -8.397562E+06 -6.550733E+02 -4.211307E+02  4.661095E+05 -3.333797E+04 -5.066157E+02
     11605   1 -8.396303E+06  1.070421E+03  1.652403E+03  5.227681E+05 -1.217249E+04  5.193947E+02
     11606   1 -1.049733E+07  7.339381E+02 -3.219320E+03  1.920005E+05  3.281544E+04  7.995823E+02
     11607   1 -1.049752E+07 -9.473228E+02 -2.099802E+03  1.649970E+05  7.094537E+04  4.918149E+02
     11608   1 -1.049683E+07  4.901100E+02 -1.453320E+03  1.546710E+05  7.223653E+04  9.623559E+01
     11609   1 -1.049708E+07 -4.308931E+02 -1.276465E+03  1.478531E+05  5.632823E+04  1.144011E+02
     11610   1 -1.049678E+07  3.139002E+02 -1.125687E+03  1.445898E+05  3.040038E+04  1.571375E+01
     11611   1 -1.049699E+07 -3.207886E+02 -1.125842E+03  1.433905E+05 -1.667792E+00 -8.183071E-01
     11612   1 -1.049678E+07  3.140591E+02 -1.125829E+03  1.445895E+05 -3.040094E+04 -1.670881E+01
     11613   1 -1.049708E+07 -4.312068E+02 -1.278446E+03  1.478525E+05 -5.633098E+04 -1.156398E+02
     11614   1 -1.049683E+07  4.907861E+02 -1.452978E+03  1.546706E+05 -7.223668E+04 -9.643138E+01
     11615   1 -1.049751E+07 -9.464210E+02 -2.101478E+03  1.649967E+05 -7.094666E+04 -4.921729E+02
     11616   1 -1.049732E+07  7.376026E+02 -3.216843E+03  1.920008E+05 -3.281521E+04 -7.989228E+02
     11617   1  1.017923E+07 -7.201484E+02  3.113463E+03  1.920021E+05 -3.281523E+04  7.742026E+02
     11618   1  1.017941E+07  9.179887E+02  2.041023E+03  1.649977E+05 -7.094655E+04  4.771027E+02
     11619   1  1.017874E+07 -4.780655E+02  1.403129E+03  1.546718E+05 -7.223568E+04  9.257160E+01
     11620   1  1.017898E+07  4.195316E+02  1.242258E+03  1.478535E+05 -5.632873E+04  1.109797E+02
     11621   1  1.017869E+07 -3.066679E+02  1.086197E+03  1.445903E+05 -3.039830E+04  1.447776E+01
     11622   1  1.017890E+07  3.123280E+02  1.095342E+03  1.433908E+05  1.878118E+00 -8.818645E-01
     11623   1  1.017869E+07 -3.065882E+02  1.087516E+03  1.445898E+05  3.040363E+04 -1.693398E+01
     11624   1  1.017898E+07  4.191262E+02  1.243013E+03  1.478526E+05  5.633176E+04 -1.121426E+02
     11625   1  1.017874E+07 -4.776292E+02  1.405755E+03  1.546707E+05  7.223923E+04 -9.403249E+01
     11626   1  1.017941E+07  9.188196E+02  2.040987E+03  1.649968E+05  7.094758E+04 -4.770343E+02
     11627   1  1.017922E+07 -7.160278E+02  3.116311E+03  1.920010E+05  3.281606E+04 -7.751019E+02
     11628   1  8.141874E+06 -1.036730E+03 -1.604543E+03  5.227688E+05 -1.217239E+04 -5.035616E+02
     11629   1  8.143090E+06  6.379864E+02  4.119134E+02  4.661114E+05 -3.333657E+04  4.904829E+02
     11630   1  8.143133E+06  2.645322E+02  9.156803E+02  4.350921E+05 -4.075355E+04  3.491711E+02
     11631   1  8.142978E+06 -3.678092E+01  7.491308E+02  4.171048E+05 -3.372201E+04  1.009249E+02
     11632   1  8.143119E+06  2.404489E+02  8.976635E+02  4.071886E+05 -1.884348E+04  8.282633E+01
     11633   1  8.142961E+06 -1.163518E+02  7.745758E+02  4.041612E+05  3.385306E+00 -2.975157E+00
     11634   1  8.143120E+06  2.403450E+02  8.977488E+02  4.071872E+05  1.885048E+04 -8.920438E+01
     11635   1  8.142981E+06 -3.698628E+01  7.490204E+02  4.171023E+05  3.372753E+04 -1.052854E+02
     11636   1  8.143135E+06  2.640345E+02  9.157059E+02  4.350894E+05  4.075801E+04 -3.526041E+02
     11637   1  8.143092E+06  6.365472E+02  4.114004E+02  4.661095E+05  3.333915E+04 -4.912635E+02
     11638   1  8.141872E+06 -1.039086E+03 -1.605585E+03  5.227685E+05  1.217310E+04  5.033212E+02
     11639   1  6.107158E+06 -5.992763E+02  8.894553E+02  7.642320E+05 -6.641664E+03  5.269036E+01
     11640   1  6.106863E+06 -1.980039E+02 -3.960138E+02  7.010132E+05 -1.675441E+04 -5.384382E+02
     11641   1  6.107253E+06  4.762772E+02  1.154936E+02  6.575713E+05 -2.136603E+04  2.096712E+02
     11642   1  6.107285E+06  1.432033E+02  5.460821E+02  6.307070E+05 -1.906864E+04  5.328002E+01
     11643   1  6.107230E+06  9.015231E+01  4.297043E+02  6.158947E+05 -1.088759E+04  4.135050E+01
     11644   1  6.107320E+06  1.569880E+02  6.342593E+02  6.110969E+05  3.681784E+00 -4.846493E+00
     11645   1  6.107232E+06  8.988647E+01  4.293780E+02  6.158925E+05  1.089456E+04 -5.125131E+01
     11646   1  6.107288E+06  1.427455E+02  5.456528E+02  6.307031E+05  1.907471E+04 -6.085924E+01
     11647   1  6.107257E+06  4.759478E+02  1.149441E+02  6.575664E+05  2.137059E+04 -2.158009E+02
     11648   1  6.106866E+06 -1.968299E+02 -3.959404E+02  7.010078E+05  1.675721E+04  5.354508E+02
     11649   1  6.107158E+06 -5.950921E+02  8.900653E+02  7.642270E+05  6.642751E+03 -5.434930E+01
     11650   1  4.071065E+06 -4.290429E+02 -5.042776E+02  9.329138E+05 -3.075176E+03 -2.143859E+02
     11651   1  4.071459E+06 -2.085519E+01  2.852648E+02  8.659413E+05 -8.492830E+03  1.526508E+01
     11652   1  4.071371E+06  9.542740E+00 -9.064407E+00  8.176746E+05 -1.088292E+04 -4.112875E+02
     11653   1  4.071491E+06  2.829200E+02  8.146586E+01  7.853675E+05 -9.830414E+03  5.805678E+01
     11654   1  4.071522E+06  9.899181E+01  3.590969E+02  7.671578E+05 -5.809188E+03 -6.812549E+01
     11655   1  4.071489E+06  1.379434E+02  2.158477E+02  7.612533E+05  2.972285E+00 -6.315799E+00
     11656   1  4.071524E+06  9.876090E+01  3.588090E+02  7.671551E+05  5.814802E+03  5.523837E+01
     11657   1  4.071494E+06  2.825030E+02  8.103923E+01  7.853626E+05  9.835362E+03 -6.821356E+01
     11658   1  4.071375E+06  8.954993E+00 -9.540526E+00  8.176689E+05  1.088673E+04  4.030077E+02
     11659   1  4.071462E+06 -2.167126E+01  2.848603E+02  8.659369E+05  8.495348E+03 -1.932652E+01
     11660   1  4.071066E+06 -4.292955E+02 -5.048726E+02  9.329125E+05  3.075967E+03  2.126709E+02
     11661   1  2.035697E+06 -1.961824E+02  2.235988E+02  1.032774E+06 -1.354134E+03 -2.976245E+01
     11662   1  2.035610E+06 -8.841845E+01 -1.440887E+02  9.644325E+05 -3.495573E+03 -4.163132E+02
     11663   1  2.035737E+06  9.235638E+01  6.138370E+01  9.135317E+05 -4.584190E+03 -3.380686E+01
     11664   1  2.035723E+06  3.476083E+01  7.750482E+01  8.788923E+05 -4.175318E+03 -3.271331E+02
     11665   1  2.035745E+06  1.291892E+02  4.763075E+01  8.587688E+05 -2.458378E+03 -1.836325E+00
     11666   1  2.035761E+06  4.802003E+01  1.771423E+02  8.522425E+05  1.662847E+00 -7.277869E+00
     11667   1  2.035746E+06  1.290155E+02  4.743550E+01  8.587657E+05  2.461456E+03 -1.301917E+01
     11668   1  2.035725E+06  3.449926E+01  7.731546E+01  8.788866E+05  4.178112E+03  3.151642E+02
     11669   1  2.035739E+06  9.208201E+01  6.104790E+01  9.135243E+05  4.586293E+03  2.368928E+01
     11670   1  2.035612E+06 -8.805808E+01 -1.440794E+02  9.644242E+05  3.496974E+03  4.105438E+02
     11671   1  2.035698E+06 -1.946024E+02  2.235893E+02  1.032767E+06  1.354659E+03  2.695171E+01
     11672   1  2.136401E+00  5.569062E-01 -8.359050E-02  1.065912E+06 -1.250799E-01 -1.671461E+02
     11673   1  1.503612E+00  1.058014E+00  1.467774E-01  9.970641E+05 -2.840713E-01 -7.255966E+01
     11674   1  1.067802E+00  1.610223E+00  3.635246E-01  9.455756E+05 -2.406910E-01 -4.470446E+02
     11675   1  7.227099E-01  1.900206E+00  4.488322E-01  9.100712E+05 -2.025489E-01 -3.330208E+01
     11676   1  5.424505E-01  1.985791E+00  4.471449E-01  8.894872E+05 -6.042391E-02 -1.913094E+02
     11677   1  4.604794E-01  1.976417E+00  4.065212E-01  8.826901E+05 -2.897149E-02 -7.624443E+00
     11678   1  5.339391E-01  1.993906E+00  4.606906E-01  8.894839E+05  1.109956E-01  1.757752E+02
     11679   1  7.257224E-01  1.905892E+00  4.220554E-01  9.100653E+05  1.539664E-01  2.074306E+01
     11680   1  1.056997E+00  1.703417E+00  4.204575E-01  9.455687E+05  2.712443E-01  4.365916E+02
     11681   1  1.571194E+00  1.377794E+00  2.377466E-01  9.970587E+05  2.548109E-01  6.700007E+01
     11682   1  2.271436E+00  1.167890E+00  1.782296E-01  1.065910E+06  1.273547E-01  1.647390E+02
     11683   1 -2.035693E+06  1.978998E+02 -2.233921E+02  1.032774E+06  1.353914E+03 -2.978045E+01
     11684   1 -2.035608E+06  8.884163E+01  1.437253E+02  9.644324E+05  3.495046E+03 -4.163401E+02
     11685   1 -2.035736E+06 -9.339057E+01 -6.229512E+01  9.135316E+05  4.583738E+03 -3.384310E+01
     11686   1 -2.035723E+06 -3.677969E+01 -7.895971E+01  8.788921E+05  4.174926E+03 -3.271455E+02
     11687   1 -2.035745E+06 -1.315586E+02 -4.920938E+01  8.587687E+05  2.458266E+03 -1.848420E+00
     11688   1 -2.035762E+06 -5.052323E+01 -1.789558E+02  8.522423E+05 -1.724719E+00 -7.269382E+00
     11689   1 -2.035746E+06 -1.313609E+02 -4.896739E+01  8.587656E+05 -2.461232E+03 -1.301197E+01
     11690   1 -2.035725E+06 -3.652096E+01 -7.885912E+01  8.788865E+05 -4.177824E+03  3.151930E+02
     11691   1 -2.035738E+06 -9.319758E+01 -6.189074E+01  9.135242E+05 -4.585758E+03  2.371910E+01
     11692   1 -2.035610E+06  8.785886E+01  1.433349E+02  9.644241E+05 -3.496486E+03  4.105883E+02
     11693   1 -2.035694E+06  1.952243E+02 -2.237277E+02  1.032767E+06 -1.354412E+03  2.696324E+01
     11694   1 -4.071061E+06  4.299174E+02  5.049163E+02  9.329134E+05  3.074915E+03 -2.144405E+02
     11695   1 -4.071456E+06  2.224641E+01 -2.858342E+02  8.659410E+05  8.492273E+03  1.521350E+01
     11696   1 -4.071370E+06 -6.421124E+00  1.050648E+01  8.176742E+05  1.088241E+04 -4.113579E+02
     11697   1 -4.071491E+06 -2.797428E+02 -8.154644E+01  7.853671E+05  9.830072E+03  5.804982E+01
     11698   1 -4.071522E+06 -9.501657E+01 -3.575989E+02  7.671574E+05  5.809027E+03 -6.815641E+01
     11699   1 -4.071489E+06 -1.345751E+02 -2.160611E+02  7.612529E+05 -2.967474E+00 -6.286658E+00
     11700   1 -4.071524E+06 -9.476632E+01 -3.572883E+02  7.671546E+05 -5.814650E+03  5.523198E+01
     11701   1 -4.071493E+06 -2.793339E+02 -8.117090E+01  7.853622E+05 -9.835014E+03 -6.815462E+01
     11702   1 -4.071373E+06 -5.634047E+00  1.110659E+01  8.176685E+05 -1.088623E+04  4.030422E+02
     11703   1 -4.071459E+06  2.366857E+01 -2.852929E+02  8.659366E+05 -8.494804E+03 -1.924397E+01
     11704   1 -4.071062E+06  4.314394E+02  5.061224E+02  9.329122E+05 -3.075710E+03  2.126898E+02
     11705   1 -6.107154E+06  6.012190E+02 -8.864361E+02  7.642314E+05  6.641400E+03  5.266205E+01
     11706   1 -6.106862E+06  1.967018E+02  3.927891E+02  7.010127E+05  1.675394E+04 -5.384755E+02
     11707   1 -6.107253E+06 -4.769456E+02 -1.138190E+02  6.575707E+05  2.136546E+04  2.096100E+02
     11708   1 -6.107287E+06 -1.468155E+02 -5.504595E+02  6.307065E+05  1.906846E+04  5.328404E+01
     11709   1 -6.107231E+06 -9.202293E+01 -4.290144E+02  6.158941E+05  1.088728E+04  4.131642E+01
     11710   1 -6.107322E+06 -1.609892E+02 -6.389331E+02  6.110964E+05 -3.479766E+00 -4.808716E+00
     11711   1 -6.107233E+06 -9.177956E+01 -4.288084E+02  6.158920E+05 -1.089463E+04 -5.127046E+01
     11712   1 -6.107290E+06 -1.462928E+02 -5.498099E+02  6.307026E+05 -1.907420E+04 -6.079677E+01
     11713   1 -6.107257E+06 -4.768177E+02 -1.136044E+02  6.575659E+05 -2.137028E+04 -2.157794E+02
     11714   1 -6.106865E+06  1.949948E+02  3.927746E+02  7.010073E+05 -1.675657E+04  5.355393E+02
     11715   1 -6.107154E+06  5.957704E+02 -8.877573E+02  7.642264E+05 -6.642541E+03 -5.433425E+01
     11716   1 -8.141872E+06  1.038154E+03  1.609216E+03  5.227679E+05  1.217208E+04 -5.035842E+02
     11717   1 -8.143091E+06 -6.387134E+02 -4.165997E+02  4.661108E+05  3.333607E+04  4.904238E+02
     11718   1 -8.143133E+06 -2.605005E+02 -9.106199E+02  4.350914E+05  4.075284E+04  3.491413E+02
     11719   1 -8.142980E+06  3.805559E+01 -7.534574E+02  4.171041E+05  3.372199E+04  1.009232E+02
     11720   1 -8.143120E+06 -2.353862E+02 -8.930555E+02  4.071879E+05  1.884300E+04  8.281982E+01
     11721   1 -8.142964E+06  1.179580E+02 -7.789002E+02  4.041606E+05 -2.977501E+00 -2.959965E+00
     11722   1 -8.143122E+06 -2.353457E+02 -8.934056E+02  4.071865E+05 -1.885077E+04 -8.921268E+01
     11723   1 -8.142983E+06  3.838521E+01 -7.528592E+02  4.171016E+05 -3.372683E+04 -1.052610E+02
     11724   1 -8.143136E+06 -2.600141E+02 -9.112373E+02  4.350888E+05 -4.075782E+04 -3.525861E+02
     11725   1 -8.143092E+06 -6.364490E+02 -4.151750E+02  4.661089E+05 -3.333833E+04 -4.912126E+02
     11726   1 -8.141870E+06  1.041581E+03  1.610120E+03  5.227677E+05 -1.217290E+04  5.033390E+02
     11727   1 -1.017923E+07  7.226778E+02 -3.107531E+03  1.920018E+05  3.281480E+04  7.741831E+02
     11728   1 -1.017941E+07 -9.208676E+02 -2.047268E+03  1.649974E+05  7.094599E+04  4.771161E+02
     11729   1 -1.017874E+07  4.780075E+02 -1.398848E+03  1.546716E+05  7.223489E+04  9.257448E+01
     11730   1 -1.017898E+07 -4.246301E+02 -1.249767E+03  1.478531E+05  5.632878E+04  1.109663E+02
     11731   1 -1.017869E+07  3.054732E+02 -1.083324E+03  1.445900E+05  3.039774E+04  1.450175E+01
     11732   1 -1.017890E+07 -3.177198E+02 -1.103096E+03  1.433905E+05 -1.378598E+00 -9.060485E-01
     11733   1 -1.017869E+07  3.053125E+02 -1.084958E+03  1.445895E+05 -3.040403E+04 -1.690621E+01
     11734   1 -1.017899E+07 -4.240660E+02 -1.249935E+03  1.478523E+05 -5.633099E+04 -1.121727E+02
     11735   1 -1.017874E+07  4.772162E+02 -1.402286E+03  1.546704E+05 -7.223909E+04 -9.398987E+01
     11736   1 -1.017941E+07 -9.221035E+02 -2.046635E+03  1.649964E+05 -7.094659E+04 -4.770643E+02
     11737   1 -1.017922E+07  7.170534E+02 -3.111529E+03  1.920007E+05 -3.281579E+04 -7.750467E+02
     11738   1  9.861124E+06 -6.883522E+02  3.021145E+03  1.920011E+05 -3.281556E+04  7.515980E+02
     11739   1  9.861300E+06  8.934645E+02  1.976545E+03  1.649976E+05 -7.094472E+04  4.617759E+02
     11740   1  9.860649E+06 -4.593018E+02  1.361411E+03  1.546718E+05 -7.223524E+04  9.018631E+01
     11741   1  9.860883E+06  4.093266E+02  1.202992E+03  1.478538E+05 -5.632590E+04  1.065416E+02
     11742   1  9.860603E+06 -2.930346E+02  1.053784E+03  1.445903E+05 -3.039734E+04  1.397521E+01
     11743   1  9.860804E+06  3.062981E+02  1.062118E+03  1.433908E+05  5.087850E+00 -1.992379E+00
     11744   1  9.860605E+06 -2.932455E+02  1.054648E+03  1.445896E+05  3.040474E+04 -1.652482E+01
     11745   1  9.860888E+06  4.096935E+02  1.206300E+03  1.478523E+05  5.633450E+04 -1.096220E+02
     11746   1  9.860654E+06 -4.602177E+02  1.362119E+03  1.546703E+05  7.224005E+04 -9.093436E+01
     11747   1  9.861302E+06  8.921046E+02  1.979154E+03  1.649963E+05  7.094903E+04 -4.627244E+02
     11748   1  9.861121E+06 -6.936384E+02  3.017797E+03  1.920007E+05  3.281618E+04 -7.503001E+02
     11749   1  7.887439E+06 -1.012719E+03 -1.557401E+03  5.227725E+05 -1.217181E+04 -4.883282E+02
     11750   1  7.888617E+06  6.134889E+02  3.978349E+02  4.661137E+05 -3.333582E+04  4.738194E+02
     11751   1  7.888657E+06  2.531859E+02  8.858920E+02  4.350934E+05 -4.075225E+04  3.376465E+02
     11752   1  7.888508E+06 -3.862631E+01  7.246460E+02  4.171054E+05 -3.371977E+04  9.589147E+01
     11753   1  7.888644E+06  2.293432E+02  8.681153E+02  4.071890E+05 -1.884147E+04  7.907896E+01
     11754   1  7.888493E+06 -1.162586E+02  7.492249E+02  4.041612E+05  6.216477E+00 -5.189947E+00
     11755   1  7.888648E+06  2.291097E+02  8.680307E+02  4.071867E+05  1.885261E+04 -8.766933E+01
     11756   1  7.888514E+06 -3.907068E+01  7.247344E+02  4.171014E+05  3.373001E+04 -1.039492E+02
     11757   1  7.888664E+06  2.530187E+02  8.856558E+02  4.350882E+05  4.075954E+04 -3.421327E+02
     11758   1  7.888623E+06  6.154031E+02  3.983785E+02  4.661082E+05  3.334037E+04 -4.769019E+02
     11759   1  7.887441E+06 -1.006605E+03 -1.555933E+03  5.227671E+05  1.217349E+04  4.878140E+02
     11760   1  5.916306E+06 -5.734770E+02  8.638866E+02  7.642283E+05 -6.641590E+03  5.196440E+01
     11761   1  5.916021E+06 -1.870091E+02 -3.823116E+02  7.010120E+05 -1.675340E+04 -5.223421E+02
     11762   1  5.916400E+06  4.649506E+02  1.131277E+02  6.575718E+05 -2.136456E+04  2.022718E+02
     11763   1  5.916431E+06  1.423311E+02  5.302875E+02  6.307079E+05 -1.906685E+04  4.910233E+01
     11764   1  5.916378E+06  9.127409E+01  4.178046E+02  6.158952E+05 -1.088538E+04  3.792648E+01
     11765   1  5.916467E+06  1.559545E+02  6.156616E+02  6.110967E+05  5.980543E+00 -7.966070E+00
     11766   1  5.916382E+06  9.097414E+01  4.174227E+02  6.158917E+05  1.089689E+04 -5.192651E+01
     11767   1  5.916438E+06  1.417134E+02  5.295113E+02  6.307016E+05  1.907678E+04 -6.182490E+01
     11768   1  5.916408E+06  4.639933E+02  1.124594E+02  6.575645E+05  2.137229E+04 -2.103652E+02
     11769   1  5.916029E+06 -1.889164E+02 -3.833393E+02  7.010059E+05  1.675837E+04  5.172152E+02
     11770   1  5.916312E+06 -5.750749E+02  8.626896E+02  7.642255E+05  6.643120E+03 -5.242034E+01
     11771   1  3.943843E+06 -4.200609E+02 -4.897637E+02  9.329211E+05 -3.074782E+03 -2.082823E+02
     11772   1  3.944224E+06 -2.311508E+01  2.751858E+02  8.659462E+05 -8.492257E+03  1.237826E+01
     11773   1  3.944139E+06  7.150259E+00 -9.506004E+00  8.176771E+05 -1.088182E+04 -4.002278E+02
     11774   1  3.944255E+06  2.713640E+02  7.754082E+01  7.853689E+05 -9.828999E+03  5.288495E+01
     11775   1  3.944286E+06  9.299687E+01  3.467415E+02  7.671586E+05 -5.807469E+03 -6.877437E+01
     11776   1  3.944254E+06  1.303564E+02  2.074115E+02  7.612533E+05  4.710062E+00 -1.023869E+01
     11777   1  3.944289E+06  9.261215E+01  3.463300E+02  7.671542E+05  5.816591E+03  5.052819E+01
     11778   1  3.944260E+06  2.706715E+02  7.683741E+01  7.853609E+05  9.836903E+03 -6.976707E+01
     11779   1  3.944145E+06  6.641185E+00 -1.010949E+01  8.176667E+05  1.088802E+04  3.885244E+02
     11780   1  3.944230E+06 -2.192970E+01  2.750419E+02  8.659343E+05  8.496185E+03 -2.086483E+01
     11781   1  3.943848E+06 -4.151605E+02 -4.890710E+02  9.329099E+05  3.076292E+03  2.059931E+02
     11782   1  1.972081E+06 -1.871072E+02  2.167840E+02  1.032770E+06 -1.354075E+03 -2.816929E+01
     11783   1  1.971997E+06 -8.238644E+01 -1.384115E+02  9.644310E+05 -3.495138E+03 -4.047413E+02
     11784   1  1.972120E+06  9.267502E+01  5.996079E+01  9.135327E+05 -4.583478E+03 -3.435462E+01
     11785   1  1.972107E+06  3.773465E+01  7.665914E+01  8.788937E+05 -4.174540E+03 -3.206326E+02
     11786   1  1.972128E+06  1.290956E+02  4.696772E+01  8.587697E+05 -2.457371E+03 -4.985075E+00
     11787   1  1.972144E+06  5.079377E+01  1.731058E+02  8.522424E+05  2.552534E+00 -1.172733E+01
     11788   1  1.972129E+06  1.289008E+02  4.678733E+01  8.587647E+05  2.462430E+03 -1.606425E+01
     11789   1  1.972110E+06  3.731664E+01  7.619633E+01  8.788846E+05  4.178842E+03  3.010685E+02
     11790   1  1.972123E+06  9.225345E+01  5.975034E+01  9.135217E+05  4.586994E+03  2.067387E+01
     11791   1  1.972001E+06 -8.287122E+01 -1.388439E+02  9.644216E+05  3.497390E+03  3.952819E+02
     11792   1  1.972084E+06 -1.866679E+02  2.166584E+02  1.032765E+06  1.354832E+03  2.613941E+01
     11793   1  2.454369E+00  1.982584E+00  9.356715E-02  1.065921E+06 -8.537771E-02 -1.625377E+02
     11794   1  1.319484E+00  1.088459E+00 -2.766274E-01  9.970703E+05 -1.404877E-01 -7.319143E+01
     11795   1  4.557721E-01  7.314598E-02 -7.399785E-01  9.455790E+05 -1.263565E-01 -4.353426E+02
     11796   1  1.431509E-02 -5.656903E-01 -1.115066E+00  9.100731E+05  6.012320E-03 -3.625239E+01
     11797   1 -2.164245E-01 -8.525688E-01 -1.349526E+00  8.894883E+05 -3.349620E-02 -1.886970E+02
     11798   1 -2.488961E-01 -8.946483E-01 -1.384659E+00  8.826903E+05  3.534327E-02 -1.222839E+01
     11799   1 -2.149127E-01 -8.474780E-01 -1.370497E+00  8.894831E+05 -4.794241E-02  1.666611E+02
     11800   1 -8.528288E-03 -5.384393E-01 -1.077760E+00  9.100637E+05  5.280802E-02  1.569312E+01
     11801   1  4.464427E-01  7.036293E-03 -8.161714E-01  9.455664E+05  7.504419E-02  4.205268E+02
     11802   1  1.205304E+00  7.579295E-01 -3.785649E-01  9.970560E+05  1.771776E-01  6.226461E+01
     11803   1  2.257051E+00  1.287434E+00 -2.364398E-01  1.065908E+06  8.287097E-02  1.594780E+02
     11804   1 -1.972076E+06  1.898612E+02 -2.170462E+02  1.032770E+06  1.353848E+03 -2.819878E+01
     11805   1 -1.971994E+06  8.621555E+01  1.386014E+02  9.644312E+05  3.494804E+03 -4.048110E+02
     11806   1 -1.972118E+06 -8.764663E+01 -5.945801E+01  9.135328E+05  4.583203E+03 -3.439216E+01
     11807   1 -1.972106E+06 -3.206154E+01 -7.614112E+01  8.788938E+05  4.174558E+03 -3.206650E+02
     11808   1 -1.972127E+06 -1.233307E+02 -4.674657E+01  8.587697E+05  2.457308E+03 -4.983303E+00
     11809   1 -1.972143E+06 -4.499475E+01 -1.728447E+02  8.522424E+05 -2.471898E+00 -1.172834E+01
     11810   1 -1.972128E+06 -1.231362E+02 -4.663532E+01  8.587647E+05 -2.462542E+03 -1.603913E+01
     11811   1 -1.972108E+06 -3.158021E+01 -7.555550E+01  8.788847E+05 -4.178726E+03  3.010957E+02
     11812   1 -1.972121E+06 -8.706486E+01 -5.936560E+01  9.135219E+05 -4.586847E+03  2.073379E+01
     11813   1 -1.971998E+06  8.755495E+01  1.395249E+02  9.644219E+05 -3.497007E+03  3.953347E+02
     11814   1 -1.972079E+06  1.908639E+02 -2.165249E+02  1.032765E+06 -1.354651E+03  2.617915E+01
     11815   1 -3.943839E+06  4.227147E+02  4.889976E+02  9.329216E+05  3.074619E+03 -2.082904E+02
     11816   1 -3.944222E+06  2.466232E+01 -2.748513E+02  8.659465E+05  8.491970E+03  1.227641E+01
     11817   1 -3.944139E+06 -8.188791E+00  6.936058E+00  8.176774E+05  1.088167E+04 -4.002678E+02
     11818   1 -3.944255E+06 -2.729329E+02 -7.905228E+01  7.853690E+05  9.829010E+03  5.282362E+01
     11819   1 -3.944287E+06 -9.575777E+01 -3.506747E+02  7.671587E+05  5.807522E+03 -6.874761E+01
     11820   1 -3.944255E+06 -1.324959E+02 -2.095681E+02  7.612533E+05 -4.715824E+00 -1.026265E+01
     11821   1 -3.944290E+06 -9.537622E+01 -3.502985E+02  7.671543E+05 -5.816638E+03  5.058893E+01
     11822   1 -3.944261E+06 -2.721779E+02 -7.828094E+01  7.853610E+05 -9.836924E+03 -6.975147E+01
     11823   1 -3.944145E+06 -7.853578E+00  7.377125E+00  8.176669E+05 -1.088786E+04  3.886377E+02
     11824   1 -3.944228E+06  2.282703E+01 -2.748590E+02  8.659347E+05 -8.495880E+03 -2.079408E+01
     11825   1 -3.943843E+06  4.163296E+02  4.875347E+02  9.329105E+05 -3.076119E+03  2.060612E+02
     11826   1 -5.916303E+06  5.732462E+02 -8.677253E+02  7.642285E+05  6.641412E+03  5.190319E+01
     11827   1 -5.916019E+06  1.905180E+02  3.858475E+02  7.010120E+05  1.675301E+04 -5.224731E+02
     11828   1 -5.916399E+06 -4.625416E+02 -1.163950E+02  6.575718E+05  2.136458E+04  2.022368E+02
     11829   1 -5.916431E+06 -1.365698E+02 -5.269802E+02  6.307076E+05  1.906673E+04  4.904485E+01
     11830   1 -5.916379E+06 -8.783696E+01 -4.214754E+02  6.158950E+05  1.088574E+04  3.797315E+01
     11831   1 -5.916467E+06 -1.499666E+02 -6.130343E+02  6.110964E+05 -6.262748E+00 -8.002402E+00
     11832   1 -5.916383E+06 -8.748394E+01 -4.209163E+02  6.158915E+05 -1.089670E+04 -5.185946E+01
     11833   1 -5.916437E+06 -1.360241E+02 -5.265402E+02  6.307015E+05 -1.907714E+04 -6.183492E+01
     11834   1 -5.916408E+06 -4.612861E+02 -1.152419E+02  6.575645E+05 -2.137195E+04 -2.102493E+02
     11835   1 -5.916027E+06  1.930892E+02  3.867015E+02  7.010060E+05 -1.675823E+04  5.172821E+02
     11836   1 -5.916308E+06  5.764932E+02 -8.655539E+02  7.642257E+05 -6.642867E+03 -5.233985E+01
     11837   1 -7.887437E+06  1.011860E+03  1.551429E+03  5.227724E+05  1.217169E+04 -4.883564E+02
     11838   1 -7.888617E+06 -6.117981E+02 -3.926243E+02  4.661134E+05  3.333546E+04  4.737912E+02
     11839   1 -7.888660E+06 -2.575601E+02 -8.938505E+02  4.350932E+05  4.075256E+04  3.376291E+02
     11840   1 -7.888509E+06  3.758375E+01 -7.220306E+02  4.171051E+05  3.371957E+04  9.588799E+01
     11841   1 -7.888648E+06 -2.351390E+02 -8.774941E+02  4.071886E+05  1.884217E+04  7.910576E+01
     11842   1 -7.888495E+06  1.147105E+02 -7.479065E+02  4.041608E+05 -6.791220E+00 -5.198226E+00
     11843   1 -7.888652E+06 -2.348032E+02 -8.770193E+02  4.071864E+05 -1.885218E+04 -8.764971E+01
     11844   1 -7.888516E+06  3.785536E+01 -7.228474E+02  4.171011E+05 -3.373077E+04 -1.039574E+02
     11845   1 -7.888667E+06 -2.572974E+02 -8.927091E+02  4.350880E+05 -4.075908E+04 -3.420836E+02
     11846   1 -7.888622E+06 -6.147592E+02 -3.944914E+02  4.661080E+05 -3.334045E+04 -4.768543E+02
     11847   1 -7.887439E+06  1.004506E+03  1.550336E+03  5.227670E+05 -1.217322E+04  4.878594E+02
     11848   1 -9.861125E+06  6.853778E+02 -3.028736E+03  1.920007E+05  3.281540E+04  7.515797E+02
     11849   1 -9.861303E+06 -8.897788E+02 -1.969691E+03  1.649976E+05  7.094421E+04  4.617387E+02
     11850   1 -9.860654E+06  4.594820E+02 -1.368895E+03  1.546715E+05  7.223568E+04  9.016124E+01
     11851   1 -9.860887E+06 -4.029645E+02 -1.197242E+03  1.478536E+05  5.632570E+04  1.065769E+02
     11852   1 -9.860609E+06  2.945614E+02 -1.061941E+03  1.445901E+05  3.039824E+04  1.395081E+01
     11853   1 -9.860808E+06 -2.996355E+02 -1.057605E+03  1.433906E+05 -5.796838E+00 -1.951815E+00
     11854   1 -9.860612E+06  2.948967E+02 -1.062340E+03  1.445893E+05 -3.040427E+04 -1.656833E+01
     11855   1 -9.860892E+06 -4.035694E+02 -1.201413E+03  1.478521E+05 -5.633549E+04 -1.095852E+02
     11856   1 -9.860659E+06  4.608823E+02 -1.368413E+03  1.546700E+05 -7.223956E+04 -9.097353E+01
     11857   1 -9.861305E+06 -8.879943E+02 -1.973263E+03  1.649962E+05 -7.094913E+04 -4.626589E+02
     11858   1 -9.861122E+06  6.926117E+02 -3.023739E+03  1.920004E+05 -3.281580E+04 -7.503451E+02
     11859   1  9.543021E+06 -6.794079E+02  2.916505E+03  1.920030E+05 -3.281422E+04  7.250849E+02
     11860   1  9.543190E+06  8.589450E+02  1.912906E+03  1.649985E+05 -7.094470E+04  4.471750E+02
     11861   1  9.542559E+06 -4.493017E+02  1.313435E+03  1.546725E+05 -7.223179E+04  8.576864E+01
     11862   1  9.542787E+06  3.926914E+02  1.163529E+03  1.478540E+05 -5.632456E+04  1.031876E+02
     11863   1  9.542516E+06 -2.885071E+02  1.016887E+03  1.445906E+05 -3.039271E+04  1.195303E+01
     11864   1  9.542713E+06  2.918905E+02  1.026200E+03  1.433907E+05  6.970468E+00 -2.134421E+00
     11865   1  9.542522E+06 -2.883614E+02  1.019586E+03  1.445893E+05  3.040930E+04 -1.756937E+01
     11866   1  9.542798E+06  3.919299E+02  1.165358E+03  1.478518E+05  5.633624E+04 -1.061432E+02
     11867   1  9.542571E+06 -4.483793E+02  1.318824E+03  1.546696E+05  7.224325E+04 -8.916391E+01
     11868   1  9.543200E+06  8.609158E+02  1.913258E+03  1.649956E+05  7.094981E+04 -4.473194E+02
     11869   1  9.543024E+06 -6.707391E+02  2.922261E+03  1.919998E+05  3.281696E+04 -7.269543E+02
     11870   1  7.633002E+06 -9.681171E+02 -1.502855E+03  5.227690E+05 -1.217174E+04 -4.721239E+02
     11871   1  7.634141E+06  6.005762E+02  3.867229E+02  4.661127E+05 -3.333422E+04  4.592509E+02
     11872   1  7.634181E+06  2.495976E+02  8.588977E+02  4.350938E+05 -4.074976E+04  3.251204E+02
     11873   1  7.634037E+06 -3.318910E+01  7.025531E+02  4.171063E+05 -3.371717E+04  9.168370E+01
     11874   1  7.634171E+06  2.267918E+02  8.419457E+02  4.071894E+05 -1.883757E+04  7.344903E+01
     11875   1  7.634025E+06 -1.078538E+02  7.263621E+02  4.041610E+05  9.501335E+00 -6.938704E+00
     11876   1  7.634177E+06  2.265585E+02  8.420812E+02  4.071859E+05  1.885674E+04 -8.811139E+01
     11877   1  7.634049E+06 -3.365339E+01  7.023013E+02  4.170999E+05  3.373299E+04 -1.021150E+02
     11878   1  7.634196E+06  2.484689E+02  8.588192E+02  4.350863E+05  4.076251E+04 -3.333340E+02
     11879   1  7.634156E+06  5.974493E+02  3.855623E+02  4.661061E+05  3.334200E+04 -4.616394E+02
     11880   1  7.633012E+06 -9.729447E+02 -1.505091E+03  5.227654E+05  1.217410E+04  4.713695E+02
     11881   1  5.725456E+06 -5.645096E+02  8.329004E+02  7.642361E+05 -6.640845E+03  4.823405E+01
     11882   1  5.725179E+06 -1.862618E+02 -3.715239E+02  7.010170E+05 -1.675234E+04 -5.068515E+02
     11883   1  5.725544E+06  4.467212E+02  1.082593E+02  6.575744E+05 -2.136261E+04  1.927011E+02
     11884   1  5.725575E+06  1.344336E+02  5.119912E+02  6.307093E+05 -1.906407E+04  4.509287E+01
     11885   1  5.725525E+06  8.440252E+01  4.026373E+02  6.158958E+05 -1.088224E+04  3.238947E+01
     11886   1  5.725612E+06  1.469314E+02  5.943365E+02  6.110966E+05  9.470961E+00 -1.108843E+01
     11887   1  5.725531E+06  8.385113E+01  4.019439E+02  6.158905E+05  1.090029E+04 -5.492413E+01
     11888   1  5.725587E+06  1.334512E+02  5.110185E+02  6.306996E+05  1.907991E+04 -6.267663E+01
     11889   1  5.725559E+06  4.460117E+02  1.071126E+02  6.575617E+05  2.137479E+04 -2.069548E+02
     11890   1  5.725194E+06 -1.838668E+02 -3.714170E+02  7.010025E+05  1.676001E+04  4.995635E+02
     11891   1  5.725467E+06 -5.556665E+02  8.342675E+02  7.642219E+05  6.643771E+03 -5.205866E+01
     11892   1  3.816619E+06 -3.989583E+02 -4.721419E+02  9.329150E+05 -3.074647E+03 -2.019092E+02
     11893   1  3.816988E+06 -1.645786E+01  2.680642E+02  8.659442E+05 -8.491065E+03  1.186577E+01
     11894   1  3.816906E+06  1.145829E+01 -8.084503E+00  8.176782E+05 -1.088019E+04 -3.905743E+02
     11895   1  3.817020E+06  2.676566E+02  7.695716E+01  7.853706E+05 -9.826852E+03  4.812301E+01
     11896   1  3.817050E+06  9.499814E+01  3.369178E+02  7.671595E+05 -5.805068E+03 -7.201498E+01
     11897   1  3.817021E+06  1.314553E+02  2.026318E+02  7.612530E+05  7.379829E+00 -1.428368E+01
     11898   1  3.817055E+06  9.450311E+01  3.363026E+02  7.671526E+05  5.819103E+03  4.296660E+01
     11899   1  3.817029E+06  2.667492E+02  7.601988E+01  7.853582E+05  9.839269E+03 -7.136659E+01
     11900   1  3.816918E+06  1.016391E+01 -9.115356E+00  8.176630E+05  1.088990E+04  3.715221E+02
     11901   1  3.817001E+06 -1.825570E+01  2.671297E+02  8.659305E+05  8.497502E+03 -2.166765E+01
     11902   1  3.816630E+06 -3.994574E+02 -4.734344E+02  9.329068E+05  3.076742E+03  1.978252E+02
     11903   1  1.908464E+06 -1.829196E+02  2.095227E+02  1.032781E+06 -1.353726E+03 -2.970263E+01
     11904   1  1.908382E+06 -8.161028E+01 -1.355532E+02  9.644390E+05 -3.494500E+03 -3.939280E+02
     11905   1  1.908501E+06  8.799528E+01  5.737585E+01  9.135369E+05 -4.582539E+03 -3.778296E+01
     11906   1  1.908488E+06  3.353959E+01  7.190170E+01  8.788962E+05 -4.173177E+03 -3.140118E+02
     11907   1  1.908509E+06  1.219556E+02  4.401572E+01  8.587711E+05 -2.456068E+03 -1.100063E+01
     11908   1  1.908525E+06  4.558997E+01  1.649904E+02  8.522426E+05  4.055004E+00 -1.635253E+01
     11909   1  1.908512E+06  1.215893E+02  4.359891E+01  8.587634E+05  2.463624E+03 -2.227591E+01
     11910   1  1.908493E+06  3.298552E+01  7.150045E+01  8.788821E+05  4.180047E+03  2.868827E+02
     11911   1  1.908507E+06  8.743440E+01  5.667875E+01  9.135181E+05  4.587786E+03  1.481695E+01
     11912   1  1.908389E+06 -8.075597E+01 -1.354699E+02  9.644173E+05  3.498020E+03  3.805370E+02
     11913   1  1.908470E+06 -1.794052E+02  2.095929E+02  1.032761E+06  1.355038E+03  2.333532E+01
     11914   1  1.883006E+00  3.112057E+00 -1.774493E-01  1.065914E+06 -3.237433E-02 -1.580355E+02
     11915   1  1.011502E+00  3.588622E+00  1.537900E-02  9.970685E+05  7.424985E-03 -7.131576E+01
     11916   1  6.818233E-01  4.205002E+00  8.418701E-02  9.455808E+05  2.320878E-01 -4.253005E+02
     11917   1  5.201675E-01  4.471215E+00 -7.409693E-02  9.100756E+05  2.194564E-01 -3.886832E+01
     11918   1  5.441553E-01  4.505987E+00 -2.812508E-01  8.894898E+05  2.359818E-01 -1.890219E+02
     11919   1  5.128495E-01  4.450049E+00 -4.397498E-01  8.826905E+05 -6.214756E-02 -1.709055E+01
     11920   1  5.227293E-01  4.527695E+00 -2.533084E-01  8.894818E+05 -1.475698E-01  1.542963E+02
     11921   1  5.130619E-01  4.483776E+00 -1.312216E-01  9.100609E+05 -3.251479E-01  1.044686E+01
     11922   1  6.401850E-01  4.348675E+00  1.818279E-01  9.455626E+05 -1.792181E-01  4.015487E+02
     11923   1  1.097278E+00  4.060925E+00  1.242730E-01  9.970521E+05 -7.287130E-02  5.825035E+01
     11924   1  2.073667E+00  4.052056E+00  2.383179E-01  1.065905E+06  2.755241E-02  1.524540E+02
     11925   1 -1.908460E+06  1.897896E+02 -2.093777E+02  1.032782E+06  1.353757E+03 -2.973627E+01
     11926   1 -1.908380E+06  8.598369E+01  1.346809E+02  9.644400E+05  3.494612E+03 -3.939846E+02
     11927   1 -1.908501E+06 -8.632715E+01 -5.980455E+01  9.135377E+05  4.583078E+03 -3.785170E+01
     11928   1 -1.908489E+06 -3.357019E+01 -7.555271E+01  8.788969E+05  4.173657E+03 -3.140276E+02
     11929   1 -1.908510E+06 -1.226969E+02 -4.841104E+01  8.587717E+05  2.456576E+03 -1.101391E+01
     11930   1 -1.908526E+06 -4.652378E+01 -1.697764E+02  8.522432E+05 -4.190229E+00 -1.633074E+01
     11931   1 -1.908513E+06 -1.222797E+02 -4.790063E+01  8.587641E+05 -2.463920E+03 -2.226002E+01
     11932   1 -1.908494E+06 -3.300547E+01 -7.533426E+01  8.788828E+05 -4.180756E+03  2.869398E+02
     11933   1 -1.908507E+06 -8.580904E+01 -5.892596E+01  9.135189E+05 -4.588174E+03  1.488077E+01
     11934   1 -1.908387E+06  8.424027E+01  1.339561E+02  9.644183E+05 -3.498222E+03  3.806352E+02
     11935   1 -1.908466E+06  1.846837E+02 -2.098928E+02  1.032762E+06 -1.355004E+03  2.336309E+01
     11936   1 -3.816615E+06  4.035829E+02  4.728364E+02  9.329168E+05  3.074595E+03 -2.020402E+02
     11937   1 -3.816986E+06  2.153773E+01 -2.692377E+02  8.659457E+05  8.491194E+03  1.175329E+01
     11938   1 -3.816905E+06 -4.218206E+00  9.079148E+00  8.176793E+05  1.088072E+04 -3.907058E+02
     11939   1 -3.817019E+06 -2.604730E+02 -7.861187E+01  7.853716E+05  9.827516E+03  4.813089E+01
     11940   1 -3.817049E+06 -8.688527E+01 -3.369309E+02  7.671603E+05  5.805532E+03 -7.205764E+01
     11941   1 -3.817020E+06 -1.241986E+02 -2.051544E+02  7.612539E+05 -7.380439E+00 -1.421427E+01
     11942   1 -3.817054E+06 -8.634337E+01 -3.362700E+02  7.671535E+05 -5.819579E+03  4.295092E+01
     11943   1 -3.817028E+06 -2.595798E+02 -7.778069E+01  7.853592E+05 -9.839939E+03 -7.125139E+01
     11944   1 -3.816917E+06 -2.619316E+00  1.031439E+01  8.176642E+05 -1.089045E+04  3.715923E+02
     11945   1 -3.816998E+06  2.422549E+01 -2.681497E+02  8.659321E+05 -8.497666E+03 -2.148412E+01
     11946   1 -3.816625E+06  4.060485E+02  4.751019E+02  9.329087E+05 -3.076714E+03  1.978729E+02
     11947   1 -5.725451E+06  5.697429E+02 -8.283547E+02  7.642379E+05  6.640858E+03  4.818109E+01
     11948   1 -5.725178E+06  1.861649E+02  3.660568E+02  7.010185E+05  1.675278E+04 -5.069263E+02
     11949   1 -5.725544E+06 -4.461048E+02 -1.068711E+02  6.575755E+05  2.136317E+04  1.925914E+02
     11950   1 -5.725577E+06 -1.384210E+02 -5.205548E+02  6.307103E+05  1.906523E+04  4.514040E+01
     11951   1 -5.725525E+06 -8.580375E+01 -4.040015E+02  6.158966E+05  1.088247E+04  3.234459E+01
     11952   1 -5.725614E+06 -1.515455E+02 -6.039716E+02  6.110974E+05 -9.057895E+00 -1.099731E+01
     11953   1 -5.725532E+06 -8.530791E+01 -4.035759E+02  6.158913E+05 -1.090128E+04 -5.497296E+01
     11954   1 -5.725589E+06 -1.372758E+02 -5.190923E+02  6.307005E+05 -1.908038E+04 -6.256341E+01
     11955   1 -5.725559E+06 -4.457170E+02 -1.064371E+02  6.575628E+05 -2.137586E+04 -2.069189E+02
     11956   1 -5.725193E+06  1.830827E+02  3.662981E+02  7.010040E+05 -1.676009E+04  4.997618E+02
     11957   1 -5.725463E+06  5.589049E+02 -8.310635E+02  7.642238E+05 -6.643884E+03 -5.201945E+01
     11958   1 -7.632998E+06  9.713168E+02  1.510057E+03  5.227698E+05  1.217174E+04 -4.722060E+02
     11959   1 -7.634141E+06 -6.009673E+02 -3.947592E+02  4.661134E+05  3.333489E+04  4.591311E+02
     11960   1 -7.634181E+06 -2.427079E+02 -8.524685E+02  4.350942E+05  4.075034E+04  3.250958E+02
     11961   1 -7.634039E+06  3.569487E+01 -7.115903E+02  4.171066E+05  3.371892E+04  9.171882E+01
     11962   1 -7.634171E+06 -2.185496E+02 -8.377784E+02  4.071895E+05  1.883760E+04  7.346710E+01
     11963   1 -7.634028E+06  1.108141E+02 -7.360668E+02  4.041612E+05 -8.659515E+00 -6.898719E+00
     11964   1 -7.634177E+06 -2.184565E+02 -8.384909E+02  4.071860E+05 -1.885832E+04 -8.814240E+01
     11965   1 -7.634052E+06  3.643933E+01 -7.102704E+02  4.171002E+05 -3.373332E+04 -1.020883E+02
     11966   1 -7.634196E+06 -2.417587E+02 -8.537633E+02  4.350868E+05 -4.076415E+04 -3.333238E+02
     11967   1 -7.634156E+06 -5.964397E+02 -3.916859E+02  4.661069E+05 -3.334203E+04 -4.615309E+02
     11968   1 -7.633008E+06  9.776317E+02  1.511534E+03  5.227663E+05 -1.217433E+04  4.714192E+02
     11969   1 -9.543021E+06  6.836140E+02 -2.907485E+03  1.920034E+05  3.281427E+04  7.251156E+02
     11970   1 -9.543195E+06 -8.631454E+02 -1.923459E+03  1.649985E+05  7.094579E+04  4.471773E+02
     11971   1 -9.542563E+06  4.494062E+02 -1.308663E+03  1.546727E+05  7.223270E+04  8.581945E+01
     11972   1 -9.542794E+06 -4.002797E+02 -1.177876E+03  1.478539E+05  5.632682E+04  1.031641E+02
     11973   1 -9.542520E+06  2.868831E+02 -1.016008E+03  1.445906E+05  3.039278E+04  1.202553E+01
     11974   1 -9.542720E+06 -2.998304E+02 -1.041646E+03  1.433907E+05 -5.948330E+00 -2.183977E+00
     11975   1 -9.542526E+06  2.865539E+02 -1.019383E+03  1.445894E+05 -3.041129E+04 -1.752173E+01
     11976   1 -9.542804E+06 -3.991573E+02 -1.178437E+03  1.478518E+05 -5.633678E+04 -1.062109E+02
     11977   1 -9.542575E+06  4.478295E+02 -1.315782E+03  1.546698E+05 -7.224545E+04 -8.910654E+01
     11978   1 -9.543204E+06 -8.655251E+02 -1.922300E+03  1.649957E+05 -7.095003E+04 -4.473607E+02
     11979   1 -9.543024E+06  6.724258E+02 -2.915604E+03  1.920002E+05 -3.281732E+04 -7.268749E+02
     11980   1  9.224915E+06 -6.379315E+02  2.829038E+03  1.920010E+05 -3.281470E+04  7.040992E+02
     11981   1  9.225078E+06  8.384696E+02  1.848007E+03  1.649983E+05 -7.094072E+04  4.314674E+02
     11982   1  9.224469E+06 -4.278475E+02  1.273250E+03  1.546726E+05 -7.223030E+04  8.391791E+01
     11983   1  9.224690E+06  3.839530E+02  1.123608E+03  1.478546E+05 -5.631849E+04  9.781509E+01
     11984   1  9.224430E+06 -2.726431E+02  9.852304E+02  1.445907E+05 -3.038998E+04  1.142908E+01
     11985   1  9.224622E+06  2.878453E+02  9.935136E+02  1.433907E+05  1.391435E+01 -4.382248E+00
     11986   1  9.224441E+06 -2.730532E+02  9.871239E+02  1.445888E+05  3.041245E+04 -1.731720E+01
     11987   1  9.224709E+06  3.846037E+02  1.130224E+03  1.478510E+05  5.634223E+04 -1.046811E+02
     11988   1  9.224492E+06 -4.297383E+02  1.275039E+03  1.546686E+05  7.224557E+04 -8.599076E+01
     11989   1  9.225100E+06  8.353558E+02  1.853036E+03  1.649944E+05  7.095297E+04 -4.336774E+02
     11990   1  9.224930E+06 -6.488260E+02  2.822449E+03  1.919988E+05  3.281732E+04 -7.016023E+02
     11991   1  7.378565E+06 -9.524767E+02 -1.458835E+03  5.227758E+05 -1.217052E+04 -4.573970E+02
     11992   1  7.379665E+06  5.720414E+02  3.716010E+02  4.661167E+05 -3.333257E+04  4.413184E+02
     11993   1  7.379702E+06  2.363472E+02  8.283205E+02  4.350961E+05 -4.074688E+04  3.131429E+02
     11994   1  7.379564E+06 -3.642645E+01  6.776624E+02  4.171074E+05 -3.371241E+04  8.494728E+01
     11995   1  7.379695E+06  2.138886E+02  8.115903E+02  4.071900E+05 -1.883307E+04  6.866827E+01
     11996   1  7.379557E+06 -1.094417E+02  7.006375E+02  4.041608E+05  1.560756E+01 -1.143629E+01
     11997   1  7.379706E+06  2.134201E+02  8.114178E+02  4.071846E+05  1.886167E+04 -8.790956E+01
     11998   1  7.379585E+06 -3.734045E+01  6.777535E+02  4.170978E+05  3.373849E+04 -1.029184E+02
     11999   1  7.379729E+06  2.359957E+02  8.278279E+02  4.350834E+05  4.076616E+04 -3.236130E+02
     12000   1  7.379692E+06  5.759473E+02  3.726608E+02  4.661027E+05  3.334481E+04 -4.484594E+02
     12001   1  7.378586E+06 -9.398299E+02 -1.455787E+03  5.227614E+05  1.217505E+04  4.560433E+02
     12002   1  5.534601E+06 -5.312980E+02  8.096925E+02  7.642290E+05 -6.640667E+03  4.854171E+01
     12003   1  5.534334E+06 -1.708373E+02 -3.566846E+02  7.010146E+05 -1.675023E+04 -4.913105E+02
     12004   1  5.534688E+06  4.379405E+02  1.067855E+02  6.575755E+05 -2.135957E+04  1.847309E+02
     12005   1  5.534719E+06  1.357475E+02  4.969207E+02  6.307110E+05 -1.906028E+04  3.866370E+01
     12006   1  5.534672E+06  8.790489E+01  3.917119E+02  6.158968E+05 -1.087756E+04  2.707915E+01
     12007   1  5.534759E+06  1.481626E+02  5.763989E+02  6.110961E+05  1.443059E+01 -1.741531E+01
     12008   1  5.534683E+06  8.726809E+01  3.908797E+02  6.158886E+05  1.090535E+04 -5.792856E+01
     12009   1  5.534738E+06  1.344611E+02  4.953004E+02  6.306961E+05  1.908450E+04 -6.677087E+01
     12010   1  5.534713E+06  4.358913E+02  1.052763E+02  6.575571E+05  2.137859E+04 -2.030930E+02
     12011   1  5.534361E+06 -1.748180E+02 -3.588268E+02  7.009976E+05  1.676261E+04  4.795117E+02
     12012   1  5.534626E+06 -5.344989E+02  8.070910E+02  7.642174E+05  6.644615E+03 -4.997847E+01
     12013   1  3.689396E+06 -3.939527E+02 -4.589276E+02  9.329286E+05 -3.073830E+03 -1.962943E+02
     12014   1  3.689751E+06 -2.081752E+01  2.569650E+02  8.659532E+05 -8.489818E+03  6.851231E+00
     12015   1  3.689672E+06  8.341845E+00 -8.825805E+00  8.176829E+05 -1.087788E+04 -3.808209E+02
     12016   1  3.689781E+06  2.551356E+02  7.224224E+01  7.853733E+05 -9.823864E+03  4.001359E+01
     12017   1  3.689813E+06  8.802927E+01  3.241016E+02  7.671610E+05 -5.801470E+03 -7.505742E+01
     12018   1  3.689785E+06  1.225884E+02  1.932191E+02  7.612530E+05  1.107623E+01 -2.221626E+01
     12019   1  3.689820E+06  8.723926E+01  3.232354E+02  7.671508E+05  5.822902E+03  3.526199E+01
     12020   1  3.689796E+06  2.536995E+02  7.078908E+01  7.853545E+05  9.842602E+03 -7.690328E+01
     12021   1  3.689691E+06  7.249541E+00 -1.009297E+01  8.176578E+05  1.089269E+04  3.548592E+02
     12022   1  3.689772E+06 -1.838660E+01  2.567356E+02  8.659241E+05  8.499331E+03 -2.571533E+01
     12023   1  3.689414E+06 -3.837950E+02 -4.574560E+02  9.329001E+05  3.077447E+03  1.910491E+02
     12024   1  1.844845E+06 -1.703837E+02  2.029418E+02  1.032772E+06 -1.353553E+03 -2.724324E+01
     12025   1  1.844766E+06 -7.245898E+01 -1.289044E+02  9.644363E+05 -3.493493E+03 -3.834647E+02
     12026   1  1.844882E+06  9.069688E+01  5.596413E+01  9.135391E+05 -4.580921E+03 -3.940452E+01
     12027   1  1.844871E+06  3.932665E+01  7.192986E+01  8.788992E+05 -4.171457E+03 -3.107632E+02
     12028   1  1.844892E+06  1.244194E+02  4.344285E+01  8.587730E+05 -2.453903E+03 -1.689427E+01
     12029   1  1.844909E+06  5.119016E+01  1.616431E+02  8.522425E+05  5.918951E+00 -2.531781E+01
     12030   1  1.844896E+06  1.240168E+02  4.307137E+01  8.587613E+05  2.465624E+03 -2.875531E+01
     12031   1  1.844879E+06  3.845343E+01  7.096038E+01  8.788778E+05  4.181498E+03  2.682259E+02
     12032   1  1.844892E+06  8.978328E+01  5.551701E+01  9.135123E+05  4.589153E+03  9.209497E+00
     12033   1  1.844778E+06 -7.360503E+01 -1.298851E+02  9.644110E+05  3.498801E+03  3.624249E+02
     12034   1  1.844856E+06 -1.696703E+02  2.025832E+02  1.032755E+06  1.355360E+03  2.246392E+01
     12035   1  9.986364E-01  6.274370E+00  8.216148E-02  1.065932E+06  1.662495E-01 -1.538738E+02
     12036   1 -3.327050E-01  4.474361E+00 -7.175525E-01  9.970806E+05  5.459029E-01 -7.444082E+01
     12037   1 -1.015829E+00  2.617984E+00 -1.803748E+00  9.455874E+05  7.452238E-01 -4.152278E+02
     12038   1 -9.923877E-01  1.474310E+00 -2.748646E+00  9.100798E+05  8.736288E-01 -4.524779E+01
     12039   1 -8.555419E-01  9.385639E-01 -3.403282E+00  8.894926E+05  4.256763E-01 -1.892745E+02
     12040   1 -7.093564E-01  8.641448E-01 -3.531374E+00  8.826914E+05  5.916929E-02 -2.635522E+01
     12041   1 -8.636181E-01  9.495132E-01 -3.447142E+00  8.894806E+05 -6.010871E-01  1.415843E+02
     12042   1 -1.053654E+00  1.539373E+00 -2.673437E+00  9.100576E+05 -7.761751E-01  6.799601E-01
     12043   1 -1.059233E+00  2.553406E+00 -1.938200E+00  9.455576E+05 -8.612280E-01  3.827428E+02
     12044   1 -5.605941E-01  4.037953E+00 -8.332022E-01  9.970458E+05 -4.818436E-01  5.045885E+01
     12045   1  6.368616E-01  5.249930E+00 -4.427431E-01  1.065898E+06 -1.641395E-01  1.470058E+02
     12046   1 -1.844843E+06  1.806336E+02 -2.033697E+02  1.032775E+06  1.353747E+03 -2.731011E+01
     12047   1 -1.844766E+06  8.348935E+01  1.284540E+02  9.644385E+05  3.494511E+03 -3.835978E+02
     12048   1 -1.844882E+06 -7.835918E+01 -5.647959E+01  9.135410E+05  4.582415E+03 -3.946162E+01
     12049   1 -1.844871E+06 -2.650017E+01 -7.344806E+01  8.789009E+05  4.173261E+03 -3.108045E+02
     12050   1 -1.844891E+06 -1.116376E+02 -4.583986E+01  8.587745E+05  2.454775E+03 -1.687377E+01
     12051   1 -1.844908E+06 -3.848576E+01 -1.643509E+02  8.522440E+05 -5.769799E+00 -2.530957E+01
     12052   1 -1.844895E+06 -1.112256E+02 -4.561025E+01  8.587629E+05 -2.466882E+03 -2.870777E+01
     12053   1 -1.844878E+06 -2.549256E+01 -7.223072E+01  8.788795E+05 -4.183057E+03  2.682736E+02
     12054   1 -1.844892E+06 -7.723582E+01 -5.632566E+01  9.135142E+05 -4.590931E+03  9.322450E+00
     12055   1 -1.844778E+06  8.593912E+01  1.302664E+02  9.644133E+05 -3.499740E+03  3.625298E+02
     12056   1 -1.844854E+06  1.820827E+02 -2.025286E+02  1.032758E+06 -1.355675E+03  2.254590E+01
     12057   1 -3.689392E+06  4.029800E+02  4.578565E+02  9.329332E+05  3.074222E+03 -1.962898E+02
     12058   1 -3.689751E+06  2.728522E+01 -2.573160E+02  8.659568E+05  8.491022E+03  6.663034E+00
     12059   1 -3.689673E+06 -6.143844E+00  3.634980E+00  8.176861E+05  1.087972E+04 -3.808695E+02
     12060   1 -3.689782E+06 -2.541797E+02 -7.705807E+01  7.853760E+05  9.825762E+03  3.993279E+01
     12061   1 -3.689813E+06 -8.884756E+01 -3.328539E+02  7.671636E+05  5.802629E+03 -7.496827E+01
     12062   1 -3.689785E+06 -1.226445E+02 -1.998359E+02  7.612555E+05 -1.108303E+01 -2.225031E+01
     12063   1 -3.689821E+06 -8.806337E+01 -3.320655E+02  7.671535E+05 -5.824085E+03  3.538012E+01
     12064   1 -3.689797E+06 -2.526014E+02 -7.546656E+01  7.853573E+05 -9.844512E+03 -7.689088E+01
     12065   1 -3.689692E+06 -5.264683E+00  4.615751E+00  8.176610E+05 -1.089454E+04  3.550778E+02
     12066   1 -3.689771E+06  2.397999E+01 -2.572388E+02  8.659278E+05 -8.500503E+03 -2.557551E+01
     12067   1 -3.689410E+06  3.905887E+02  4.551475E+02  9.329047E+05 -3.077805E+03  1.911920E+02
     12068   1 -5.534597E+06  5.340446E+02 -8.157986E+02  7.642335E+05  6.641082E+03  4.839237E+01
     12069   1 -5.534331E+06  1.788467E+02  3.613797E+02  7.010181E+05  1.675141E+04 -4.915746E+02
     12070   1 -5.534688E+06 -4.319526E+02 -1.135109E+02  6.575785E+05  2.136202E+04  1.847155E+02
     12071   1 -5.534717E+06 -1.248910E+02 -4.945317E+02  6.307135E+05  1.906211E+04  3.859995E+01
     12072   1 -5.534672E+06 -8.072120E+01 -4.006871E+02  6.158992E+05  1.087947E+04  2.722477E+01
     12073   1 -5.534756E+06 -1.371882E+02 -5.761260E+02  6.110984E+05 -1.499197E+01 -1.747627E+01
     12074   1 -5.534682E+06 -7.995785E+01 -3.994743E+02  6.158910E+05 -1.090614E+04 -5.780045E+01
     12075   1 -5.534736E+06 -1.237729E+02 -4.936469E+02  6.306987E+05 -1.908728E+04 -6.682517E+01
     12076   1 -5.534713E+06 -4.293844E+02 -1.109886E+02  6.575602E+05 -2.138030E+04 -2.028803E+02
     12077   1 -5.534358E+06  1.837121E+02  3.628906E+02  7.010013E+05 -1.676429E+04  4.796442E+02
     12078   1 -5.534621E+06  5.399028E+02 -8.113497E+02  7.642221E+05 -6.644897E+03 -4.980021E+01
     12079   1 -7.378561E+06  9.526136E+02  1.449211E+03  5.227792E+05  1.217123E+04 -4.574211E+02
     12080   1 -7.379664E+06 -5.681006E+02 -3.642234E+02  4.661191E+05  3.333413E+04  4.412850E+02
     12081   1 -7.379705E+06 -2.420315E+02 -8.427720E+02  4.350981E+05  4.075034E+04  3.131603E+02
     12082   1 -7.379564E+06  3.589556E+01 -6.766137E+02  4.171091E+05  3.371437E+04  8.500466E+01
     12083   1 -7.379697E+06 -2.217329E+02 -8.299155E+02  4.071916E+05  1.883585E+04  6.876448E+01
     12084   1 -7.379556E+06  1.080766E+02 -7.028461E+02  4.041623E+05 -1.675370E+01 -1.143880E+01
     12085   1 -7.379709E+06 -2.210395E+02 -8.289093E+02  4.071863E+05 -1.886215E+04 -8.788375E+01
     12086   1 -7.379584E+06  3.642811E+01 -6.782810E+02  4.170995E+05 -3.374238E+04 -1.029766E+02
     12087   1 -7.379732E+06 -2.412918E+02 -8.402433E+02  4.350854E+05 -4.076805E+04 -3.235450E+02
     12088   1 -7.379690E+06 -5.737980E+02 -3.680543E+02  4.661052E+05 -3.334728E+04 -4.483743E+02
     12089   1 -7.378582E+06  9.383131E+02  1.447523E+03  5.227648E+05 -1.217541E+04  4.561429E+02
     12090   1 -9.224916E+06  6.335722E+02 -2.841182E+03  1.920018E+05  3.281571E+04  7.039613E+02
     12091   1 -9.225081E+06 -8.326050E+02 -1.838597E+03  1.649992E+05  7.094280E+04  4.314457E+02
     12092   1 -9.224475E+06  4.282994E+02 -1.287493E+03  1.546730E+05  7.223472E+04  8.386175E+01
     12093   1 -9.224692E+06 -3.740996E+02 -1.118676E+03  1.478551E+05  5.632098E+04  9.793875E+01
     12094   1 -9.224435E+06  2.750834E+02 -1.002546E+03  1.445910E+05  3.039341E+04  1.138583E+01
     12095   1 -9.224623E+06 -2.776843E+02 -9.919475E+02  1.433911E+05 -1.530938E+01 -4.288653E+00
     12096   1 -9.224445E+06  2.757686E+02 -1.003458E+03  1.445892E+05 -3.041309E+04 -1.741219E+01
     12097   1 -9.224711E+06 -3.752753E+02 -1.127127E+03  1.478515E+05 -5.634707E+04 -1.046361E+02
     12098   1 -9.224498E+06  4.310985E+02 -1.286769E+03  1.546691E+05 -7.224809E+04 -8.607438E+01
     12099   1 -9.225103E+06 -8.291204E+02 -1.845932E+03  1.649953E+05 -7.095626E+04 -4.335838E+02
     12100   1 -9.224930E+06  6.477706E+02 -2.831209E+03  1.919998E+05 -3.281789E+04 -7.016465E+02
     12101   1  8.906808E+06 -6.424664E+02  2.717500E+03  1.920043E+05 -3.281194E+04  6.752772E+02
     12102   1  8.906964E+06  7.985408E+02  1.784272E+03  1.649997E+05 -7.094028E+04  4.171701E+02
     12103   1  8.906375E+06 -4.211649E+02  1.222259E+03  1.546738E+05 -7.222322E+04  7.810106E+01
     12104   1  8.906590E+06  3.656843E+02  1.083994E+03  1.478548E+05 -5.631514E+04  9.468098E+01
     12105   1  8.906342E+06 -2.707704E+02  9.466440E+02  1.445911E+05 -3.038036E+04  7.943966E+00
     12106   1  8.906532E+06  2.710839E+02  9.566485E+02  1.433904E+05  1.873250E+01 -4.679603E+00
     12107   1  8.906359E+06 -2.705034E+02  9.519516E+02  1.445882E+05  3.042221E+04 -1.995964E+01
     12108   1  8.906623E+06  3.642476E+02  1.087955E+03  1.478498E+05  5.634688E+04 -1.013328E+02
     12109   1  8.906416E+06 -4.193479E+02  1.232886E+03  1.546670E+05  7.225258E+04 -8.548793E+01
     12110   1  8.907006E+06  8.028211E+02  1.785539E+03  1.649926E+05  7.095518E+04 -4.178709E+02
     12111   1  8.906841E+06 -6.247702E+02  2.728881E+03  1.919965E+05  3.281902E+04 -6.791356E+02
     12112   1  7.124123E+06 -8.957447E+02 -1.399867E+03  5.227686E+05 -1.217039E+04 -4.406457E+02
     12113   1  7.125184E+06  5.653681E+02  3.620326E+02  4.661146E+05 -3.332933E+04  4.276686E+02
     12114   1  7.125222E+06  2.359058E+02  8.025824E+02  4.350968E+05 -4.074190E+04  2.992714E+02
     12115   1  7.125090E+06 -2.867516E+01  6.563007E+02  4.171090E+05 -3.370700E+04  7.997013E+01
     12116   1  7.125220E+06  2.141188E+02  7.867840E+02  4.071907E+05 -1.882506E+04  6.026742E+01
     12117   1  7.125089E+06 -9.850486E+01  6.785325E+02  4.041603E+05  2.279372E+01 -1.492348E+01
     12118   1  7.125238E+06  2.136293E+02  7.869856E+02  4.071828E+05  1.887052E+04 -9.163846E+01
     12119   1  7.125124E+06 -2.962285E+01  6.557755E+02  4.170943E+05  3.374533E+04 -1.027690E+02
     12120   1  7.125266E+06  2.335751E+02  8.022309E+02  4.350789E+05  4.077278E+04 -3.173384E+02
     12121   1  7.125232E+06  5.589306E+02  3.595912E+02  4.660975E+05  3.334868E+04 -4.335413E+02
     12122   1  7.124165E+06 -9.054844E+02 -1.404526E+03  5.227565E+05  1.217648E+04  4.387468E+02
     12123   1  5.343747E+06 -5.314110E+02  7.754603E+02  7.642430E+05 -6.639208E+03  4.282234E+01
     12124   1  5.343488E+06 -1.744648E+02 -3.471351E+02  7.010235E+05 -1.674818E+04 -4.767608E+02
     12125   1  5.343829E+06  4.179963E+02  1.012556E+02  6.575801E+05 -2.135571E+04  1.727109E+02
     12126   1  5.343860E+06  1.265251E+02  4.783283E+02  6.307137E+05 -1.905475E+04  3.292073E+01
     12127   1  5.343817E+06  7.929389E+01  3.758570E+02  6.158982E+05 -1.087113E+04  1.774690E+01
     12128   1  5.343903E+06  1.374314E+02  5.546719E+02  6.110959E+05  2.169201E+01 -2.355687E+01
     12129   1  5.343833E+06  7.820277E+01  3.744562E+02  6.158862E+05  1.091262E+04 -6.559134E+01
     12130   1  5.343890E+06  1.245104E+02  4.762710E+02  6.306916E+05  1.909132E+04 -7.061892E+01
     12131   1  5.343869E+06  4.164964E+02  9.895006E+01  6.575506E+05  2.138418E+04 -2.034570E+02
     12132   1  5.343531E+06 -1.697710E+02 -3.469896E+02  7.009895E+05  1.676634E+04  4.606202E+02
     12133   1  5.343787E+06 -5.134649E+02  7.783862E+02  7.642085E+05  6.646097E+03 -5.114297E+01
     12134   1  3.562167E+06 -3.650642E+02 -4.394410E+02  9.329169E+05 -3.073572E+03 -1.900408E+02
     12135   1  3.562511E+06 -8.849578E+00  2.513973E+02  8.659495E+05 -8.487498E+03  6.847943E+00
     12136   1  3.562436E+06  1.582623E+01 -6.796827E+00  8.176851E+05 -1.087465E+04 -3.736862E+02
     12137   1  3.562544E+06  2.546992E+02  7.292693E+01  7.853768E+05 -9.819604E+03  3.310175E+01
     12138   1  3.562575E+06  9.311133E+01  3.149651E+02  7.671630E+05 -5.796592E+03 -8.307227E+01
     12139   1  3.562551E+06  1.270227E+02  1.896594E+02  7.612528E+05  1.655059E+01 -3.009766E+01
     12140   1  3.562587E+06  9.210742E+01  3.137200E+02  7.671478E+05  5.828190E+03  2.182314E+01
     12141   1  3.562566E+06  2.528514E+02  7.099463E+01  7.853487E+05  9.847627E+03 -8.247174E+01
     12142   1  3.562466E+06  1.318719E+01 -8.887599E+00  8.176496E+05  1.089676E+04  3.329077E+02
     12143   1  3.562546E+06 -1.258286E+01  2.494033E+02  8.659151E+05  8.502186E+03 -2.832181E+01
     12144   1  3.562200E+06 -3.661365E+02 -4.421247E+02  9.328917E+05  3.078435E+03  1.810849E+02
     12145   1  1.781226E+06 -1.676821E+02  1.953351E+02  1.032794E+06 -1.352801E+03 -3.103622E+01
     12146   1  1.781149E+06 -7.270963E+01 -1.274530E+02  9.644510E+05 -3.492091E+03 -3.740740E+02
     12147   1  1.781260E+06  8.589109E+01  5.322615E+01  9.135470E+05 -4.578947E+03 -4.635810E+01
     12148   1  1.781250E+06  3.423261E+01  6.563230E+01  8.789044E+05 -4.168620E+03 -3.067075E+02
     12149   1  1.781272E+06  1.165808E+02  3.983262E+01  8.587762E+05 -2.451239E+03 -2.824701E+01
     12150   1  1.781289E+06  4.480679E+01  1.518934E+02  8.522435E+05  8.997423E+00 -3.429837E+01
     12151   1  1.781278E+06  1.158437E+02  3.898071E+01  8.587591E+05  2.468044E+03 -4.159563E+01
     12152   1  1.781262E+06  3.311422E+01  6.483944E+01  8.788727E+05  4.183942E+03  2.494700E+02
     12153   1  1.781277E+06  8.475286E+01  5.181030E+01  9.135043E+05  4.590734E+03 -2.339239E+00
     12154   1  1.781167E+06 -7.086913E+01 -1.271704E+02  9.644010E+05  3.500044E+03  3.453623E+02
     12155   1  1.781243E+06 -1.603645E+02  1.955834E+02  1.032745E+06  1.355759E+03  1.742785E+01
     12156   1 -2.041717E+00  9.115484E+00 -3.625081E-01  1.065921E+06  3.743853E-01 -1.498270E+02
     12157   1 -2.508185E+00  9.268671E+00 -4.009949E-01  9.970778E+05  1.143649E+00 -7.223552E+01
     12158   1 -1.804429E+00  9.802622E+00 -8.018397E-01  9.455917E+05  1.804201E+00 -4.082002E+02
     12159   1 -9.443400E-01  9.915753E+00 -1.593844E+00  9.100853E+05  1.579888E+00 -5.049299E+01
     12160   1 -1.006204E-01  9.830267E+00 -2.271139E+00  8.894963E+05  1.104980E+00 -1.951208E+02
     12161   1  1.067985E-01  9.678387E+00 -2.696792E+00  8.826925E+05 -1.331794E-01 -3.578513E+01
     12162   1 -1.541509E-01  9.880010E+00 -2.216285E+00  8.894784E+05 -9.655752E-01  1.223543E+02
     12163   1 -9.896485E-01  9.943279E+00 -1.710040E+00  9.100522E+05 -1.809976E+00 -9.408410E+00
     12164   1 -1.927294E+00  1.002519E+01 -6.323953E-01  9.455495E+05 -1.724676E+00  3.578235E+02
     12165   1 -2.429578E+00  9.949103E+00 -2.925945E-01  9.970370E+05 -1.292203E+00  4.407434E+01
     12166   1 -1.808444E+00  1.054376E+01  2.978748E-01  1.065891E+06 -4.072789E-01  1.377944E+02
     12167   1 -1.781228E+06  1.863318E+02 -1.954495E+02  1.032799E+06  1.353822E+03 -3.107675E+01
     12168   1 -1.781153E+06  8.650258E+01  1.254330E+02  9.644553E+05  3.494609E+03 -3.741511E+02
     12169   1 -1.781265E+06 -7.706044E+01 -5.896115E+01  9.135507E+05  4.582742E+03 -4.645066E+01
     12170   1 -1.781253E+06 -2.831026E+01 -7.400380E+01  8.789077E+05  4.171886E+03 -3.066981E+02
     12171   1 -1.781274E+06 -1.120110E+02 -5.031809E+01  8.587793E+05  2.453555E+03 -2.823914E+01
     12172   1 -1.781290E+06 -4.051092E+01 -1.630699E+02  8.522466E+05 -9.294080E+00 -3.424395E+01
     12173   1 -1.781280E+06 -1.111703E+02 -4.927996E+01  8.587623E+05 -2.469980E+03 -4.156840E+01
     12174   1 -1.781266E+06 -2.715791E+01 -7.358790E+01  8.788761E+05 -4.187715E+03  2.495624E+02
     12175   1 -1.781281E+06 -7.584722E+01 -5.712223E+01  9.135080E+05 -4.594265E+03 -2.236686E+00
     12176   1 -1.781172E+06  8.341234E+01  1.240495E+02  9.644053E+05 -3.502768E+03  3.455383E+02
     12177   1 -1.781245E+06  1.767445E+02 -1.961997E+02  1.032750E+06 -1.356627E+03  1.747429E+01
     12178   1 -3.562166E+06  3.785717E+02  4.399899E+02  9.329252E+05  3.074418E+03 -1.903157E+02
     12179   1 -3.562512E+06  2.235999E+01 -2.538133E+02  8.659564E+05  8.490173E+03  6.668402E+00
     12180   1 -3.562436E+06  1.139156E-01  6.024840E+00  8.176910E+05  1.087861E+04 -3.738724E+02
     12181   1 -3.562543E+06 -2.390724E+02 -7.836933E+01  7.853822E+05  9.823359E+03  3.319557E+01
     12182   1 -3.562572E+06 -7.652702E+01 -3.192275E+02  7.671680E+05  5.798921E+03 -8.310064E+01
     12183   1 -3.562548E+06 -1.116185E+02 -1.976144E+02  7.612578E+05 -1.658326E+01 -2.993411E+01
     12184   1 -3.562585E+06 -7.541678E+01 -3.178847E+02  7.671528E+05 -5.830531E+03  2.177667E+01
     12185   1 -3.562566E+06 -2.372518E+02 -7.666890E+01  7.853542E+05 -9.851450E+03 -8.227691E+01
     12186   1 -3.562467E+06  3.230951E+00  8.480792E+00  8.176557E+05 -1.090074E+04  3.329988E+02
     12187   1 -3.562547E+06  2.736939E+01 -2.517143E+02  8.659223E+05 -8.504967E+03 -2.798152E+01
     12188   1 -3.562199E+06  3.826800E+02  4.442495E+02  9.329002E+05 -3.079361E+03  1.811669E+02
     12189   1 -5.343743E+06  5.438698E+02 -7.686263E+02  7.642522E+05  6.640336E+03  4.276231E+01
     12190   1 -5.343488E+06  1.780284E+02  3.377117E+02  7.010312E+05  1.675173E+04 -4.768401E+02
     12191   1 -5.343828E+06 -4.137841E+02 -1.012877E+02  6.575864E+05  2.135999E+04  1.725695E+02
     12192   1 -5.343860E+06 -1.295541E+02 -4.949076E+02  6.307196E+05  1.905976E+04  3.312365E+01
     12193   1 -5.343813E+06 -7.846367E+01 -3.822916E+02  6.159035E+05  1.087312E+04  1.771801E+01
     12194   1 -5.343901E+06 -1.414596E+02 -5.739582E+02  6.111014E+05 -2.086868E+01 -2.333904E+01
     12195   1 -5.343830E+06 -7.749940E+01 -3.814613E+02  6.158916E+05 -1.091612E+04 -6.571521E+01
     12196   1 -5.343891E+06 -1.271729E+02 -4.918138E+02  6.306975E+05 -1.909496E+04 -7.043657E+01
     12197   1 -5.343868E+06 -4.128212E+02 -1.004666E+02  6.575571E+05 -2.138948E+04 -2.034463E+02
     12198   1 -5.343531E+06  1.725150E+02  3.385957E+02  7.009972E+05 -1.676916E+04  4.609966E+02
     12199   1 -5.343783E+06  5.227474E+02 -7.741062E+02  7.642179E+05 -6.647399E+03 -5.107965E+01
     12200   1 -7.124118E+06  9.027223E+02  1.411056E+03  5.227753E+05  1.217159E+04 -4.408634E+02
     12201   1 -7.125184E+06 -5.645211E+02 -3.760128E+02  4.661200E+05  3.333387E+04  4.274631E+02
     12202   1 -7.125220E+06 -2.238567E+02 -7.950684E+02  4.351010E+05  4.074675E+04  2.993178E+02
     12203   1 -7.125089E+06  3.367981E+01 -6.745489E+02  4.171129E+05  3.371362E+04  8.012863E+01
     12204   1 -7.125213E+06 -2.003787E+02 -7.854511E+02  4.071943E+05  1.882685E+04  6.037024E+01
     12205   1 -7.125086E+06  1.041447E+02 -6.988977E+02  4.041640E+05 -2.108560E+01 -1.482001E+01
     12206   1 -7.125231E+06 -2.001903E+02 -7.868743E+02  4.071864E+05 -1.887539E+04 -9.172523E+01
     12207   1 -7.125123E+06  3.524309E+01 -6.717542E+02  4.170983E+05 -3.374908E+04 -1.027633E+02
     12208   1 -7.125263E+06 -2.221131E+02 -7.977461E+02  4.350834E+05 -4.077976E+04 -3.173903E+02
     12209   1 -7.125232E+06 -5.556302E+02 -3.695915E+02  4.661031E+05 -3.335187E+04 -4.333447E+02
     12210   1 -7.124160E+06  9.144228E+02  1.413425E+03  5.227635E+05 -1.217817E+04  4.388469E+02
     12211   1 -8.906807E+06  6.495917E+02 -2.703753E+03  1.920072E+05  3.281387E+04  6.754785E+02
     12212   1 -8.906969E+06 -8.045563E+02 -1.802346E+03  1.650014E+05  7.094667E+04  4.171436E+02
     12213   1 -8.906377E+06  4.217251E+02 -1.218163E+03  1.546755E+05  7.222961E+04  7.829396E+01
     12214   1 -8.906593E+06 -3.769077E+02 -1.111161E+03  1.478562E+05  5.632337E+04  9.464218E+01
     12215   1 -8.906338E+06  2.686898E+02 -9.514723E+02  1.445925E+05  3.038258E+04  8.136064E+00
     12216   1 -8.906532E+06 -2.826781E+02 -9.866701E+02  1.433917E+05 -1.667264E+01 -4.778742E+00
     12217   1 -8.906356E+06  2.680265E+02 -9.581875E+02  1.445896E+05 -3.042814E+04 -1.987540E+01
     12218   1 -8.906626E+06 -3.746931E+02 -1.112466E+03  1.478512E+05 -5.635165E+04 -1.014822E+02
     12219   1 -8.906418E+06  4.186695E+02 -1.232396E+03  1.546686E+05 -7.226151E+04 -8.542637E+01
     12220   1 -8.907011E+06 -8.090852E+02 -1.800138E+03  1.649945E+05 -7.095980E+04 -4.179321E+02
     12221   1 -8.906839E+06  6.275803E+02 -2.719971E+03  1.919993E+05 -3.282154E+04 -6.790305E+02
     12222   1  8.588697E+06 -5.820381E+02  2.639370E+03  1.920002E+05 -3.281276E+04  6.575668E+02
     12223   1  8.588845E+06  7.856873E+02  1.718832E+03  1.649992E+05 -7.093243E+04  4.007962E+02
     12224   1  8.588279E+06 -3.952165E+02  1.184876E+03  1.546738E+05 -7.221997E+04  7.741935E+01
     12225   1  8.588488E+06  3.590854E+02  1.043054E+03  1.478560E+05 -5.630312E+04  8.758030E+01
     12226   1  8.588253E+06 -2.514369E+02  9.163362E+02  1.445913E+05 -3.037407E+04  7.497395E+00
     12227   1  8.588440E+06  2.700909E+02  9.251187E+02  1.433904E+05  3.301610E+01 -9.113287E+00
     12228   1  8.588282E+06 -2.522193E+02  9.201951E+02  1.445872E+05  3.042995E+04 -2.000973E+01
     12229   1  8.588541E+06  3.602720E+02  1.055833E+03  1.478481E+05  5.635972E+04 -1.020257E+02
     12230   1  8.588348E+06 -3.988967E+02  1.188823E+03  1.546646E+05  7.225863E+04 -8.224660E+01
     12231   1  8.588918E+06  7.790717E+02  1.728310E+03  1.649898E+05  7.096210E+04 -4.056299E+02
     12232   1  8.588760E+06 -6.039821E+02  2.626575E+03  1.919938E+05  3.282006E+04 -6.527248E+02
     12233   1  6.869681E+06 -8.963129E+02 -1.361955E+03  5.227805E+05 -1.216808E+04 -4.268988E+02
     12234   1  6.870703E+06  5.293310E+02  3.451047E+02  4.661215E+05 -3.332634E+04  4.074416E+02
     12235   1  6.870737E+06  2.195451E+02  7.708358E+02  4.351006E+05 -4.073641E+04  2.867921E+02
     12236   1  6.870613E+06 -3.393536E+01  6.312209E+02  4.171111E+05 -3.369783E+04  7.029450E+01
     12237   1  6.870740E+06  1.984615E+02  7.554713E+02  4.071920E+05 -1.881588E+04  5.380014E+01
     12238   1  6.870620E+06 -1.025839E+02  6.527812E+02  4.041600E+05  3.525927E+01 -2.373757E+01
     12239   1  6.870769E+06  1.975629E+02  7.551342E+02  4.071803E+05  1.888132E+04 -9.403528E+01
     12240   1  6.870666E+06 -3.576934E+01  6.312370E+02  4.170899E+05  3.375724E+04 -1.079447E+02
     12241   1  6.870808E+06  2.187689E+02  7.698360E+02  4.350723E+05  4.078129E+04 -3.092903E+02
     12242   1  6.870779E+06  5.369861E+02  3.470763E+02  4.660896E+05  3.335509E+04 -4.229095E+02
     12243   1  6.869752E+06 -8.709637E+02 -1.355758E+03  5.227468E+05  1.217874E+04  4.237420E+02
     12244   1  5.152886E+06 -4.839649E+02  7.569293E+02  7.642289E+05 -6.639004E+03  4.540529E+01
     12245   1  5.152636E+06 -1.510982E+02 -3.301814E+02  7.010188E+05 -1.674437E+04 -4.618846E+02
     12246   1  5.152967E+06  4.132959E+02  1.014730E+02  6.575821E+05 -2.135016E+04  1.642222E+02
     12247   1  5.153000E+06  1.311810E+02  4.646318E+02  6.307171E+05 -1.904754E+04  2.266168E+01
     12248   1  5.152961E+06  8.653436E+01  3.668777E+02  6.159003E+05 -1.086198E+04  9.287014E+00
     12249   1  5.153049E+06  1.421618E+02  5.380998E+02  6.110954E+05  3.179783E+01 -3.590948E+01
     12250   1  5.152986E+06  8.525251E+01  3.651720E+02  6.158826E+05  1.092324E+04 -7.307975E+01
     12251   1  5.153046E+06  1.286532E+02  4.614150E+02  6.306845E+05  1.910127E+04 -8.109339E+01
     12252   1  5.153030E+06  4.092099E+02  9.832504E+01  6.575407E+05  2.139260E+04 -2.029505E+02
     12253   1  5.152708E+06 -1.590570E+02 -3.344436E+02  7.009780E+05  1.677221E+04  4.366271E+02
     12254   1  5.152956E+06 -4.904217E+02  7.515033E+02  7.641971E+05  6.648040E+03 -4.884216E+01
     12255   1  3.434938E+06 -3.678008E+02 -4.287536E+02  9.329415E+05 -3.072047E+03 -1.851737E+02
     12256   1  3.435269E+06 -1.716534E+01  2.384704E+02  8.659654E+05 -8.485240E+03 -1.760254E+00
     12257   1  3.435196E+06  1.166615E+01 -7.756237E+00  8.176937E+05 -1.087041E+04 -3.655821E+02
     12258   1  3.435301E+06  2.408032E+02  6.717344E+01  7.853821E+05 -9.813926E+03  2.004924E+01
     12259   1  3.435334E+06  8.483757E+01  3.018403E+02  7.671666E+05 -5.789606E+03 -9.005785E+01
     12260   1  3.435313E+06  1.163105E+02  1.789917E+02  7.612533E+05  2.399909E+01 -4.554903E+01
     12261   1  3.435352E+06  8.328784E+01  3.001074E+02  7.671446E+05  5.836018E+03  8.398514E+00
     12262   1  3.435335E+06  2.379453E+02  6.430650E+01  7.853412E+05  9.854738E+03 -9.610445E+01
     12263   1  3.435243E+06  9.387964E+00 -1.030800E+01  8.176385E+05  1.090280E+04  3.116702E+02
     12264   1  3.435321E+06 -1.240027E+01  2.381251E+02  8.659006E+05  8.506249E+03 -3.774911E+01
     12265   1  3.434989E+06 -3.475807E+02 -4.257349E+02  9.328759E+05  3.079997E+03  1.740468E+02
     12266   1  1.717601E+06 -1.487375E+02  1.892254E+02  1.032777E+06 -1.352468E+03 -2.648532E+01
     12267   1  1.717528E+06 -5.811982E+01 -1.189449E+02  9.644461E+05 -3.490133E+03 -3.650895E+02
     12268   1  1.717638E+06  9.233465E+01  5.170341E+01  9.135518E+05 -4.575747E+03 -4.908238E+01
     12269   1  1.717630E+06  4.450919E+01  6.723709E+01  8.789108E+05 -4.165282E+03 -3.089221E+02
     12270   1  1.717652E+06  1.230382E+02  3.935904E+01  8.587808E+05 -2.446943E+03 -3.865294E+01
     12271   1  1.717671E+06  5.490950E+01  1.497944E+02  8.522443E+05  1.268974E+01 -5.170090E+01
     12272   1  1.717662E+06  1.222468E+02  3.864184E+01  8.587558E+05  2.472101E+03 -5.461843E+01
     12273   1  1.717649E+06  4.277116E+01  6.528419E+01  8.788643E+05  4.186902E+03  2.215608E+02
     12274   1  1.717663E+06  9.050896E+01  5.085334E+01  9.134921E+05  4.593540E+03 -1.337174E+01
     12275   1  1.717557E+06 -6.061460E+01 -1.210465E+02  9.643868E+05  3.501635E+03  3.211299E+02
     12276   1  1.717630E+06 -1.476776E+02  1.884026E+02  1.032732E+06  1.356406E+03  1.634258E+01
     12277   1 -6.475574E+00  1.517070E+01 -5.472456E-03  1.065952E+06  9.524368E-01 -1.462326E+02
     12278   1 -6.836138E+00  1.164210E+01 -1.643600E+00  9.970998E+05  2.547540E+00 -7.946875E+01
     12279   1 -5.987805E+00  8.333371E+00 -3.973242E+00  9.456042E+05  3.169735E+00 -4.001758E+02
     12280   1 -4.191793E+00  6.369018E+00 -6.027260E+00  9.100940E+05  3.137420E+00 -6.256748E+01
     12281   1 -2.815867E+00  5.422800E+00 -7.526868E+00  8.895028E+05  1.632205E+00 -2.000736E+02
     12282   1 -2.151365E+00  5.312650E+00 -7.825683E+00  8.826954E+05  8.715235E-02 -5.374377E+01
     12283   1 -2.856088E+00  5.442676E+00 -7.615017E+00  8.894771E+05 -2.008662E+00  1.027835E+02
     12284   1 -4.347920E+00  6.501505E+00 -5.883282E+00  9.100459E+05 -2.997355E+00 -2.873869E+01
     12285   1 -6.138189E+00  8.287828E+00 -4.213157E+00  9.455391E+05 -3.429708E+00  3.332867E+02
     12286   1 -7.315288E+00  1.109547E+01 -1.743845E+00  9.970229E+05 -2.443505E+00  2.975085E+01
     12287   1 -7.167463E+00  1.366684E+01 -8.381518E-01  1.065876E+06 -9.314718E-01  1.318898E+02
     12288   1 -1.717612E+06  1.749095E+02 -1.899270E+02  1.032786E+06  1.354028E+03 -2.660925E+01
     12289   1 -1.717539E+06  8.395122E+01  1.169383E+02  9.644533E+05  3.495123E+03 -3.652834E+02
     12290   1 -1.717645E+06 -6.535572E+01 -5.477704E+01  9.135581E+05  4.582163E+03 -4.910972E+01
     12291   1 -1.717634E+06 -1.751440E+01 -7.354549E+01  8.789166E+05  4.171743E+03 -3.089231E+02
     12292   1 -1.717652E+06 -9.633729E+01 -4.770097E+01  8.587862E+05  2.450262E+03 -3.856367E+01
     12293   1 -1.717670E+06 -2.849823E+01 -1.591859E+02  8.522497E+05 -1.242731E+01 -5.166121E+01
     12294   1 -1.717662E+06 -9.551951E+01 -4.727328E+01  8.587613E+05 -2.476267E+03 -5.454151E+01
     12295   1 -1.717652E+06 -1.550336E+01 -7.109450E+01  8.788702E+05 -4.192941E+03  2.216132E+02
     12296   1 -1.717671E+06 -6.328749E+01 -5.459321E+01  9.134985E+05 -4.600585E+03 -1.320919E+01
     12297   1 -1.717569E+06  8.839781E+01  1.204694E+02  9.643942E+05 -3.506522E+03  3.212802E+02
     12298   1 -1.717641E+06  1.770061E+02 -1.886298E+02  1.032740E+06 -1.358275E+03  1.648267E+01
     12299   1 -3.434943E+06  3.902874E+02  4.272769E+02  9.329563E+05  3.074143E+03 -1.850685E+02
     12300   1 -3.435276E+06  3.418400E+01 -2.405510E+02  8.659777E+05  8.490786E+03 -2.001345E+00
     12301   1 -3.435202E+06 -1.641448E+00 -2.358425E+00  8.177045E+05  1.087764E+04 -3.655340E+02
     12302   1 -3.435303E+06 -2.333306E+02 -7.876807E+01  7.853919E+05  9.820745E+03  2.002152E+01
     12303   1 -3.435333E+06 -7.993923E+01 -3.197905E+02  7.671761E+05  5.793556E+03 -8.978780E+01
     12304   1 -3.435311E+06 -1.105362E+02 -1.945945E+02  7.612625E+05 -2.399871E+01 -4.558425E+01
     12305   1 -3.435352E+06 -7.840844E+01 -3.182363E+02  7.671541E+05 -5.840115E+03  8.611263E+00
     12306   1 -3.435337E+06 -2.301757E+02 -7.560527E+01  7.853512E+05 -9.861569E+03 -9.615853E+01
     12307   1 -3.435248E+06  3.719468E-01 -3.585407E-01  8.176494E+05 -1.091014E+04  3.120123E+02
     12308   1 -3.435329E+06  2.829890E+01 -2.402505E+02  8.659131E+05 -8.511727E+03 -3.756766E+01
     12309   1 -3.434995E+06  3.666989E+02  4.222298E+02  9.328908E+05 -3.081998E+03  1.742981E+02
     12310   1 -5.152885E+06  4.936978E+02 -7.667006E+02  7.642451E+05  6.641213E+03  4.510200E+01
     12311   1 -5.152636E+06  1.680855E+02  3.361954E+02  7.010318E+05  1.675015E+04 -4.623186E+02
     12312   1 -5.152967E+06 -3.999866E+02 -1.146881E+02  6.575936E+05  2.135901E+04  1.643753E+02
     12313   1 -5.152993E+06 -1.107781E+02 -4.652676E+02  6.307273E+05  1.905451E+04  2.267497E+01
     12314   1 -5.152954E+06 -7.193912E+01 -3.860646E+02  6.159103E+05  1.086759E+04  9.699093E+00
     12315   1 -5.153037E+06 -1.219012E+02 -5.436313E+02  6.111050E+05 -3.288629E+01 -3.600303E+01
     12316   1 -5.152979E+06 -7.037909E+01 -3.835731E+02  6.158926E+05 -1.092664E+04 -7.284232E+01
     12317   1 -5.153039E+06 -1.086193E+02 -4.635953E+02  6.306950E+05 -1.911009E+04 -8.130061E+01
     12318   1 -5.153030E+06 -3.949767E+02 -1.094717E+02  6.575524E+05 -2.139998E+04 -2.026289E+02
     12319   1 -5.152707E+06  1.771443E+02  3.387911E+02  7.009916E+05 -1.677900E+04  4.367897E+02
     12320   1 -5.152954E+06  5.044573E+02 -7.577576E+02  7.642137E+05 -6.650027E+03 -4.850437E+01
     12321   1 -6.869675E+06  8.991166E+02  1.346263E+03  5.227938E+05  1.217116E+04 -4.268369E+02
     12322   1 -6.870701E+06 -5.207915E+02 -3.346494E+02  4.661315E+05  3.333341E+04  4.074864E+02
     12323   1 -6.870736E+06 -2.264272E+02 -7.967906E+02  4.351093E+05  4.074793E+04  2.869651E+02
     12324   1 -6.870604E+06  3.512565E+01 -6.341752E+02  4.171189E+05  3.370549E+04  7.054922E+01
     12325   1 -6.870732E+06 -2.085857E+02 -7.898579E+02  4.071996E+05  1.882352E+04  5.407988E+01
     12326   1 -6.870606E+06  1.023930E+02 -6.626833E+02  4.041674E+05 -3.749291E+01 -2.370969E+01
     12327   1 -6.870761E+06 -2.072073E+02 -7.877854E+02  4.071880E+05 -1.888432E+04 -9.400277E+01
     12328   1 -6.870656E+06  3.613199E+01 -6.375124E+02  4.170978E+05 -3.376869E+04 -1.081480E+02
     12329   1 -6.870807E+06 -2.245975E+02 -7.913998E+02  4.350811E+05 -4.078963E+04 -3.092399E+02
     12330   1 -6.870776E+06 -5.316190E+02 -3.423698E+02  4.660998E+05 -3.336398E+04 -4.228185E+02
     12331   1 -6.869747E+06  8.717260E+02  1.343751E+03  5.227602E+05 -1.218107E+04  4.239291E+02
     12332   1 -8.588695E+06  5.756813E+02 -2.658955E+03  1.920047E+05  3.281714E+04  6.571006E+02
     12333   1 -8.588846E+06 -7.762952E+02 -1.706154E+03  1.650029E+05  7.094195E+04  4.008616E+02
     12334   1 -8.588280E+06  3.962285E+02 -1.211325E+03  1.546766E+05  7.223443E+04  7.730362E+01
     12335   1 -8.588480E+06 -3.437193E+02 -1.041530E+03  1.478588E+05  5.631262E+04  8.792937E+01
     12336   1 -8.588245E+06  2.553934E+02 -9.504631E+02  1.445938E+05  3.038333E+04  7.421075E+00
     12337   1 -8.588425E+06 -2.545075E+02 -9.309537E+02  1.433930E+05 -3.568867E+01 -8.899853E+00
     12338   1 -8.588274E+06  2.567596E+02 -9.523038E+02  1.445898E+05 -3.043362E+04 -2.020875E+01
     12339   1 -8.588532E+06 -3.460141E+02 -1.058098E+03  1.478509E+05 -5.637373E+04 -1.019845E+02
     12340   1 -8.588349E+06  4.016447E+02 -1.210090E+03  1.546677E+05 -7.226929E+04 -8.243134E+01
     12341   1 -8.588918E+06 -7.696049E+02 -1.720764E+03  1.649935E+05 -7.097396E+04 -4.055198E+02
     12342   1 -8.588759E+06  6.033525E+02 -2.639256E+03  1.919987E+05 -3.282358E+04 -6.527477E+02
     12343   1  8.270584E+06 -6.127632E+02  2.514714E+03  1.920060E+05 -3.280749E+04  6.241069E+02
     12344   1  8.270725E+06  7.356226E+02  1.654963E+03  1.650014E+05 -7.093171E+04  3.871702E+02
     12345   1  8.270177E+06 -3.940637E+02  1.128961E+03  1.546760E+05 -7.220664E+04  6.904438E+01
     12346   1  8.270383E+06  3.384627E+02  1.003581E+03  1.478565E+05 -5.629629E+04  8.514258E+01
     12347   1  8.270160E+06 -2.536974E+02  8.753854E+02  1.445923E+05 -3.035522E+04  1.319399E+00
     12348   1  8.270350E+06  2.497074E+02  8.869066E+02  1.433900E+05  4.389193E+01 -9.589572E+00
     12349   1  8.270204E+06 -2.532022E+02  8.854609E+02  1.445862E+05  3.045015E+04 -2.579489E+01
     12350   1  8.270465E+06  3.357523E+02  1.011531E+03  1.478458E+05  5.637109E+04 -9.898892E+01
     12351   1  8.270286E+06 -3.906818E+02  1.149206E+03  1.546612E+05  7.227385E+04 -8.436579E+01
     12352   1  8.270842E+06  7.443789E+02  1.658117E+03  1.649857E+05  7.096801E+04 -3.891083E+02
     12353   1  8.270692E+06 -5.775058E+02  2.536793E+03  1.919883E+05  3.282382E+04 -6.320246E+02
     12354   1  6.615231E+06 -8.163060E+02 -1.294354E+03  5.227661E+05 -1.216815E+04 -4.088611E+02
     12355   1  6.616213E+06  5.338719E+02  3.384033E+02  4.661173E+05 -3.332070E+04  3.960111E+02
     12356   1  6.616250E+06  2.240890E+02  7.475225E+02  4.351020E+05 -4.072762E+04  2.708185E+02
     12357   1  6.616131E+06 -2.279124E+01  6.112331E+02  4.171143E+05 -3.368775E+04  6.443638E+01
     12358   1  6.616260E+06  2.029987E+02  7.334434E+02  4.071939E+05 -1.880051E+04  4.049042E+01
     12359   1  6.616151E+06 -8.784084E+01  6.322105E+02  4.041596E+05  5.003557E+01 -3.028085E+01
     12360   1  6.616304E+06  2.020168E+02  7.337103E+02  4.071770E+05  1.889961E+04 -1.041709E+02
     12361   1  6.616213E+06 -2.459123E+01  6.102064E+02  4.170831E+05  3.377244E+04 -1.112413E+02
     12362   1  6.616359E+06  2.195906E+02  7.465444E+02  4.350628E+05  4.079583E+04 -3.083156E+02
     12363   1  6.616337E+06  5.211574E+02  3.335390E+02  4.660779E+05  3.336417E+04 -4.089102E+02
     12364   1  6.615350E+06 -8.357171E+02 -1.303844E+03  5.227349E+05  1.218207E+04  4.045886E+02
     12365   1  4.962025E+06 -5.016208E+02  7.163423E+02  7.642535E+05 -6.636449E+03  3.591096E+01
     12366   1  4.961783E+06 -1.629408E+02 -3.227090E+02  7.010342E+05 -1.674118E+04 -4.484668E+02
     12367   1  4.962100E+06  3.904701E+02  9.511937E+01  6.575902E+05 -2.134352E+04  1.483834E+02
     12368   1  4.962133E+06  1.199478E+02  4.461604E+02  6.307226E+05 -1.903757E+04  1.461231E+01
     12369   1  4.962100E+06  7.518914E+01  3.504817E+02  6.159038E+05 -1.084974E+04 -6.663963E+00
     12370   1  4.962190E+06  1.288349E+02  5.164411E+02  6.110960E+05  4.618018E+01 -4.737598E+01
     12371   1  4.962137E+06  7.311719E+01  3.477697E+02  6.158786E+05  1.093828E+04 -8.980324E+01
     12372   1  4.962204E+06  1.159713E+02  4.420273E+02  6.306758E+05  1.911586E+04 -9.093838E+01
     12373   1  4.962195E+06  3.873639E+02  9.063858E+01  6.575270E+05  2.140497E+04 -2.112121E+02
     12374   1  4.961890E+06 -1.540526E+02 -3.225285E+02  7.009603E+05  1.678069E+04  4.149840E+02
     12375   1  4.962132E+06 -4.663856E+02  7.224116E+02  7.641766E+05  6.651424E+03 -5.327191E+01
     12376   1  3.307700E+06 -3.245725E+02 -4.056371E+02  9.329186E+05 -3.071803E+03 -1.787340E+02
     12377   1  3.308020E+06  3.863504E+00  2.358635E+02  8.659583E+05 -8.481375E+03  2.859716E-01
     12378   1  3.307953E+06  2.384463E+01 -4.653231E+00  8.176982E+05 -1.086484E+04 -3.621879E+02
     12379   1  3.308057E+06  2.452681E+02  7.029477E+01  7.853896E+05 -9.806295E+03  1.031606E+01
     12380   1  3.308092E+06  9.449428E+01  2.940952E+02  7.671715E+05 -5.780399E+03 -1.063873E+02
     12381   1  3.308077E+06  1.258117E+02  1.778744E+02  7.612543E+05  3.470876E+01 -6.013120E+01
     12382   1  3.308119E+06  9.254315E+01  2.916867E+02  7.671397E+05  5.846852E+03 -1.642616E+01
     12383   1  3.308109E+06  2.416836E+02  6.649825E+01  7.853303E+05  9.865323E+03 -1.095497E+02
     12384   1  3.308024E+06  1.876070E+01 -8.677106E+00  8.176215E+05  1.091167E+04  2.793956E+02
     12385   1  3.308103E+06 -3.573519E+00  2.318301E+02  8.658807E+05  8.512556E+03 -4.429965E+01
     12386   1  3.307784E+06 -3.270362E+02 -4.110254E+02  9.328559E+05  3.082226E+03  1.601866E+02
     12387   1  1.653975E+06 -1.495558E+02  1.809708E+02  1.032816E+06 -1.351031E+03 -3.440097E+01
     12388   1  1.653905E+06 -6.077246E+01 -1.200695E+02  9.644721E+05 -3.487535E+03 -3.572069E+02
     12389   1  1.654010E+06  8.727314E+01  4.912933E+01  9.135661E+05 -4.572210E+03 -6.139793E+01
     12390   1  1.654004E+06  3.790723E+01  5.858342E+01  8.789214E+05 -4.159975E+03 -3.081936E+02
     12391   1  1.654028E+06  1.142062E+02  3.520965E+01  8.587884E+05 -2.441964E+03 -5.924270E+01
     12392   1  1.654048E+06  4.667887E+01  1.377090E+02  8.522479E+05  1.873156E+01 -6.827184E+01
     12393   1  1.654043E+06  1.127758E+02  3.352801E+01  8.587528E+05  2.476954E+03 -8.027173E+01
     12394   1  1.654031E+06  3.573555E+01  5.711192E+01  8.788548E+05  4.191993E+03  1.937594E+02
     12395   1  1.654048E+06  8.497999E+01  4.630957E+01  9.134755E+05  4.596926E+03 -3.674956E+01
     12396   1  1.653947E+06 -5.705475E+01 -1.192858E+02  9.643649E+05  3.504311E+03  2.990918E+02
     12397   1  1.654018E+06 -1.350664E+02  1.815709E+02  1.032707E+06  1.357269E+03  6.540663E+00
     12398   1 -1.544712E+01  2.057625E+01 -6.884477E-01  1.065931E+06  1.444668E+00 -1.425692E+02
     12399   1 -1.343146E+01  1.989395E+01 -1.304624E+00  9.970949E+05  4.031769E+00 -7.529596E+01
     12400   1 -9.354032E+00  2.014254E+01 -2.699530E+00  9.456131E+05  5.562474E+00 -3.975187E+02
     12401   1 -5.531174E+00  1.995037E+01 -4.744783E+00  9.101058E+05  4.756348E+00 -7.124936E+01
     12402   1 -2.537386E+00  1.969706E+01 -6.265246E+00  8.895117E+05  3.050150E+00 -2.154428E+02
     12403   1 -1.689072E+00  1.938322E+01 -7.201164E+00  8.826996E+05 -2.832103E-01 -7.113389E+01
     12404   1 -2.665768E+00  1.979536E+01 -6.162522E+00  8.894745E+05 -2.866114E+00  7.029841E+01
     12405   1 -5.686859E+00  1.999792E+01 -4.970908E+00  9.100363E+05 -5.253529E+00 -4.842314E+01
     12406   1 -9.673082E+00  2.046820E+01 -2.406723E+00  9.455227E+05 -5.472223E+00  2.960038E+02
     12407   1 -1.345287E+01  2.081218E+01 -1.251194E+00  9.970036E+05 -4.371195E+00  1.822688E+01
     12408   1 -1.526931E+01  2.268447E+01  3.531320E-01  1.065858E+06 -1.566804E+00  1.179546E+02
     12409   1 -1.654001E+06  1.904583E+02 -1.817420E+02  1.032830E+06  1.354644E+03 -3.438144E+01
     12410   1 -1.653929E+06  9.256658E+01  1.158480E+02  9.644838E+05  3.496129E+03 -3.572031E+02
     12411   1 -1.654029E+06 -6.417415E+01 -6.110126E+01  9.135764E+05  4.583765E+03 -6.141979E+01
     12412   1 -1.654016E+06 -1.952087E+01 -7.564510E+01  8.789308E+05  4.169710E+03 -3.080512E+02
     12413   1 -1.654035E+06 -9.815470E+01 -5.690438E+01  8.587976E+05  2.448334E+03 -5.913800E+01
     12414   1 -1.654052E+06 -3.097097E+01 -1.605697E+02  8.522570E+05 -1.937944E+01 -6.814195E+01
     12415   1 -1.654049E+06 -9.652994E+01 -5.485530E+01  8.587620E+05 -2.482680E+03 -8.024260E+01
     12416   1 -1.654043E+06 -1.730501E+01 -7.494570E+01  8.788645E+05 -4.202848E+03  1.938581E+02
     12417   1 -1.654067E+06 -6.155728E+01 -5.735910E+01  9.134860E+05 -4.608051E+03 -3.666427E+01
     12418   1 -1.653972E+06  8.709341E+01  1.131512E+02  9.643767E+05 -3.513367E+03  2.993206E+02
     12419   1 -1.654045E+06  1.727551E+02 -1.827293E+02  1.032721E+06 -1.360528E+03  6.575408E+00
     12420   1 -3.307717E+06  3.551888E+02  4.056018E+02  9.329417E+05  3.075012E+03 -1.792446E+02
     12421   1 -3.308035E+06  2.570498E+01 -2.404422E+02  8.659779E+05  8.490426E+03  1.499901E-01
     12422   1 -3.307961E+06  8.118421E+00 -7.643274E-02  8.177153E+05  1.087697E+04 -3.622921E+02
     12423   1 -3.308058E+06 -2.139588E+02 -8.286395E+01  7.854056E+05  9.817120E+03  1.072110E+01
     12424   1 -3.308086E+06 -6.235013E+01 -3.068097E+02  7.671867E+05  5.786949E+03 -1.063028E+02
     12425   1 -3.308070E+06 -9.521147E+01 -1.959259E+02  7.612695E+05 -3.485473E+01 -5.975496E+01
     12426   1 -3.308114E+06 -6.017649E+01 -3.041824E+02  7.671551E+05 -5.853386E+03 -1.656865E+01
     12427   1 -3.308109E+06 -2.104513E+02 -7.959083E+01  7.853465E+05 -9.876429E+03 -1.092924E+02
     12428   1 -3.308032E+06  1.395249E+01  4.658069E+00  8.176391E+05 -1.092387E+04  2.793720E+02
     12429   1 -3.308118E+06  3.486176E+01 -2.365585E+02  8.659007E+05 -8.521919E+03 -4.381138E+01
     12430   1 -3.307801E+06  3.622807E+02  4.136001E+02  9.328797E+05 -3.085670E+03  1.602520E+02
     12431   1 -4.962028E+06  5.277219E+02 -7.060350E+02  7.642803E+05  6.640503E+03  3.597194E+01
     12432   1 -4.961788E+06  1.742240E+02  3.066402E+02  7.010567E+05  1.675233E+04 -4.483275E+02
     12433   1 -4.962099E+06 -3.787814E+02 -9.820533E+01  6.576092E+05  2.135662E+04  1.483562E+02
     12434   1 -4.962127E+06 -1.195996E+02 -4.765012E+02  6.307406E+05  1.905119E+04  1.528040E+01
     12435   1 -4.962086E+06 -6.897011E+01 -3.662544E+02  6.159208E+05  1.085577E+04 -6.584433E+00
     12436   1 -4.962177E+06 -1.299754E+02 -5.522217E+02  6.111131E+05 -4.457752E+01 -4.686558E+01
     12437   1 -4.962123E+06 -6.717770E+01 -3.647169E+02  6.158958E+05 -1.094720E+04 -9.011229E+01
     12438   1 -4.962198E+06 -1.148598E+02 -4.702538E+02  6.306939E+05 -1.912681E+04 -9.070117E+01
     12439   1 -4.962194E+06 -3.766244E+02 -9.674820E+01  6.575466E+05 -2.142005E+04 -2.114080E+02
     12440   1 -4.961896E+06  1.644796E+02  3.089719E+02  7.009828E+05 -1.679042E+04  4.155545E+02
     12441   1 -4.962136E+06  4.873637E+02 -7.169665E+02  7.642038E+05 -6.655759E+03 -5.325295E+01
     12442   1 -6.615225E+06  8.304020E+02  1.312004E+03  5.227875E+05  1.217244E+04 -4.093585E+02
     12443   1 -6.616210E+06 -5.303222E+02 -3.625140E+02  4.661342E+05  3.333454E+04  3.957493E+02
     12444   1 -6.616239E+06 -2.030988E+02 -7.389767E+02  4.351163E+05  4.074256E+04  2.711438E+02
     12445   1 -6.616116E+06  3.237691E+01 -6.454151E+02  4.171278E+05  3.370509E+04  6.493912E+01
     12446   1 -6.616233E+06 -1.799717E+02 -7.379331E+02  4.072066E+05  1.880638E+04  4.082588E+01
     12447   1 -6.616127E+06  9.838320E+01 -6.707703E+02  4.041725E+05 -4.662310E+01 -3.002204E+01
     12448   1 -6.616276E+06 -1.796263E+02 -7.407270E+02  4.071900E+05 -1.891143E+04 -1.043827E+02
     12449   1 -6.616198E+06  3.549227E+01 -6.396810E+02  4.170967E+05 -3.378403E+04 -1.113241E+02
     12450   1 -6.616346E+06 -2.001056E+02 -7.444484E+02  4.350776E+05 -4.081493E+04 -3.086011E+02
     12451   1 -6.616335E+06 -5.131946E+02 -3.494534E+02  4.660953E+05 -3.337528E+04 -4.086382E+02
     12452   1 -6.615343E+06  8.521536E+02  1.315699E+03  5.227571E+05 -1.218740E+04  4.047239E+02
     12453   1 -8.270579E+06  6.248817E+02 -2.493580E+03  1.920152E+05  3.281425E+04  6.248092E+02
     12454   1 -8.270724E+06 -7.441070E+02 -1.685575E+03  1.650076E+05  7.095069E+04  3.870856E+02
     12455   1 -8.270167E+06  3.956216E+02 -1.126981E+03  1.546817E+05  7.222585E+04  6.961448E+01
     12456   1 -8.270367E+06 -3.550183E+02 -1.052362E+03  1.478615E+05  5.631750E+04  8.507450E+01
     12457   1 -8.270132E+06  2.512269E+02 -8.907559E+02  1.445972E+05  3.036238E+04  1.790092E+00
     12458   1 -8.270325E+06 -2.665370E+02 -9.412003E+02  1.433950E+05 -3.979751E+01 -9.784068E+00
     12459   1 -8.270175E+06  2.499052E+02 -9.036881E+02  1.445911E+05 -3.046434E+04 -2.563877E+01
     12460   1 -8.270450E+06 -3.506938E+02 -1.054894E+03  1.478510E+05 -5.638541E+04 -9.930455E+01
     12461   1 -8.270274E+06  3.898608E+02 -1.154576E+03  1.546668E+05 -7.229791E+04 -8.434512E+01
     12462   1 -8.270842E+06 -7.525929E+02 -1.681192E+03  1.649921E+05 -7.098347E+04 -3.892149E+02
     12463   1 -8.270686E+06  5.820751E+02 -2.525473E+03  1.919974E+05 -3.283169E+04 -6.319175E+02
     12464   1  7.952464E+06 -5.158048E+02  2.454405E+03  1.919976E+05 -3.280937E+04  6.130632E+02
     12465   1  7.952595E+06  7.367280E+02  1.588892E+03  1.650004E+05 -7.091746E+04  3.696908E+02
     12466   1  7.952071E+06 -3.607918E+02  1.096607E+03  1.546759E+05 -7.220108E+04  7.095878E+01
     12467   1  7.952270E+06  3.348931E+02  9.609993E+02  1.478588E+05 -5.627398E+04  7.493836E+01
     12468   1  7.952065E+06 -2.289836E+02  8.471803E+02  1.445928E+05 -3.034237E+04  1.347233E+00
     12469   1  7.952256E+06  2.533987E+02  8.574843E+02  1.433904E+05  7.209896E+01 -1.813954E+01
     12470   1  7.952133E+06 -2.304566E+02  8.546004E+02  1.445844E+05  3.046769E+04 -2.636401E+01
     12471   1  7.952396E+06  3.371049E+02  9.849031E+02  1.478426E+05  5.639798E+04 -1.040189E+02
     12472   1  7.952239E+06 -3.676077E+02  1.104589E+03  1.546563E+05  7.228869E+04 -8.112700E+01
     12473   1  7.952783E+06  7.234111E+02  1.606362E+03  1.649795E+05  7.098317E+04 -3.797906E+02
     12474   1  7.952643E+06 -5.591749E+02  2.429843E+03  1.919819E+05  3.282671E+04 -6.035786E+02
     12475   1  6.360781E+06 -8.479776E+02 -1.268250E+03  5.227864E+05 -1.216423E+04 -3.970024E+02
     12476   1  6.361724E+06  4.839438E+02  3.184069E+02  4.661289E+05 -3.331640E+04  3.718052E+02
     12477   1  6.361753E+06  2.025329E+02  7.140129E+02  4.351088E+05 -4.071853E+04  2.583196E+02
     12478   1  6.361643E+06 -3.114079E+01  5.865839E+02  4.171188E+05 -3.367150E+04  5.002635E+01
     12479   1  6.361772E+06  1.829083E+02  7.009664E+02  4.071973E+05 -1.878309E+04  3.161522E+01
     12480   1  6.361678E+06 -9.576632E+01  6.072405E+02  4.041603E+05  7.437458E+01 -4.702514E+01
     12481   1  6.361837E+06  1.812599E+02  7.003331E+02  4.071734E+05  1.892229E+04 -1.114480E+02
     12482   1  6.361765E+06 -3.472714E+01  5.863041E+02  4.170748E+05  3.379755E+04 -1.252133E+02
     12483   1  6.361919E+06  2.007986E+02  7.120410E+02  4.350495E+05  4.081511E+04 -3.038707E+02
     12484   1  6.361908E+06  4.984311E+02  3.219070E+02  4.660608E+05  3.337863E+04 -4.037202E+02
     12485   1  6.360966E+06 -7.984854E+02 -1.255841E+03  5.227135E+05  1.218740E+04  3.901571E+02
     12486   1  4.771153E+06 -4.277213E+02  7.069529E+02  7.642256E+05 -6.636739E+03  4.355309E+01
     12487   1  4.770919E+06 -1.261094E+02 -3.019264E+02  7.010251E+05 -1.673534E+04 -4.338205E+02
     12488   1  4.771228E+06  3.916809E+02  9.848681E+01  6.575945E+05 -2.133470E+04  1.403449E+02
     12489   1  4.771262E+06  1.292273E+02  4.350109E+02  6.307301E+05 -1.902513E+04 -1.661713E+00
     12490   1  4.771237E+06  8.792005E+01  3.452744E+02  6.159096E+05 -1.083294E+04 -1.987458E+01
     12491   1  4.771331E+06  1.385830E+02  5.025692E+02  6.110968E+05  6.584656E+01 -7.070134E+01
     12492   1  4.771292E+06  8.544321E+01  3.419386E+02  6.158735E+05  1.095984E+04 -1.056348E+02
     12493   1  4.771367E+06  1.244839E+02  4.288881E+02  6.306628E+05  1.913692E+04 -1.142110E+02
     12494   1  4.771370E+06  3.839726E+02  9.228672E+01  6.575074E+05  2.142337E+04 -2.176792E+02
     12495   1  4.771086E+06 -1.414767E+02 -3.100788E+02  7.009357E+05  1.679389E+04  3.825335E+02
     12496   1  4.771323E+06 -4.408366E+02  6.959703E+02  7.641507E+05  6.655909E+03 -5.066784E+01
     12497   1  3.180463E+06 -3.428538E+02 -3.997762E+02  9.329613E+05 -3.069292E+03 -1.748198E+02
     12498   1  3.180769E+06 -1.254974E+01  2.196996E+02  8.659856E+05 -8.478121E+03 -1.392174E+01
     12499   1  3.180703E+06  1.751548E+01 -5.407919E+00  8.177136E+05 -1.085812E+04 -3.551236E+02
     12500   1  3.180804E+06  2.287304E+02  6.333587E+01  7.854008E+05 -9.796556E+03 -1.040178E+01
     12501   1  3.180843E+06  8.387814E+01  2.813174E+02  7.671808E+05 -5.767746E+03 -1.192071E+02
     12502   1  3.180834E+06  1.118290E+02  1.658320E+02  7.612578E+05  4.906808E+01 -8.925694E+01
     12503   1  3.180883E+06  8.095436E+01  2.779914E+02  7.671359E+05  5.862588E+03 -4.040969E+01
     12504   1  3.180880E+06  2.232440E+02  5.790760E+01  7.853169E+05  9.880330E+03 -1.393697E+02
     12505   1  3.180807E+06  1.287803E+01 -1.037061E+01  8.175994E+05  1.092482E+04  2.487744E+02
     12506   1  3.180889E+06 -3.567684E+00  2.192425E+02  8.658500E+05  8.521687E+03 -6.514345E+01
     12507   1  3.180586E+06 -3.039739E+02 -3.937486E+02  9.328209E+05  3.085752E+03  1.525282E+02
     12508   1  1.590339E+06 -1.199532E+02  1.757632E+02  1.032784E+06 -1.350662E+03 -2.481731E+01
     12509   1  1.590275E+06 -3.773893E+01 -1.079373E+02  9.644628E+05 -3.484408E+03 -3.494094E+02
     12510   1  1.590380E+06  9.861496E+01  4.730302E+01  9.135760E+05 -4.566714E+03 -6.388496E+01
     12511   1  1.590379E+06  5.453886E+01  6.327520E+01  8.789352E+05 -4.154293E+03 -3.188556E+02
     12512   1  1.590404E+06  1.261347E+02  3.508627E+01  8.587998E+05 -2.434051E+03 -7.630902E+01
     12513   1  1.590428E+06  6.322733E+01  1.381760E+02  8.522524E+05  2.570359E+01 -1.009583E+02
     12514   1  1.590425E+06  1.246368E+02  3.378098E+01  8.587490E+05  2.485138E+03 -1.053492E+02
     12515   1  1.590418E+06  5.119508E+01  5.946190E+01  8.788400E+05  4.198227E+03  1.473856E+02
     12516   1  1.590435E+06  9.516878E+01  4.584532E+01  9.134513E+05  4.603034E+03 -5.889405E+01
     12517   1  1.590340E+06 -4.291914E+01 -1.122779E+02  9.643344E+05  3.507885E+03  2.618569E+02
     12518   1  1.590407E+06 -1.186502E+02  1.740838E+02  1.032677E+06  1.358718E+03  4.873866E+00
     12519   1 -2.786214E+01  3.025774E+01 -2.359503E-01  1.065987E+06  2.790185E+00 -1.393501E+02
     12520   1 -2.398335E+01  2.375508E+01 -3.311705E+00  9.971332E+05  7.008815E+00 -8.866036E+01
     12521   1 -1.843781E+01  1.822329E+01 -7.770416E+00  9.456357E+05  8.368691E+00 -3.907865E+02
     12522   1 -1.215424E+01  1.514248E+01 -1.161573E+01  9.101237E+05  7.810422E+00 -9.197641E+01
     12523   1 -7.825307E+00  1.364409E+01 -1.452719E+01  8.895270E+05  4.095449E+00 -2.273257E+02
     12524   1 -6.000183E+00  1.354433E+01 -1.504362E+01  8.827084E+05  9.984272E-02 -1.048107E+02
     12525   1 -7.951517E+00  1.366579E+01 -1.469665E+01  8.894747E+05 -4.893416E+00  3.807603E+01
     12526   1 -1.252624E+01  1.536541E+01 -1.135333E+01  9.100255E+05 -7.661151E+00 -8.682885E+01
     12527   1 -1.886933E+01  1.819874E+01 -8.195107E+00  9.455018E+05 -8.940461E+00  2.597351E+02
     12528   1 -2.499145E+01  2.308941E+01 -3.317582E+00  9.969732E+05 -6.852414E+00 -9.919093E+00
     12529   1 -2.918793E+01  2.799641E+01 -1.542313E+00  1.065824E+06 -2.705793E+00  1.110099E+02
     12530   1 -1.590391E+06  1.734665E+02 -1.768066E+02  1.032804E+06  1.355360E+03 -2.500013E+01
     12531   1 -1.590317E+06  8.860864E+01  1.029906E+02  9.644800E+05  3.498233E+03 -3.495465E+02
     12532   1 -1.590408E+06 -4.690725E+01 -5.503671E+01  9.135914E+05  4.583668E+03 -6.367874E+01
     12533   1 -1.590393E+06 -3.535849E+00 -7.817152E+01  8.789497E+05  4.170382E+03 -3.186396E+02
     12534   1 -1.590409E+06 -7.562365E+01 -5.375649E+01  8.588137E+05  2.442334E+03 -7.601672E+01
     12535   1 -1.590430E+06 -1.331572E+01 -1.591619E+02  8.522662E+05 -2.526918E+01 -1.008330E+02
     12536   1 -1.590430E+06 -7.409598E+01 -5.303515E+01  8.587631E+05 -2.495265E+03 -1.052565E+02
     12537   1 -1.590434E+06  3.057046E-01 -7.336448E+01  8.788546E+05 -4.213640E+03  1.473500E+02
     12538   1 -1.590464E+06 -4.331755E+01 -5.501374E+01  9.134671E+05 -4.621374E+03 -5.878845E+01
     12539   1 -1.590383E+06  9.655350E+01  1.098054E+02  9.643521E+05 -3.521648E+03  2.619269E+02
     12540   1 -1.590459E+06  1.765245E+02 -1.749585E+02  1.032698E+06 -1.364191E+03  5.050024E+00
     12541   1 -3.180497E+06  3.886480E+02  3.978982E+02  9.329973E+05  3.075334E+03 -1.743079E+02
     12542   1 -3.180798E+06  4.766078E+01 -2.251759E+02  8.660159E+05  8.493345E+03 -1.393338E+01
     12543   1 -3.180721E+06  6.637949E+00 -1.267150E+01  8.177406E+05  1.087677E+04 -3.545933E+02
     12544   1 -3.180810E+06 -2.091911E+02 -8.641591E+01  7.854257E+05  9.813551E+03 -1.011524E+01
     12545   1 -3.180840E+06 -6.779816E+01 -3.140741E+02  7.672052E+05  5.777269E+03 -1.184616E+02
     12546   1 -3.180827E+06 -9.480244E+01 -1.962587E+02  7.612818E+05 -4.903362E+01 -8.926134E+01
     12547   1 -3.180880E+06 -6.495293E+01 -3.111640E+02  7.671605E+05 -5.872648E+03 -4.006404E+01
     12548   1 -3.180886E+06 -2.031418E+02 -8.032966E+01  7.853423E+05 -9.897310E+03 -1.397085E+02
     12549   1 -3.180826E+06  1.087296E+01 -8.852053E+00  8.176268E+05 -1.094387E+04  2.491183E+02
     12550   1 -3.180919E+06  3.731520E+01 -2.243361E+02  8.658807E+05 -8.536754E+03 -6.516124E+01
     12551   1 -3.180622E+06  3.445830E+02  3.884613E+02  9.328570E+05 -3.091547E+03  1.528663E+02
     12552   1 -4.771168E+06  4.500421E+02 -7.225045E+02  7.642668E+05  6.643000E+03  4.303444E+01
     12553   1 -4.770928E+06  1.584850E+02  3.097892E+02  7.010585E+05  1.675133E+04 -4.343161E+02
     12554   1 -4.771226E+06 -3.656769E+02 -1.223148E+02  6.576244E+05  2.135693E+04  1.411476E+02
     12555   1 -4.771245E+06 -9.265708E+01 -4.407368E+02  6.307575E+05  1.904267E+04 -1.307493E+00
     12556   1 -4.771212E+06 -6.045118E+01 -3.807751E+02  6.159365E+05  1.084590E+04 -1.879708E+01
     12557   1 -4.771300E+06 -1.025399E+02 -5.175228E+02  6.111233E+05 -6.791022E+01 -7.083290E+01
     12558   1 -4.771268E+06 -5.740437E+01 -3.758668E+02  6.159006E+05 -1.096856E+04 -1.052099E+02
     12559   1 -4.771348E+06 -8.870679E+01 -4.377513E+02  6.306908E+05 -1.915799E+04 -1.148700E+02
     12560   1 -4.771369E+06 -3.563317E+02 -1.119869E+02  6.575377E+05 -2.144279E+04 -2.173702E+02
     12561   1 -4.771093E+06  1.750102E+02  3.140746E+02  7.009704E+05 -1.681187E+04  3.824530E+02
     12562   1 -4.771337E+06  4.700936E+02 -7.048537E+02  7.641927E+05 -6.661851E+03 -5.014266E+01
     12563   1 -6.360777E+06  8.557724E+02  1.242517E+03  5.228217E+05  1.217263E+04 -3.965508E+02
     12564   1 -6.361716E+06 -4.671589E+02 -3.027622E+02  4.661560E+05  3.333555E+04  3.722520E+02
     12565   1 -6.361739E+06 -2.105964E+02 -7.585480E+02  4.351327E+05  4.074671E+04  2.589908E+02
     12566   1 -6.361611E+06  3.600273E+01 -5.954287E+02  4.171407E+05  3.369075E+04  5.081119E+01
     12567   1 -6.361735E+06 -1.956427E+02 -7.603859E+02  4.072190E+05  1.880029E+04  3.233558E+01
     12568   1 -6.361630E+06  9.838984E+01 -6.287972E+02  4.041815E+05 -7.863910E+01 -4.690291E+01
     12569   1 -6.361800E+06 -1.929978E+02 -7.562143E+02  4.071952E+05 -1.893028E+04 -1.114015E+02
     12570   1 -6.361731E+06  3.781935E+01 -6.019933E+02  4.170973E+05 -3.382406E+04 -1.257893E+02
     12571   1 -6.361905E+06 -2.063892E+02 -7.473862E+02  4.350737E+05 -4.083695E+04 -3.039801E+02
     12572   1 -6.361899E+06 -4.874493E+02 -3.180591E+02  4.660884E+05 -3.340135E+04 -4.038214E+02
     12573   1 -6.360962E+06  8.041273E+02  1.238992E+03  5.227488E+05 -1.219421E+04  3.904374E+02
     12574   1 -7.952456E+06  5.063389E+02 -2.485948E+03  1.920110E+05  3.282123E+04  6.117576E+02
     12575   1 -7.952583E+06 -7.218123E+02 -1.571241E+03  1.650107E+05  7.094329E+04  3.700545E+02
     12576   1 -7.952050E+06  3.627425E+02 -1.142634E+03  1.546846E+05  7.223611E+04  7.072094E+01
     12577   1 -7.952227E+06 -3.108970E+02 -9.646409E+02  1.478671E+05  5.629764E+04  7.582574E+01
     12578   1 -7.952017E+06  2.353285E+02 -9.072758E+02  1.446009E+05  3.036295E+04  1.202771E+00
     12579   1 -7.952196E+06 -2.294757E+02 -8.745448E+02  1.433983E+05 -7.708645E+01 -1.766129E+01
     12580   1 -7.952085E+06  2.379994E+02 -9.106403E+02  1.445927E+05 -3.047724E+04 -2.676103E+01
     12581   1 -7.952351E+06 -3.153751E+02 -9.961740E+02  1.478509E+05 -5.643008E+04 -1.040170E+02
     12582   1 -7.952218E+06  3.728983E+02 -1.140145E+03  1.546655E+05 -7.231618E+04 -8.153177E+01
     12583   1 -7.952768E+06 -7.092251E+02 -1.599586E+03  1.649899E+05 -7.101342E+04 -3.797408E+02
     12584   1 -7.952634E+06  5.598163E+02 -2.447454E+03  1.919960E+05 -3.283691E+04 -6.035379E+02
     12585   1  7.634343E+06 -5.967537E+02  2.305004E+03  1.920076E+05 -3.279995E+04  5.702472E+02
     12586   1  7.634463E+06  6.680751E+02  1.524884E+03  1.650039E+05 -7.091771E+04  3.575743E+02
     12587   1  7.633954E+06 -3.687287E+02  1.032498E+03  1.546801E+05 -7.217770E+04  5.802038E+01
     12588   1  7.634150E+06  3.108737E+02  9.217333E+02  1.478602E+05 -5.626177E+04  7.448797E+01
     12589   1  7.633959E+06 -2.377586E+02  8.021830E+02  1.445955E+05 -3.030704E+04 -9.667407E+00
     12590   1  7.634161E+06  2.273554E+02  8.162339E+02  1.433905E+05  9.479088E+01 -1.862611E+01
     12591   1  7.634059E+06 -2.368204E+02  8.206803E+02  1.445832E+05  3.050810E+04 -3.823504E+01
     12592   1  7.634338E+06  3.057859E+02  9.367339E+02  1.478385E+05  5.642393E+04 -1.016371E+02
     12593   1  7.634207E+06 -3.627561E+02  1.069830E+03  1.546497E+05  7.232104E+04 -8.861529E+01
     12594   1  7.634748E+06  6.851632E+02  1.531561E+03  1.649711E+05  7.099799E+04 -3.619947E+02
     12595   1  7.634622E+06 -5.279373E+02  2.347114E+03  1.919702E+05  3.283504E+04 -5.864250E+02
     12596   1  6.106320E+06 -7.242390E+02 -1.184042E+03  5.227581E+05 -1.216550E+04 -3.759092E+02
     12597   1  6.107218E+06  5.078574E+02  3.167185E+02  4.661209E+05 -3.330809E+04  3.656865E+02
     12598   1  6.107252E+06  2.144083E+02  6.949975E+02  4.351121E+05 -4.070479E+04  2.394864E+02
     12599   1  6.107145E+06 -1.542551E+01  5.685728E+02  4.171262E+05 -3.365439E+04  4.390824E+01
     12600   1  6.107279E+06  1.938699E+02  6.837903E+02  4.072029E+05 -1.875515E+04  9.989662E+00
     12601   1  6.107201E+06 -7.560015E+01  5.888787E+02  4.041619E+05  1.033146E+02 -5.859547E+01
     12602   1  6.107374E+06  1.919638E+02  6.840543E+02  4.071692E+05  1.895883E+04 -1.338177E+02
     12603   1  6.107325E+06 -1.864776E+01  5.666647E+02  4.170632E+05  3.383010E+04 -1.353352E+02
     12604   1  6.107494E+06  2.062062E+02  6.926741E+02  4.350312E+05  4.084634E+04 -3.138605E+02
     12605   1  6.107503E+06  4.836217E+02  3.074621E+02  4.660368E+05  3.339942E+04 -3.919405E+02
     12606   1  6.106607E+06 -7.625342E+02 -1.203040E+03  5.226872E+05  1.219505E+04  3.669878E+02
     12607   1  4.580282E+06 -4.793579E+02  6.540460E+02  7.642676E+05 -6.632802E+03  2.697717E+01
     12608   1  4.580055E+06 -1.537663E+02 -2.979137E+02  7.010509E+05 -1.673187E+04 -4.209917E+02
     12609   1  4.580345E+06  3.633730E+02  9.104367E+01  6.576090E+05 -2.132493E+04  1.193011E+02
     12610   1  4.580380E+06  1.142413E+02  4.174444E+02  6.307424E+05 -1.900875E+04 -1.173696E+01
     12611   1  4.580361E+06  7.157649E+01  3.285245E+02  6.159194E+05 -1.081104E+04 -4.679658E+01
     12612   1  4.580464E+06  1.206805E+02  4.817681E+02  6.111018E+05  9.315633E+01 -9.103687E+01
     12613   1  4.580441E+06  6.779264E+01  3.234698E+02  6.158689E+05  1.098998E+04 -1.395780E+02
     12614   1  4.580532E+06  1.066636E+02  4.094799E+02  6.306483E+05  1.916736E+04 -1.357140E+02
     12615   1  4.580553E+06  3.570753E+02  8.260887E+01  6.574812E+05  2.145019E+04 -2.422128E+02
     12616   1  4.580295E+06 -1.374748E+02 -2.977287E+02  7.008994E+05  1.681288E+04  3.549883E+02
     12617   1  4.580532E+06 -4.121499E+02  6.663541E+02  7.641068E+05  6.663573E+03 -6.205274E+01
     12618   1  3.053212E+06 -2.747166E+02 -3.697247E+02  9.329165E+05 -3.069760E+03 -1.670151E+02
     12619   1  3.053507E+06  2.254897E+01  2.226562E+02  8.659721E+05 -8.472969E+03 -5.471987E+00
     12620   1  3.053447E+06  3.525208E+01 -4.948521E-01  8.177232E+05 -1.084995E+04 -3.563252E+02
     12621   1  3.053549E+06  2.394438E+02  7.102007E+01  7.854175E+05 -9.784286E+03 -2.249070E+01
     12622   1  3.053590E+06  9.931015E+01  2.762091E+02  7.671938E+05 -5.751472E+03 -1.493105E+02
     12623   1  3.053592E+06  1.280663E+02  1.693755E+02  7.612644E+05  6.916577E+01 -1.148611E+02
     12624   1  3.053648E+06  9.565024E+01  2.717350E+02  7.671306E+05  5.884218E+03 -8.682251E+01
     12625   1  3.053659E+06  2.327516E+02  6.384885E+01  7.852986E+05  9.902323E+03 -1.680106E+02
     12626   1  3.053599E+06  2.590953E+01 -7.882339E+00  8.175669E+05  1.094406E+04  1.952934E+02
     12627   1  3.053688E+06  8.205275E+00  2.148172E+02  8.658087E+05  8.535701E+03 -8.006589E+01
     12628   1  3.053401E+06 -2.805580E+02 -3.802511E+02  9.327766E+05  3.090834E+03  1.302825E+02
     12629   1  1.526702E+06 -1.298605E+02  1.663817E+02  1.032849E+06 -1.348247E+03 -4.007883E+01
     12630   1  1.526641E+06 -4.701495E+01 -1.137598E+02  9.645065E+05 -3.480449E+03 -3.415902E+02
     12631   1  1.526743E+06  9.170834E+01  4.589950E+01  9.136011E+05 -4.561504E+03 -8.319906E+01
     12632   1  1.526742E+06  4.406087E+01  5.118335E+01  8.789571E+05 -4.145408E+03 -3.208215E+02
     12633   1  1.526772E+06  1.146608E+02  3.121394E+01  8.588182E+05 -2.425552E+03 -1.120876E+02
     12634   1  1.526798E+06  5.086618E+01  1.230691E+02  8.522641E+05  3.712732E+01 -1.299925E+02
     12635   1  1.526802E+06  1.119632E+02  2.799045E+01  8.587475E+05  2.494795E+03 -1.552404E+02
     12636   1  1.526799E+06  3.997876E+01  4.862356E+01  8.788243E+05  4.209063E+03  1.021677E+02
     12637   1  1.526822E+06  8.710975E+01  4.037984E+01  9.134193E+05  4.610690E+03 -1.064834E+02
     12638   1  1.526733E+06 -3.989883E+01 -1.117670E+02  9.642887E+05  3.514063E+03  2.294055E+02
     12639   1  1.526799E+06 -1.024134E+02  1.676061E+02  1.032623E+06  1.360771E+03 -1.504102E+01
     12640   1 -4.836882E+01  3.765347E+01 -1.172964E+00  1.065944E+06  3.608884E+00 -1.352424E+02
     12641   1 -3.899793E+01  3.563269E+01 -2.792974E+00  9.971230E+05  9.798865E+00 -7.767864E+01
     12642   1 -2.683272E+01  3.560493E+01 -5.744308E+00  9.456532E+05  1.277726E+01 -3.932179E+02
     12643   1 -1.642977E+01  3.515419E+01 -9.715381E+00  9.101485E+05  1.068617E+01 -1.035258E+02
     12644   1 -8.957754E+00  3.487995E+01 -1.235210E+01  8.895478E+05  6.577511E+00 -2.582667E+02
     12645   1 -6.792970E+00  3.435316E+01 -1.410758E+01  8.827215E+05 -5.916760E-01 -1.352843E+02
     12646   1 -9.246791E+00  3.503634E+01 -1.216830E+01  8.894740E+05 -6.422856E+00 -1.945100E+01
     12647   1 -1.685544E+01  3.518592E+01 -1.013371E+01  9.100098E+05 -1.173975E+01 -1.250247E+02
     12648   1 -2.758247E+01  3.598610E+01 -5.248123E+00  9.454697E+05 -1.275341E+01  1.971136E+02
     12649   1 -3.937587E+01  3.667421E+01 -2.928611E+00  9.969318E+05 -1.057121E+01 -3.229457E+01
     12650   1 -4.858745E+01  4.059357E+01  4.427731E-01  1.065781E+06 -3.985001E+00  8.695477E+01
     12651   1 -1.526788E+06  2.040295E+02 -1.684915E+02  1.032878E+06  1.357305E+03 -3.975544E+01
     12652   1 -1.526711E+06  1.053240E+02  1.060531E+02  9.645318E+05  3.501246E+03 -3.411245E+02
     12653   1 -1.526793E+06 -4.742343E+01 -6.780524E+01  9.136240E+05  4.587961E+03 -8.280747E+01
     12654   1 -1.526772E+06 -6.547284E+00 -8.141784E+01  8.789785E+05  4.167156E+03 -3.202402E+02
     12655   1 -1.526789E+06 -8.061334E+01 -6.986047E+01  8.588391E+05  2.439316E+03 -1.116832E+02
     12656   1 -1.526809E+06 -1.708180E+01 -1.633746E+02  8.522849E+05 -3.852303E+01 -1.297015E+02
     12657   1 -1.526819E+06 -7.760557E+01 -6.591639E+01  8.587685E+05 -2.507540E+03 -1.552613E+02
     12658   1 -1.526830E+06 -2.547071E+00 -8.041685E+01  8.788461E+05 -4.233243E+03  1.021247E+02
     12659   1 -1.526874E+06 -4.212647E+01 -6.035534E+01  9.134424E+05 -4.636511E+03 -1.066667E+02
     12660   1 -1.526806E+06  9.560482E+01  1.007283E+02  9.643143E+05 -3.535849E+03  2.294768E+02
     12661   1 -1.526889E+06  1.718567E+02 -1.695123E+02  1.032653E+06 -1.369001E+03 -1.515636E+01
     12662   1 -3.053276E+06  3.311757E+02  3.683127E+02  9.329674E+05  3.077793E+03 -1.678548E+02
     12663   1 -3.053555E+06  3.149974E+01 -2.301144E+02  8.660154E+05  8.494675E+03 -5.088250E+00
     12664   1 -3.053472E+06  2.101389E+01 -1.060616E+01  8.177619E+05  1.087781E+04 -3.558301E+02
     12665   1 -3.053553E+06 -1.837532E+02 -9.374775E+01  7.854542E+05  9.808119E+03 -2.117482E+01
     12666   1 -3.053580E+06 -4.294414E+01 -3.012856E+02  7.672293E+05  5.765756E+03 -1.488438E+02
     12667   1 -3.053576E+06 -7.350454E+01 -2.017280E+02  7.612999E+05 -6.964350E+01 -1.140277E+02
     12668   1 -3.053638E+06 -3.886607E+01 -2.963061E+02  7.671663E+05 -5.898380E+03 -8.723781E+01
     12669   1 -3.053663E+06 -1.773456E+02 -8.776933E+01  7.853358E+05 -9.927051E+03 -1.678593E+02
     12670   1 -3.053625E+06  3.146151E+01 -1.731603E+00  8.176065E+05 -1.097200E+04  1.946579E+02
     12671   1 -3.053736E+06  4.780561E+01 -2.232437E+02  8.658531E+05 -8.558276E+03 -7.971915E+01
     12672   1 -3.053465E+06  3.438705E+02  3.832790E+02  9.328287E+05 -3.099507E+03  1.300881E+02
     12673   1 -4.580312E+06  5.266842E+02 -6.383290E+02  7.643281E+05  6.642975E+03  2.763197E+01
     12674   1 -4.580075E+06  1.770086E+02  2.716147E+02  7.011023E+05  1.675802E+04 -4.198300E+02
     12675   1 -4.580343E+06 -3.398417E+02 -9.800855E+01  6.576535E+05  2.135479E+04  1.198950E+02
     12676   1 -4.580361E+06 -1.081469E+02 -4.677882E+02  6.307847E+05  1.903817E+04 -9.836153E+00
     12677   1 -4.580323E+06 -5.619361E+01 -3.565503E+02  6.159602E+05  1.082431E+04 -4.637586E+01
     12678   1 -4.580425E+06 -1.164574E+02 -5.407108E+02  6.111429E+05 -9.011099E+01 -8.987761E+01
     12679   1 -4.580403E+06 -5.302099E+01 -3.538407E+02  6.159102E+05 -1.100869E+04 -1.403287E+02
     12680   1 -4.580513E+06 -9.909112E+01 -4.556357E+02  6.306910E+05 -1.919171E+04 -1.355510E+02
     12681   1 -4.580550E+06 -3.353403E+02 -9.558897E+01  6.575267E+05 -2.148385E+04 -2.431919E+02
     12682   1 -4.580316E+06  1.600288E+02  2.770108E+02  7.009509E+05 -1.683632E+04  3.555029E+02
     12683   1 -4.580563E+06  4.510535E+02 -6.598183E+02  7.641682E+05 -6.674136E+03 -6.237542E+01
     12684   1 -6.106319E+06  7.497619E+02  1.212607E+03  5.228091E+05  1.217601E+04 -3.769521E+02
     12685   1 -6.107210E+06 -5.003277E+02 -3.569502E+02  4.661613E+05  3.334013E+04  3.656021E+02
     12686   1 -6.107217E+06 -1.791596E+02 -6.828757E+02  4.351472E+05  4.073864E+04  2.406401E+02
     12687   1 -6.107095E+06  3.213607E+01 -6.257863E+02  4.171599E+05  3.369129E+04  4.526406E+01
     12688   1 -6.107205E+06 -1.561203E+02 -6.937543E+02  4.072353E+05  1.876814E+04  1.087961E+01
     12689   1 -6.107130E+06  9.396757E+01 -6.522446E+02  4.041947E+05 -9.660287E+01 -5.797772E+01
     12690   1 -6.107299E+06 -1.555458E+02 -6.991416E+02  4.072020E+05 -1.898309E+04 -1.342926E+02
     12691   1 -6.107275E+06  3.809042E+01 -6.143011E+02  4.170973E+05 -3.385566E+04 -1.356674E+02
     12692   1 -6.107457E+06 -1.744563E+02 -6.939238E+02  4.350674E+05 -4.088819E+04 -3.148462E+02
     12693   1 -6.107494E+06 -4.680131E+02 -3.310047E+02  4.660783E+05 -3.342600E+04 -3.917907E+02
     12694   1 -6.106604E+06  7.902086E+02  1.218118E+03  5.227398E+05 -1.220774E+04  3.669942E+02
     12695   1 -7.634326E+06  6.170230E+02 -2.271907E+03  1.920298E+05  3.281659E+04  5.723225E+02
     12696   1 -7.634441E+06 -6.800548E+02 -1.574686E+03  1.650195E+05  7.096114E+04  3.573882E+02
     12697   1 -7.633904E+06  3.720843E+02 -1.031681E+03  1.546942E+05  7.222081E+04  5.952656E+01
     12698   1 -7.634082E+06 -3.354539E+02 -1.001195E+03  1.478733E+05  5.630633E+04  7.433317E+01
     12699   1 -7.633867E+06  2.350393E+02 -8.292922E+02  1.446083E+05  3.032280E+04 -8.577230E+00
     12700   1 -7.634071E+06 -2.518320E+02 -9.032020E+02  1.434036E+05 -8.676374E+01 -1.900435E+01
     12701   1 -7.633965E+06  2.324261E+02 -8.534559E+02  1.445961E+05 -3.053683E+04 -3.793208E+01
     12702   1 -7.634270E+06 -3.271187E+02 -1.005381E+03  1.478520E+05 -5.645496E+04 -1.022642E+02
     12703   1 -7.634154E+06  3.615235E+02 -1.083684E+03  1.546639E+05 -7.237313E+04 -8.877186E+01
     12704   1 -7.634725E+06 -6.956463E+02 -1.565675E+03  1.649871E+05 -7.103448E+04 -3.622153E+02
     12705   1 -7.634604E+06  5.347869E+02 -2.333676E+03  1.919920E+05 -3.285368E+04 -5.864279E+02
     12706   1  7.316214E+06 -4.304116E+02  2.278345E+03  1.919912E+05 -3.280473E+04  5.728592E+02
     12707   1  7.316316E+06  6.939468E+02  1.457773E+03  1.650025E+05 -7.089355E+04  3.383635E+02
     12708   1  7.315828E+06 -3.239674E+02  1.008110E+03  1.546804E+05 -7.217004E+04  6.567603E+01
     12709   1  7.316013E+06  3.113786E+02  8.750151E+02  1.478656E+05 -5.622214E+04  5.883289E+01
     12710   1  7.315847E+06 -2.047947E+02  7.748790E+02  1.445978E+05 -3.028259E+04 -7.972129E+00
     12711   1  7.316056E+06  2.381649E+02  7.882112E+02  1.433928E+05  1.485438E+02 -3.478100E+01
     12712   1  7.315993E+06 -2.075439E+02  7.883949E+02  1.445814E+05  3.054516E+04 -3.955646E+01
     12713   1  7.316289E+06  3.155558E+02  9.183111E+02  1.478334E+05  5.647823E+04 -1.152643E+02
     12714   1  7.316202E+06 -3.360139E+02  1.023138E+03  1.546408E+05  7.235488E+04 -8.557254E+01
     12715   1  7.316746E+06  6.683021E+02  1.489261E+03  1.649590E+05  7.103048E+04 -3.587213E+02
     12716   1  7.316644E+06 -5.147519E+02  2.231673E+03  1.919564E+05  3.284239E+04 -5.540577E+02
     12717   1  5.851861E+06 -8.150707E+02 -1.180579E+03  5.227925E+05 -1.215961E+04 -3.677361E+02
     12718   1  5.852715E+06  4.323421E+02  2.913593E+02  4.661404E+05 -3.330402E+04  3.348453E+02
     12719   1  5.852731E+06  1.838912E+02  6.580127E+02  4.351251E+05 -4.069176E+04  2.290271E+02
     12720   1  5.852634E+06 -2.893991E+01  5.445936E+02  4.171372E+05 -3.362758E+04  2.248324E+01
     12721   1  5.852768E+06  1.661156E+02  6.481803E+02  4.072134E+05 -1.872384E+04 -1.584835E+00
     12722   1  5.852715E+06 -8.987973E+01  5.646364E+02  4.041675E+05  1.489988E+02 -8.950385E+01
     12723   1  5.852905E+06  1.632329E+02  6.470238E+02  4.071666E+05  1.900442E+04 -1.498735E+02
     12724   1  5.852892E+06 -3.576237E+01  5.434487E+02  4.170505E+05  3.388121E+04 -1.666699E+02
     12725   1  5.853087E+06  1.800615E+02  6.542258E+02  4.350072E+05  4.088824E+04 -3.168534E+02
     12726   1  5.853124E+06  4.588686E+02  2.972392E+02  4.660030E+05  3.343110E+04 -3.982008E+02
     12727   1  5.852286E+06 -7.206376E+02 -1.156033E+03  5.226428E+05  1.220721E+04  3.536210E+02
     12728   1  4.389397E+06 -3.578962E+02  6.622669E+02  7.642136E+05 -6.635281E+03  4.585378E+01
     12729   1  4.389173E+06 -9.570390E+01 -2.706397E+02  7.010345E+05 -1.672491E+04 -4.044313E+02
     12730   1  4.389453E+06  3.716219E+02  9.961979E+01  6.576197E+05 -2.131316E+04  1.152384E+02
     12731   1  4.389487E+06  1.286746E+02  4.100039E+02  6.307603E+05 -1.898916E+04 -3.653700E+01
     12732   1  4.389478E+06  9.137392E+01  3.292723E+02  6.159361E+05 -1.078186E+04 -6.613513E+01
     12733   1  4.389591E+06  1.365851E+02  4.717742E+02  6.111098E+05  1.299067E+02 -1.337337E+02
     12734   1  4.389592E+06  8.675186E+01  3.229918E+02  6.158657E+05  1.103228E+04 -1.703260E+02
     12735   1  4.389705E+06  1.201215E+02  3.987783E+02  6.306279E+05  1.921056E+04 -1.841546E+02
     12736   1  4.389753E+06  3.577788E+02  8.795184E+01  6.574454E+05  2.148933E+04 -2.626952E+02
     12737   1  4.389530E+06 -1.244650E+02 -2.856795E+02  7.008505E+05  1.684186E+04  3.046724E+02
     12738   1  4.389772E+06 -3.846476E+02  6.405419E+02  7.640520E+05  6.673716E+03 -5.900401E+01
     12739   1  2.925962E+06 -3.248046E+02 -3.729451E+02  9.329879E+05 -3.066241E+03 -1.638912E+02
     12740   1  2.926242E+06 -1.137890E+01  2.006619E+02  8.660171E+05 -8.469980E+03 -2.752791E+01
     12741   1  2.926180E+06  2.307690E+01 -1.459721E-01  8.177510E+05 -1.084131E+04 -3.466467E+02
     12742   1  2.926276E+06  2.163045E+02  6.241978E+01  7.854421E+05 -9.769249E+03 -5.388396E+01
     12743   1  2.926324E+06  8.298396E+01  2.648104E+02  7.672180E+05 -5.729982E+03 -1.693780E+02
     12744   1  2.926334E+06  1.068319E+02  1.555525E+02  7.612784E+05  9.577675E+01 -1.681177E+02
     12745   1  2.926406E+06  7.765975E+01  2.586500E+02  7.671306E+05  5.914972E+03 -1.295204E+02
     12746   1  2.926433E+06  2.061229E+02  5.253731E+01  7.852779E+05  9.933302E+03 -2.295620E+02
     12747   1  2.926396E+06  1.383644E+01 -9.516640E+00  8.175263E+05  1.097221E+04  1.460205E+02
     12748   1  2.926497E+06  4.920103E+00  2.002360E+02  8.657472E+05  8.556016E+03 -1.247765E+02
     12749   1  2.926233E+06 -2.524209E+02 -3.611804E+02  9.327025E+05  3.098779E+03  1.213346E+02
     12750   1  1.463051E+06 -8.500390E+01  1.627890E+02  1.032785E+06 -1.348560E+03 -1.862168E+01
     12751   1  1.462997E+06 -1.316910E+01 -9.454825E+01  9.644878E+05 -3.476854E+03 -3.324543E+02
     12752   1  1.463099E+06  1.069295E+02  4.335508E+01  9.136214E+05 -4.553563E+03 -8.018823E+01
     12753   1  1.463106E+06  6.765311E+01  6.195830E+01  8.789870E+05 -4.137165E+03 -3.431915E+02
     12754   1  1.463137E+06  1.320668E+02  3.206110E+01  8.588464E+05 -2.411971E+03 -1.373950E+02
     12755   1  1.463171E+06  7.476435E+01  1.287661E+02  8.522804E+05  4.971092E+01 -1.895271E+02
     12756   1  1.463180E+06  1.293155E+02  2.982654E+01  8.587480E+05  2.511148E+03 -2.016537E+02
     12757   1  1.463187E+06  6.136867E+01  5.470078E+01  8.788009E+05  4.222357E+03  1.967175E+01
     12758   1  1.463213E+06  1.007050E+02  4.115403E+01  9.133740E+05  4.624377E+03 -1.507147E+02
     12759   1  1.463134E+06 -2.360541E+01 -1.032916E+02  9.642261E+05  3.522508E+03  1.649832E+02
     12760   1  1.463197E+06 -8.413246E+01  1.596521E+02  1.032556E+06  1.364220E+03 -1.801324E+01
     12761   1 -7.531000E+01  4.893520E+01 -6.671351E-01  1.066035E+06  6.304646E+00 -1.312168E+02
     12762   1 -6.015092E+01  3.802885E+01 -5.794799E+00  9.971852E+05  1.507597E+01 -9.892631E+01
     12763   1 -4.399569E+01  2.977035E+01 -1.319586E+01  9.456925E+05  1.731784E+01 -3.833086E+02
     12764   1 -2.872040E+01  2.571587E+01 -1.918655E+01  9.101845E+05  1.557760E+01 -1.358689E+02
     12765   1 -1.879090E+01  2.377778E+01 -2.391882E+01  8.895829E+05  8.066610E+00 -2.787429E+02
     12766   1 -1.484033E+01  2.388514E+01 -2.448423E+01  8.827452E+05  4.088767E-02 -1.965022E+02
     12767   1 -1.911348E+01  2.374324E+01 -2.422620E+01  8.894813E+05 -9.717087E+00 -7.411402E+01
     12768   1 -2.953663E+01  2.596419E+01 -1.873071E+01  9.099930E+05 -1.555570E+01 -2.007223E+02
     12769   1 -4.506559E+01  2.964525E+01 -1.392422E+01  9.454298E+05 -1.853402E+01  1.375366E+02
     12770   1 -6.216094E+01  3.711109E+01 -5.515958E+00  9.968681E+05 -1.484832E+01 -8.923620E+01
     12771   1 -7.770102E+01  4.522027E+01 -2.672693E+00  1.065705E+06 -6.021802E+00  7.785035E+01
     12772   1 -1.463192E+06  1.723654E+02 -1.639382E+02  1.032824E+06  1.358890E+03 -1.880568E+01
     12773   1 -1.463106E+06  9.499198E+01  8.531519E+01  9.645218E+05  3.506466E+03 -3.320956E+02
     12774   1 -1.463171E+06 -2.360146E+01 -5.695813E+01  9.136522E+05  4.588588E+03 -7.916027E+01
     12775   1 -1.463145E+06  1.480178E+01 -8.805538E+01  8.790165E+05  4.169318E+03 -3.422788E+02
     12776   1 -1.463155E+06 -4.955533E+01 -6.341772E+01  8.588752E+05  2.428163E+03 -1.365910E+02
     12777   1 -1.463182E+06  6.866972E+00 -1.641312E+02  8.523091E+05 -4.904202E+01 -1.892019E+02
     12778   1 -1.463198E+06 -4.689042E+01 -6.233827E+01  8.587770E+05 -2.531276E+03 -2.016281E+02
     12779   1 -1.463228E+06  2.181021E+01 -7.882590E+01  8.788307E+05 -4.253522E+03  1.924803E+01
     12780   1 -1.463286E+06 -1.787021E+01 -5.772472E+01  9.134057E+05 -4.662394E+03 -1.510695E+02
     12781   1 -1.463244E+06  1.088314E+02  9.832842E+01  9.642609E+05 -3.552348E+03  1.644985E+02
     12782   1 -1.463338E+06  1.768902E+02 -1.616892E+02  1.032596E+06 -1.376444E+03 -1.795234E+01
     12783   1 -2.926067E+06  4.006635E+02  3.711239E+02  9.330589E+05  3.079765E+03 -1.620889E+02
     12784   1 -2.926319E+06  6.841581E+01 -2.114983E+02  8.660779E+05  8.502726E+03 -2.631947E+01
     12785   1 -2.926224E+06  1.840300E+01 -2.796941E+01  8.178063E+05  1.087939E+04 -3.445531E+02
     12786   1 -2.926291E+06 -1.819496E+02 -1.004157E+02  7.854939E+05  9.803202E+03 -5.258776E+01
     12787   1 -2.926317E+06 -5.246799E+01 -3.156084E+02  7.672692E+05  5.748322E+03 -1.674999E+02
     12788   1 -2.926320E+06 -7.528972E+01 -2.041206E+02  7.613292E+05 -9.563298E+01 -1.680213E+02
     12789   1 -2.926400E+06 -4.745280E+01 -3.104062E+02  7.671822E+05 -5.934916E+03 -1.290402E+02
     12790   1 -2.926448E+06 -1.708484E+02 -8.902846E+01  7.853307E+05 -9.967125E+03 -2.307851E+02
     12791   1 -2.926442E+06  2.671523E+01 -2.106979E+01  8.175821E+05 -1.101150E+04  1.458123E+02
     12792   1 -2.926577E+06  5.044756E+01 -2.094020E+02  8.658087E+05 -8.588353E+03 -1.258458E+02
     12793   1 -2.926341E+06  3.198271E+02  3.534632E+02  9.327740E+05 -3.111659E+03  1.215330E+02
     12794   1 -4.389455E+06  3.961732E+02 -6.865122E+02  7.642980E+05  6.648862E+03  4.513406E+01
     12795   1 -4.389202E+06  1.488243E+02  2.825891E+02  7.011036E+05  1.675908E+04 -4.044362E+02
     12796   1 -4.389450E+06 -3.286002E+02 -1.374308E+02  6.576827E+05  2.135814E+04  1.179829E+02
     12797   1 -4.389448E+06 -6.911940E+01 -4.187410E+02  6.308194E+05  1.902387E+04 -3.519230E+01
     12798   1 -4.389422E+06 -4.579711E+01 -3.839051E+02  6.159946E+05  1.080678E+04 -6.351816E+01
     12799   1 -4.389522E+06 -7.775243E+01 -4.944211E+02  6.111676E+05 -1.337469E+02 -1.339197E+02
     12800   1 -4.389537E+06 -4.009164E+01 -3.745536E+02  6.159245E+05 -1.104924E+04 -1.695920E+02
     12801   1 -4.389665E+06 -6.228188E+01 -4.136977E+02  6.306882E+05 -1.925188E+04 -1.859972E+02
     12802   1 -4.389751E+06 -3.119646E+02 -1.177026E+02  6.575094E+05 -2.152908E+04 -2.629254E+02
     12803   1 -4.389558E+06  1.781923E+02  2.892862E+02  7.009222E+05 -1.687987E+04  3.033824E+02
     12804   1 -4.389830E+06  4.338739E+02 -6.522955E+02  7.641376E+05 -6.686981E+03 -5.844726E+01
     12805   1 -5.851868E+06  8.289289E+02  1.138389E+03  5.228674E+05  1.217789E+04 -3.659600E+02
     12806   1 -5.852697E+06 -4.032690E+02 -2.647794E+02  4.661990E+05  3.334429E+04  3.366695E+02
     12807   1 -5.852686E+06 -1.948667E+02 -7.284037E+02  4.351775E+05  4.074820E+04  2.310430E+02
     12808   1 -5.852549E+06  3.935504E+01 -5.549339E+02  4.171863E+05  3.366503E+04  2.451515E+01
     12809   1 -5.852669E+06 -1.832161E+02 -7.380163E+02  4.072624E+05  1.875678E+04  1.029460E-01
     12810   1 -5.852597E+06  9.683574E+01 -5.943151E+02  4.042158E+05 -1.570026E+02 -8.915238E+01
     12811   1 -5.852807E+06 -1.783170E+02 -7.297615E+02  4.072159E+05 -1.901939E+04 -1.497741E+02
     12812   1 -5.852804E+06  4.243250E+01 -5.676195E+02  4.171006E+05 -3.393239E+04 -1.681196E+02
     12813   1 -5.853043E+06 -1.856732E+02 -7.058098E+02  4.350603E+05 -4.093220E+04 -3.175227E+02
     12814   1 -5.853103E+06 -4.406986E+02 -2.945710E+02  4.660625E+05 -3.347826E+04 -3.991782E+02
     12815   1 -5.852293E+06  7.331483E+02  1.133951E+03  5.227177E+05 -1.222213E+04  3.538673E+02
     12816   1 -7.316189E+06  4.154268E+02 -2.328465E+03  1.920212E+05  3.283017E+04  5.694761E+02
     12817   1 -7.316267E+06 -6.709399E+02 -1.429785E+03  1.650250E+05  7.094795E+04  3.395888E+02
     12818   1 -7.315746E+06  3.269865E+02 -1.079849E+03  1.547007E+05  7.223933E+04  6.514712E+01
     12819   1 -7.315889E+06 -2.742108E+02 -8.774165E+02  1.478847E+05  5.626795E+04  6.094364E+01
     12820   1 -7.315706E+06  2.144639E+02 -8.641427E+02  1.446171E+05  3.032151E+04 -8.290946E+00
     12821   1 -7.315896E+06 -2.017299E+02 -8.103004E+02  1.434114E+05 -1.576257E+02 -3.373599E+01
     12822   1 -7.315852E+06  2.195988E+02 -8.696630E+02  1.446009E+05 -3.056263E+04 -4.030293E+01
     12823   1 -7.316160E+06 -2.829062E+02 -9.357348E+02  1.478527E+05 -5.653945E+04 -1.153911E+02
     12824   1 -7.316119E+06  3.454301E+02 -1.074119E+03  1.546619E+05 -7.240947E+04 -8.642250E+01
     12825   1 -7.316690E+06 -6.478360E+02 -1.483487E+03  1.649819E+05 -7.109298E+04 -3.590081E+02
     12826   1 -7.316617E+06  5.177586E+02 -2.254087E+03  1.919878E+05 -3.286465E+04 -5.538745E+02
     12827   1  6.998084E+06 -6.065036E+02  2.082466E+03  1.920086E+05 -3.278866E+04  5.110344E+02
     12828   1  6.998165E+06  5.920082E+02  1.393141E+03  1.650080E+05 -7.089818E+04  3.296048E+02
     12829   1  6.997678E+06 -3.465541E+02  9.286202E+02  1.546889E+05 -7.213044E+04  4.473198E+01
     12830   1  6.997861E+06  2.823693E+02  8.324004E+02  1.478697E+05 -5.620149E+04  6.355915E+01
     12831   1  6.997708E+06 -2.239883E+02  7.184055E+02  1.446055E+05 -3.021812E+04 -2.751017E+01
     12832   1  6.997944E+06  2.030938E+02  7.351640E+02  1.433958E+05  1.931957E+02 -3.449376E+01
     12833   1  6.997918E+06 -2.221622E+02  7.512049E+02  1.445818E+05  3.062270E+04 -6.299918E+01
     12834   1  6.998258E+06  2.729149E+02  8.590584E+02  1.478278E+05  5.653284E+04 -1.140710E+02
     12835   1  6.998223E+06 -3.365590E+02  9.952146E+02  1.546295E+05  7.242042E+04 -1.038764E+02
     12836   1  6.998792E+06  6.240031E+02  1.405770E+03  1.649429E+05  7.106444E+04 -3.385918E+02
     12837   1  6.998726E+06 -4.745567E+02  2.161534E+03  1.919330E+05  3.286021E+04 -5.440080E+02
     12838   1  5.597391E+06 -6.107565E+02 -1.064943E+03  5.227386E+05 -1.216478E+04 -3.394100E+02
     12839   1  5.598185E+06  4.881614E+02  2.972899E+02  4.661276E+05 -3.329400E+04  3.410702E+02
     12840   1  5.598200E+06  2.052596E+02  6.448016E+02  4.351348E+05 -4.067269E+04  2.071324E+02
     12841   1  5.598099E+06 -8.058650E+00  5.262959E+02  4.171562E+05 -3.360020E+04  1.881079E+01
     12842   1  5.598243E+06  1.860423E+02  6.357270E+02  4.072305E+05 -1.867497E+04 -3.667736E+01
     12843   1  5.598214E+06 -6.276862E+01  5.451354E+02  4.041785E+05  2.033387E+02 -1.086490E+02
     12844   1  5.598437E+06  1.824406E+02  6.357012E+02  4.071661E+05  1.907442E+04 -1.950611E+02
     12845   1  5.598470E+06 -1.351578E+01  5.228603E+02  4.170346E+05  3.394735E+04 -1.897276E+02
     12846   1  5.598708E+06  1.910993E+02  6.396688E+02  4.349757E+05  4.095239E+04 -3.490455E+02
     12847   1  5.598790E+06  4.434754E+02  2.804122E+02  4.659577E+05  3.347638E+04 -3.913070E+02
     12848   1  5.598021E+06 -6.856363E+02 -1.102460E+03  5.225891E+05  1.222407E+04  3.218603E+02
     12849   1  4.198517E+06 -4.752301E+02  5.855982E+02  7.642837E+05 -6.630070E+03  1.602301E+01
     12850   1  4.198291E+06 -1.542667E+02 -2.727184E+02  7.010780E+05 -1.672445E+04 -3.895079E+02
     12851   1  4.198540E+06  3.317632E+02  8.952618E+01  6.576476E+05 -2.130131E+04  8.863549E+01
     12852   1  4.198571E+06  1.052525E+02  3.929610E+02  6.307900E+05 -1.896439E+04 -4.557853E+01
     12853   1  4.198569E+06  6.451824E+01  3.099864E+02  6.159639E+05 -1.074448E+04 -1.102899E+02
     12854   1  4.198700E+06  1.092743E+02  4.505780E+02  6.111305E+05  1.797621E+02 -1.678019E+02
     12855   1  4.198731E+06  5.787748E+01  3.008867E+02  6.158672E+05  1.109033E+04 -2.361942E+02
     12856   1  4.198879E+06  9.131291E+01  3.781368E+02  6.306090E+05  1.927154E+04 -2.274215E+02
     12857   1  4.198968E+06  3.192809E+02  7.412070E+01  6.574000E+05  2.154520E+04 -3.200315E+02
     12858   1  4.198795E+06 -1.253767E+02 -2.726456E+02  7.007813E+05  1.688286E+04  2.650645E+02
     12859   1  4.199055E+06 -3.504297E+02  6.101294E+02  7.639629E+05  6.690546E+03 -8.508324E+01
     12860   1  2.798697E+06 -2.161952E+02 -3.299646E+02  9.329006E+05 -3.069531E+03 -1.512840E+02
     12861   1  2.798961E+06  4.265318E+01  2.136678E+02  8.659926E+05 -8.465818E+03 -1.730353E+00
     12862   1  2.798900E+06  4.381078E+01  6.972923E+00  8.177729E+05 -1.083182E+04 -3.514352E+02
     12863   1  2.798997E+06  2.322208E+02  7.738911E+01  7.854807E+05 -9.751691E+03 -6.421257E+01
     12864   1  2.799046E+06  1.030584E+02  2.630537E+02  7.672528E+05 -5.702756E+03 -2.211325E+02
     12865   1  2.799074E+06  1.295750E+02  1.661230E+02  7.613037E+05  1.320097E+02 -2.104714E+02
     12866   1  2.799162E+06  9.641288E+01  2.550557E+02  7.671323E+05  5.956736E+03 -2.158711E+02
     12867   1  2.799217E+06  2.201260E+02  6.428200E+01  7.852528E+05  9.977630E+03 -2.863794E+02
     12868   1  2.799209E+06  2.737877E+01 -5.976967E+00  8.174685E+05  1.101275E+04  4.991284E+01
     12869   1  2.799332E+06  1.575873E+01  1.989048E+02  8.656666E+05  8.586480E+03 -1.567124E+02
     12870   1  2.799095E+06 -2.300066E+02 -3.500371E+02  9.326094E+05  3.110128E+03  8.125584E+01
     12871   1  1.399399E+06 -1.180491E+02  1.516057E+02  1.032889E+06 -1.345069E+03 -4.681946E+01
     12872   1  1.399348E+06 -4.058951E+01 -1.090717E+02  9.645576E+05 -3.472439E+03 -3.189623E+02
     12873   1  1.399446E+06  9.196187E+01  4.541332E+01  9.136651E+05 -4.548086E+03 -1.062252E+02
     12874   1  1.399450E+06  4.576751E+01  4.459865E+01  8.790334E+05 -4.124000E+03 -3.428019E+02
     12875   1  1.399489E+06  1.120019E+02  3.029955E+01  8.588908E+05 -2.398788E+03 -1.968295E+02
     12876   1  1.399526E+06  5.125835E+01  1.096394E+02  8.523148E+05  7.057619E+01 -2.374759E+02
     12877   1  1.399549E+06  1.070274E+02  2.427497E+01  8.587562E+05  2.529999E+03 -2.962664E+02
     12878   1  1.399565E+06  3.831083E+01  4.047163E+01  8.787797E+05  4.245318E+03 -5.780711E+01
     12879   1  1.399605E+06  8.275987E+01  3.476501E+01  9.133156E+05  4.641730E+03 -2.467698E+02
     12880   1  1.399538E+06 -2.768008E+01 -1.042493E+02  9.641348E+05  3.536989E+03  1.115859E+02
     12881   1  1.399604E+06 -6.833005E+01  1.537906E+02  1.032442E+06  1.369214E+03 -5.914903E+01
     12882   1 -1.133406E+02  5.217453E+01 -1.694440E+00  1.065946E+06  6.981593E+00 -1.237515E+02
     12883   1 -8.755823E+01  4.936364E+01 -4.420617E+00  9.971620E+05  1.886442E+01 -6.879427E+01
     12884   1 -5.976173E+01  5.018517E+01 -8.843242E+00  9.457252E+05  2.372065E+01 -3.888621E+02
     12885   1 -3.755020E+01  5.038482E+01 -1.475151E+01  9.102355E+05  1.927038E+01 -1.453463E+02
     12886   1 -2.252470E+01  5.088173E+01 -1.800139E+01  8.896303E+05  1.152533E+01 -3.337100E+02
     12887   1 -1.825107E+01  5.019788E+01 -2.079043E+01  8.827812E+05 -1.198757E+00 -2.468935E+02
     12888   1 -2.312240E+01  5.102237E+01 -1.768481E+01  8.894903E+05 -1.164245E+01 -1.777712E+02
     12889   1 -3.854320E+01  5.018432E+01 -1.547205E+01  9.099704E+05 -2.142497E+01 -2.732910E+02
     12890   1 -6.134431E+01  5.026866E+01 -8.028486E+00  9.453692E+05 -2.397951E+01  2.413829E+01
     12891   1 -8.888848E+01  4.993907E+01 -5.044225E+00  9.967821E+05 -2.059282E+01 -1.335995E+02
     12892   1 -1.148996E+02  5.586856E+01  7.457235E-01  1.065607E+06 -8.029917E+00  3.239608E+01
     12893   1 -1.399609E+06  2.221279E+02 -1.560305E+02  1.032940E+06  1.363571E+03 -4.549485E+01
     12894   1 -1.399508E+06  1.200938E+02  9.733896E+01  9.646023E+05  3.512842E+03 -3.169723E+02
     12895   1 -1.399556E+06 -3.211806E+01 -7.948973E+01  9.137063E+05  4.597240E+03 -1.045021E+02
     12896   1 -1.399517E+06  6.633244E+00 -8.893317E+01  8.790727E+05  4.162954E+03 -3.410691E+02
     12897   1 -1.399528E+06 -6.343133E+01 -8.704426E+01  8.589298E+05  2.423085E+03 -1.956695E+02
     12898   1 -1.399554E+06 -2.345433E+00 -1.678543E+02  8.523537E+05 -7.351322E+01 -2.368774E+02
     12899   1 -1.399589E+06 -5.813326E+01 -7.960504E+01  8.587953E+05 -2.552810E+03 -2.965001E+02
     12900   1 -1.399634E+06  1.329666E+01 -8.788363E+01  8.788197E+05 -4.289414E+03 -5.843279E+01
     12901   1 -1.399719E+06 -2.202954E+01 -6.490548E+01  9.133572E+05 -4.690039E+03 -2.479598E+02
     12902   1 -1.399702E+06  1.026537E+02  8.677721E+01  9.641800E+05 -3.579354E+03  1.108025E+02
     12903   1 -1.399820E+06  1.644401E+02 -1.562931E+02  1.032493E+06 -1.385747E+03 -5.983083E+01
     12904   1 -2.798862E+06  2.956625E+02  3.259626E+02  9.329918E+05  3.085242E+03 -1.525147E+02
     12905   1 -2.799076E+06  3.489660E+01 -2.228003E+02  8.660706E+05  8.507358E+03  5.217666E-01
     12906   1 -2.798961E+06  3.696096E+01 -2.428137E+01  8.178442E+05  1.088357E+04 -3.489461E+02
     12907   1 -2.799011E+06 -1.498162E+02 -1.077856E+02  7.855498E+05  9.793986E+03 -6.060831E+01
     12908   1 -2.799031E+06 -1.954951E+01 -2.976851E+02  7.673203E+05  5.728069E+03 -2.196962E+02
     12909   1 -2.799049E+06 -4.765363E+01 -2.093695E+02  7.613716E+05 -1.333591E+02 -2.087211E+02
     12910   1 -2.799147E+06 -1.224243E+01 -2.884961E+02  7.672005E+05 -5.981596E+03 -2.169867E+02
     12911   1 -2.799233E+06 -1.387762E+02 -9.736879E+01  7.853226E+05 -1.002240E+04 -2.868939E+02
     12912   1 -2.799271E+06  5.470043E+01 -8.054802E+00  8.175416E+05 -1.106458E+04  4.729594E+01
     12913   1 -2.799448E+06  6.291599E+01 -2.112505E+02  8.657465E+05 -8.630305E+03 -1.575820E+02
     12914   1 -2.799261E+06  3.190762E+02  3.538200E+02  9.327021E+05 -3.127516E+03  8.005468E+01
     12915   1 -4.198611E+06  5.452913E+02 -5.611356E+02  7.643947E+05  6.650682E+03  1.865062E+01
     12916   1 -4.198342E+06  1.871705E+02  2.327576E+02  7.011738E+05  1.677446E+04 -3.850358E+02
     12917   1 -4.198538E+06 -2.971396E+02 -9.606856E+01  6.577323E+05  2.135594E+04  9.114872E+01
     12918   1 -4.198529E+06 -9.649104E+01 -4.643005E+02  6.308721E+05  1.901665E+04 -4.074456E+01
     12919   1 -4.198491E+06 -4.019237E+01 -3.433164E+02  6.160443E+05  1.076718E+04 -1.090792E+02
     12920   1 -4.198618E+06 -1.018935E+02 -5.306833E+02  6.112114E+05 -1.741300E+02 -1.652786E+02
     12921   1 -4.198652E+06 -3.490119E+01 -3.387600E+02  6.159485E+05 -1.112310E+04 -2.379492E+02
     12922   1 -4.198838E+06 -7.992507E+01 -4.413688E+02  6.306920E+05 -1.931443E+04 -2.277411E+02
     12923   1 -4.198964E+06 -2.883150E+02 -9.232903E+01  6.574868E+05 -2.160691E+04 -3.232931E+02
     12924   1 -4.198848E+06  1.580375E+02  2.444017E+02  7.008771E+05 -1.692780E+04  2.644886E+02
     12925   1 -4.199151E+06  4.062521E+02 -6.027221E+02  7.640758E+05 -6.711489E+03 -8.665059E+01
     12926   1 -5.597409E+06  6.502413E+02  1.112951E+03  5.228374E+05  1.218502E+04 -3.415275E+02
     12927   1 -5.598164E+06 -4.787687E+02 -3.606864E+02  4.662060E+05  3.335478E+04  3.419272E+02
     12928   1 -5.598118E+06 -1.504691E+02 -6.171443E+02  4.352049E+05  4.073339E+04  2.103703E+02
     12929   1 -5.597979E+06  3.266468E+01 -6.067433E+02  4.172248E+05  3.366557E+04  2.206712E+01
     12930   1 -5.598079E+06 -1.276834E+02 -6.356917E+02  4.072971E+05  1.869615E+04 -3.463021E+01
     12931   1 -5.598053E+06  9.071971E+01 -6.279615E+02  4.042462E+05 -1.903690E+02 -1.072582E+02
     12932   1 -5.598271E+06 -1.268522E+02 -6.458602E+02  4.072334E+05 -1.911665E+04 -1.960592E+02
     12933   1 -5.598350E+06  4.363724E+01 -5.841170E+02  4.171040E+05 -3.399072E+04 -1.906284E+02
     12934   1 -5.598620E+06 -1.440529E+02 -6.391337E+02  4.350479E+05 -4.102821E+04 -3.518563E+02
     12935   1 -5.598767E+06 -4.192244E+02 -3.102287E+02  4.660383E+05 -3.352642E+04 -3.920090E+02
     12936   1 -5.598035E+06  7.251539E+02  1.120579E+03  5.226905E+05 -1.224882E+04  3.211183E+02
     12937   1 -6.998042E+06  6.389343E+02 -2.029097E+03  1.920523E+05  3.282141E+04  5.167212E+02
     12938   1 -6.998085E+06 -6.096328E+02 -1.468328E+03  1.650398E+05  7.097958E+04  3.292425E+02
     12939   1 -6.997536E+06  3.524512E+02 -9.173425E+02  1.547178E+05  7.220738E+04  4.844260E+01
     12940   1 -6.997677E+06 -3.196965E+02 -9.420353E+02  1.478977E+05  5.627907E+04  6.308202E+01
     12941   1 -6.997481E+06  2.209519E+02 -7.400550E+02  1.446325E+05  3.024381E+04 -2.510315E+01
     12942   1 -6.997717E+06 -2.393193E+02 -8.476987E+02  1.434238E+05 -1.777041E+02 -3.523419E+01
     12943   1 -6.997687E+06  2.158137E+02 -7.838623E+02  1.446089E+05 -3.067177E+04 -6.239561E+01
     12944   1 -6.998074E+06 -3.038880E+02 -9.474919E+02  1.478566E+05 -5.658428E+04 -1.152105E+02
     12945   1 -6.998073E+06  3.336476E+02 -1.012637E+03  1.546585E+05 -7.251355E+04 -1.045668E+02
     12946   1 -6.998710E+06 -6.375676E+02 -1.449311E+03  1.649754E+05 -7.113240E+04 -3.390805E+02
     12947   1 -6.998678E+06  4.830318E+02 -2.146891E+03  1.919762E+05 -3.289644E+04 -5.444914E+02
     12948   1  6.679949E+06 -3.100762E+02  2.118504E+03  1.919776E+05 -3.280014E+04  5.418078E+02
     12949   1  6.679987E+06  6.602998E+02  1.322362E+03  1.650077E+05 -7.085784E+04  3.078053E+02
     12950   1  6.679509E+06 -2.847182E+02  9.124363E+02  1.546917E+05 -7.212060E+04  6.482101E+01
     12951   1  6.679668E+06  2.879291E+02  7.699275E+02  1.478833E+05 -5.613112E+04  3.839981E+01
     12952   1  6.679549E+06 -1.786216E+02  6.791148E+02  1.446138E+05 -3.017246E+04 -2.106537E+01
     12953   1  6.679803E+06  2.245379E+02  6.963094E+02  1.434048E+05  2.923008E+02 -6.443916E+01
     12954   1  6.679846E+06 -1.837239E+02  7.023261E+02  1.445829E+05  3.069511E+04 -6.502733E+01
     12955   1  6.680237E+06  2.958456E+02  8.456450E+02  1.478222E+05  5.663594E+04 -1.443704E+02
     12956   1  6.680288E+06 -3.050055E+02  9.387667E+02  1.546154E+05  7.249020E+04 -1.013178E+02
     12957   1  6.680902E+06  6.128632E+02  1.377735E+03  1.649211E+05  7.112986E+04 -3.476269E+02
     12958   1  6.680896E+06 -4.718173E+02  2.030623E+03  1.919059E+05  3.287685E+04 -5.040272E+02
     12959   1  5.342927E+06 -8.129955E+02 -1.104809E+03  5.227972E+05 -1.215669E+04 -3.387051E+02
     12960   1  5.343660E+06  3.660014E+02  2.615539E+02  4.661616E+05 -3.329422E+04  2.994375E+02
     12961   1  5.343632E+06  1.587784E+02  5.975077E+02  4.351623E+05 -4.065550E+04  2.045464E+02
     12962   1  5.343534E+06 -3.114747E+01  4.977518E+02  4.171850E+05 -3.355715E+04 -1.199366E+01
     12963   1  5.343676E+06  1.440494E+02  5.853615E+02  4.072618E+05 -1.862001E+04 -4.954104E+01
     12964   1  5.343688E+06 -8.837367E+01  5.130920E+02  4.042014E+05  2.859295E+02 -1.641349E+02
     12965   1  5.343951E+06  1.392814E+02  5.832413E+02  4.071737E+05  1.916110E+04 -2.259910E+02
     12966   1  5.344054E+06 -4.372576E+01  4.943134E+02  4.170208E+05  3.404556E+04 -2.544360E+02
     12967   1  5.344357E+06  1.505460E+02  5.903646E+02  4.349378E+05  4.103733E+04 -3.664767E+02
     12968   1  5.344508E+06  4.129806E+02  2.706825E+02  4.658962E+05  3.354179E+04 -4.211248E+02
     12969   1  5.343834E+06 -6.365054E+02 -1.056706E+03  5.225027E+05  1.225019E+04  3.106836E+02
     12970   1  4.007625E+06 -2.709415E+02  6.271665E+02  7.641814E+05 -6.638897E+03  5.958251E+01
     12971   1  4.007383E+06 -6.589928E+01 -2.359221E+02  7.010514E+05 -1.671972E+04 -3.646333E+02
     12972   1  4.007611E+06  3.446191E+02  1.040451E+02  6.576758E+05 -2.128879E+04  9.796993E+01
     12973   1  4.007631E+06  1.222456E+02  3.865066E+02  6.308346E+05 -1.893530E+04 -8.085751E+01
     12974   1  4.007641E+06  9.094864E+01  3.146583E+02  6.160111E+05 -1.069558E+04 -1.352991E+02
     12975   1  4.007790E+06  1.300987E+02  4.400405E+02  6.111627E+05  2.458316E+02 -2.436076E+02
     12976   1  4.007866E+06  8.260950E+01  3.031846E+02  6.158794E+05  1.116951E+04 -2.921772E+02
     12977   1  4.008064E+06  1.073955E+02  3.666014E+02  6.305849E+05  1.935565E+04 -3.240249E+02
     12978   1  4.008213E+06  3.209587E+02  8.288684E+01  6.573423E+05  2.162404E+04 -3.672752E+02
     12979   1  4.008109E+06 -1.180993E+02 -2.627151E+02  7.006906E+05  1.694337E+04  1.778666E+02
     12980   1  4.008404E+06 -3.254646E+02  5.849659E+02  7.638536E+05  6.712336E+03 -8.104692E+01
     12981   1  2.671439E+06 -3.312340E+02 -3.500586E+02  9.330151E+05 -3.065604E+03 -1.477785E+02
     12982   1  2.671677E+06 -2.960281E+01  1.805189E+02  8.660649E+05 -8.466904E+03 -3.329805E+01
     12983   1  2.671604E+06  1.547326E+01  8.999401E+00  8.178251E+05 -1.082416E+04 -3.279198E+02
     12984   1  2.671685E+06  1.914329E+02  6.393891E+01  7.855368E+05 -9.730507E+03 -1.083327E+02
     12985   1  2.671744E+06  7.137689E+01  2.518074E+02  7.673150E+05 -5.668148E+03 -2.471022E+02
     12986   1  2.671785E+06  9.052374E+01  1.464817E+02  7.613485E+05  1.794948E+02 -3.049967E+02
     12987   1  2.671904E+06  6.201020E+01  2.407369E+02  7.671516E+05  6.014433E+03 -2.899046E+02
     12988   1  2.671993E+06  1.731867E+02  4.663517E+01  7.852286E+05  1.003880E+04 -4.084569E+02
     12989   1  2.672034E+06 -2.560194E+00 -8.277418E+00  8.174008E+05  1.107051E+04 -3.467085E+01
     12990   1  2.672192E+06 -1.198698E+00  1.806695E+02  8.655498E+05  8.629795E+03 -2.501805E+02
     12991   1  2.671999E+06 -2.008015E+02 -3.275858E+02  9.324596E+05  3.127417E+03  7.016123E+01
     12992   1  1.335735E+06 -5.669890E+01  1.505905E+02  1.032760E+06 -1.348308E+03  1.843058E+00
     12993   1  1.335689E+06  1.786068E+00 -7.629420E+01  9.645201E+05 -3.471567E+03 -3.004047E+02
     12994   1  1.335783E+06  1.028533E+02  4.063773E+01  9.137064E+05 -4.539241E+03 -8.320836E+01
     12995   1  1.335795E+06  7.174488E+01  6.636495E+01  8.790977E+05 -4.114499E+03 -3.790142E+02
     12996   1  1.335833E+06  1.293791E+02  3.218757E+01  8.589588E+05 -2.376892E+03 -2.287495E+02
     12997   1  1.335884E+06  7.869967E+01  1.244574E+02  8.523633E+05  9.225519E+01 -3.426736E+02
     12998   1  1.335916E+06  1.244490E+02  2.862161E+01  8.587756E+05  2.561904E+03 -3.783859E+02
     12999   1  1.335954E+06  6.011018E+01  5.284041E+01  8.787488E+05  4.272942E+03 -2.090298E+02
     13000   1  1.336007E+06  9.201341E+01  3.795999E+01  9.132363E+05  4.671832E+03 -3.328984E+02
     13001   1  1.335961E+06 -1.877328E+01 -9.360808E+01  9.640113E+05  3.556566E+03 -8.315532E+00
     13002   1  1.336030E+06 -5.832968E+01  1.452526E+02  1.032298E+06  1.377356E+03 -6.440528E+01
     13003   1 -1.606058E+02  5.470710E+01 -1.249489E+00  1.066083E+06  1.176890E+01 -1.153575E+02
     13004   1 -1.220314E+02  3.882737E+01 -8.445755E+00  9.972549E+05  2.642285E+01 -9.770536E+01
     13005   1 -8.675166E+01  2.886477E+01 -1.841876E+01  9.457902E+05  2.875690E+01 -3.621913E+02
     13006   1 -5.716548E+01  2.550089E+01 -2.524570E+01  9.103070E+05  2.497264E+01 -1.904502E+02
     13007   1 -3.898944E+01  2.407409E+01 -3.118163E+01  8.897084E+05  1.246880E+01 -3.612359E+02
     13008   1 -3.196536E+01  2.494207E+01 -3.096383E+01  8.828403E+05 -2.166243E-01 -3.547896E+02
     13009   1 -3.969369E+01  2.374479E+01 -3.169090E+01  8.895192E+05 -1.574753E+01 -2.701178E+02
     13010   1 -5.877641E+01  2.534994E+01 -2.448682E+01  9.099483E+05 -2.543479E+01 -4.198667E+02
     13011   1 -8.905765E+01  2.803465E+01 -1.958651E+01  9.452962E+05 -3.120860E+01 -7.961367E+01
     13012   1 -1.255813E+02  3.692275E+01 -7.450571E+00  9.966520E+05 -2.603091E+01 -2.490749E+02
     13013   1 -1.642295E+02  4.745513E+01 -4.232547E+00  1.065442E+06 -1.088582E+01  1.947400E+01
     13014   1 -1.336036E+06  1.526396E+02 -1.506415E+02  1.032821E+06  1.365926E+03  1.808748E+00
     13015   1 -1.335911E+06  8.913582E+01  6.329594E+01  9.645730E+05  3.522570E+03 -2.984277E+02
     13016   1 -1.335928E+06 -4.805650E+00 -5.599363E+01  9.137555E+05  4.597105E+03 -7.999729E+01
     13017   1 -1.335879E+06  2.854415E+01 -9.827826E+01  8.791462E+05  4.166313E+03 -3.763337E+02
     13018   1 -1.335878E+06 -2.579392E+01 -6.754725E+01  8.590068E+05  2.401518E+03 -2.268433E+02
     13019   1 -1.335917E+06  2.416738E+01 -1.651254E+02  8.524115E+05 -9.130152E+01 -3.419485E+02
     13020   1 -1.335962E+06 -2.156361E+01 -6.620018E+01  8.588241E+05 -2.594683E+03 -3.786781E+02
     13021   1 -1.336041E+06  4.064517E+01 -8.083520E+01  8.787977E+05 -4.323439E+03 -2.105949E+02
     13022   1 -1.336155E+06  3.128865E+00 -5.923158E+01  9.132868E+05 -4.735914E+03 -3.347840E+02
     13023   1 -1.336188E+06  1.123475E+02  8.788531E+01  9.640652E+05 -3.608772E+03 -1.064196E+01
     13024   1 -1.336336E+06  1.594737E+02 -1.489142E+02  1.032359E+06 -1.399503E+03 -6.492620E+01
     13025   1 -2.671680E+06  4.205873E+02  3.500575E+02  9.331258E+05  3.090571E+03 -1.424407E+02
     13026   1 -2.671843E+06  8.991229E+01 -1.975917E+02  8.661621E+05  8.524269E+03 -2.823772E+01
     13027   1 -2.671696E+06  2.697151E+01 -4.311060E+01  8.179159E+05  1.088656E+04 -3.217523E+02
     13028   1 -2.671719E+06 -1.574292E+02 -1.114365E+02  7.856240E+05  9.785035E+03 -1.045483E+02
     13029   1 -2.671738E+06 -3.943692E+01 -3.111162E+02  7.674025E+05  5.695849E+03 -2.428117E+02
     13030   1 -2.671767E+06 -5.722383E+01 -2.029711E+02  7.614358E+05 -1.790464E+02 -3.047144E+02
     13031   1 -2.671899E+06 -3.116034E+01 -3.021928E+02  7.672396E+05 -6.046415E+03 -2.894058E+02
     13032   1 -2.672029E+06 -1.380944E+02 -9.062773E+01  7.853173E+05 -1.009280E+04 -4.119478E+02
     13033   1 -2.672129E+06  4.216856E+01 -3.124579E+01  8.174924E+05 -1.113609E+04 -3.699053E+01
     13034   1 -2.672362E+06  5.896037E+01 -1.926025E+02  8.656480E+05 -8.685998E+03 -2.545656E+02
     13035   1 -2.672245E+06  2.748003E+02  3.170713E+02  9.325715E+05 -3.150679E+03  6.947344E+01
     13036   1 -4.007776E+06  3.130054E+02 -6.635490E+02  7.643209E+05  6.662417E+03  5.884900E+01
     13037   1 -4.007454E+06  1.330652E+02  2.594023E+02  7.011659E+05  1.677807E+04 -3.626554E+02
     13038   1 -4.007609E+06 -2.912433E+02 -1.527414E+02  6.577831E+05  2.136268E+04  1.056486E+02
     13039   1 -4.007560E+06 -4.101672E+01 -3.811568E+02  6.309378E+05  1.898898E+04 -7.726344E+01
     13040   1 -4.007537E+06 -3.051796E+01 -3.752384E+02  6.161146E+05  1.073490E+04 -1.294240E+02
     13041   1 -4.007664E+06 -4.857299E+01 -4.487408E+02  6.112659E+05 -2.528862E+02 -2.439707E+02
     13042   1 -4.007763E+06 -2.030545E+01 -3.578677E+02  6.159834E+05 -1.119434E+04 -2.909324E+02
     13043   1 -4.007990E+06 -2.995605E+01 -3.730666E+02  6.306902E+05 -1.942149E+04 -3.286297E+02
     13044   1 -4.008212E+06 -2.632060E+02 -1.161473E+02  6.574512E+05 -2.168845E+04 -3.695124E+02
     13045   1 -4.008178E+06  1.834851E+02  2.690654E+02  7.008097E+05 -1.700905E+04  1.727585E+02
     13046   1 -4.008555E+06  3.839903E+02 -5.984134E+02  7.639934E+05 -6.736017E+03 -8.114315E+01
     13047   1 -5.342966E+06  8.259765E+02  1.035750E+03  5.229255E+05  1.218973E+04 -3.330338E+02
     13048   1 -5.343622E+06 -3.244076E+02 -2.087734E+02  4.662642E+05  3.336153E+04  3.051403E+02
     13049   1 -5.343529E+06 -1.813858E+02 -6.948283E+02  4.352567E+05  4.074814E+04  2.097257E+02
     13050   1 -5.343355E+06  4.545867E+01 -4.840552E+02  4.172751E+05  3.361232E+04 -7.405988E+00
     13051   1 -5.343472E+06 -1.730571E+02 -6.916930E+02  4.073530E+05  1.867302E+04 -4.594606E+01
     13052   1 -5.343450E+06  9.771404E+01 -5.209528E+02  4.042915E+05 -3.007806E+02 -1.633386E+02
     13053   1 -5.343746E+06 -1.643173E+02 -6.754973E+02  4.072655E+05 -1.917969E+04 -2.256808E+02
     13054   1 -5.343869E+06  5.016187E+01 -5.080599E+02  4.171128E+05 -3.412632E+04 -2.577488E+02
     13055   1 -5.344253E+06 -1.621241E+02 -6.498409E+02  4.350333E+05 -4.110579E+04 -3.686071E+02
     13056   1 -5.344465E+06 -3.922277E+02 -2.657146E+02  4.660002E+05 -3.362215E+04 -4.248454E+02
     13057   1 -5.343872E+06  6.514671E+02  1.031461E+03  5.226316E+05 -1.227616E+04  3.103940E+02
     13058   1 -6.679888E+06  2.840541E+02 -2.195988E+03  1.920321E+05  3.284448E+04  5.333378E+02
     13059   1 -6.679850E+06 -6.267419E+02 -1.268119E+03  1.650480E+05  7.094896E+04  3.112820E+02
     13060   1 -6.679297E+06  2.875119E+02 -1.004733E+03  1.547301E+05  7.223173E+04  6.347058E+01
     13061   1 -6.679381E+06 -2.316125E+02 -7.372770E+02  1.479194E+05  5.619830E+04  4.316715E+01
     13062   1 -6.679230E+06  1.917014E+02 -7.737522E+02  1.446515E+05  3.023382E+04 -2.190757E+01
     13063   1 -6.679454E+06 -1.702546E+02 -6.827124E+02  1.434404E+05 -3.085198E+02 -6.223329E+01
     13064   1 -6.679527E+06  2.014253E+02 -7.814201E+02  1.446211E+05 -3.071542E+04 -6.632044E+01
     13065   1 -6.679940E+06 -2.483365E+02 -8.419814E+02  1.478587E+05 -5.673057E+04 -1.448314E+02
     13066   1 -6.680073E+06  3.198886E+02 -9.905921E+02  1.546553E+05 -7.257313E+04 -1.029598E+02
     13067   1 -6.680752E+06 -5.856538E+02 -1.367568E+03  1.649624E+05 -7.123533E+04 -3.490609E+02
     13068   1 -6.680829E+06  4.775332E+02 -2.054026E+03  1.919626E+05 -3.291527E+04 -5.035472E+02
     13069   1  6.361815E+06 -6.644048E+02  1.835335E+03  1.920088E+05 -3.277226E+04  4.409560E+02
     13070   1  6.361798E+06  5.003429E+02  1.253311E+03  1.650173E+05 -7.087112E+04  3.062815E+02
     13071   1  6.361286E+06 -3.302608E+02  7.974825E+02  1.547108E+05 -7.204985E+04  2.984179E+01
     13072   1  6.361437E+06  2.512766E+02  7.029721E+02  1.478960E+05 -5.609245E+04  5.556755E+01
     13073   1  6.361327E+06 -2.147082E+02  5.798751E+02  1.446352E+05 -3.005462E+04 -5.548347E+01
     13074   1  6.361636E+06  1.747317E+02  5.946420E+02  1.434176E+05  3.759478E+02 -6.096422E+01
     13075   1  6.361748E+06 -2.110586E+02  6.357867E+02  1.445912E+05  3.083496E+04 -1.099471E+02
     13076   1  6.362235E+06  2.339820E+02  7.471822E+02  1.478184E+05  5.673825E+04 -1.448182E+02
     13077   1  6.362394E+06 -3.145074E+02  9.119953E+02  1.545991E+05  7.261149E+04 -1.408621E+02
     13078   1  6.363097E+06  5.579216E+02  1.274744E+03  1.648938E+05  7.119811E+04 -3.229196E+02
     13079   1  6.363185E+06 -4.152810E+02  1.981634E+03  1.918620E+05  3.291205E+04 -5.081507E+02
     13080   1  5.088459E+06 -4.626366E+02 -9.306524E+02  5.226977E+05 -1.217128E+04 -2.934732E+02
     13081   1  5.089089E+06  4.714095E+02  2.752690E+02  4.661458E+05 -3.328371E+04  3.331422E+02
     13082   1  5.089041E+06  1.895906E+02  5.853534E+02  4.351916E+05 -4.062937E+04  1.809408E+02
     13083   1  5.088917E+06 -6.807748E+00  4.625326E+02  4.172348E+05 -3.351155E+04 -5.830440E+00
     13084   1  5.089075E+06  1.751216E+02  5.619606E+02  4.073112E+05 -1.853527E+04 -1.055567E+02
     13085   1  5.089123E+06 -5.422135E+01  4.692781E+02  4.042426E+05  3.839953E+02 -1.932106E+02
     13086   1  5.089454E+06  1.684942E+02  5.607120E+02  4.071925E+05  1.928736E+04 -3.124605E+02
     13087   1  5.089649E+06 -1.552030E+01  4.563307E+02  4.170094E+05  3.416922E+04 -3.003885E+02
     13088   1  5.090050E+06  1.665537E+02  5.743348E+02  4.348915E+05  4.115902E+04 -4.422328E+02
     13089   1  5.090308E+06  3.917668E+02  2.457706E+02  4.658181E+05  3.363241E+04 -4.238193E+02
     13090   1  5.089759E+06 -6.078618E+02 -1.004017E+03  5.224004E+05  1.228458E+04  2.608148E+02
     13091   1  3.816747E+06 -5.139336E+02  5.047271E+02  7.642969E+05 -6.632800E+03  4.614412E+00
     13092   1  3.816478E+06 -1.846937E+02 -2.503073E+02  7.011256E+05 -1.672892E+04 -3.401238E+02
     13093   1  3.816644E+06  2.794376E+02  8.329550E+01  6.577335E+05 -2.127672E+04  6.868358E+01
     13094   1  3.816647E+06  7.849326E+01  3.608919E+02  6.309080E+05 -1.889849E+04 -7.917816E+01
     13095   1  3.816661E+06  4.048311E+01  2.777058E+02  6.160860E+05 -1.063288E+04 -2.050976E+02
     13096   1  3.816842E+06  8.177577E+01  4.042601E+02  6.112291E+05  3.333110E+02 -2.967540E+02
     13097   1  3.816973E+06  2.932799E+01  2.618178E+02  6.159082E+05  1.127514E+04 -4.153803E+02
     13098   1  3.817246E+06  5.383443E+01  3.340496E+02  6.305739E+05  1.946964E+04 -4.054308E+02
     13099   1  3.817483E+06  2.553326E+02  5.592734E+01  6.572732E+05  2.173244E+04 -4.886713E+02
     13100   1  3.817481E+06 -1.352501E+02 -2.507564E+02  7.005683E+05  1.702584E+04  1.153872E+02
     13101   1  3.817843E+06 -2.881980E+02  5.529319E+02  7.636818E+05  6.747119E+03 -1.377712E+02
     13102   1  2.544176E+06 -1.618384E+02 -2.837992E+02  9.328467E+05 -3.076592E+03 -1.217439E+02
     13103   1  2.544377E+06  4.376570E+01  2.103352E+02  8.660234E+05 -8.469755E+03  3.488182E+01
     13104   1  2.544287E+06  2.676729E+01  1.512598E+01  8.178764E+05 -1.081664E+04 -3.306485E+02
     13105   1  2.544361E+06  2.040864E+02  8.563135E+01  7.856267E+05 -9.707656E+03 -1.040105E+02
     13106   1  2.544415E+06  8.767598E+01  2.475071E+02  7.674039E+05 -5.623886E+03 -3.311639E+02
     13107   1  2.544487E+06  1.130175E+02  1.604620E+02  7.614258E+05  2.421362E+02 -3.698354E+02
     13108   1  2.544637E+06  7.600620E+01  2.337353E+02  7.671834E+05  6.091037E+03 -4.478301E+02
     13109   1  2.544785E+06  1.828655E+02  6.228852E+01  7.852071E+05  1.012308E+04 -5.143857E+02
     13110   1  2.544885E+06 -8.544493E-01 -6.503483E+00  8.173076E+05  1.115074E+04 -2.137721E+02
     13111   1  2.545105E+06 -5.273721E+00  1.832067E+02  8.654017E+05  8.692369E+03 -3.144162E+02
     13112   1  2.544970E+06 -1.936376E+02 -3.211891E+02  9.322727E+05  3.151336E+03 -7.186486E+00
     13113   1  1.272075E+06 -1.447805E+02  1.368628E+02  1.032915E+06 -1.344033E+03 -4.942531E+01
     13114   1  1.272025E+06 -7.162178E+01 -1.075957E+02  9.646250E+05 -3.469760E+03 -2.656565E+02
     13115   1  1.272108E+06  6.204039E+01  4.997102E+01  9.137821E+05 -4.538002E+03 -1.103864E+02
     13116   1  1.272108E+06  1.824999E+01  3.864603E+01  8.791966E+05 -4.097287E+03 -3.606209E+02
     13117   1  1.272157E+06  8.383879E+01  3.398722E+01  8.590626E+05 -2.358317E+03 -3.230699E+02
     13118   1  1.272211E+06  2.538330E+01  9.715323E+01  8.524541E+05  1.290808E+02 -4.159880E+02
     13119   1  1.272271E+06  7.482397E+01  2.296870E+01  8.588161E+05  2.597135E+03 -5.528764E+02
     13120   1  1.272328E+06  4.988598E+00  3.263454E+01  8.787308E+05  4.319675E+03 -3.427576E+02
     13121   1  1.272416E+06  4.366054E+01  2.965948E+01  9.131368E+05  4.709091E+03 -5.228288E+02
     13122   1  1.272397E+06 -4.962238E+01 -9.632668E+01  9.638365E+05  3.589054E+03 -1.012250E+02
     13123   1  1.272486E+06 -5.927408E+01  1.401227E+02  1.032063E+06  1.388939E+03 -1.492990E+02
     13124   1 -2.142398E+02  3.223028E+01 -1.793047E+00  1.065897E+06  1.021789E+01 -9.677133E+01
     13125   1 -1.594769E+02  3.338568E+01 -4.278050E+00  9.972012E+05  2.835673E+01 -2.028467E+01
     13126   1 -1.079144E+02  3.965361E+01 -7.724745E+00  9.458490E+05  3.456776E+01 -3.623584E+02
     13127   1 -6.949911E+01  4.382297E+01 -1.318647E+01  9.104094E+05  2.665302E+01 -1.825242E+02
     13128   1 -4.503740E+01  4.749050E+01 -1.422879E+01  8.898123E+05  1.544105E+01 -4.510580E+02
     13129   1 -3.853122E+01  4.700193E+01 -1.774528E+01  8.829304E+05 -2.315103E+00 -4.321203E+02
     13130   1 -4.613692E+01  4.722777E+01 -1.369367E+01  8.895567E+05 -1.640415E+01 -4.559868E+02
     13131   1 -7.147376E+01  4.257220E+01 -1.428745E+01  9.099230E+05 -3.081158E+01 -5.525525E+02
     13132   1 -1.107951E+02  3.809920E+01 -6.436619E+00  9.451862E+05 -3.556331E+01 -2.914299E+02
     13133   1 -1.629159E+02  3.162769E+01 -6.003219E+00  9.964790E+05 -3.210748E+01 -3.351673E+02
     13134   1 -2.193937E+02  3.605645E+01  1.778161E+00  1.065227E+06 -1.294995E+01 -7.036495E+01
     13135   1 -1.272485E+06  2.192355E+02 -1.446332E+02  1.032979E+06  1.375439E+03 -4.537471E+01
     13136   1 -1.272323E+06  1.148231E+02  9.461341E+01  9.646832E+05  3.532416E+03 -2.596961E+02
     13137   1 -1.272308E+06 -3.951400E+01 -9.098377E+01  9.138386E+05  4.609984E+03 -1.053504E+02
     13138   1 -1.272234E+06  2.207836E+00 -8.418492E+01  8.792522E+05  4.150346E+03 -3.564017E+02
     13139   1 -1.272235E+06 -6.426465E+01 -9.234555E+01  8.591191E+05  2.391526E+03 -3.203165E+02
     13140   1 -1.272273E+06 -3.525159E+00 -1.542314E+02  8.525109E+05 -1.350539E+02 -4.149059E+02
     13141   1 -1.272351E+06 -5.551503E+01 -7.851470E+01  8.588727E+05 -2.628322E+03 -5.537135E+02
     13142   1 -1.272456E+06  1.200718E+01 -8.406585E+01  8.787874E+05 -4.383165E+03 -3.449642E+02
     13143   1 -1.272623E+06 -2.159021E+01 -6.276656E+01  9.131933E+05 -4.780023E+03 -5.267406E+02
     13144   1 -1.272702E+06  8.284470E+01  7.372438E+01  9.638954E+05 -3.655112E+03 -1.045663E+02
     13145   1 -1.272904E+06  1.167476E+02 -1.418673E+02  1.032128E+06 -1.415546E+03 -1.515569E+02
     13146   1 -2.544513E+06  2.151682E+02  2.756635E+02  9.329697E+05  3.100220E+03 -1.234997E+02
     13147   1 -2.544599E+06  1.738791E+01 -2.137777E+02  8.661292E+05  8.531956E+03  4.196520E+01
     13148   1 -2.544405E+06  4.423670E+01 -2.881621E+01  8.179764E+05  1.089206E+04 -3.231904E+02
     13149   1 -2.544397E+06 -1.226533E+02 -1.030687E+02  7.857275E+05  9.764623E+03 -9.544883E+01
     13150   1 -2.544404E+06 -2.308838E+00 -2.667629E+02  7.675045E+05  5.658357E+03 -3.277970E+02
     13151   1 -2.544458E+06 -2.776976E+01 -1.864784E+02  7.615276E+05 -2.456033E+02 -3.664246E+02
     13152   1 -2.544627E+06  1.005629E+01 -2.501529E+02  7.672849E+05 -6.124131E+03 -4.505467E+02
     13153   1 -2.544823E+06 -1.050237E+02 -8.564338E+01  7.853087E+05 -1.018626E+04 -5.168825E+02
     13154   1 -2.545006E+06  7.226134E+01  2.604173E-01  8.174103E+05 -1.122596E+04 -2.214630E+02
     13155   1 -2.545330E+06  6.318059E+01 -1.955184E+02  8.655096E+05 -8.760235E+03 -3.192846E+02
     13156   1 -2.545313E+06  2.591781E+02  3.271720E+02  9.323950E+05 -3.179210E+03 -1.123695E+01
     13157   1 -3.816968E+06  5.806389E+02 -4.655391E+02  7.644506E+05  6.666882E+03  1.269316E+01
     13158   1 -3.816587E+06  1.989629E+02  1.963560E+02  7.012639E+05  1.680561E+04 -3.267723E+02
     13159   1 -3.816645E+06 -2.561646E+02 -6.977910E+01  6.578600E+05  2.135298E+04  7.568266E+01
     13160   1 -3.816576E+06 -9.141549E+01 -4.346653E+02  6.310344E+05  1.897100E+04 -6.814198E+01
     13161   1 -3.816530E+06 -2.566563E+01 -2.798638E+02  6.162123E+05  1.065969E+04 -2.025803E+02
     13162   1 -3.816706E+06 -9.277333E+01 -4.742863E+02  6.113567E+05 -3.232327E+02 -2.915620E+02
     13163   1 -3.816841E+06 -1.754535E+01 -2.725043E+02  6.160359E+05 -1.132036E+04 -4.192557E+02
     13164   1 -3.817177E+06 -6.263494E+01 -3.923781E+02  6.307013E+05 -1.952537E+04 -4.071111E+02
     13165   1 -3.817482E+06 -2.400082E+02 -6.440985E+01  6.574026E+05 -2.182157E+04 -4.974902E+02
     13166   1 -3.817594E+06  1.497559E+02  2.204834E+02  7.007055E+05 -1.709319E+04  1.109212E+02
     13167   1 -3.818067E+06  3.299220E+02 -5.446282E+02  7.638399E+05 -6.780706E+03 -1.428352E+02
     13168   1 -5.088528E+06  5.085434E+02  1.015368E+03  5.228484E+05  1.220083E+04 -2.979481E+02
     13169   1 -5.089047E+06 -4.747678E+02 -3.672609E+02  4.662658E+05  3.337619E+04  3.367415E+02
     13170   1 -5.088877E+06 -1.158290E+02 -5.052079E+02  4.353026E+05  4.070928E+04  1.886793E+02
     13171   1 -5.088688E+06  3.132624E+01 -5.414502E+02  4.173471E+05  3.360339E+04  1.143033E+00
     13172   1 -5.088774E+06 -9.479074E+01 -4.947107E+02  4.074215E+05  1.855522E+04 -1.015019E+02
     13173   1 -5.088829E+06  8.619376E+01 -5.276947E+02  4.043556E+05 -3.594766E+02 -1.903003E+02
     13174   1 -5.089149E+06 -9.392129E+01 -5.133923E+02  4.073040E+05 -1.934628E+04 -3.144173E+02
     13175   1 -5.089418E+06  5.086096E+01 -4.972040E+02  4.171229E+05 -3.421920E+04 -3.022980E+02
     13176   1 -5.089878E+06 -1.094719E+02 -5.481605E+02  4.350060E+05 -4.126717E+04 -4.492468E+02
     13177   1 -5.090264E+06 -3.680931E+02 -2.710210E+02  4.659414E+05 -3.370411E+04 -4.272918E+02
     13178   1 -5.089821E+06  6.460203E+02  1.024497E+03  5.225530E+05 -1.232354E+04  2.575630E+02
     13179   1 -6.361724E+06  7.119198E+02 -1.746069E+03  1.920772E+05  3.282318E+04  4.558680E+02
     13180   1 -6.361596E+06 -5.291364E+02 -1.353445E+03  1.650694E+05  7.099189E+04  3.055086E+02
     13181   1 -6.360967E+06  3.382275E+02 -7.337463E+02  1.547584E+05  7.215096E+04  3.848817E+01
     13182   1 -6.361046E+06 -3.104547E+02 -8.080176E+02  1.479448E+05  5.619741E+04  5.388264E+01
     13183   1 -6.360871E+06  2.100541E+02 -5.263607E+02  1.446811E+05  3.007913E+04 -5.042025E+01
     13184   1 -6.361180E+06 -2.305029E+02 -6.757623E+02  1.434673E+05 -3.466409E+02 -6.245089E+01
     13185   1 -6.361284E+06  1.999948E+02 -6.032669E+02  1.446375E+05 -3.090091E+04 -1.087453E+02
     13186   1 -6.361841E+06 -2.810582E+02 -8.111997E+02  1.478683E+05 -5.679367E+04 -1.465786E+02
     13187   1 -6.362058E+06  3.057460E+02 -9.033386E+02  1.546471E+05 -7.274094E+04 -1.429195E+02
     13188   1 -6.362888E+06 -5.775119E+02 -1.312573E+03  1.649467E+05 -7.129339E+04 -3.239151E+02
     13189   1 -6.363081E+06  4.207708E+02 -1.967014E+03  1.919297E+05 -3.296860E+04 -5.101612E+02
     13190   1  6.043679E+06 -1.265990E+02  1.986154E+03  1.919522E+05 -3.279529E+04  5.302409E+02
     13191   1  6.043552E+06  6.385119E+02  1.166962E+03  1.650240E+05 -7.079620E+04  2.805610E+02
     13192   1  6.043017E+06 -2.449938E+02  7.726158E+02  1.547226E+05 -7.202719E+04  7.593547E+01
     13193   1  6.043115E+06  2.623399E+02  5.787695E+02  1.479306E+05 -5.595779E+04  1.352952E+01
     13194   1  6.043055E+06 -1.512404E+02  4.707130E+02  1.446604E+05 -2.996503E+04 -3.714489E+01
     13195   1  6.043401E+06  2.116775E+02  4.863968E+02  1.434462E+05  5.528666E+02 -1.154312E+02
     13196   1  6.043636E+06 -1.606677E+02  5.077178E+02  1.446050E+05  3.096145E+04 -1.113563E+02
     13197   1  6.044234E+06  2.772594E+02  7.058493E+02  1.478187E+05  5.691365E+04 -2.064199E+02
     13198   1  6.044562E+06 -2.773638E+02  8.148113E+02  1.545818E+05  7.273352E+04 -1.386036E+02
     13199   1  6.045397E+06  5.541961E+02  1.261576E+03  1.648587E+05  7.131460E+04 -3.564665E+02
     13200   1  6.045638E+06 -4.331718E+02  1.821983E+03  1.918126E+05  3.294346E+04 -4.531488E+02
     13201   1  4.834004E+06 -8.721087E+02 -1.053961E+03  5.227996E+05 -1.215891E+04 -3.088513E+02
     13202   1  4.834522E+06  2.658836E+02  2.162500E+02  4.662090E+05 -3.329217E+04  2.737280E+02
     13203   1  4.834373E+06  1.140622E+02  5.020134E+02  4.352550E+05 -4.060022E+04  1.997272E+02
     13204   1  4.834238E+06 -4.901107E+01  3.993124E+02  4.173099E+05 -3.343675E+04 -4.780043E+01
     13205   1  4.834386E+06  1.053771E+02  4.485142E+02  4.073971E+05 -1.843609E+04 -1.140424E+02
     13206   1  4.834504E+06 -1.012400E+02  3.844541E+02  4.043144E+05  5.277242E+02 -2.900240E+02
     13207   1  4.834913E+06  9.803202E+01  4.444115E+02  4.072378E+05  1.943890E+04 -3.662613E+02
     13208   1  4.835241E+06 -7.133327E+01  3.900696E+02  4.170110E+05  3.434043E+04 -4.268346E+02
     13209   1  4.835784E+06  9.701559E+01  4.885758E+02  4.348439E+05  4.131239E+04 -4.850741E+02
     13210   1  4.836200E+06  3.461593E+02  2.285792E+02  4.657164E+05  3.375425E+04 -5.005832E+02
     13211   1  4.835837E+06 -5.484732E+02 -9.603071E+02  5.222420E+05  1.233544E+04  2.548947E+02
     13212   1  3.625880E+06 -1.693304E+02  6.081000E+02  7.641075E+05 -6.655946E+03  1.014600E+02
     13213   1  3.625536E+06 -5.910901E+01 -2.041430E+02  7.010904E+05 -1.673114E+04 -2.915067E+02
     13214   1  3.625647E+06  2.846163E+02  9.474451E+01  6.578080E+05 -2.126423E+04  1.123962E+02
     13215   1  3.625614E+06  8.725971E+01  3.339067E+02  6.310179E+05 -1.885248E+04 -1.248227E+02
     13216   1  3.625638E+06  6.680677E+01  2.619095E+02  6.162107E+05 -1.055045E+04 -2.300171E+02
     13217   1  3.625852E+06  9.933100E+01  3.624482E+02  6.113285E+05  4.474615E+02 -4.271550E+02
     13218   1  3.626065E+06  5.231298E+01  2.413971E+02  6.159738E+05  1.141291E+04 -5.104478E+02
     13219   1  3.626437E+06  6.246195E+01  2.996142E+02  6.305651E+05  1.961958E+04 -5.906826E+02
     13220   1  3.626802E+06  2.463596E+02  5.746664E+01  6.571954E+05  2.187688E+04 -5.829667E+02
     13221   1  3.626944E+06 -1.507899E+02 -2.502291E+02  7.004128E+05  1.714167E+04 -4.553946E+01
     13222   1  3.627418E+06 -2.797531E+02  5.273420E+02  7.634759E+05  6.789867E+03 -1.302011E+02
     13223   1  2.416933E+06 -4.058427E+02 -3.348360E+02  9.330219E+05 -3.073240E+03 -1.147821E+02
     13224   1  2.417079E+06 -1.099588E+02  1.536910E+02  8.661376E+05 -8.481175E+03 -6.224004E+00
     13225   1  2.416946E+06 -4.277782E+01  1.452420E+01  8.179783E+05 -1.081477E+04 -2.660677E+02
     13226   1  2.416981E+06  1.184840E+02  5.152941E+01  7.857550E+05 -9.677536E+03 -1.598619E+02
     13227   1  2.417046E+06  1.652184E+01  2.213382E+02  7.675562E+05 -5.569277E+03 -3.539572E+02
     13228   1  2.417135E+06  3.074179E+01  1.141547E+02  7.615493E+05  3.236317E+02 -5.325288E+02
     13229   1  2.417347E+06  6.202458E-01  2.019104E+02  7.672627E+05  6.192415E+03 -5.697437E+02
     13230   1  2.417563E+06  8.703497E+01  2.241724E+01  7.851981E+05  1.023456E+04 -7.474791E+02
     13231   1  2.417764E+06 -7.719646E+01 -1.681107E+01  8.172089E+05  1.125996E+04 -3.601333E+02
     13232   1  2.418072E+06 -6.276939E+01  1.559704E+02  8.651927E+05  8.777482E+03 -5.042339E+02
     13233   1  2.418036E+06 -1.791973E+02 -2.929013E+02  9.319820E+05  3.186368E+03 -2.000899E+01
     13234   1  1.208425E+06 -7.841577E+01  1.390031E+02  1.032657E+06 -1.355538E+03  5.948011E+01
     13235   1  1.208361E+06 -3.661152E+01 -4.990845E+01  9.645520E+05 -3.479456E+03 -2.183015E+02
     13236   1  1.208423E+06  4.284165E+01  3.689010E+01  9.138668E+05 -4.532165E+03 -3.402252E+01
     13237   1  1.208427E+06  2.854658E+01  7.631985E+01  8.793333E+05 -4.089973E+03 -4.093635E+02
     13238   1  1.208465E+06  8.150821E+01  3.111153E+01  8.592197E+05 -2.324251E+03 -3.509600E+02
     13239   1  1.208544E+06  3.981054E+01  1.221950E+02  8.525808E+05  1.645225E+02 -5.960845E+02
     13240   1  1.208621E+06  7.285721E+01  2.590444E+01  8.588920E+05  2.656441E+03 -6.896131E+02
     13241   1  1.208725E+06  7.182260E+00  5.153499E+01  8.787045E+05  4.372974E+03 -6.195969E+02
     13242   1  1.208847E+06  2.451576E+01  3.523627E+01  9.130091E+05  4.770990E+03 -6.826687E+02
     13243   1  1.208880E+06 -7.632224E+01 -8.381898E+01  9.636038E+05  3.630952E+03 -3.304471E+02
     13244   1  1.208995E+06 -8.740901E+01  1.311023E+02  1.031768E+06  1.406895E+03 -1.565266E+02
     13245   1 -2.766125E+02 -3.142863E+00 -1.580608E+00  1.066074E+06  1.798178E+01 -7.575637E+01
     13246   1 -1.993092E+02 -2.103857E+01 -8.930533E+00  9.973239E+05  3.580756E+01 -5.184030E+01
     13247   1 -1.378717E+02 -2.734687E+01 -1.747613E+01  9.459525E+05  3.478924E+01 -2.864232E+02
     13248   1 -9.270558E+01 -2.453003E+01 -1.939552E+01  9.105486E+05  2.847419E+01 -2.365493E+02
     13249   1 -6.723461E+01 -2.247114E+01 -2.311869E+01  8.899796E+05  1.270700E+01 -4.752112E+02
     13250   1 -5.740587E+01 -1.959899E+01 -1.977353E+01  8.830664E+05 -8.955165E-01 -6.161838E+02
     13251   1 -6.852060E+01 -2.387635E+01 -2.383781E+01  8.896405E+05 -1.882060E+01 -6.062987E+02
     13252   1 -9.541800E+01 -2.662690E+01 -1.817189E+01  9.099025E+05 -3.012994E+01 -8.284554E+02
     13253   1 -1.420571E+02 -3.096934E+01 -1.911434E+01  9.450594E+05 -3.933342E+01 -4.727420E+02
     13254   1 -2.041010E+02 -2.676415E+01 -6.288231E+00  9.962218E+05 -3.477298E+01 -5.654501E+02
     13255   1 -2.796072E+02 -2.031206E+01 -5.878721E+00  1.064879E+06 -1.532639E+01 -8.779297E+01
     13256   1 -1.208942E+06  5.775279E+01 -1.345146E+02  1.032716E+06  1.376181E+03  5.966691E+01
     13257   1 -1.208727E+06  2.825877E+01  3.982584E+01  9.646038E+05  3.544857E+03 -2.125377E+02
     13258   1 -1.208660E+06 -2.277611E+01 -3.490738E+01  9.139177E+05  4.600993E+03 -2.613564E+01
     13259   1 -1.208568E+06  7.037967E+00 -8.599284E+01  8.793876E+05  4.149982E+03 -4.030118E+02
     13260   1 -1.208552E+06 -3.231611E+01 -3.171771E+01  8.592754E+05  2.347855E+03 -3.471479E+02
     13261   1 -1.208615E+06  1.018792E+01 -1.266749E+02  8.526373E+05 -1.632136E+02 -5.947147E+02
     13262   1 -1.208709E+06 -2.660456E+01 -3.061496E+01  8.589483E+05 -2.696217E+03 -6.907642E+02
     13263   1 -1.208873E+06  2.643305E+01 -5.334773E+01  8.787586E+05 -4.431224E+03 -6.238152E+02
     13264   1 -1.209089E+06 -1.495527E+01 -4.460415E+01  9.130617E+05 -4.851984E+03 -6.882889E+02
     13265   1 -1.209256E+06  6.514623E+01  8.586844E+01  9.636553E+05 -3.700164E+03 -3.374300E+02
     13266   1 -1.209526E+06  6.852008E+01 -1.362201E+02  1.031824E+06 -1.438113E+03 -1.586778E+02
     13267   1 -2.417385E+06  4.178829E+02  3.414848E+02  9.331286E+05  3.110500E+03 -1.007730E+02
     13268   1 -2.417370E+06  8.552837E+01 -1.735832E+02  8.662391E+05  8.558374E+03  8.428235E+00
     13269   1 -2.417104E+06  8.660444E+00 -3.331125E+01  8.180809E+05  1.088788E+04 -2.510831E+02
     13270   1 -2.417048E+06 -1.565083E+02 -7.812809E+01  7.858585E+05  9.739571E+03 -1.512837E+02
     13271   1 -2.417055E+06 -4.895597E+01 -2.449615E+02  7.676641E+05  5.595684E+03 -3.452739E+02
     13272   1 -2.417129E+06 -6.060240E+01 -1.317818E+02  7.616580E+05 -3.223900E+02 -5.321662E+02
     13273   1 -2.417358E+06 -3.652981E+01 -2.301697E+02  7.673709E+05 -6.229326E+03 -5.695287E+02
     13274   1 -2.417634E+06 -1.250878E+02 -4.079546E+01  7.853034E+05 -1.029482E+04 -7.558345E+02
     13275   1 -2.417928E+06  3.410482E+01 -1.374940E+01  8.173111E+05 -1.134065E+04 -3.678789E+02
     13276   1 -2.418369E+06  3.231113E+01 -1.619589E+02  8.652944E+05 -8.851168E+03 -5.168236E+02
     13277   1 -2.418493E+06  1.591596E+02  2.801718E+02  9.320920E+05 -3.219006E+03 -2.333046E+01
     13278   1 -3.626193E+06  1.535039E+02 -6.597284E+02  7.642682E+05  6.685604E+03  1.009303E+02
     13279   1 -3.625678E+06  9.304231E+01  2.593298E+02  7.012214E+05  1.680338E+04 -2.848602E+02
     13280   1 -3.625653E+06 -2.645509E+02 -1.323306E+02  6.579389E+05  2.135303E+04  1.309075E+02
     13281   1 -3.625509E+06 -1.645393E+01 -2.601070E+02  6.311502E+05  1.890498E+04 -1.174326E+02
     13282   1 -3.625490E+06 -2.565565E+01 -2.722352E+02  6.163469E+05  1.059559E+04 -2.180543E+02
     13283   1 -3.625669E+06 -2.359041E+01 -2.862275E+02  6.114659E+05 -4.603639E+02 -4.283078E+02
     13284   1 -3.625918E+06 -8.357230E+00 -2.404955E+02  6.161104E+05 -1.143259E+04 -5.082276E+02
     13285   1 -3.626330E+06 -2.319340E-01 -2.476824E+02  6.306999E+05 -1.969412E+04 -6.008700E+02
     13286   1 -3.626811E+06 -2.205440E+02 -6.596043E+01  6.573273E+05 -2.194906E+04 -5.903115E+02
     13287   1 -3.627084E+06  1.756154E+02  2.715699E+02  7.005491E+05 -1.722756E+04 -6.026298E+01
     13288   1 -3.627735E+06  2.863147E+02 -5.380859E+02  7.636295E+05 -6.821772E+03 -1.327509E+02
     13289   1 -4.834122E+06  8.512498E+02  9.400795E+02  5.229566E+05  1.220687E+04 -2.927734E+02
     13290   1 -4.834459E+06 -2.271370E+02 -1.001099E+02  4.663410E+05  3.337066E+04  2.888627E+02
     13291   1 -4.834186E+06 -1.772265E+02 -6.068660E+02  4.353834E+05  4.071306E+04  2.112689E+02
     13292   1 -4.833929E+06  5.242212E+01 -2.844790E+02  4.174364E+05  3.347985E+04 -3.897286E+01
     13293   1 -4.834051E+06 -1.707958E+02 -5.042864E+02  4.075290E+05  1.850173E+04 -1.072877E+02
     13294   1 -4.834114E+06  9.811572E+01 -2.760565E+02  4.044445E+05 -5.552018E+02 -2.886357E+02
     13295   1 -4.834577E+06 -1.558364E+02 -4.724672E+02  4.073705E+05 -1.944022E+04 -3.651501E+02
     13296   1 -4.834923E+06  5.823337E+01 -3.287805E+02  4.171402E+05 -3.443089E+04 -4.336062E+02
     13297   1 -4.835596E+06 -1.384434E+02 -5.182267E+02  4.349732E+05 -4.137932E+04 -4.901688E+02
     13298   1 -4.836127E+06 -3.474532E+02 -2.066060E+02  4.658493E+05 -3.385716E+04 -5.113216E+02
     13299   1 -4.835954E+06  5.395172E+02  9.395830E+02  5.224011E+05 -1.236850E+04  2.527916E+02
     13300   1 -6.043558E+06  7.765294E+01 -2.101082E+03  1.920266E+05  3.285317E+04  5.092812E+02
     13301   1 -6.043251E+06 -5.938261E+02 -1.044784E+03  1.650778E+05  7.090311E+04  2.894705E+02
     13302   1 -6.042580E+06  2.417546E+02 -8.463793E+02  1.547793E+05  7.215363E+04  7.200754E+01
     13303   1 -6.042568E+06 -1.804127E+02 -4.096048E+02  1.479831E+05  5.600982E+04  2.377036E+01
     13304   1 -6.042473E+06  1.644485E+02 -4.747105E+02  1.447192E+05  3.003714E+04 -3.965121E+01
     13305   1 -6.042775E+06 -1.341983E+02 -3.116700E+02  1.434992E+05 -5.815989E+02 -1.109918E+02
     13306   1 -6.043053E+06  1.825930E+02 -4.817264E+02  1.446643E+05 -3.095683E+04 -1.132866E+02
     13307   1 -6.043669E+06 -2.121501E+02 -5.916558E+02  1.478720E+05 -5.701372E+04 -2.076331E+02
     13308   1 -6.044119E+06  2.965212E+02 -8.107165E+02  1.546403E+05 -7.280714E+04 -1.412827E+02
     13309   1 -6.045072E+06 -5.238670E+02 -1.224821E+03  1.649145E+05 -7.144582E+04 -3.611386E+02
     13310   1 -6.045503E+06  4.380211E+02 -1.833900E+03  1.918887E+05 -3.299079E+04 -4.519992E+02
     13311   1  5.725537E+06 -8.116148E+02  1.538506E+03  1.920104E+05 -3.274003E+04  3.480945E+02
     13312   1  5.725267E+06  3.805359E+02  1.075712E+03  1.650428E+05 -7.080889E+04  2.939206E+02
     13313   1  5.724624E+06 -3.250699E+02  5.612214E+02  1.547681E+05 -7.187581E+04  1.571807E+01
     13314   1  5.724705E+06  2.131829E+02  4.046848E+02  1.479663E+05 -5.586209E+04  5.842786E+01
     13315   1  5.724655E+06 -2.149968E+02  2.166646E+02  1.447164E+05 -2.974040E+04 -9.765142E+01
     13316   1  5.725104E+06  1.373125E+02  2.074945E+02  1.434863E+05  7.025831E+02 -1.025312E+02
     13317   1  5.725460E+06 -2.075595E+02  3.076008E+02  1.446375E+05  3.118935E+04 -1.947926E+02
     13318   1  5.726241E+06  1.822139E+02  4.715849E+02  1.478285E+05  5.706946E+04 -2.074825E+02
     13319   1  5.726778E+06 -3.019588E+02  7.498487E+02  1.545653E+05  7.292149E+04 -2.183412E+02
     13320   1  5.727827E+06  4.799766E+02  1.107379E+03  1.648185E+05  7.142320E+04 -3.217564E+02
     13321   1  5.728302E+06 -3.472735E+02  1.805430E+03  1.917351E+05  3.300275E+04 -4.854262E+02
     13322   1  4.579570E+06 -2.597956E+02 -7.723367E+02  5.226217E+05 -1.219056E+04 -2.247787E+02
     13323   1  4.579872E+06  4.430895E+02  2.245737E+02  4.662032E+05 -3.327129E+04  3.654753E+02
     13324   1  4.579653E+06  1.477568E+02  4.593273E+02  4.353378E+05 -4.054944E+04  1.780766E+02
     13325   1  4.579448E+06 -2.860284E+01  2.797032E+02  4.174363E+05 -3.334252E+04 -1.577376E+01
     13326   1  4.579627E+06  1.474682E+02  3.384276E+02  4.075277E+05 -1.828290E+04 -2.016334E+02
     13327   1  4.579800E+06 -6.429936E+01  2.237680E+02  4.044363E+05  6.976663E+02 -3.287308E+02
     13328   1  4.580340E+06  1.356543E+02  3.334056E+02  4.073171E+05  1.964553E+04 -5.243186E+02
     13329   1  4.580831E+06 -4.159753E+01  2.680655E+02  4.170347E+05  3.454035E+04 -5.088095E+02
     13330   1  4.581576E+06  1.128860E+02  4.358499E+02  4.347935E+05  4.151255E+04 -6.425922E+02
     13331   1  4.582222E+06  3.062944E+02  1.753118E+02  4.655969E+05  3.391129E+04 -5.189309E+02
     13332   1  4.582124E+06 -5.394371E+02 -9.148947E+02  5.220589E+05  1.239705E+04  1.675175E+02
     13333   1  3.435040E+06 -6.466864E+02  3.974890E+02  7.642967E+05 -6.646640E+03 -2.769142E+00
     13334   1  3.434602E+06 -2.920766E+02 -2.477498E+02  7.012216E+05 -1.675494E+04 -2.412560E+02
     13335   1  3.434580E+06  1.651657E+02  3.198438E+01  6.579339E+05 -2.124506E+04  8.983284E+01
     13336   1  3.434501E+06 -4.223631E+00  2.563885E+02  6.311957E+05 -1.878783E+04 -8.990511E+01
     13337   1  3.434522E+06 -3.617660E+01  1.446724E+02  6.163985E+05 -1.044123E+04 -3.362685E+02
     13338   1  3.434792E+06  4.071287E+00  2.490763E+02  6.115107E+05  5.944657E+02 -5.019132E+02
     13339   1  3.435103E+06 -5.399573E+01  1.176957E+02  6.160837E+05  1.158839E+04 -7.322050E+02
     13340   1  3.435619E+06 -4.587401E+01  2.088098E+02  6.306027E+05  1.980852E+04 -7.320919E+02
     13341   1  3.436159E+06  1.199735E+02 -1.540230E+01  6.571107E+05  2.206292E+04 -8.240072E+02
     13342   1  3.436513E+06 -2.109667E+02 -2.500374E+02  7.002152E+05  1.728878E+04 -1.462129E+02
     13343   1  3.437171E+06 -2.496988E+02  4.909946E+02  7.631606E+05  6.854871E+03 -2.497681E+02
     13344   1  2.289734E+06 -1.531640E+02 -2.288535E+02  9.327029E+05 -3.100680E+03 -5.596197E+01
     13345   1  2.289774E+06 -3.025373E+01  2.079008E+02  8.660752E+05 -8.500160E+03  1.569332E+02
     13346   1  2.289575E+06 -7.536787E+01  1.540885E+00  8.180983E+05 -1.080938E+04 -2.531755E+02
     13347   1  2.289584E+06  1.024456E+02  6.086911E+01  7.859586E+05 -9.645409E+03 -1.104464E+02
     13348   1  2.289629E+06  3.660105E+00  1.806925E+02  7.677693E+05 -5.495158E+03 -4.841852E+02
     13349   1  2.289771E+06  3.041575E+01  9.929796E+01  7.617533E+05  4.268784E+02 -6.207165E+02
     13350   1  2.290037E+06 -1.610105E+01  1.578727E+02  7.673810E+05  6.321517E+03 -8.504208E+02
     13351   1  2.290369E+06  6.622137E+01  2.006271E+01  7.852174E+05  1.037900E+04 -9.305147E+02
     13352   1  2.290690E+06 -1.196213E+02 -3.265318E+01  8.170773E+05  1.140194E+04 -6.937115E+02
     13353   1  2.291141E+06 -1.171611E+02  1.589118E+02  8.649388E+05  8.893584E+03 -6.232446E+02
     13354   1  2.291246E+06 -2.236306E+02 -2.967389E+02  9.316241E+05  3.231856E+03 -1.735539E+02
     13355   1  1.144791E+06 -2.851493E+02  1.226042E+02  1.032862E+06 -1.350477E+03 -3.505549E+01
     13356   1  1.144703E+06 -2.153437E+02 -1.154843E+02  9.646987E+05 -3.484962E+03 -1.272721E+02
     13357   1  1.144733E+06 -6.571920E+01  5.668585E+01  9.139992E+05 -4.542843E+03 -4.674907E+01
     13358   1  1.144700E+06 -1.033852E+02  2.074529E+01  8.795408E+05 -4.068290E+03 -3.360071E+02
     13359   1  1.144750E+06 -2.978541E+01  2.942391E+01  8.594502E+05 -2.299517E+03 -4.943907E+02
     13360   1  1.144832E+06 -8.663267E+01  6.797850E+01  8.527991E+05  2.271867E+02 -6.957082E+02
     13361   1  1.144958E+06 -4.592889E+01  9.645628E+00  8.590161E+05  2.716936E+03 -1.000448E+03
     13362   1  1.145106E+06 -1.264190E+02  1.331590E+01  8.787192E+05  4.460416E+03 -8.419272E+02
     13363   1  1.145305E+06 -1.023349E+02  1.824672E+01  9.128537E+05  4.842518E+03 -1.046127E+03
     13364   1  1.145405E+06 -1.810350E+02 -8.990011E+01  9.632862E+05  3.697306E+03 -4.902966E+02
     13365   1  1.145585E+06 -1.482332E+02  1.256728E+02  1.031303E+06  1.431165E+03 -3.295852E+02
     13366   1 -3.124182E+02 -1.085785E+02 -4.665104E-01  1.065689E+06  8.065546E+00 -2.844852E+01
     13367   1 -2.208518E+02 -8.646958E+01  2.444489E+00  9.972051E+05  2.692032E+01  1.308752E+02
     13368   1 -1.465248E+02 -6.139859E+01  7.995779E+00  9.460546E+05  3.150369E+01 -2.610027E+02
     13369   1 -9.648463E+01 -4.452953E+01  1.084412E+01  9.107483E+05  2.030243E+01 -1.754298E+02
     13370   1 -6.752053E+01 -3.198846E+01  1.983018E+01  8.901958E+05  1.069422E+01 -6.126689E+02
     13371   1 -6.144801E+01 -3.134247E+01  1.721609E+01  8.832722E+05 -4.142371E+00 -7.222435E+02
     13372   1 -6.917997E+01 -3.397682E+01  2.073291E+01  8.897468E+05 -1.353889E+01 -9.320473E+02
     13373   1 -9.959495E+01 -4.937021E+01  9.513757E+00  9.098910E+05 -2.761102E+01 -1.056224E+03
     13374   1 -1.504720E+02 -6.869024E+01  9.942325E+00  9.448683E+05 -3.390672E+01 -8.664881E+02
     13375   1 -2.280583E+02 -9.542424E+01 -1.539843E+00  9.958881E+05 -3.469975E+01 -7.226131E+02
     13376   1 -3.257980E+02 -1.058446E+02  4.694304E+00  1.064426E+06 -1.483647E+01 -2.674678E+02
     13377   1 -1.145427E+06  1.211598E+02 -1.339366E+02  1.032879E+06  1.392818E+03 -2.448070E+01
     13378   1 -1.145135E+06  2.703106E+01  1.122771E+02  9.647237E+05  3.552042E+03 -1.127342E+02
     13379   1 -1.145011E+06 -1.272971E+02 -8.031478E+01  9.140332E+05  4.609587E+03 -3.513711E+01
     13380   1 -1.144882E+06 -6.969503E+01 -2.156750E+01  8.795794E+05  4.105503E+03 -3.276791E+02
     13381   1 -1.144876E+06 -1.323786E+02 -3.117923E+01  8.594935E+05  2.324849E+03 -4.890048E+02
     13382   1 -1.144941E+06 -6.856861E+01 -5.930530E+01  8.528441E+05 -2.387490E+02 -6.941616E+02
     13383   1 -1.145089E+06 -1.192173E+02 -5.710237E+00  8.590590E+05 -2.739363E+03 -1.002589E+03
     13384   1 -1.145292E+06 -5.848044E+01 -2.504609E+01  8.787585E+05 -4.517560E+03 -8.473329E+02
     13385   1 -1.145595E+06 -9.815882E+01 -2.614589E+01  9.128852E+05 -4.907646E+03 -1.055886E+03
     13386   1 -1.145843E+06 -3.336861E+01  7.128952E+01  9.633109E+05 -3.768741E+03 -4.993812E+02
     13387   1 -1.146222E+06 -6.000563E+01 -1.224584E+02  1.031323E+06 -1.461503E+03 -3.354475E+02
     13388   1 -2.290283E+06  4.822797E+00  2.149705E+02  9.327725E+05  3.121468E+03 -5.935604E+01
     13389   1 -2.290114E+06 -7.142857E+01 -1.838238E+02  8.661352E+05  8.558322E+03  1.736432E+02
     13390   1 -2.289755E+06  7.217418E+00  2.120234E+01  8.181651E+05  1.087711E+04 -2.360694E+02
     13391   1 -2.289651E+06 -1.349747E+02 -3.070260E+00  7.860383E+05  9.683225E+03 -9.309825E+01
     13392   1 -2.289643E+06 -2.299170E+01 -1.093763E+02  7.678543E+05  5.520122E+03 -4.782644E+02
     13393   1 -2.289764E+06 -4.584843E+01 -2.382629E+01  7.618413E+05 -4.351250E+02 -6.147751E+02
     13394   1 -2.290053E+06 -3.658542E+00 -7.984122E+01  7.674665E+05 -6.342621E+03 -8.562310E+02
     13395   1 -2.290441E+06 -1.098831E+02  2.511800E+01  7.852958E+05 -1.043118E+04 -9.371319E+02
     13396   1 -2.290875E+06  4.692840E+01  7.251340E+01  8.171455E+05 -1.146801E+04 -7.120184E+02
     13397   1 -2.291491E+06 -1.730813E+00 -1.571694E+02  8.649964E+05 -8.965018E+03 -6.376481E+02
     13398   1 -2.291813E+06  8.853338E+01  3.094790E+02  9.316797E+05 -3.263088E+03 -1.842257E+02
     13399   1 -3.435465E+06  6.064262E+02 -3.325872E+02  7.643886E+05  6.688684E+03  1.854780E+01
     13400   1 -3.434796E+06  1.884328E+02  1.879131E+02  7.013265E+05  1.683495E+04 -2.072926E+02
     13401   1 -3.434597E+06 -2.359007E+02  5.564061E+01  6.580425E+05  2.129988E+04  1.044814E+02
     13402   1 -3.434422E+06 -1.129194E+02 -2.673275E+02  6.313156E+05  1.884545E+04 -6.778567E+01
     13403   1 -3.434365E+06 -2.924093E+01 -1.445238E+01  6.165253E+05  1.044372E+04 -3.331169E+02
     13404   1 -3.434642E+06 -1.090556E+02 -2.097779E+02  6.116396E+05 -5.771692E+02 -4.920261E+02
     13405   1 -3.434944E+06 -1.837440E+01 -2.994986E+00  6.162116E+05 -1.162446E+04 -7.399853E+02
     13406   1 -3.435544E+06 -6.613356E+01 -1.906201E+02  6.307221E+05 -1.983722E+04 -7.361545E+02
     13407   1 -3.436172E+06 -2.087900E+02  6.275170E+01  6.572205E+05 -2.214051E+04 -8.440474E+02
     13408   1 -3.436714E+06  1.067274E+02  2.367323E+02  7.003146E+05 -1.735181E+04 -1.603106E+02
     13409   1 -3.437597E+06  1.636853E+02 -4.799875E+02  7.632632E+05 -6.892917E+03 -2.630693E+02
     13410   1 -4.579751E+06  2.760781E+02  9.302875E+02  5.227614E+05  1.221284E+04 -2.354425E+02
     13411   1 -4.579815E+06 -5.072951E+02 -3.442360E+02  4.663153E+05  3.336618E+04  3.748365E+02
     13412   1 -4.579391E+06 -7.605794E+01 -2.352972E+02  4.354513E+05  4.058734E+04  1.936972E+02
     13413   1 -4.579109E+06  1.951336E+01 -2.727334E+02  4.175619E+05  3.342095E+04 -3.020947E+00
     13414   1 -4.579187E+06 -6.149408E+01 -5.725425E+01  4.076535E+05  1.826127E+04 -1.953253E+02
     13415   1 -4.579395E+06  7.233513E+01 -1.246919E+02  4.045684E+05 -6.526418E+02 -3.232084E+02
     13416   1 -4.579895E+06 -6.167019E+01 -9.059262E+01  4.074441E+05 -1.969609E+04 -5.277130E+02
     13417   1 -4.580491E+06  5.315689E+01 -1.862277E+02  4.171607E+05 -3.454116E+04 -5.115560E+02
     13418   1 -4.581301E+06 -7.649574E+01 -3.174136E+02  4.349104E+05 -4.160275E+04 -6.579312E+02
     13419   1 -4.582162E+06 -3.227016E+02 -1.640138E+02  4.657108E+05 -3.396664E+04 -5.290477E+02
     13420   1 -4.582297E+06  5.246515E+02  9.376572E+02  5.221915E+05 -1.243913E+04  1.575518E+02
     13421   1 -5.725378E+06  8.693517E+02 -1.383714E+03  1.920777E+05  3.279120E+04  3.860493E+02
     13422   1 -5.724860E+06 -4.353870E+02 -1.181428E+03  1.651014E+05  7.092065E+04  2.916785E+02
     13423   1 -5.724037E+06  3.305430E+02 -3.340822E+02  1.548219E+05  7.192423E+04  3.477619E+01
     13424   1 -5.724034E+06 -3.126437E+02 -3.879652E+02  1.480295E+05  5.593761E+04  5.247205E+01
     13425   1 -5.723908E+06  2.034505E+02  9.725153E+01  1.447720E+05  2.971592E+04 -8.762068E+01
     13426   1 -5.724376E+06 -2.283770E+02 -8.441567E+01  1.435528E+05 -6.486047E+02 -1.056290E+02
     13427   1 -5.724701E+06  1.838438E+02 -3.320526E+01  1.446938E+05 -3.123812E+04 -1.924450E+02
     13428   1 -5.725566E+06 -2.592528E+02 -3.760572E+02  1.478922E+05 -5.705364E+04 -2.091649E+02
     13429   1 -5.726159E+06  2.760954E+02 -6.266904E+02  1.546197E+05 -7.301822E+04 -2.234603E+02
     13430   1 -5.727409E+06 -5.150532E+02 -1.092639E+03  1.648763E+05 -7.148815E+04 -3.232252E+02
     13431   1 -5.728120E+06  3.352791E+02 -1.790410E+03  1.918021E+05 -3.306185E+04 -4.916274E+02
     13432   1  5.407380E+06  1.712864E+02  1.894419E+03  1.919090E+05 -3.277098E+04  5.600977E+02
     13433   1  5.406839E+06  6.290517E+02  9.312375E+02  1.650746E+05 -7.063210E+04  2.611718E+02
     13434   1  5.406113E+06 -2.114184E+02  4.477435E+02  1.548056E+05 -7.177487E+04  1.137045E+02
     13435   1  5.406107E+06  2.290641E+02  6.406299E+01  1.480518E+05 -5.556414E+04 -1.509319E+01
     13436   1  5.406146E+06 -1.260272E+02 -1.611556E+02  1.447836E+05 -2.954352E+04 -5.237505E+01
     13437   1  5.406677E+06  1.962174E+02 -1.769121E+02  1.435641E+05  1.007797E+03 -1.995518E+02
     13438   1  5.407239E+06 -1.433587E+02 -1.076527E+02  1.446884E+05  3.137002E+04 -1.902030E+02
     13439   1  5.408222E+06  2.568040E+02  2.673378E+02  1.478533E+05  5.730718E+04 -3.251361E+02
     13440   1  5.409054E+06 -2.598775E+02  5.074030E+02  1.545569E+05  7.306938E+04 -2.131662E+02
     13441   1  5.410401E+06  4.854720E+02  1.087612E+03  1.647700E+05  7.158199E+04 -4.027196E+02
     13442   1  5.411235E+06 -4.047699E+02  1.589919E+03  1.916509E+05  3.304311E+04 -3.999840E+02
     13443   1  4.325141E+06 -1.048217E+03 -1.058747E+03  5.228029E+05 -1.215956E+04 -2.772799E+02
     13444   1  4.325207E+06  9.406403E+01  1.071680E+02  4.663289E+05 -3.327261E+04  2.742971E+02
     13445   1  4.324771E+06  1.970208E+01  2.551059E+02  4.354875E+05 -4.045795E+04  2.448680E+02
     13446   1  4.324542E+06 -1.096701E+02  6.795066E+01  4.176227E+05 -3.318080E+04 -7.020335E+01
     13447   1  4.324700E+06  2.332639E+01 -4.101097E-01  4.077437E+05 -1.808667E+04 -1.917524E+02
     13448   1  4.325004E+06 -1.526724E+02 -7.821199E+01  4.046277E+05  9.374661E+02 -4.924321E+02
     13449   1  4.325674E+06  1.301755E+01 -8.702739E+00  4.074674E+05  1.987454E+04 -6.072141E+02
     13450   1  4.326401E+06 -1.474390E+02  4.516676E+01  4.170983E+05  3.478824E+04 -7.433441E+02
     13451   1  4.327410E+06 -1.418880E+01  2.299334E+02  4.347646E+05  4.173404E+04 -7.227768E+02
     13452   1  4.328383E+06  2.254598E+02  1.191721E+02  4.654495E+05  3.409882E+04 -6.854721E+02
     13453   1  4.328678E+06 -4.656478E+02 -8.770830E+02  5.217846E+05  1.248049E+04  1.761164E+02
     13454   1  3.244276E+06 -6.793877E+01  6.121733E+02  7.639541E+05 -6.694587E+03  2.067159E+02
     13455   1  3.243613E+06 -1.312310E+02 -2.075819E+02  7.011939E+05 -1.675720E+04 -1.369915E+02
     13456   1  3.243460E+06  1.298155E+02 -4.870855E+00  6.581216E+05 -2.121140E+04  2.077041E+02
     13457   1  3.243298E+06 -3.099509E+01  1.237165E+02  6.314538E+05 -1.869150E+04 -1.426466E+02
     13458   1  3.243331E+06 -3.073655E+01  6.921611E+00  6.167020E+05 -1.029154E+04 -3.439624E+02
     13459   1  3.243662E+06 -5.013417E+00  5.729402E+01  6.117697E+05  7.830142E+02 -7.185126E+02
     13460   1  3.244110E+06 -5.487385E+01 -2.898556E+01  6.162931E+05  1.179981E+04 -8.785197E+02
     13461   1  3.244806E+06 -7.084934E+01  6.641078E+01  6.306646E+05  2.003625E+04 -1.071777E+03
     13462   1  3.245587E+06  7.174283E+01 -6.896312E+01  6.570415E+05  2.228525E+04 -9.898321E+02
     13463   1  3.246233E+06 -2.868384E+02 -2.838657E+02  6.999728E+05  1.747932E+04 -4.485427E+02
     13464   1  3.247177E+06 -2.895297E+02  4.597227E+02  7.627939E+05  6.926513E+03 -2.281416E+02
     13465   1  2.162569E+06 -6.377996E+02 -3.354183E+02  9.329577E+05 -3.095573E+03 -4.017812E+01
     13466   1  2.162480E+06 -3.459567E+02  9.699835E+01  8.662554E+05 -8.521777E+03  1.067821E+02
     13467   1  2.162177E+06 -2.384453E+02 -2.643894E+01  8.183032E+05 -1.080995E+04 -9.075881E+01
     13468   1  2.162096E+06 -8.640861E+01 -5.206792E+01  7.862443E+05 -9.588444E+03 -1.724826E+02
     13469   1  2.162159E+06 -1.595007E+02  7.409580E+01  7.681184E+05 -5.404464E+03 -4.778262E+02
     13470   1  2.162322E+06 -1.492753E+02 -5.101861E+01  7.620544E+05  5.606971E+02 -8.913091E+02
     13471   1  2.162703E+06 -1.855780E+02  4.074064E+01  7.676131E+05  6.480699E+03 -1.033816E+03
     13472   1  2.163154E+06 -1.384312E+02 -9.881750E+01  7.852766E+05  1.055474E+04 -1.356244E+03
     13473   1  2.163671E+06 -3.028200E+02 -8.268722E+01  8.169648E+05  1.158057E+04 -9.343088E+02
     13474   1  2.164319E+06 -2.729643E+02  1.053981E+02  8.645898E+05  9.038806E+03 -9.952867E+02
     13475   1  2.164652E+06 -2.623070E+02 -2.594783E+02  9.310852E+05  3.294797E+03 -1.799241E+02
     13476   1  1.081249E+06 -2.563524E+02  1.253009E+02  1.032361E+06 -1.380392E+03  2.027207E+02
     13477   1  1.081084E+06 -2.324292E+02 -1.508252E+01  9.645659E+05 -3.518027E+03 -1.326438E+01
     13478   1  1.081041E+06 -1.752084E+02  1.382768E+01  9.141718E+05 -4.542031E+03  1.496702E+02
     13479   1  1.080996E+06 -1.540546E+02  6.915549E+01  8.798225E+05 -4.065175E+03 -3.908405E+02
     13480   1  1.081017E+06 -1.005192E+02 -8.382383E+00  8.597922E+05 -2.244722E+03 -4.877227E+02
     13481   1  1.081139E+06 -1.284656E+02  8.511417E+01  8.530944E+05  2.814436E+02 -9.932356E+02
     13482   1  1.081298E+06 -1.155219E+02 -1.500930E+01  8.592302E+05  2.818023E+03 -1.207737E+03
     13483   1  1.081536E+06 -1.932976E+02  2.438066E+01  8.787339E+05  4.549547E+03 -1.335624E+03
     13484   1  1.081814E+06 -2.058864E+02  1.782443E+01  9.126715E+05  4.955210E+03 -1.320011E+03
     13485   1  1.082034E+06 -3.079695E+02 -8.105634E+01  9.628705E+05  3.775174E+03 -9.252424E+02
     13486   1  1.082302E+06 -2.823611E+02  1.169297E+02  1.030727E+06  1.466254E+03 -3.301929E+02
     13487   1 -3.487558E+02 -2.442609E+02 -3.612052E-01  1.065862E+06  2.049849E+01  2.085847E+01
     13488   1 -2.261175E+02 -2.524962E+02 -2.060870E+00  9.973373E+05  2.735395E+01  1.087795E+02
     13489   1 -1.464120E+02 -2.403868E+02  2.345285E+00  9.462138E+05  1.389198E+01 -6.959148E+01
     13490   1 -1.013920E+02 -2.178811E+02  1.982368E+01  9.110115E+05  6.492481E+00 -2.262946E+02
     13491   1 -8.187334E+01 -2.053806E+02  2.714598E+01  8.905354E+05 -2.440601E+00 -6.039277E+02
     13492   1 -7.334522E+01 -1.982399E+02  3.860767E+01  8.835599E+05 -2.207502E+00 -1.024769E+03
     13493   1 -8.355189E+01 -2.101010E+02  2.640402E+01  8.899527E+05 -7.800180E+00 -1.158024E+03
     13494   1 -1.046182E+02 -2.264895E+02  2.169944E+01  9.098917E+05 -1.031865E+01 -1.554776E+03
     13495   1 -1.519982E+02 -2.527889E+02  6.228590E-01  9.446641E+05 -2.123813E+01 -1.167193E+03
     13496   1 -2.277919E+02 -2.709990E+02  4.089145E+00  9.954011E+05 -2.376351E+01 -1.167592E+03
     13497   1 -3.415305E+02 -2.899427E+02 -6.599303E+00  1.063722E+06 -1.275872E+01 -2.817162E+02
     13498   1 -1.081890E+06 -2.497482E+02 -1.089944E+02  1.032321E+06  1.382094E+03  2.019739E+02
     13499   1 -1.081501E+06 -1.912969E+02  2.826916E+01  9.645315E+05  3.553304E+03 -1.092998E+00
     13500   1 -1.081302E+06 -1.583102E+02  5.543770E+01  9.141495E+05  4.564491E+03  1.650604E+02
     13501   1 -1.081155E+06 -1.262666E+02  1.769247E+01  8.798159E+05  4.082331E+03 -3.787715E+02
     13502   1 -1.081132E+06 -1.405469E+02  1.413714E+02  8.597928E+05  2.233244E+03 -4.820100E+02
     13503   1 -1.081243E+06 -1.073904E+02  5.290310E+01  8.530965E+05 -2.793252E+02 -9.912543E+02
     13504   1 -1.081415E+06 -1.353590E+02  1.406301E+02  8.592304E+05 -2.836617E+03 -1.210423E+03
     13505   1 -1.081704E+06 -9.842512E+01  7.830953E+01  8.787239E+05 -4.563444E+03 -1.344576E+03
     13506   1 -1.082079E+06 -1.596082E+02  3.041687E+01  9.126487E+05 -4.999389E+03 -1.332455E+03
     13507   1 -1.082471E+06 -1.365831E+02  1.138564E+02  9.628284E+05 -3.820309E+03 -9.416669E+02
     13508   1 -1.082979E+06 -2.304528E+02 -1.216393E+02  1.030668E+06 -1.492091E+03 -3.356564E+02
     13509   1 -2.163230E+06  3.029641E+02  3.598260E+02  9.328721E+05  3.134617E+03 -6.912688E+00
     13510   1 -2.162867E+06 -1.688510E+01 -1.070380E+02  8.662139E+05  8.576866E+03  1.409618E+02
     13511   1 -2.162380E+06 -9.724219E+01  8.017839E+01  8.182961E+05  1.082877E+04 -6.090010E+01
     13512   1 -2.162205E+06 -2.325609E+02  1.274338E+02  7.862551E+05  9.600100E+03 -1.580869E+02
     13513   1 -2.162215E+06 -1.332388E+02  5.182956E+01  7.681438E+05  5.390654E+03 -4.633208E+02
     13514   1 -2.162371E+06 -1.376640E+02  1.917427E+02  7.620832E+05 -5.574202E+02 -8.919605E+02
     13515   1 -2.162763E+06 -1.173077E+02  7.551014E+01  7.676365E+05 -6.490722E+03 -1.033974E+03
     13516   1 -2.163267E+06 -1.862742E+02  1.931495E+02  7.852860E+05 -1.056083E+04 -1.372614E+03
     13517   1 -2.163883E+06 -5.951352E+01  1.111310E+02  8.169499E+05 -1.161596E+04 -9.522183E+02
     13518   1 -2.164711E+06 -1.082562E+02 -8.048755E+01  8.645434E+05 -9.083160E+03 -1.024236E+03
     13519   1 -2.165309E+06 -1.479166E+02  2.467220E+02  9.310092E+05 -3.321161E+03 -1.888279E+02
     13520   1 -3.244805E+06 -1.886029E+02 -6.807582E+02  7.639589E+05  6.706180E+03  2.050812E+02
     13521   1 -3.243839E+06 -1.594993E+01  3.410242E+02  7.011892E+05  1.678274E+04 -1.240900E+02
     13522   1 -3.243496E+06 -2.791448E+02  3.969409E+01  6.581480E+05  2.124418E+04  2.460243E+02
     13523   1 -3.243202E+06 -2.055108E+01  1.454587E+02  6.315030E+05  1.866342E+04 -1.328117E+02
     13524   1 -3.243219E+06 -6.100029E+01  1.771473E+02  6.167637E+05  1.030455E+04 -3.230065E+02
     13525   1 -3.243499E+06 -2.897539E+01  2.694661E+02  6.118374E+05 -8.066637E+02 -7.227508E+02
     13526   1 -3.244002E+06 -3.373073E+01  2.342857E+02  6.163532E+05 -1.177010E+04 -8.736994E+02
     13527   1 -3.244707E+06 -4.871317E-01  1.634383E+02  6.307130E+05 -2.004762E+04 -1.090684E+03
     13528   1 -3.245631E+06 -2.165771E+02  1.578625E+02  6.570632E+05 -2.229002E+04 -1.006593E+03
     13529   1 -3.246460E+06  1.109473E+02  3.525312E+02  6.999657E+05 -1.752950E+04 -4.831330E+02
     13530   1 -3.247723E+06  5.729595E+01 -4.584271E+02  7.627604E+05 -6.947221E+03 -2.365086E+02
     13531   1 -4.325426E+06  8.938852E+02  8.645250E+02  5.228324E+05  1.220597E+04 -2.353215E+02
     13532   1 -4.325138E+06 -1.151020E+02  1.542328E+02  4.663795E+05  3.327947E+04  3.091376E+02
     13533   1 -4.324531E+06 -2.007142E+02 -3.042748E+02  4.355628E+05  4.050643E+04  2.661611E+02
     13534   1 -4.324146E+06  5.299949E+01  3.260636E+02  4.177078E+05  3.310338E+04 -5.753446E+01
     13535   1 -4.324330E+06 -1.905588E+02  1.728989E+02  4.078447E+05  1.812469E+04 -1.816952E+02
     13536   1 -4.324545E+06  8.784040E+01  5.208622E+02  4.047257E+05 -9.885625E+02 -4.910987E+02
     13537   1 -4.325304E+06 -1.660330E+02  2.353952E+02  4.075680E+05 -1.979624E+04 -6.031203E+02
     13538   1 -4.325995E+06  5.618370E+01  2.458166E+02  4.171845E+05 -3.479857E+04 -7.548157E+02
     13539   1 -4.327167E+06 -1.255934E+02 -1.312371E+02  4.348362E+05 -4.169742E+04 -7.315645E+02
     13540   1 -4.328302E+06 -3.228475E+02 -4.029174E+01  4.654964E+05 -3.415100E+04 -7.112301E+02
     13541   1 -4.328962E+06  3.501570E+02  8.775997E+02  5.218209E+05 -1.249517E+04  1.699165E+02
     13542   1 -5.407198E+06 -2.651230E+02 -2.056276E+03  1.919537E+05  3.280148E+04  5.081272E+02
     13543   1 -5.406307E+06 -5.773353E+02 -6.444807E+02  1.651022E+05  7.064432E+04  2.822306E+02
     13544   1 -5.405396E+06  1.849682E+02 -3.903995E+02  1.548529E+05  7.179329E+04  1.014329E+02
     13545   1 -5.405281E+06 -1.175712E+02  4.785719E+02  1.480915E+05  5.546877E+04  5.587204E+00
     13546   1 -5.405335E+06  1.273415E+02  4.934661E+02  1.448427E+05  2.957141E+04 -6.012718E+01
     13547   1 -5.405805E+06 -9.370834E+01  8.038224E+02  1.436070E+05 -1.059187E+03 -1.912246E+02
     13548   1 -5.406426E+06  1.606821E+02  4.976467E+02  1.447470E+05 -3.125891E+04 -1.920408E+02
     13549   1 -5.407365E+06 -1.768083E+02  1.721402E+02  1.478943E+05 -5.729566E+04 -3.277185E+02
     13550   1 -5.408330E+06  2.740223E+02 -3.017152E+02  1.546042E+05 -7.299212E+04 -2.157638E+02
     13551   1 -5.409827E+06 -4.658155E+02 -9.635477E+02  1.648000E+05 -7.163299E+04 -4.154297E+02
     13552   1 -5.411032E+06  3.935298E+02 -1.561950E+03  1.916902E+05 -3.305625E+04 -3.970128E+02
     13553   1  5.089145E+06 -1.122381E+03  1.135591E+03  1.920213E+05 -3.263478E+04  2.053338E+02
     13554   1  5.088268E+06  2.119435E+02  7.530807E+02  1.651145E+05 -7.056101E+04  3.036205E+02
     13555   1  5.087321E+06 -3.402047E+02 -3.933433E+01  1.549150E+05 -7.137290E+04  5.582836E+00
     13556   1  5.087323E+06  1.580635E+02 -4.839443E+02  1.481417E+05 -5.526609E+04  8.711805E+01
     13557   1  5.087415E+06 -2.351777E+02 -9.173426E+02  1.449194E+05 -2.908157E+04 -1.593002E+02
     13558   1  5.088138E+06  8.055624E+01 -1.021401E+03  1.436689E+05  1.263368E+03 -1.629791E+02
     13559   1  5.088905E+06 -2.199454E+02 -7.765368E+02  1.447822E+05  3.167382E+04 -3.392163E+02
     13560   1  5.090169E+06  1.040284E+02 -3.935777E+02  1.479083E+05  5.743560E+04 -3.196587E+02
     13561   1  5.091351E+06 -3.093329E+02  2.572525E+02  1.545580E+05  7.324742E+04 -3.651696E+02
     13562   1  5.093111E+06  3.755641E+02  7.904892E+02  1.647255E+05  7.166497E+04 -3.436154E+02
     13563   1  5.094479E+06 -2.655177E+02  1.616402E+03  1.915209E+05  3.311070E+04 -4.881260E+02
     13564   1  4.070771E+06  3.420245E+01 -5.812852E+02  5.224903E+05 -1.220879E+04 -1.055788E+02
     13565   1  4.070366E+06  3.673053E+02  5.131341E+01  4.663736E+05 -3.317286E+04  4.814884E+02
     13566   1  4.069778E+06  3.688253E+01  6.496080E+01  4.357023E+05 -4.029369E+04  2.286394E+02
     13567   1  4.069417E+06 -1.106358E+02 -3.524896E+02  4.179229E+05 -3.292440E+04  1.621478E+01
     13568   1  4.069670E+06  7.087874E+01 -4.562404E+02  4.080574E+05 -1.778251E+04 -3.265905E+02
     13569   1  4.070058E+06 -1.258777E+02 -6.487145E+02  4.049385E+05  1.218449E+03 -5.318710E+02
     13570   1  4.070962E+06  5.062231E+01 -4.699144E+02  4.076975E+05  2.015560E+04 -8.818692E+02
     13571   1  4.071936E+06 -1.287990E+02 -3.737568E+02  4.172376E+05  3.502058E+04 -8.697306E+02
     13572   1  4.073302E+06 -1.130572E+01  1.661166E+01  4.347526E+05  4.197319E+04 -1.024885E+03
     13573   1  4.074717E+06  1.414648E+02 -2.588756E+01  4.652978E+05  3.429944E+04 -7.199974E+02
     13574   1  4.075570E+06 -5.019243E+02 -8.571883E+02  5.214763E+05  1.256588E+04  1.218128E+01
     13575   1  3.053528E+06 -9.607063E+02  2.322839E+02  7.642633E+05 -6.663356E+03  1.034761E+00
     13576   1  3.052622E+06 -5.668039E+02 -3.272977E+02  7.014345E+05 -1.677027E+04 -3.313344E+01
     13577   1  3.052211E+06 -9.704928E+01 -2.108695E+02  6.583989E+05 -2.112937E+04  2.106488E+02
     13578   1  3.051966E+06 -2.254885E+02 -1.536819E+02  6.318630E+05 -1.853209E+04 -3.188995E+01
     13579   1  3.052002E+06 -2.430602E+02 -3.943649E+02  6.171335E+05 -1.008034E+04 -5.006976E+02
     13580   1  3.052430E+06 -1.987776E+02 -3.421634E+02  6.122129E+05  1.017338E+03 -8.057205E+02
     13581   1  3.053042E+06 -2.701445E+02 -4.380870E+02  6.165981E+05  1.204640E+04 -1.259377E+03
     13582   1  3.053973E+06 -2.924181E+02 -2.352801E+02  6.308540E+05  2.028062E+04 -1.289356E+03
     13583   1  3.055066E+06 -1.798122E+02 -2.898583E+02  6.569844E+05  2.253543E+04 -1.441569E+03
     13584   1  3.056117E+06 -4.423746E+02 -3.347646E+02  6.996920E+05  1.768768E+04 -5.981881E+02
     13585   1  3.057501E+06 -2.875059E+02  4.112562E+02  7.622438E+05  7.028504E+03 -4.744714E+02
     13586   1  2.035576E+06 -2.797709E+02 -1.677674E+02  9.323709E+05 -3.149550E+03  9.059586E+01
     13587   1  2.035214E+06 -2.975414E+02  1.770128E+02  8.661804E+05 -8.556577E+03  4.671089E+02
     13588   1  2.034738E+06 -3.873696E+02 -1.233149E+02  8.185765E+05 -1.077740E+04 -4.120829E+01
     13589   1  2.034604E+06 -1.862376E+02 -1.372559E+02  7.866838E+05 -9.518002E+03 -1.747707E+01
     13590   1  2.034622E+06 -2.576405E+02 -1.234243E+02  7.685911E+05 -5.265625E+03 -6.723866E+02
     13591   1  2.034883E+06 -2.246704E+02 -2.198207E+02  7.625336E+05  7.209101E+02 -9.863024E+02
     13592   1  2.035348E+06 -2.900991E+02 -1.592525E+02  7.679337E+05  6.666975E+03 -1.512106E+03
     13593   1  2.036002E+06 -2.470828E+02 -2.069138E+02  7.854314E+05  1.075744E+04 -1.638217E+03
     13594   1  2.036736E+06 -4.559295E+02 -1.731565E+02  8.168169E+05  1.178356E+04 -1.538804E+03
     13595   1  2.037681E+06 -4.486637E+02  8.959141E+01  8.641928E+05  9.218322E+03 -1.188985E+03
     13596   1  2.038334E+06 -4.309483E+02 -2.868316E+02  9.304348E+05  3.367026E+03 -4.858984E+02
     13597   1  1.017735E+06 -6.860235E+02  1.094592E+02  1.032587E+06 -1.369628E+03  1.958581E+01
     13598   1  1.017489E+06 -6.246520E+02 -1.545055E+02  9.647566E+05 -3.528067E+03  2.028217E+02
     13599   1  1.017373E+06 -4.339380E+02  3.685950E+01  9.144090E+05 -4.566793E+03  1.796874E+02
     13600   1  1.017240E+06 -4.575834E+02 -7.068137E+01  8.802440E+05 -4.027224E+03 -1.885972E+02
     13601   1  1.017274E+06 -3.589558E+02 -5.580478E+01  8.602721E+05 -2.208031E+03 -6.983638E+02
     13602   1  1.017396E+06 -4.148865E+02 -6.329760E+01  8.535739E+05  3.836593E+02 -1.100483E+03
     13603   1  1.017643E+06 -3.878701E+02 -9.054944E+01  8.595381E+05  2.906031E+03 -1.736532E+03
     13604   1  1.017962E+06 -4.973746E+02 -7.659078E+01  8.788568E+05  4.690225E+03 -1.673114E+03
     13605   1  1.018393E+06 -5.070511E+02 -3.530365E+01  9.124561E+05  5.067397E+03 -1.984934E+03
     13606   1  1.018764E+06 -5.798804E+02 -9.783397E+01  9.623321E+05  3.891327E+03 -1.177439E+03
     13607   1  1.019208E+06 -4.927603E+02  1.057907E+02  1.029846E+06  1.509466E+03 -6.766022E+02
     13608   1 -2.493326E+02 -5.620698E+02  3.548611E+00  1.065102E+06 -1.259834E+01  1.319198E+02
     13609   1 -1.448978E+02 -4.713644E+02  2.467943E+01  9.970966E+05 -1.252416E+01  5.049744E+02
     13610   1 -8.302204E+01 -3.947303E+02  5.715519E+01  9.463887E+05 -1.669132E+01  1.596497E+01
     13611   1 -5.306794E+01 -3.463588E+02  8.524332E+01  9.113854E+05 -2.650850E+01 -4.223810E+01
     13612   1 -4.269937E+01 -3.136535E+02  1.201693E+02  8.909573E+05 -1.867014E+01 -8.032093E+02
     13613   1 -4.670902E+01 -3.100991E+02  1.224874E+02  8.839916E+05 -6.414960E+00 -1.142155E+03
     13614   1 -4.405160E+01 -3.211028E+02  1.215763E+02  8.901991E+05  1.291969E+01 -1.706344E+03
     13615   1 -5.554268E+01 -3.617205E+02  8.436007E+01  9.099395E+05  1.567629E+01 -1.906857E+03
     13616   1 -8.419865E+01 -4.188410E+02  5.976435E+01  9.443502E+05  1.258374E+01 -1.876668E+03
     13617   1 -1.564156E+02 -4.986102E+02  1.639944E+01  9.947951E+05 -2.745854E+00 -1.423443E+03
     13618   1 -2.785273E+02 -5.602785E+02  1.154525E+01  1.062817E+06 -3.574378E+00 -6.387814E+02
     13619   1 -1.018370E+06 -2.449560E+02 -1.214055E+02  1.032368E+06  1.406618E+03  4.410566E+01
     13620   1 -1.017841E+06 -2.855901E+02  1.869675E+02  9.645955E+05  3.532396E+03  2.320207E+02
     13621   1 -1.017563E+06 -4.234401E+02  1.593934E+01  9.142912E+05  4.535411E+03  2.003500E+02
     13622   1 -1.017378E+06 -3.206613E+02  2.187235E+02  8.801468E+05  3.960183E+03 -1.773058E+02
     13623   1 -1.017396E+06 -3.779130E+02  2.415335E+02  8.601878E+05  2.176593E+03 -6.907802E+02
     13624   1 -1.017517E+06 -3.059393E+02  2.807387E+02  8.534943E+05 -4.042599E+02 -1.099472E+03
     13625   1 -1.017770E+06 -3.608494E+02  2.876583E+02  8.594503E+05 -2.868460E+03 -1.740505E+03
     13626   1 -1.018102E+06 -3.160078E+02  2.046963E+02  8.787562E+05 -4.657982E+03 -1.682348E+03
     13627   1 -1.018597E+06 -3.811575E+02  1.187949E+02  9.123263E+05 -5.031710E+03 -2.003915E+03
     13628   1 -1.019106E+06 -4.019427E+02  1.070583E+02  9.621660E+05 -3.896262E+03 -1.195824E+03
     13629   1 -1.019807E+06 -5.628156E+02 -8.818937E+01  1.029635E+06 -1.515998E+03 -6.891804E+02
     13630   1 -2.036194E+06 -5.273532E+02  1.461460E+02  9.321044E+05  3.128042E+03  7.949534E+01
     13631   1 -2.035544E+06 -3.481534E+02 -7.623825E+01  8.659474E+05  8.522602E+03  4.963249E+02
     13632   1 -2.034906E+06 -1.589669E+02  2.561001E+02  8.183907E+05  1.073273E+04 -1.201567E+01
     13633   1 -2.034690E+06 -2.643245E+02  4.064061E+02  7.865438E+05  9.435519E+03  9.653821E+00
     13634   1 -2.034696E+06 -1.567990E+02  4.475424E+02  7.684705E+05  5.225268E+03 -6.674605E+02
     13635   1 -2.034953E+06 -1.777794E+02  5.788028E+02  7.624179E+05 -7.388615E+02 -9.778299E+02
     13636   1 -2.035424E+06 -1.298183E+02  4.984740E+02  7.678098E+05 -6.616039E+03 -1.521999E+03
     13637   1 -2.036095E+06 -2.351048E+02  4.496736E+02  7.852811E+05 -1.070563E+04 -1.649444E+03
     13638   1 -2.036910E+06 -1.117396E+02  3.446676E+02  8.166227E+05 -1.173147E+04 -1.573597E+03
     13639   1 -2.038031E+06 -2.512881E+02 -4.202937E+01  8.639357E+05 -9.214040E+03 -1.220118E+03
     13640   1 -2.038998E+06 -3.642975E+02  3.178622E+02  9.301047E+05 -3.370645E+03 -5.092000E+02
     13641   1 -3.054188E+06  5.369001E+02 -1.209197E+02  7.639280E+05  6.683934E+03  5.093951E+01
     13642   1 -3.052903E+06  8.824272E+01  2.833890E+02  7.012273E+05  1.676383E+04  4.196659E+01
     13643   1 -3.052274E+06 -2.843385E+02  4.882068E+02  6.582578E+05  2.102176E+04  2.299412E+02
     13644   1 -3.051984E+06 -2.080747E+02  3.561466E+02  6.317635E+05  1.846500E+04  3.913906E+00
     13645   1 -3.051956E+06 -9.275134E+01  8.679050E+02  6.170596E+05  9.977328E+03 -5.039816E+02
     13646   1 -3.052448E+06 -1.979570E+02  7.134667E+02  6.121394E+05 -9.891235E+02 -7.890321E+02
     13647   1 -3.052995E+06 -8.181142E+01  8.839102E+02  6.165211E+05 -1.200444E+04 -1.272156E+03
     13648   1 -3.054003E+06 -1.382403E+02  4.918105E+02  6.307458E+05 -2.016604E+04 -1.293606E+03
     13649   1 -3.055127E+06 -2.436829E+02  4.951661E+02  6.568317E+05 -2.246693E+04 -1.478096E+03
     13650   1 -3.056410E+06 -4.319314E+01  3.800873E+02  6.994651E+05 -1.765093E+04 -6.295722E+02
     13651   1 -3.058153E+06 -2.236254E+02 -3.891785E+02  7.619342E+05 -7.033381E+03 -5.040426E+02
     13652   1 -4.071174E+06 -1.433996E+02  8.925436E+02  5.223678E+05  1.216289E+04 -1.351003E+02
     13653   1 -4.070355E+06 -6.148880E+02 -1.887588E+02  4.662754E+05  3.315869E+04  4.982319E+02
     13654   1 -4.069493E+06 -3.771001E+01  4.935707E+02  4.356456E+05  4.009494E+04  2.524557E+02
     13655   1 -4.069143E+06 -2.421650E+01  6.401259E+02  4.179073E+05  3.286115E+04  3.279603E+01
     13656   1 -4.069286E+06 -4.079993E+01  1.250638E+03  4.080485E+05  1.760752E+04 -3.223560E+02
     13657   1 -4.069804E+06  2.989617E+01  1.203298E+03  4.049421E+05 -1.139035E+03 -5.228611E+02
     13658   1 -4.070575E+06 -4.559314E+01  1.191286E+03  4.076870E+05 -2.011500E+04 -8.859594E+02
     13659   1 -4.071663E+06  3.230353E+01  8.070619E+02  4.172165E+05 -3.481818E+04 -8.687027E+02
     13660   1 -4.073008E+06 -6.322632E+01  3.380426E+02  4.346923E+05 -4.187163E+04 -1.052716E+03
     13661   1 -4.074707E+06 -3.084526E+02  1.418527E+02  4.651878E+05 -3.421133E+04 -7.416702E+02
     13662   1 -4.075974E+06  2.977679E+02  8.881332E+02  5.213062E+05 -1.256255E+04 -1.301056E+01
     13663   1 -5.088963E+06  1.159271E+03 -8.596837E+02  1.919750E+05  3.261261E+04  2.998911E+02
     13664   1 -5.087638E+06 -3.315102E+02 -8.096661E+02  1.651096E+05  7.048541E+04  2.952014E+02
     13665   1 -5.086491E+06  3.290128E+02  6.711788E+02  1.549094E+05  7.112518E+04  4.480764E+01
     13666   1 -5.086497E+06 -3.348820E+02  8.947530E+02  1.481697E+05  5.513518E+04  6.700439E+01
     13667   1 -5.086554E+06  2.011823E+02  1.880627E+03  1.449259E+05  2.887528E+04 -1.412080E+02
     13668   1 -5.087375E+06 -2.384837E+02  1.735867E+03  1.437049E+05 -1.167530E+03 -1.695990E+02
     13669   1 -5.088024E+06  1.632511E+02  1.665523E+03  1.447899E+05 -3.159900E+04 -3.346837E+02
     13670   1 -5.089344E+06 -2.404596E+02  9.547620E+02  1.479329E+05 -5.714257E+04 -3.170522E+02
     13671   1 -5.090472E+06  2.400429E+02  1.799884E+02  1.545525E+05 -7.308086E+04 -3.759546E+02
     13672   1 -5.092470E+06 -4.519502E+02 -6.171730E+02  1.647127E+05 -7.150762E+04 -3.433213E+02
     13673   1 -5.094263E+06  2.012225E+02 -1.592122E+03  1.914777E+05 -3.309638E+04 -5.047087E+02
     13674   1  4.770791E+06  6.811774E+02  1.845744E+03  1.918368E+05 -3.262296E+04  6.783197E+02
     13675   1  4.769316E+06  6.272677E+02  4.204070E+02  1.652180E+05 -7.004716E+04  2.535603E+02
     13676   1  4.768242E+06 -1.987306E+02 -5.089120E+02  1.550118E+05 -7.092943E+04  2.013186E+02
     13677   1  4.768190E+06  1.773004E+02 -1.496280E+03  1.483414E+05 -5.450991E+04 -4.882037E+01
     13678   1  4.768513E+06 -1.109060E+02 -2.144984E+03  1.450769E+05 -2.859582E+04 -5.851949E+01
     13679   1  4.769436E+06  1.701084E+02 -2.295146E+03  1.438553E+05  1.766735E+03 -3.308375E+02
     13680   1  4.770490E+06 -1.425479E+02 -2.072745E+03  1.449223E+05  3.181428E+04 -3.127501E+02
     13681   1  4.772050E+06  2.276449E+02 -1.183669E+03  1.479997E+05  5.757050E+04 -5.309741E+02
     13682   1  4.773631E+06 -2.660825E+02 -4.351360E+02  1.545956E+05  7.320610E+04 -3.424077E+02
     13683   1  4.775928E+06  3.947079E+02  6.724574E+02  1.646742E+05  7.172381E+04 -5.134385E+02
     13684   1  4.778053E+06 -3.968938E+02  1.285029E+03  1.913869E+05  3.309724E+04 -3.385355E+02
     13685   1  3.816311E+06 -1.427904E+03 -1.193314E+03  5.228144E+05 -1.209552E+04 -2.484310E+02
     13686   1  3.815423E+06 -2.108825E+02 -2.169279E+02  4.666304E+05 -3.306086E+04  3.250731E+02
     13687   1  3.814444E+06 -1.806033E+02 -5.067536E+02  4.360444E+05 -3.993237E+04  3.883706E+02
     13688   1  3.814119E+06 -2.672080E+02 -1.062974E+03  4.183529E+05 -3.249109E+04 -5.515904E+01
     13689   1  3.814368E+06 -1.547087E+02 -1.487106E+03  4.085517E+05 -1.734435E+04 -2.714634E+02
     13690   1  3.815030E+06 -2.918296E+02 -1.661062E+03  4.053861E+05  1.596899E+03 -7.975528E+02
     13691   1  3.816101E+06 -1.678284E+02 -1.500124E+03  4.080944E+05  2.040134E+04 -9.856306E+02
     13692   1  3.817438E+06 -3.277747E+02 -1.109416E+03  4.174674E+05  3.523204E+04 -1.279227E+03
     13693   1  3.819192E+06 -2.464661E+02 -5.485339E+02  4.348287E+05  4.212518E+04 -1.138872E+03
     13694   1  3.821195E+06 -9.366432E+00 -2.159786E+02  4.651245E+05  3.447183E+04 -1.050551E+03
     13695   1  3.822852E+06 -4.022332E+02 -8.411379E+02  5.210255E+05  1.265740E+04  6.404034E+01
     13696   1  2.862990E+06  1.557329E+01  6.394979E+02  7.636531E+05 -6.737002E+03  4.439808E+02
     13697   1  2.861533E+06 -3.847070E+02 -3.559310E+02  7.014656E+05 -1.670258E+04  1.842315E+02
     13698   1  2.860867E+06 -2.358666E+02 -4.463234E+02  6.588367E+05 -2.095875E+04  4.655912E+02
     13699   1  2.860502E+06 -3.381020E+02 -6.544984E+02  6.324270E+05 -1.826028E+04 -8.710736E+01
     13700   1  2.860588E+06 -3.010515E+02 -9.698249E+02  6.178097E+05 -9.771197E+03 -4.537374E+02
     13701   1  2.861140E+06 -2.819250E+02 -1.044099E+03  6.128027E+05  1.310521E+03 -1.150060E+03
     13702   1  2.861956E+06 -3.398637E+02 -1.028333E+03  6.171358E+05  1.229373E+04 -1.448568E+03
     13703   1  2.863161E+06 -4.013226E+02 -7.431219E+02  6.311083E+05  2.051476E+04 -1.878642E+03
     13704   1  2.864636E+06 -3.200257E+02 -5.507854E+02  6.570181E+05  2.275574E+04 -1.685905E+03
     13705   1  2.866216E+06 -6.430993E+02 -4.749721E+02  6.993587E+05  1.791352E+04 -1.159444E+03
     13706   1  2.868228E+06 -4.282810E+02  3.563102E+02  7.616286E+05  7.113504E+03 -4.009398E+02
     13707   1  1.908591E+06 -1.160829E+03 -3.691216E+02  9.327215E+05 -3.121995E+03  1.211120E+02
     13708   1  1.907952E+06 -8.987348E+02 -6.546553E+01  8.664724E+05 -8.543211E+03  3.979391E+02
     13709   1  1.907279E+06 -7.324150E+02 -2.657925E+02  8.189883E+05 -1.072883E+04  3.247362E+02
     13710   1  1.906987E+06 -5.833330E+02 -5.044716E+02  7.872895E+05 -9.356235E+03 -7.836509E+01
     13711   1  1.907061E+06 -6.088070E+02 -5.206865E+02  7.693315E+05 -5.092475E+03 -5.790996E+02
     13712   1  1.907349E+06 -5.995827E+02 -7.060111E+02  7.631909E+05  9.278554E+02 -1.417142E+03
     13713   1  1.908007E+06 -6.509009E+02 -5.747178E+02  7.685026E+05  6.866250E+03 -1.744573E+03
     13714   1  1.908838E+06 -6.676707E+02 -5.732709E+02  7.856741E+05  1.095734E+04 -2.373984E+03
     13715   1  1.909903E+06 -8.530123E+02 -3.641658E+02  8.167665E+05  1.199764E+04 -1.886984E+03
     13716   1  1.911223E+06 -8.031171E+02 -4.009635E+01  8.636589E+05  9.404816E+03 -1.888788E+03
     13717   1  1.912373E+06 -5.876165E+02 -2.378432E+02  9.294904E+05  3.457888E+03 -4.477132E+02
     13718   1  9.545144E+05 -7.935927E+02  9.738799E+01  1.031666E+06 -1.431995E+03  5.254794E+02
     13719   1  9.540334E+05 -7.815718E+02  1.219246E+01  9.645459E+05 -3.592428E+03  4.426025E+02
     13720   1  9.537299E+05 -7.440170E+02 -1.010652E+02  9.147552E+05 -4.548499E+03  6.146608E+02
     13721   1  9.535657E+05 -6.549106E+02 -5.774944E+01  8.808007E+05 -4.010412E+03 -2.406860E+02
     13722   1  9.535438E+05 -5.921738E+02 -2.329259E+02  8.609662E+05 -2.106802E+03 -5.885957E+02
     13723   1  9.537336E+05 -5.984515E+02 -1.379409E+02  8.541934E+05  4.589872E+02 -1.570062E+03
     13724   1  9.540334E+05 -6.187856E+02 -2.385098E+02  8.600468E+05  3.053141E+03 -2.002263E+03
     13725   1  9.545056E+05 -7.283918E+02 -1.368019E+02  8.789924E+05  4.799807E+03 -2.513238E+03
     13726   1  9.550894E+05 -7.986366E+02 -7.896156E+01  9.122511E+05  5.231848E+03 -2.395069E+03
     13727   1  9.557043E+05 -9.261235E+02 -1.153003E+02  9.616402E+05  4.003194E+03 -1.979764E+03
     13728   1  9.563795E+05 -8.554938E+02  9.997753E+01  1.028790E+06  1.565429E+03 -6.298565E+02
     13729   1 -1.356829E+02 -9.003354E+02  5.811103E+00  1.065147E+06  1.078371E+01  2.335818E+02
     13730   1 -3.741855E+00 -8.707226E+02  2.035868E+01  9.971893E+05 -3.032642E+01  5.074662E+02
     13731   1  4.156503E+01 -8.089325E+02  6.009442E+01  9.466321E+05 -7.439611E+01  4.406907E+02
     13732   1  2.875368E+01 -7.387569E+02  1.240762E+02  9.118664E+05 -7.677476E+01 -6.954451E+01
     13733   1  1.462774E+00 -7.025609E+02  1.585614E+02  8.916047E+05 -5.193157E+01 -6.969994E+02
     13734   1 -2.798129E+00 -6.881715E+02  1.859603E+02  8.845463E+05 -3.579771E+00 -1.616047E+03
     13735   1  1.687035E+00 -7.164032E+02  1.581027E+02  8.906489E+05  3.834653E+01 -1.996963E+03
     13736   1  2.970590E+01 -7.657095E+02  1.261824E+02  9.100014E+05  7.067138E+01 -2.759614E+03
     13737   1  4.035482E+01 -8.451088E+02  5.936453E+01  9.440610E+05  6.521441E+01 -2.317753E+03
     13738   1  1.514759E+01 -9.265806E+02  3.315379E+01  9.939273E+05  4.259375E+01 -2.248154E+03
     13739   1 -8.599350E+01 -1.024971E+03 -4.651223E+00  1.061478E+06  1.089107E+01 -6.078285E+02
     13740   1 -9.547073E+05 -1.064800E+03 -5.847613E+01  1.031262E+06  1.354149E+03  5.169016E+02
     13741   1 -9.540375E+05 -7.859825E+02  6.699090E+01  9.641914E+05  3.475688E+03  4.591861E+02
     13742   1 -9.536845E+05 -5.795798E+02  3.350222E+02  9.144470E+05  4.380085E+03  6.345532E+02
     13743   1 -9.535217E+05 -5.293858E+02  3.842886E+02  8.805363E+05  3.860623E+03 -2.255895E+02
     13744   1 -9.535456E+05 -4.992225E+02  6.859638E+02  8.607220E+05  1.982700E+03 -5.862472E+02
     13745   1 -9.537584E+05 -4.789857E+02  6.192015E+02  8.539496E+05 -4.533637E+02 -1.568949E+03
     13746   1 -9.540335E+05 -5.012108E+02  6.779045E+02  8.597978E+05 -2.978780E+03 -2.005404E+03
     13747   1 -9.544672E+05 -4.955983E+02  4.939701E+02  8.787139E+05 -4.639977E+03 -2.526446E+03
     13748   1 -9.550333E+05 -6.129208E+02  2.743086E+02  9.119317E+05 -5.097067E+03 -2.413897E+03
     13749   1 -9.557371E+05 -7.087723E+02  2.245843E+02  9.612519E+05 -3.909219E+03 -2.009969E+03
     13750   1 -9.566483E+05 -1.017985E+03 -9.964168E+01  1.028318E+06 -1.541832E+03 -6.394788E+02
     13751   1 -1.909167E+06 -1.433447E+02  4.342807E+02  9.319161E+05  3.127969E+03  1.927156E+02
     13752   1 -1.908178E+06 -3.834787E+02  9.036376E+01  8.658693E+05  8.455267E+03  4.618300E+02
     13753   1 -1.907367E+06 -4.231709E+02  5.059809E+02  8.185145E+05  1.052381E+04  3.671046E+02
     13754   1 -1.907092E+06 -5.001089E+02  8.383115E+02  7.868744E+05  9.172113E+03 -6.904317E+01
     13755   1 -1.907204E+06 -4.037265E+02  1.014408E+03  7.689499E+05  4.946433E+03 -5.643941E+02
     13756   1 -1.907520E+06 -4.006305E+02  1.231025E+03  7.628173E+05 -9.190577E+02 -1.423166E+03
     13757   1 -1.908155E+06 -3.889210E+02  1.048313E+03  7.681107E+05 -6.768967E+03 -1.742005E+03
     13758   1 -1.908946E+06 -4.404528E+02  9.479566E+02  7.852431E+05 -1.075640E+04 -2.395633E+03
     13759   1 -1.910004E+06 -3.753210E+02  5.498532E+02  8.162584E+05 -1.182684E+04 -1.914203E+03
     13760   1 -1.911439E+06 -5.351386E+02  1.477994E+02  8.630323E+05 -9.285315E+03 -1.940869E+03
     13761   1 -1.912895E+06 -9.045542E+02  2.277294E+02  9.287114E+05 -3.429486E+03 -4.640725E+02
     13762   1 -2.863658E+06 -9.428739E+02 -7.273712E+02  7.629865E+05  6.658688E+03  4.315228E+02
     13763   1 -2.861794E+06 -2.949653E+02  6.610485E+02  7.008780E+05  1.650631E+04  1.905643E+02
     13764   1 -2.860987E+06 -4.080715E+02  6.759956E+02  6.583636E+05  2.074691E+04  5.290224E+02
     13765   1 -2.860564E+06 -1.134327E+02  1.354649E+03  6.320329E+05  1.794779E+04 -9.293025E+01
     13766   1 -2.860783E+06 -2.022045E+02  1.633302E+03  6.174403E+05  9.656294E+03 -4.276203E+02
     13767   1 -2.861263E+06 -1.261143E+02  1.922974E+03  6.124509E+05 -1.353248E+03 -1.164258E+03
     13768   1 -2.862161E+06 -1.627285E+02  1.730382E+03  6.167570E+05 -1.211081E+04 -1.434494E+03
     13769   1 -2.863223E+06 -9.639185E+01  1.373145E+03  6.306954E+05 -2.027206E+04 -1.902032E+03
     13770   1 -2.864778E+06 -3.296518E+02  8.785370E+02  6.565182E+05 -2.249919E+04 -1.710198E+03
     13771   1 -2.866490E+06 -1.134146E+02  6.588401E+02  6.987295E+05 -1.776061E+04 -1.224812E+03
     13772   1 -2.868949E+06 -4.882546E+02 -3.316682E+02  7.608216E+05 -7.064741E+03 -4.181404E+02
     13773   1 -3.816915E+06  8.936695E+02  8.356683E+02  5.222283E+05  1.208678E+04 -1.456187E+02
     13774   1 -3.815456E+06 -1.456155E+01  7.872712E+02  4.662448E+05  3.275528E+04  3.926228E+02
     13775   1 -3.814374E+06 -2.944084E+02  6.441640E+02  4.357705E+05  3.968707E+04  4.140301E+02
     13776   1 -3.813938E+06  2.812960E+01  2.069713E+03  4.181194E+05  3.201447E+04 -5.194098E+01
     13777   1 -3.814436E+06 -2.630442E+02  2.248203E+03  4.083536E+05  1.724678E+04 -2.655464E+02
     13778   1 -3.814941E+06  4.055180E+01  2.835131E+03  4.051805E+05 -1.691567E+03 -7.999925E+02
     13779   1 -3.816172E+06 -2.240592E+02  2.364383E+03  4.078900E+05 -2.010293E+04 -9.704737E+02
     13780   1 -3.817260E+06  1.640510E+01  1.919518E+03  4.172228E+05 -3.491942E+04 -1.290200E+03
     13781   1 -3.819128E+06 -1.532052E+02  9.719162E+02  4.345321E+05 -4.172656E+04 -1.143027E+03
     13782   1 -3.821231E+06 -3.592052E+02  4.372419E+02  4.647167E+05 -3.425204E+04 -1.101347E+03
     13783   1 -3.823462E+06 -2.258757E+01  8.856156E+02  5.204604E+05 -1.257998E+04  5.221577E+01
     13784   1 -4.770676E+06 -8.494694E+02 -2.063306E+03  1.916853E+05  3.249905E+04  5.480552E+02
     13785   1 -4.768640E+06 -5.782487E+02  2.315320E+02  1.650858E+05  6.964369E+04  2.996182E+02
     13786   1 -4.767452E+06  1.075379E+02  9.328586E+02  1.549471E+05  7.050673E+04  1.623896E+02
     13787   1 -4.767423E+06 -4.094546E+01  2.867923E+03  1.482577E+05  5.392816E+04 -1.100349E+01
     13788   1 -4.767974E+06  7.094801E+01  3.306500E+03  1.450455E+05  2.843435E+04 -8.213709E+01
     13789   1 -4.768814E+06 -5.204383E+01  3.917173E+03  1.437794E+05 -1.860367E+03 -3.170028E+02
     13790   1 -4.769958E+06  1.311589E+02  3.343466E+03  1.448855E+05 -3.141187E+04 -3.101681E+02
     13791   1 -4.771242E+06 -1.492618E+02  2.360955E+03  1.479176E+05 -5.713772E+04 -5.346873E+02
     13792   1 -4.772850E+06  2.473597E+02  1.138599E+03  1.545198E+05 -7.261873E+04 -3.374506E+02
     13793   1 -4.775198E+06 -4.196161E+02 -3.282276E+02  1.645421E+05 -7.137859E+04 -5.436793E+02
     13794   1 -4.777923E+06  3.271213E+02 -1.168406E+03  1.912000E+05 -3.294906E+04 -3.297825E+02
     13795   1  4.452047E+06 -1.724681E+03  4.968462E+02  1.920505E+05 -3.222878E+04 -5.238434E+01
     13796   1  4.449905E+06 -3.278092E+01 -4.452151E+01  1.652947E+05 -6.954345E+04  3.511508E+02
     13797   1  4.448550E+06 -3.887055E+02 -1.760174E+03  1.552673E+05 -6.974161E+04 -3.695058E+00
     13798   1  4.448741E+06  6.711094E+01 -3.167304E+03  1.485400E+05 -5.354335E+04  1.625821E+02
     13799   1  4.449344E+06 -2.933907E+02 -4.353636E+03  1.453795E+05 -2.757433E+04 -2.478697E+02
     13800   1  4.450631E+06 -1.381395E+01 -4.740267E+03  1.440933E+05  2.177630E+03 -2.420672E+02
     13801   1  4.452003E+06 -2.629466E+02 -4.136856E+03  1.451465E+05  3.201912E+04 -5.640930E+02
     13802   1  4.453807E+06 -2.453430E+01 -3.041756E+03  1.481709E+05  5.728444E+04 -4.934437E+02
     13803   1  4.455822E+06 -3.531791E+02 -1.302651E+03  1.546561E+05  7.298312E+04 -6.161807E+02
     13804   1  4.458712E+06  2.180701E+02 -1.419285E+01  1.646616E+05  7.144264E+04 -3.904537E+02
     13805   1  4.461912E+06 -1.548504E+02  1.356947E+03  1.911733E+05  3.306554E+04 -5.386908E+02
     13806   1  3.561916E+06  5.143289E+02 -3.579903E+02  5.222518E+05 -1.212080E+04  1.176284E+02
     13807   1  3.560055E+06  1.862135E+02 -5.238823E+02  4.668153E+05 -3.260619E+04  7.480157E+02
     13808   1  3.558888E+06 -2.132536E+02 -1.189607E+03  4.365455E+05 -3.933183E+04  3.672757E+02
     13809   1  3.558439E+06 -3.145926E+02 -2.379184E+03  4.190035E+05 -3.170808E+04  1.263477E+02
     13810   1  3.559035E+06 -1.129925E+02 -3.023473E+03  4.092294E+05 -1.667730E+04 -4.757641E+02
     13811   1  3.559826E+06 -2.966009E+02 -3.429771E+03  4.060834E+05  2.030838E+03 -8.084724E+02
     13812   1  3.561287E+06 -1.466153E+02 -3.043455E+03  4.086377E+05  2.062184E+04 -1.431829E+03
     13813   1  3.562853E+06 -3.409971E+02 -2.398917E+03  4.178959E+05  3.521668E+04 -1.426493E+03
     13814   1  3.565097E+06 -2.741454E+02 -1.271514E+03  4.349580E+05  4.213136E+04 -1.678944E+03
     13815   1  3.567795E+06 -1.752575E+02 -6.270209E+02  4.649989E+05  3.450465E+04 -1.069355E+03
     13816   1  3.570543E+06 -5.167111E+02 -8.882409E+02  5.205297E+05  1.270110E+04 -2.563081E+02
     13817   1  2.672313E+06 -1.538635E+03 -6.103528E+01  7.641485E+05 -6.603907E+03  1.810264E+01
     13818   1  2.670363E+06 -1.130865E+03 -6.747051E+02  7.019063E+05 -1.655460E+04  3.784414E+02
     13819   1  2.669288E+06 -6.424156E+02 -1.076930E+03  6.594245E+05 -2.058920E+04  5.224064E+02
     13820   1  2.668873E+06 -7.243402E+02 -1.549357E+03  6.333001E+05 -1.777782E+04  1.665586E+02
     13821   1  2.669053E+06 -7.132285E+02 -2.215847E+03  6.187078E+05 -9.311098E+03 -6.779572E+02
     13822   1  2.669786E+06 -6.571955E+02 -2.301354E+03  6.137692E+05  1.655913E+03 -1.208614E+03
     13823   1  2.670844E+06 -7.542972E+02 -2.274716E+03  6.178364E+05  1.251659E+04 -2.063422E+03
     13824   1  2.672336E+06 -8.293658E+02 -1.671483E+03  6.316688E+05  2.062903E+04 -2.144682E+03
     13825   1  2.674254E+06 -7.966697E+02 -1.192727E+03  6.571001E+05  2.289182E+04 -2.484399E+03
     13826   1  2.676496E+06 -9.692660E+02 -6.904899E+02  6.990385E+05  1.805194E+04 -1.327637E+03
     13827   1  2.679416E+06 -4.676308E+02  2.769080E+02  7.607150E+05  7.220224E+03 -9.015949E+02
     13828   1  1.782037E+06 -6.561626E+02 -1.243858E+02  9.316918E+05 -3.197744E+03  3.939740E+02
     13829   1  1.780775E+06 -9.337647E+02  1.680712E+01  8.664266E+05 -8.536934E+03  1.143229E+03
     13830   1  1.779760E+06 -1.106772E+03 -6.328187E+02  8.195812E+05 -1.052540E+04  4.258554E+02
     13831   1  1.779441E+06 -8.515569E+02 -9.373020E+02  7.881727E+05 -9.130448E+03  2.890862E+02
     13832   1  1.779462E+06 -8.821929E+02 -1.215604E+03  7.702927E+05 -4.792055E+03 -8.597184E+02
     13833   1  1.779950E+06 -8.382557E+02 -1.395873E+03  7.642022E+05  1.155724E+03 -1.458163E+03
     13834   1  1.780706E+06 -9.365029E+02 -1.264076E+03  7.692241E+05  7.048796E+03 -2.512570E+03
     13835   1  1.781831E+06 -9.567101E+02 -1.044811E+03  7.861682E+05  1.111659E+04 -2.727157E+03
     13836   1  1.783211E+06 -1.219584E+03 -6.911200E+02  8.166784E+05  1.215159E+04 -2.935275E+03
     13837   1  1.785052E+06 -1.204240E+03 -1.361960E+02  8.631210E+05  9.582946E+03 -2.133346E+03
     13838   1  1.786852E+06 -9.822410E+02 -3.203245E+02  9.283808E+05  3.533407E+03 -1.055821E+03
     13839   1  8.912756E+05 -1.552093E+03  9.879553E+01  1.031845E+06 -1.389572E+03  1.420591E+02
     13840   1  8.906084E+05 -1.536976E+03 -2.906843E+02  9.647858E+05 -3.560137E+03  9.079939E+02
     13841   1  8.901836E+05 -1.278099E+03 -1.201570E+02  9.152007E+05 -4.548444E+03  7.223048E+02
     13842   1  8.898565E+05 -1.278514E+03 -4.411296E+02  8.816157E+05 -3.896314E+03  2.222284E+02
     13843   1  8.898734E+05 -1.128795E+03 -4.702366E+02  8.618960E+05 -2.030036E+03 -8.871922E+02
     13844   1  8.900651E+05 -1.186504E+03 -5.774887E+02  8.551585E+05  6.169365E+02 -1.616838E+03
     13845   1  8.905020E+05 -1.182163E+03 -5.282942E+02  8.607042E+05  3.136076E+03 -2.847284E+03
     13846   1  8.910980E+05 -1.351331E+03 -4.334642E+02  8.793906E+05  4.963805E+03 -2.940426E+03
     13847   1  8.919382E+05 -1.427668E+03 -2.524452E+02  9.120063E+05  5.338246E+03 -3.547910E+03
     13848   1  8.928446E+05 -1.509505E+03 -1.669789E+02  9.608213E+05  4.155041E+03 -2.301259E+03
     13849   1  8.939188E+05 -1.357702E+03  6.484807E+01  1.027235E+06  1.622344E+03 -1.312843E+03
     13850   1  3.926349E+02 -1.687334E+03  9.378503E+00  1.063778E+06 -7.637921E+01  4.700809E+02
     13851   1  3.924988E+02 -1.410362E+03  7.369172E+01  9.967700E+05 -1.352391E+02  1.300713E+03
     13852   1  3.248856E+02 -1.210601E+03  1.633071E+02  9.469429E+05 -1.584035E+02  6.278721E+02
     13853   1  2.471277E+02 -1.097229E+03  2.422912E+02  9.125370E+05 -1.517217E+02  3.559073E+02
     13854   1  1.825900E+02 -1.026093E+03  3.266507E+02  8.923717E+05 -9.475221E+01 -9.696993E+02
     13855   1  1.463636E+02 -1.017299E+03  3.408607E+02  8.853812E+05 -6.559643E+00 -1.678575E+03
     13856   1  1.863886E+02 -1.048195E+03  3.276552E+02  8.911405E+05  8.843374E+01 -2.866188E+03
     13857   1  2.549681E+02 -1.140073E+03  2.423583E+02  9.102179E+05  1.414971E+02 -3.209503E+03
     13858   1  3.431745E+02 -1.278837E+03  1.647465E+02  9.435849E+05  1.547160E+02 -3.536661E+03
     13859   1  3.842190E+02 -1.478519E+03  5.745644E+01  9.929268E+05  1.066015E+02 -2.579854E+03
     13860   1  3.409222E+02 -1.675457E+03  2.498334E+01  1.059801E+06  3.863715E+01 -1.311145E+03
     13861   1 -8.909955E+05 -1.234586E+03 -9.915341E+01  1.030925E+06  1.383054E+03  1.926386E+02
     13862   1 -8.901170E+05 -1.105060E+03  4.026397E+02  9.640647E+05  3.353075E+03  9.513016E+02
     13863   1 -8.897033E+05 -1.172585E+03  3.499170E+02  9.146074E+05  4.221525E+03  7.424375E+02
     13864   1 -8.895555E+05 -9.619837E+02  9.100597E+02  8.810751E+05  3.547404E+03  2.199230E+02
     13865   1 -8.897147E+05 -1.008400E+03  1.056656E+03  8.613792E+05  1.847393E+03 -8.862324E+02
     13866   1 -8.899600E+05 -9.211868E+02  1.232372E+03  8.546525E+05 -6.473682E+02 -1.620217E+03
     13867   1 -8.903410E+05 -9.912039E+02  1.134703E+03  8.601749E+05 -2.932656E+03 -2.850178E+03
     13868   1 -8.907800E+05 -9.837578E+02  8.636058E+02  8.788311E+05 -4.666768E+03 -2.944410E+03
     13869   1 -8.914546E+05 -1.116965E+03  5.380716E+02  9.113715E+05 -4.997003E+03 -3.571115E+03
     13870   1 -8.922741E+05 -1.323174E+03  2.450410E+02  9.600786E+05 -3.928393E+03 -2.324404E+03
     13871   1 -8.934682E+05 -1.775313E+03 -1.654310E+01  1.026336E+06 -1.539050E+03 -1.334033E+03
     13872   1 -1.782036E+06 -1.795245E+03  8.789805E+01  9.303972E+05  3.036614E+03  3.505819E+02
     13873   1 -1.780585E+06 -1.063246E+03  2.510492E+02  8.652889E+05  8.204328E+03  1.166462E+03
     13874   1 -1.779616E+06 -6.346188E+02  9.987436E+02  8.185831E+05  1.013706E+04  4.474218E+02
     13875   1 -1.779423E+06 -6.698636E+02  1.647219E+03  7.872894E+05  8.713898E+03  3.054722E+02
     13876   1 -1.779603E+06 -5.565158E+02  2.058692E+03  7.694533E+05  4.570940E+03 -8.773740E+02
     13877   1 -1.780151E+06 -5.763701E+02  2.338022E+03  7.633647E+05 -1.189105E+03 -1.451280E+03
     13878   1 -1.780843E+06 -5.238061E+02  2.136245E+03  7.683671E+05 -6.797918E+03 -2.520032E+03
     13879   1 -1.781822E+06 -6.471663E+02  1.698296E+03  7.852447E+05 -1.075982E+04 -2.728328E+03
     13880   1 -1.783059E+06 -5.905288E+02  1.139189E+03  8.156361E+05 -1.173711E+04 -2.977495E+03
     13881   1 -1.784893E+06 -9.346554E+02  2.809297E+02  8.618874E+05 -9.316142E+03 -2.177651E+03
     13882   1 -1.786948E+06 -1.453352E+03  3.943691E+02  9.268730E+05 -3.432295E+03 -1.096535E+03
     13883   1 -2.673032E+06  1.373480E+02  2.605807E+02  7.624480E+05  6.525796E+03  1.214443E+02
     13884   1 -2.670632E+06 -2.721128E+02  6.764304E+02  7.006652E+05  1.624539E+04  5.190758E+02
     13885   1 -2.669459E+06 -5.110440E+02  1.742603E+03  6.584189E+05  1.998661E+04  5.074886E+02
     13886   1 -2.669276E+06 -4.772846E+02  2.231727E+03  6.323898E+05  1.734570E+04  1.968735E+02
     13887   1 -2.669496E+06 -3.082678E+02  3.370670E+03  6.178624E+05  8.925595E+03 -7.181276E+02
     13888   1 -2.670468E+06 -4.568161E+02  3.395399E+03  6.129080E+05 -1.612095E+03 -1.186568E+03
     13889   1 -2.671291E+06 -3.048078E+02  3.379079E+03  6.169693E+05 -1.223794E+04 -2.072920E+03
     13890   1 -2.672766E+06 -3.814571E+02  2.447302E+03  6.307232E+05 -2.012335E+04 -2.127877E+03
     13891   1 -2.674432E+06 -4.554363E+02  1.728998E+03  6.560318E+05 -2.235671E+04 -2.524229E+03
     13892   1 -2.676788E+06 -4.630070E+02  8.581501E+02  6.977360E+05 -1.769063E+04 -1.372346E+03
     13893   1 -2.680097E+06 -1.105761E+03 -2.157081E+02  7.590768E+05 -7.091984E+03 -9.557229E+02
     13894   1 -3.562710E+06 -9.378061E+02  1.003830E+03  5.211993E+05  1.184482E+04  2.688076E+01
     13895   1 -3.560317E+06 -8.803815E+02  3.709063E+02  4.659591E+05  3.221217E+04  7.581378E+02
     13896   1 -3.558937E+06 -2.424566E+01  2.418589E+03  4.358348E+05  3.842646E+04  3.776855E+02
     13897   1 -3.558883E+06 -1.478674E+02  3.300111E+03  4.183917E+05  3.121364E+04  1.224307E+02
     13898   1 -3.559417E+06 -6.555587E+01  4.815850E+03  4.086339E+05  1.610117E+04 -4.963217E+02
     13899   1 -3.560614E+06 -8.049824E+01  4.976218E+03  4.055069E+05 -1.899007E+03 -7.977079E+02
     13900   1 -3.561685E+06 -8.408114E+01  4.697741E+03  4.080277E+05 -2.029193E+04 -1.428215E+03
     13901   1 -3.563305E+06 -5.217482E+01  3.591475E+03  4.172565E+05 -3.448402E+04 -1.397119E+03
     13902   1 -3.565179E+06 -1.149215E+02  2.109280E+03  4.342107E+05 -4.141306E+04 -1.711209E+03
     13903   1 -3.568085E+06 -3.913776E+02  9.562830E+02  4.640789E+05 -3.397386E+04 -1.098142E+03
     13904   1 -3.571385E+06 -1.668367E+02  9.574370E+02  5.192957E+05 -1.252175E+04 -3.104193E+02
     13905   1 -4.452120E+06  1.638876E+03  3.515971E+00  1.915747E+05  3.193672E+04  1.799317E+02
     13906   1 -4.449343E+06 -2.450717E+02  1.315491E+02  1.650269E+05  6.883258E+04  3.174962E+02
     13907   1 -4.447971E+06  3.292411E+02  3.239186E+03  1.550067E+05  6.861188E+04  6.890596E+01
     13908   1 -4.448548E+06 -3.918227E+02  4.470082E+03  1.483751E+05  5.280277E+04  9.841502E+01
     13909   1 -4.449278E+06  1.979251E+02  6.621078E+03  1.451499E+05  2.688947E+04 -2.211633E+02
     13910   1 -4.450905E+06 -2.700494E+02  6.739827E+03  1.439393E+05 -2.016030E+03 -2.558209E+02
     13911   1 -4.451919E+06  1.259989E+02  6.262203E+03  1.449191E+05 -3.157336E+04 -5.548789E+02
     13912   1 -4.453645E+06 -2.294596E+02  4.622817E+03  1.479851E+05 -5.627185E+04 -4.696505E+02
     13913   1 -4.455196E+06  1.857891E+02  2.414229E+03  1.543930E+05 -7.199474E+04 -6.332119E+02
     13914   1 -4.458177E+06 -3.965000E+02  5.355700E+02  1.643598E+05 -7.060074E+04 -3.763781E+02
     13915   1 -4.461969E+06 -3.106648E+01 -1.287186E+03  1.907132E+05 -3.277276E+04 -5.787029E+02
     13916   1  4.132750E+06  1.603468E+03  1.791994E+03  1.916825E+05 -3.195882E+04  9.888402E+02
     13917   1  4.129484E+06  6.246164E+02 -9.196528E+02  1.655750E+05 -6.795297E+04  2.469116E+02
     13918   1  4.128244E+06 -2.277708E+02 -3.340620E+03  1.554659E+05 -6.810390E+04  3.647515E+02
     13919   1  4.128766E+06  9.404764E+01 -6.040197E+03  1.489747E+05 -5.151574E+04 -9.925740E+01
     13920   1  4.130083E+06 -1.165172E+02 -7.929814E+03  1.456977E+05 -2.631211E+04 -4.480622E+01
     13921   1  4.131880E+06  1.214314E+02 -8.488603E+03  1.444869E+05  2.935657E+03 -5.163509E+02
     13922   1  4.133486E+06 -1.733381E+02 -7.793789E+03  1.454708E+05  3.172166E+04 -4.778768E+02
     13923   1  4.135542E+06  1.807630E+02 -5.535691E+03  1.483994E+05  5.666699E+04 -8.462569E+02
     13924   1  4.137712E+06 -3.151498E+02 -3.215816E+03  1.548281E+05  7.194799E+04 -5.267770E+02
     13925   1  4.141303E+06  2.713301E+02 -4.948677E+02  1.646338E+05  7.083487E+04 -7.234723E+02
     13926   1  4.145860E+06 -4.208500E+02  7.670057E+02  1.909665E+05  3.274371E+04 -2.469189E+02
     13927   1  3.306999E+06 -2.080197E+03 -1.633943E+03  5.227865E+05 -1.170329E+04 -2.486570E+02
     13928   1  3.304307E+06 -7.001443E+02 -1.168760E+03  4.673108E+05 -3.198078E+04  4.407205E+02
     13929   1  3.302640E+06 -5.560241E+02 -2.768934E+03  4.372607E+05 -3.803109E+04  6.866372E+02
     13930   1  3.302632E+06 -5.994006E+02 -4.517199E+03  4.199037E+05 -3.046716E+04  2.190661E+01
     13931   1  3.303392E+06 -5.028138E+02 -5.919267E+03  4.102418E+05 -1.562369E+04 -3.332913E+02
     13932   1  3.304809E+06 -5.933544E+02 -6.423730E+03  4.070016E+05  2.569514E+03 -1.209251E+03
     13933   1  3.306339E+06 -5.203287E+02 -5.901139E+03  4.095367E+05  2.057755E+04 -1.503912E+03
     13934   1  3.308305E+06 -6.935783E+02 -4.556231E+03  4.184706E+05  3.491056E+04 -2.090090E+03
     13935   1  3.310838E+06 -6.892719E+02 -2.787956E+03  4.353386E+05  4.163534E+04 -1.757017E+03
     13936   1  3.314369E+06 -4.305361E+02 -1.186453E+03  4.648644E+05  3.428090E+04 -1.690587E+03
     13937   1  3.318586E+06 -3.420790E+02 -9.492000E+02  5.198062E+05  1.265636E+04 -7.311309E+01
     13938   1  2.482026E+06  1.716779E+02  6.595473E+02  7.630532E+05 -6.654538E+03  9.398353E+02
     13939   1  2.478930E+06 -9.128850E+02 -9.554227E+02  7.021018E+05 -1.613522E+04  8.011552E+02
     13940   1  2.477540E+06 -9.530056E+02 -1.919224E+03  6.603423E+05 -1.987590E+04  9.946473E+02
     13941   1  2.477129E+06 -9.720109E+02 -3.102771E+03  6.344190E+05 -1.695118E+04  1.138608E+02
     13942   1  2.477557E+06 -8.829787E+02 -4.045972E+03  6.200702E+05 -8.603498E+03 -5.048616E+02
     13943   1  2.478573E+06 -8.734906E+02 -4.432941E+03  6.149444E+05  2.064512E+03 -1.719177E+03
     13944   1  2.479850E+06 -9.468793E+02 -4.110420E+03  6.190261E+05  1.258346E+04 -2.220571E+03
     13945   1  2.481626E+06 -1.081697E+03 -3.195364E+03  6.323204E+05  2.052848E+04 -3.102262E+03
     13946   1  2.483947E+06 -1.085306E+03 -2.051118E+03  6.574589E+05  2.272690E+04 -2.731177E+03
     13947   1  2.486972E+06 -1.357945E+03 -1.113228E+03  6.986487E+05  1.806230E+04 -2.347854E+03
     13948   1  2.491067E+06 -7.405254E+02  1.472314E+02  7.597417E+05  7.214632E+03 -6.545477E+02
     13949   1  1.655235E+06 -2.016569E+03 -4.670067E+02  9.321416E+05 -3.065996E+03  4.450814E+02
     13950   1  1.653494E+06 -1.923583E+03 -5.446266E+02  8.669258E+05 -8.280828E+03  9.977090E+02
     13951   1  1.652253E+06 -1.722105E+03 -1.133924E+03  8.203765E+05 -1.021894E+04  1.183934E+03
     13952   1  1.651749E+06 -1.585794E+03 -2.006575E+03  7.893795E+05 -8.609900E+03  2.338780E+02
     13953   1  1.652010E+06 -1.546234E+03 -2.461229E+03  7.717294E+05 -4.408266E+03 -5.655451E+02
     13954   1  1.652538E+06 -1.533857E+03 -2.800358E+03  7.654890E+05  1.441715E+03 -2.097287E+03
     13955   1  1.653581E+06 -1.617564E+03 -2.526408E+03  7.704551E+05  7.160704E+03 -2.703969E+03
     13956   1  1.654871E+06 -1.732878E+03 -2.079542E+03  7.867942E+05  1.111668E+04 -3.919444E+03
     13957   1  1.656675E+06 -1.962748E+03 -1.283515E+03  8.168991E+05  1.218285E+04 -3.312859E+03
     13958   1  1.659102E+06 -1.868195E+03 -4.658854E+02  8.623933E+05  9.650270E+03 -3.401509E+03
     13959   1  1.661846E+06 -1.298566E+03 -2.596338E+02  9.268471E+05  3.604103E+03 -8.397305E+02
     13960   1  8.287281E+05 -1.948990E+03  1.458692E+01  1.030313E+06 -1.489960E+03  1.202170E+03
     13961   1  8.275066E+05 -1.936832E+03 -3.490487E+01  9.645533E+05 -3.619484E+03  1.337996E+03
     13962   1  8.267084E+05 -1.922369E+03 -5.256176E+02  9.158764E+05 -4.394543E+03  1.592990E+03
     13963   1  8.263876E+05 -1.729761E+03 -6.225352E+02  8.826730E+05 -3.772872E+03  1.808919E+02
     13964   1  8.263401E+05 -1.652727E+03 -1.074458E+03  8.632022E+05 -1.806348E+03 -5.380611E+02
     13965   1  8.266632E+05 -1.629109E+03 -9.953139E+02  8.563349E+05  7.022374E+02 -2.305234E+03
     13966   1  8.271628E+05 -1.704802E+03 -1.064779E+03  8.617866E+05  3.284218E+03 -3.076842E+03
     13967   1  8.279684E+05 -1.875198E+03 -7.522398E+02  8.797892E+05  4.983230E+03 -4.285764E+03
     13968   1  8.290249E+05 -2.041840E+03 -4.491332E+02  9.119267E+05  5.467791E+03 -4.020726E+03
     13969   1  8.303478E+05 -2.230482E+03 -2.765281E+02  9.597799E+05  4.225999E+03 -3.735998E+03
     13970   1  8.319105E+05 -2.097499E+03  6.999421E+01  1.025469E+06  1.677881E+03 -1.076048E+03
     13971   1  9.288592E+02 -2.327878E+03  2.541798E+01  1.063481E+06 -1.771354E+01  6.532774E+02
     13972   1  9.196876E+02 -2.207633E+03  6.557321E+01  9.967816E+05 -1.744512E+02  1.326683E+03
     13973   1  7.858360E+02 -2.042684E+03  1.686755E+02  9.473456E+05 -2.753173E+02  1.478059E+03
     13974   1  5.840686E+02 -1.874631E+03  3.148197E+02  9.133955E+05 -2.597532E+02  3.822617E+02
     13975   1  4.257906E+02 -1.794677E+03  3.957335E+02  8.935293E+05 -1.509195E+02 -6.420753E+02
     13976   1  3.904827E+02 -1.772064E+03  4.444258E+02  8.863546E+05 -4.182418E-01 -2.365983E+03
     13977   1  4.387006E+02 -1.831228E+03  3.939467E+02  8.920496E+05  1.451362E+02 -3.123333E+03
     13978   1  6.089742E+02 -1.947220E+03  3.121322E+02  9.104084E+05  2.566567E+02 -4.576126E+03
     13979   1  8.129412E+02 -2.135734E+03  1.689861E+02  9.432909E+05  2.703800E+02 -4.033091E+03
     13980   1  1.011360E+03 -2.360861E+03  8.799098E+01  9.915149E+05  2.112016E+02 -4.048201E+03
     13981   1  1.106998E+03 -2.658012E+03  8.633722E-01  1.057487E+06  7.475366E+01 -1.082057E+03
     13982   1 -8.267769E+05 -2.977276E+03  5.086717E+01  1.028977E+06  1.208602E+03  1.159012E+03
     13983   1 -8.257861E+05 -2.163253E+03  2.447380E+02  9.633696E+05  3.120453E+03  1.332227E+03
     13984   1 -8.254015E+05 -1.591188E+03  1.063322E+03  9.148054E+05  3.783960E+03  1.583729E+03
     13985   1 -8.254374E+05 -1.481250E+03  1.384949E+03  8.816941E+05  3.250628E+03  1.724478E+02
     13986   1 -8.256904E+05 -1.370343E+03  2.094883E+03  8.622648E+05  1.448702E+03 -5.639145E+02
     13987   1 -8.261225E+05 -1.368162E+03  2.085573E+03  8.553854E+05 -6.810757E+02 -2.311076E+03
     13988   1 -8.264915E+05 -1.393127E+03  2.055825E+03  8.608292E+05 -2.987281E+03 -3.068471E+03
     13989   1 -8.269872E+05 -1.447670E+03  1.563443E+03  8.787660E+05 -4.424704E+03 -4.285580E+03
     13990   1 -8.276415E+05 -1.695901E+03  9.112463E+02  9.108101E+05 -4.898602E+03 -4.021968E+03
     13991   1 -8.286347E+05 -2.040689E+03  5.272469E+02  9.584867E+05 -3.777207E+03 -3.769627E+03
     13992   1 -8.300820E+05 -2.817692E+03 -5.888050E+01  1.023927E+06 -1.518552E+03 -1.082550E+03
     13993   1 -1.654673E+06 -1.436531E+03  6.195618E+02  9.294326E+05  2.971401E+03  5.813142E+02
     13994   1 -1.652758E+06 -1.380282E+03  6.306712E+02  8.648229E+05  7.811223E+03  1.076226E+03
     13995   1 -1.651718E+06 -1.239406E+03  1.731342E+03  8.186175E+05  9.464396E+03  1.186724E+03
     13996   1 -1.651625E+06 -1.184774E+03  2.816846E+03  7.877467E+05  7.965794E+03  1.773180E+02
     13997   1 -1.652195E+06 -1.073830E+03  3.626966E+03  7.701493E+05  3.971205E+03 -5.864875E+02
     13998   1 -1.652843E+06 -1.064171E+03  4.015412E+03  7.639189E+05 -1.416247E+03 -2.120804E+03
     13999   1 -1.653771E+06 -1.069448E+03  3.647722E+03  7.688401E+05 -6.804686E+03 -2.678936E+03
     14000   1 -1.654724E+06 -1.115122E+03  2.962002E+03  7.850976E+05 -1.042339E+04 -3.909524E+03
     14001   1 -1.656144E+06 -1.180537E+03  1.758747E+03  8.150265E+05 -1.149969E+04 -3.309852E+03
     14002   1 -1.658287E+06 -1.591747E+03  7.358742E+02  8.602098E+05 -9.094918E+03 -3.456109E+03
     14003   1 -1.661080E+06 -2.626366E+03  2.471563E+02  9.242057E+05 -3.420275E+03 -8.517278E+02
     14004   1 -2.482356E+06 -2.619496E+03 -7.872428E+02  7.605521E+05  6.322817E+03  8.754297E+02
     14005   1 -2.479002E+06 -9.803917E+02  1.596835E+03  6.999092E+05  1.533156E+04  7.222390E+02
     14006   1 -2.477857E+06 -8.238042E+02  2.525571E+03  6.584321E+05  1.904739E+04  1.051225E+03
     14007   1 -2.477703E+06 -4.310003E+02  4.566693E+03  6.327057E+05  1.594142E+04  1.007941E+01
     14008   1 -2.478709E+06 -5.837268E+02  5.632567E+03  6.183720E+05  8.181046E+03 -5.111542E+02
     14009   1 -2.479607E+06 -4.473500E+02  6.265615E+03  6.132868E+05 -2.132960E+03 -1.758987E+03
     14010   1 -2.481017E+06 -5.292098E+02  5.754091E+03  6.172985E+05 -1.205721E+04 -2.170683E+03
     14011   1 -2.482215E+06 -4.288207E+02  4.529120E+03  6.305220E+05 -1.963929E+04 -3.085247E+03
     14012   1 -2.484312E+06 -7.290482E+02  2.821138E+03  6.554586E+05 -2.183255E+04 -2.719406E+03
     14013   1 -2.487089E+06 -7.235702E+02  1.526719E+03  6.962846E+05 -1.733971E+04 -2.429804E+03
     14014   1 -2.491533E+06 -1.747208E+03 -1.074929E+02  7.568120E+05 -6.971846E+03 -6.705399E+02
     14015   1 -3.308159E+06  6.360271E+02  8.944765E+02  5.204101E+05  1.152836E+04 -8.651766E+00
     14016   1 -3.304781E+06 -2.077138E+01  2.346603E+03  4.656384E+05  3.080303E+04  5.352725E+02
     14017   1 -3.303480E+06 -5.577129E+02  3.286294E+03  4.358977E+05  3.702239E+04  6.645670E+02
     14018   1 -3.303602E+06 -7.259552E+01  6.623650E+03  4.186354E+05  2.900295E+04 -4.777517E+01
     14019   1 -3.305254E+06 -4.525288E+02  7.853340E+03  4.090290E+05  1.517163E+04 -3.695598E+02
     14020   1 -3.306360E+06 -1.082350E+02  8.865693E+03  4.057625E+05 -2.732487E+03 -1.227329E+03
     14021   1 -3.308200E+06 -3.897614E+02  8.010036E+03  4.082990E+05 -1.980287E+04 -1.448163E+03
     14022   1 -3.309352E+06 -1.274460E+02  6.289424E+03  4.171453E+05 -3.375416E+04 -2.063340E+03
     14023   1 -3.311705E+06 -2.919799E+02  3.832878E+03  4.338939E+05 -4.035901E+04 -1.705212E+03
     14024   1 -3.314930E+06 -5.543954E+02  1.697640E+03  4.631056E+05 -3.328559E+04 -1.761282E+03
     14025   1 -3.319792E+06 -8.105662E+02  1.036433E+03  5.174902E+05 -1.232711E+04 -8.053502E+01
     14026   1 -4.133217E+06 -1.852819E+03 -2.088440E+03  1.909297E+05  3.138099E+04  6.564139E+02
     14027   1 -4.129297E+06 -5.824916E+02  2.313098E+03  1.649490E+05  6.639398E+04  3.393336E+02
     14028   1 -4.128407E+06 -1.357651E+01  4.512029E+03  1.550260E+05  6.653466E+04  2.436175E+02
     14029   1 -4.129406E+06  4.507507E+01  8.945631E+03  1.484688E+05  4.972989E+04 -4.397270E+01
     14030   1 -4.131572E+06 -1.814409E+01  1.071230E+04  1.453227E+05  2.566451E+04 -1.133569E+02
     14031   1 -4.133230E+06 -2.208433E+01  1.188417E+04  1.439917E+05 -3.101044E+03 -4.989780E+02
     14032   1 -4.135005E+06  8.767760E+01  1.076470E+04  1.450720E+05 -3.068228E+04 -4.531041E+02
     14033   1 -4.136173E+06 -1.464950E+02  8.066049E+03  1.478969E+05 -5.515553E+04 -8.436305E+02
     14034   1 -4.137962E+06  2.036124E+02  4.895155E+03  1.543346E+05 -7.011728E+04 -4.834740E+02
     14035   1 -4.141113E+06 -4.064701E+02  1.297680E+03  1.639978E+05 -6.937119E+04 -7.853972E+02
     14036   1 -4.146391E+06  1.982854E+02 -5.085202E+02  1.900819E+05 -3.214586E+04 -2.188188E+02
     14037   1  3.812032E+06 -2.811632E+03 -6.790683E+02  1.920424E+05 -3.076580E+04 -5.902596E+02
     14038   1  3.807813E+06 -3.625780E+02 -2.213962E+03  1.656580E+05 -6.589765E+04  4.556756E+02
     14039   1  3.806698E+06 -4.763935E+02 -6.568320E+03  1.560318E+05 -6.461988E+04 -4.120927E+01
     14040   1  3.808503E+06 -8.398723E+01 -1.071857E+04  1.493298E+05 -4.858872E+04  3.004910E+02
     14041   1  3.810877E+06 -4.106731E+02 -1.389327E+04  1.463064E+05 -2.400879E+04 -3.650954E+02
     14042   1  3.813376E+06 -1.682954E+02 -1.497259E+04  1.449559E+05  3.531299E+03 -3.302176E+02
     14043   1  3.815389E+06 -3.554034E+02 -1.349232E+04  1.459169E+05  3.114561E+04 -8.633086E+02
     14044   1  3.817006E+06 -2.338377E+02 -1.036092E+04  1.488239E+05  5.473240E+04 -7.075845E+02
     14045   1  3.819293E+06 -4.493135E+02 -5.771232E+03  1.550062E+05  7.007516E+04 -9.934712E+02
     14046   1  3.823162E+06 -2.757933E+01 -2.166354E+03  1.647428E+05  6.905856E+04 -4.292563E+02
     14047   1  3.829536E+06  4.574735E+01  8.845097E+02  1.905867E+05  3.224201E+04 -6.797112E+02
     14048   1  3.051925E+06  1.502971E+03 -1.347647E+02  5.216617E+05 -1.152996E+04  5.410389E+02
     14049   1  3.047485E+06 -1.066683E+02 -2.229155E+03  4.677491E+05 -3.030219E+04  1.250767E+03
     14050   1  3.046037E+06 -6.500952E+02 -4.821362E+03  4.382770E+05 -3.604658E+04  6.031427E+02
     14051   1  3.046304E+06 -6.830799E+02 -8.164206E+03  4.211343E+05 -2.816493E+04  3.469206E+02
     14052   1  3.048224E+06 -4.605426E+02 -1.033015E+04  4.115309E+05 -1.410590E+04 -6.170387E+02
     14053   1  3.049838E+06 -6.268513E+02 -1.121644E+04  4.083727E+05  3.152009E+03 -1.125196E+03
     14054   1  3.051929E+06 -5.179518E+02 -1.027068E+04  4.106011E+05  2.021857E+04 -2.157570E+03
     14055   1  3.053637E+06 -7.375244E+02 -8.023813E+03  4.195000E+05  3.371464E+04 -2.140916E+03
     14056   1  3.056485E+06 -7.320245E+02 -4.843021E+03  4.357644E+05  4.050248E+04 -2.667213E+03
     14057   1  3.060694E+06 -6.950347E+02 -2.278714E+03  4.649036E+05  3.338432E+04 -1.550293E+03
     14058   1  3.066736E+06 -5.124197E+02 -1.129625E+03  5.189929E+05  1.241163E+04 -7.263879E+02
     14059   1  2.290899E+06 -2.181024E+03 -6.301762E+02  7.637509E+05 -6.156005E+03  1.959359E+01
     14060   1  2.287113E+06 -1.970405E+03 -1.769602E+03  7.028300E+05 -1.531025E+04  1.123785E+03
     14061   1  2.285357E+06 -1.546879E+03 -3.659131E+03  6.614811E+05 -1.854134E+04  1.155419E+03
     14062   1  2.285291E+06 -1.619754E+03 -5.626871E+03  6.360953E+05 -1.550996E+04  6.082957E+02
     14063   1  2.286203E+06 -1.570929E+03 -7.464468E+03  6.217315E+05 -7.551899E+03 -7.919260E+02
     14064   1  2.287578E+06 -1.499012E+03 -7.873595E+03  6.168353E+05  2.498349E+03 -1.636208E+03
     14065   1  2.289129E+06 -1.643782E+03 -7.469895E+03  6.203883E+05  1.240496E+04 -3.133319E+03
     14066   1  2.290968E+06 -1.798019E+03 -5.695840E+03  6.336519E+05  1.987086E+04 -3.262013E+03
     14067   1  2.293631E+06 -1.868182E+03 -3.734024E+03  6.578646E+05  2.211467E+04 -4.077271E+03
     14068   1  2.297433E+06 -1.875786E+03 -1.761853E+03  6.984369E+05  1.762723E+04 -2.362060E+03
     14069   1  2.303108E+06 -7.135194E+02  3.224905E+00  7.582666E+05  7.171914E+03 -1.679597E+03
     14070   1  1.529204E+06 -1.161593E+03 -1.919237E+02  9.304722E+05 -3.089528E+03  9.606315E+02
     14071   1  1.526301E+06 -1.981314E+03 -5.438038E+02  8.670022E+05 -8.002112E+03  2.481850E+03
     14072   1  1.524589E+06 -2.363289E+03 -2.223665E+03  8.215902E+05 -9.372914E+03  1.318175E+03
     14073   1  1.524392E+06 -2.061049E+03 -3.431041E+03  7.909909E+05 -7.882252E+03  1.003328E+03
     14074   1  1.524693E+06 -2.047560E+03 -4.450325E+03  7.735141E+05 -3.713710E+03 -9.241579E+02
     14075   1  1.525669E+06 -2.003584E+03 -4.895357E+03  7.674227E+05  1.719633E+03 -1.933818E+03
     14076   1  1.526736E+06 -2.152516E+03 -4.475559E+03  7.718481E+05  7.079402E+03 -3.840214E+03
     14077   1  1.528280E+06 -2.264354E+03 -3.518492E+03  7.880210E+05  1.085250E+04 -4.180615E+03
     14078   1  1.530350E+06 -2.606641E+03 -2.223241E+03  8.170185E+05  1.186776E+04 -5.059636E+03
     14079   1  1.533447E+06 -2.534489E+03 -7.915195E+02  8.618480E+05  9.530781E+03 -3.519752E+03
     14080   1  1.537303E+06 -1.921912E+03 -4.645608E+02  9.250945E+05  3.570515E+03 -2.064406E+03
     14081   1  7.658379E+05 -2.921601E+03  9.871162E+01  1.030391E+06 -1.328814E+03  3.302575E+02
     14082   1  7.643157E+05 -3.118164E+03 -6.968007E+02  9.649022E+05 -3.349301E+03  2.292205E+03
     14083   1  7.634567E+05 -2.820182E+03 -7.296546E+02  9.167920E+05 -4.193048E+03  1.812981E+03
     14084   1  7.629407E+05 -2.807682E+03 -1.639955E+03  8.841586E+05 -3.382613E+03  1.136414E+03
     14085   1  7.630681E+05 -2.587610E+03 -1.876520E+03  8.648950E+05 -1.600236E+03 -9.109979E+02
     14086   1  7.634159E+05 -2.660886E+03 -2.204360E+03  8.581459E+05  9.279524E+02 -2.126320E+03
     14087   1  7.641019E+05 -2.693711E+03 -1.957828E+03  8.630306E+05  3.222502E+03 -4.318161E+03
     14088   1  7.650003E+05 -2.963285E+03 -1.563312E+03  8.808295E+05  5.000059E+03 -4.637271E+03
     14089   1  7.663792E+05 -3.144453E+03 -9.513447E+02  9.117585E+05  5.358609E+03 -5.933752E+03
     14090   1  7.681351E+05 -3.239134E+03 -4.236111E+02  9.587760E+05  4.284578E+03 -3.932626E+03
     14091   1  7.704591E+05 -3.001626E+03 -3.750905E+01  1.023001E+06  1.700152E+03 -2.431630E+03
     14092   1  2.461777E+03 -4.026127E+03  4.986786E+00  1.061430E+06 -2.134602E+02  1.112636E+03
     14093   1  2.045884E+03 -3.297591E+03  1.510179E+02  9.962542E+05 -3.776591E+02  2.817493E+03
     14094   1  1.590892E+03 -2.832821E+03  3.321205E+02  9.479819E+05 -4.214584E+02  1.805563E+03
     14095   1  1.241057E+03 -2.608434E+03  4.801390E+02  9.145698E+05 -3.649658E+02  1.244828E+03
     14096   1  1.012091E+03 -2.477836E+03  6.290327E+02  8.948562E+05 -2.209087E+02 -9.566400E+02
     14097   1  9.096995E+02 -2.462526E+03  6.627241E+02  8.878865E+05  6.078057E+00 -2.210124E+03
     14098   1  1.040355E+03 -2.533752E+03  6.226732E+02  8.929267E+05  2.328270E+02 -4.392318E+03
     14099   1  1.296243E+03 -2.715335E+03  4.752005E+02  9.110790E+05  3.745121E+02 -4.942716E+03
     14100   1  1.684596E+03 -3.006322E+03  3.208854E+02  9.426640E+05  4.269787E+02 -6.040336E+03
     14101   1  2.078131E+03 -3.447962E+03  1.192016E+02  9.901356E+05  3.238363E+02 -4.254019E+03
     14102   1  2.404551E+03 -3.953404E+03  4.652776E+01  1.054711E+06  1.270576E+02 -2.481927E+03
     14103   1 -7.622651E+05 -3.540826E+03 -4.958055E+01  1.027845E+06  1.237059E+03  4.183169E+02
     14104   1 -7.610872E+05 -2.945472E+03  9.347289E+02  9.628755E+05  2.720050E+03  2.307575E+03
     14105   1 -7.608358E+05 -2.787741E+03  1.238594E+03  9.150616E+05  3.296006E+03  1.770818E+03
     14106   1 -7.610897E+05 -2.337244E+03  2.599550E+03  8.825254E+05  2.521451E+03  1.047994E+03
     14107   1 -7.617285E+05 -2.354572E+03  3.067456E+03  8.632776E+05  1.158485E+03 -9.563033E+02
     14108   1 -7.622369E+05 -2.240963E+03  3.499275E+03  8.565492E+05 -9.484550E+02 -2.142774E+03
     14109   1 -7.627123E+05 -2.342097E+03  3.167553E+03  8.613799E+05 -2.702496E+03 -4.299565E+03
     14110   1 -7.630539E+05 -2.414241E+03  2.435442E+03  8.791301E+05 -4.190774E+03 -4.584797E+03
     14111   1 -7.636579E+05 -2.702873E+03  1.541770E+03  9.099086E+05 -4.418207E+03 -5.913488E+03
     14112   1 -7.646172E+05 -3.301702E+03  6.054639E+02  9.566799E+05 -3.578241E+03 -3.914853E+03
     14113   1 -7.663499E+05 -4.373566E+03  1.364821E+02  1.020500E+06 -1.421850E+03 -2.451162E+03
     14114   1 -1.526704E+06 -4.723465E+03  1.037555E+02  9.267805E+05  2.601784E+03  8.035194E+02
     14115   1 -1.524270E+06 -2.763392E+03  1.113309E+03  8.637378E+05  7.006864E+03  2.389726E+03
     14116   1 -1.523322E+06 -1.798734E+03  2.958195E+03  8.186205E+05  8.278363E+03  1.218927E+03
     14117   1 -1.523819E+06 -1.662186E+03  4.845751E+03  7.882414E+05  6.804340E+03  9.024017E+02
     14118   1 -1.524699E+06 -1.513242E+03  6.100633E+03  7.708248E+05  3.145973E+03 -1.044428E+03
     14119   1 -1.525875E+06 -1.524229E+03  6.741662E+03  7.647080E+05 -1.758758E+03 -1.944106E+03
     14120   1 -1.526697E+06 -1.473603E+03  6.158561E+03  7.690986E+05 -6.423855E+03 -3.801429E+03
     14121   1 -1.527701E+06 -1.652973E+03  4.803352E+03  7.851518E+05 -9.875802E+03 -4.090080E+03
     14122   1 -1.528998E+06 -1.743019E+03  3.105217E+03  8.139000E+05 -1.069463E+04 -5.025530E+03
     14123   1 -1.531439E+06 -2.542801E+03  1.076455E+03  8.582897E+05 -8.691951E+03 -3.509924E+03
     14124   1 -1.534972E+06 -3.894583E+03  6.263876E+02  9.207976E+05 -3.228490E+03 -2.109074E+03
     14125   1 -2.290947E+06 -1.238531E+03  1.012951E+03  7.587220E+05  5.835368E+03  1.979032E+02
     14126   1 -2.287023E+06 -1.336349E+03  1.808472E+03  6.990499E+05  1.430432E+04  1.320271E+03
     14127   1 -2.285739E+06 -1.178548E+03  4.968694E+03  6.583045E+05  1.680896E+04  9.287533E+02
     14128   1 -2.286707E+06 -1.141092E+03  7.142873E+03  6.330439E+05  1.431435E+04  5.213034E+02
     14129   1 -2.287922E+06 -8.815324E+02  9.648107E+03  6.188084E+05  6.582739E+03 -9.685460E+02
     14130   1 -2.289959E+06 -1.082317E+03  1.019882E+04  6.138274E+05 -2.430947E+03 -1.626090E+03
     14131   1 -2.290864E+06 -8.941856E+02  9.555455E+03  6.173800E+05 -1.158787E+04 -3.084296E+03
     14132   1 -2.292409E+06 -1.005782E+03  7.327593E+03  6.305054E+05 -1.856701E+04 -3.124700E+03
     14133   1 -2.294052E+06 -1.086549E+03  4.796052E+03  6.544602E+05 -2.051611E+04 -4.019052E+03
     14134   1 -2.297393E+06 -1.515260E+03  2.093316E+03  6.944837E+05 -1.654059E+04 -2.343798E+03
     14135   1 -2.303046E+06 -3.054340E+03  1.754542E+02  7.533804E+05 -6.710596E+03 -1.748558E+03
     14136   1 -3.053322E+06 -2.500700E+03  1.541798E+03  5.182713E+05  1.065059E+04  2.505723E+02
     14137   1 -3.048648E+06 -1.515844E+03  1.975635E+03  4.649526E+05  2.902254E+04  1.171404E+03
     14138   1 -3.047407E+06 -1.204098E+02  7.195779E+03  4.358406E+05  3.347189E+04  4.897656E+02
     14139   1 -3.049202E+06 -4.613076E+02  1.022537E+04  4.188682E+05  2.672055E+04  2.109171E+02
     14140   1 -3.051181E+06 -2.239871E+02  1.365736E+04  4.092708E+05  1.268104E+04 -7.439205E+02
     14141   1 -3.053879E+06 -3.393769E+02  1.451006E+04  4.061269E+05 -2.955444E+03 -1.123280E+03
     14142   1 -3.054980E+06 -2.710970E+02  1.334287E+04  4.082848E+05 -1.919340E+04 -2.103181E+03
     14143   1 -3.056512E+06 -2.877543E+02  1.051490E+04  4.171458E+05 -3.188943E+04 -1.983842E+03
     14144   1 -3.058070E+06 -3.429330E+02  6.466954E+03  4.331802E+05 -3.832674E+04 -2.632942E+03
     14145   1 -3.061962E+06 -7.366543E+02  2.920803E+03  4.618960E+05 -3.184785E+04 -1.525725E+03
     14146   1 -3.068356E+06 -1.154519E+03  1.337798E+03  5.150453E+05 -1.178153E+04 -8.217522E+02
     14147   1 -3.813245E+06  2.334906E+03  1.602791E+03  1.904270E+05  2.977496E+04 -2.122523E+01
     14148   1 -3.808506E+06 -2.793429E+02  2.523371E+03  1.646934E+05  6.363674E+04  3.259034E+02
     14149   1 -3.808102E+06  3.137952E+02  9.560982E+03  1.550512E+05  6.140995E+04  6.566894E+01
     14150   1 -3.811402E+06 -5.088397E+02  1.362335E+04  1.485939E+05  4.648842E+04  1.087969E+02
     14151   1 -3.814284E+06  1.653903E+02  1.825750E+04  1.453735E+05  2.229384E+04 -3.483387E+02
     14152   1 -3.817738E+06 -3.380177E+02  1.920839E+04  1.442052E+05 -3.279470E+03 -3.545247E+02
     14153   1 -3.818824E+06  3.741971E+01  1.757848E+04  1.449923E+05 -2.983519E+04 -8.403956E+02
     14154   1 -3.819994E+06 -2.394620E+02  1.371239E+04  1.480065E+05 -5.221288E+04 -6.045093E+02
     14155   1 -3.820773E+06  8.274145E+01  8.045447E+03  1.540227E+05 -6.715674E+04 -9.987137E+02
     14156   1 -3.824059E+06 -3.751647E+02  3.283492E+03  1.636580E+05 -6.661886E+04 -3.538827E+02
     14157   1 -3.830887E+06 -4.684742E+02 -6.651923E+02  1.890248E+05 -3.123203E+04 -7.674245E+02
     14158   1  3.489441E+06  3.381698E+03  1.544616E+03  1.911556E+05 -2.956687E+04  1.742878E+03
     14159   1  3.483623E+06  6.340562E+02 -4.511673E+03  1.663185E+05 -6.113008E+04  1.702083E+02
     14160   1  3.484190E+06 -2.934233E+02 -1.116012E+04  1.562661E+05 -5.947137E+04  6.157349E+02
     14161   1  3.487791E+06 -5.071994E+00 -1.818778E+04  1.501952E+05 -4.331466E+04 -1.818191E+02
     14162   1  3.492366E+06 -1.347682E+02 -2.325230E+04  1.468213E+05 -2.080838E+04 -6.898933E+00
     14163   1  3.496084E+06  5.554158E+01 -2.477195E+04  1.456586E+05  4.374985E+03 -7.145642E+02
     14164   1  3.497659E+06 -2.296114E+02 -2.266978E+04  1.465673E+05  2.922829E+04 -6.498770E+02
     14165   1  3.498988E+06  1.230902E+02 -1.710029E+04  1.492371E+05  5.149124E+04 -1.248218E+03
     14166   1  3.499808E+06 -4.049032E+02 -1.055319E+04  1.554794E+05  6.574096E+04 -7.016221E+02
     14167   1  3.503928E+06  1.441775E+02 -3.601219E+03  1.647394E+05  6.617333E+04 -1.070751E+03
     14168   1  3.512096E+06 -4.638493E+02 -3.290111E+02  1.902310E+05  3.083457E+04 -5.433797E+01
     14169   1  2.794891E+06 -2.764314E+03 -2.782918E+03  5.222362E+05 -1.014471E+04 -3.585706E+02
     14170   1  2.789603E+06 -1.226926E+03 -3.755058E+03  4.685093E+05 -2.799805E+04  5.858055E+02
     14171   1  2.788128E+06 -1.062928E+03 -8.899920E+03  4.395163E+05 -3.201168E+04  1.199874E+03
     14172   1  2.790354E+06 -1.120288E+03 -1.388175E+04  4.227804E+05 -2.480402E+04  2.039208E+02
     14173   1  2.793089E+06 -1.029487E+03 -1.765541E+04  4.133168E+05 -1.161208E+04 -3.286989E+02
     14174   1  2.796120E+06 -1.087134E+03 -1.900391E+04  4.099777E+05  3.712163E+03 -1.623186E+03
     14175   1  2.797692E+06 -1.064738E+03 -1.732679E+04  4.123798E+05  1.894104E+04 -2.061384E+03
     14176   1  2.799415E+06 -1.277429E+03 -1.357473E+04  4.205875E+05  3.151263E+04 -3.133780E+03
     14177   1  2.801524E+06 -1.367996E+03 -8.543638E+03  4.368078E+05  3.769144E+04 -2.461419E+03
     14178   1  2.806353E+06 -9.894518E+02 -3.679638E+03  4.648479E+05  3.165520E+04 -2.709132E+03
     14179   1  2.814569E+06 -6.069142E+01 -1.441309E+03  5.177347E+05  1.176772E+04 -1.478840E+02
     14180   1  2.100122E+06  1.116434E+03  5.531662E+02  7.616727E+05 -5.999275E+03  1.933458E+03
     14181   1  2.094429E+06 -1.444215E+03 -2.745924E+03  7.032767E+05 -1.370218E+04  1.907792E+03
     14182   1  2.092896E+06 -1.938024E+03 -6.063438E+03  6.631005E+05 -1.617548E+04  1.950930E+03
     14183   1  2.093574E+06 -1.901439E+03 -9.767929E+03  6.380363E+05 -1.319734E+04  6.241290E+02
     14184   1  2.095421E+06 -1.781735E+03 -1.233156E+04  6.241570E+05 -5.921997E+03 -3.469821E+02
     14185   1  2.097444E+06 -1.806195E+03 -1.341112E+04  6.188414E+05  2.915658E+03 -2.281462E+03
     14186   1  2.098981E+06 -1.902192E+03 -1.221699E+04  6.227111E+05  1.162277E+04 -3.048581E+03
     14187   1  2.100740E+06 -2.142843E+03 -9.599068E+03  6.348992E+05  1.844906E+04 -4.735594E+03
     14188   1  2.103248E+06 -2.223775E+03 -5.996327E+03  6.589543E+05  2.045421E+04 -4.038562E+03
     14189   1  2.107746E+06 -2.338467E+03 -2.821306E+03  6.980030E+05  1.665560E+04 -4.226063E+03
     14190   1  2.115122E+06 -8.887169E+02 -3.268219E+02  7.567534E+05  6.745301E+03 -9.018432E+02
     14191   1  1.401864E+06 -2.505548E+03 -6.574306E+02  9.309469E+05 -2.621844E+03  1.091453E+03
     14192   1  1.398466E+06 -3.127599E+03 -1.852693E+03  8.679202E+05 -6.839790E+03  2.080525E+03
     14193   1  1.396993E+06 -3.128584E+03 -3.670176E+03  8.229725E+05 -8.223268E+03  2.859171E+03
     14194   1  1.396834E+06 -3.093194E+03 -6.161424E+03  7.932499E+05 -6.351327E+03  1.019430E+03
     14195   1  1.398036E+06 -3.028452E+03 -7.795894E+03  7.760495E+05 -2.817082E+03 -2.058535E+02
     14196   1  1.399080E+06 -3.014363E+03 -8.430087E+03  7.696921E+05  1.999125E+03 -2.738192E+03
     14197   1  1.400460E+06 -3.165127E+03 -7.738455E+03  7.742941E+05  6.709717E+03 -3.762624E+03
     14198   1  1.401883E+06 -3.411588E+03 -6.091798E+03  7.892829E+05  9.982000E+03 -6.017963E+03
     14199   1  1.404112E+06 -3.670026E+03 -3.750772E+03  8.179915E+05  1.104940E+04 -5.172356E+03
     14200   1  1.407825E+06 -3.413942E+03 -1.574695E+03  8.609743E+05  8.973461E+03 -5.812607E+03
     14201   1  1.413123E+06 -2.151056E+03 -4.005997E+02  9.228540E+05  3.441138E+03 -1.268378E+03
     14202   1  7.041311E+05 -3.638052E+03 -2.424430E+02  1.028348E+06 -1.412578E+03  2.584678E+03
     14203   1  7.016506E+05 -3.682977E+03 -3.457947E+02  9.650168E+05 -3.221150E+03  2.932748E+03
     14204   1  7.002674E+05 -3.756878E+03 -1.801292E+03  9.180545E+05 -3.522510E+03  3.495290E+03
     14205   1  7.000761E+05 -3.493284E+03 -2.410879E+03  8.861648E+05 -2.865644E+03  1.189724E+03
     14206   1  7.002628E+05 -3.430577E+03 -3.565676E+03  8.672109E+05 -1.061767E+03 -6.067811E+01
     14207   1  7.008945E+05 -3.381757E+03 -3.546312E+03  8.602227E+05  9.614980E+02 -2.976585E+03
     14208   1  7.015737E+05 -3.546751E+03 -3.462758E+03  8.652341E+05  3.191120E+03 -4.278894E+03
     14209   1  7.026432E+05 -3.804734E+03 -2.569932E+03  8.817083E+05  4.577034E+03 -6.691977E+03
     14210   1  7.041204E+05 -4.091256E+03 -1.541450E+03  9.122904E+05  5.121972E+03 -6.169107E+03
     14211   1  7.063916E+05 -4.348820E+03 -7.744462E+02  9.574383E+05  4.046130E+03 -6.507306E+03
     14212   1  7.095018E+05 -4.067737E+03 -8.840288E-01  1.020479E+06  1.656462E+03 -1.576074E+03
     14213   1  3.892020E+03 -4.873459E+03  8.054395E+01  1.060675E+06 -4.225001E+01  1.420250E+03
     14214   1  3.356404E+03 -4.578802E+03  1.266959E+02  9.963821E+05 -3.855017E+02  2.831722E+03
     14215   1  2.773027E+03 -4.240177E+03  2.925802E+02  9.487953E+05 -5.550710E+02  3.433463E+03
     14216   1  2.184618E+03 -3.898122E+03  5.339775E+02  9.161629E+05 -5.087698E+02  1.444581E+03
     14217   1  1.784187E+03 -3.753379E+03  6.626751E+02  8.968669E+05 -2.603739E+02 -1.731826E+02
     14218   1  1.713775E+03 -3.731150E+03  7.138524E+02  8.895091E+05  2.495379E+01 -3.047232E+03
     14219   1  1.848248E+03 -3.839390E+03  6.475978E+02  8.947691E+05  3.073857E+02 -4.365011E+03
     14220   1  2.300061E+03 -4.069029E+03  5.029107E+02  9.115247E+05  5.324086E+02 -7.029153E+03
     14221   1  2.907301E+03 -4.452805E+03  2.838815E+02  9.427808E+05  5.715960E+02 -6.254802E+03
     14222   1  3.655559E+03 -4.960597E+03  1.526333E+02  9.881610E+05  4.787576E+02 -6.858695E+03
     14223   1  4.379381E+03 -5.699058E+03  2.769477E+00  1.051327E+06  1.777710E+02 -1.590724E+03
     14224   1 -6.963026E+05 -7.156759E+03  2.888368E+02  1.025081E+06  7.470286E+02  2.425192E+03
     14225   1 -6.953539E+05 -5.041562E+03  7.344032E+02  9.621144E+05  2.080351E+03  2.791779E+03
     14226   1 -6.955215E+05 -3.685192E+03  2.735470E+03  9.153514E+05  2.239733E+03  3.312462E+03
     14227   1 -6.964481E+05 -3.399868E+03  3.715652E+03  8.835897E+05  1.816661E+03  1.047086E+03
     14228   1 -6.973954E+05 -3.137620E+03  5.252761E+03  8.646966E+05  4.048213E+02 -1.944411E+02
     14229   1 -6.982762E+05 -3.154259E+03  5.350392E+03  8.576452E+05 -8.848595E+02 -3.005666E+03
     14230   1 -6.986102E+05 -3.194863E+03  5.077332E+03  8.626578E+05 -2.526198E+03 -4.202327E+03
     14231   1 -6.988112E+05 -3.356230E+03  3.902416E+03  8.790249E+05 -3.406959E+03 -6.592086E+03
     14232   1 -6.990794E+05 -3.880510E+03  2.308674E+03  9.094476E+05 -3.873941E+03 -6.039221E+03
     14233   1 -6.999535E+05 -4.751001E+03  1.201847E+03  9.542308E+05 -3.015576E+03 -6.468597E+03
     14234   1 -7.017659E+05 -6.543688E+03  1.511695E+01  1.016676E+06 -1.268300E+03 -1.539390E+03
     14235   1 -1.397607E+06 -4.845411E+03  1.005564E+03  9.241747E+05  2.357947E+03  1.295776E+03
     14236   1 -1.394915E+06 -3.853702E+03  1.971579E+03  8.626094E+05  5.684339E+03  2.035545E+03
     14237   1 -1.394598E+06 -3.109398E+03  4.772588E+03  8.183936E+05  6.477069E+03  2.586589E+03
     14238   1 -1.395791E+06 -2.732777E+03  7.594693E+03  7.888382E+05  4.939955E+03  6.741530E+02
     14239   1 -1.397823E+06 -2.541555E+03  9.823042E+03  7.716521E+05  1.934659E+03 -3.955587E+02
     14240   1 -1.399155E+06 -2.524355E+03  1.049574E+04  7.652850E+05 -1.920791E+03 -2.799361E+03
     14241   1 -1.400228E+06 -2.547943E+03  9.659201E+03  7.698101E+05 -5.887945E+03 -3.628821E+03
     14242   1 -1.400662E+06 -2.621927E+03  7.583087E+03  7.846797E+05 -8.432440E+03 -5.809676E+03
     14243   1 -1.401668E+06 -2.977160E+03  4.562405E+03  8.130982E+05 -9.471315E+03 -4.946453E+03
     14244   1 -1.404004E+06 -3.953799E+03  2.070630E+03  8.554253E+05 -7.607417E+03 -5.731046E+03
     14245   1 -1.408302E+06 -6.358010E+03  3.464690E+02  9.162171E+05 -2.963988E+03 -1.204606E+03
     14246   1 -2.098730E+06 -6.481141E+03 -8.309578E+02  7.552237E+05  5.096796E+03  1.683369E+03
     14247   1 -2.093724E+06 -2.692286E+03  3.983049E+03  6.975958E+05  1.159285E+04  1.429685E+03
     14248   1 -2.093601E+06 -1.965359E+03  7.214976E+03  6.579222E+05  1.418660E+04  1.812147E+03
     14249   1 -2.095309E+06 -1.305008E+03  1.224726E+04  6.332563E+05  1.082550E+04  1.395780E+02
     14250   1 -2.098767E+06 -1.495419E+03  1.533199E+04  6.192425E+05  4.950683E+03 -5.443848E+02
     14251   1 -2.100524E+06 -1.293344E+03  1.641481E+04  6.140023E+05 -2.967169E+03 -2.363702E+03
     14252   1 -2.102281E+06 -1.409807E+03  1.522441E+04  6.177413E+05 -1.049031E+04 -2.863448E+03
     14253   1 -2.102522E+06 -1.304762E+03  1.181821E+04  6.298285E+05 -1.626946E+04 -4.479156E+03
     14254   1 -2.104002E+06 -1.785498E+03  7.342132E+03  6.535507E+05 -1.837818E+04 -3.777978E+03
     14255   1 -2.107158E+06 -2.238295E+03  3.602156E+03  6.917884E+05 -1.475105E+04 -4.190487E+03
     14256   1 -2.114070E+06 -4.621524E+03  2.861595E+02  7.491551E+05 -6.109333E+03 -8.440963E+02
     14257   1 -2.796897E+06 -5.955277E+02  1.057745E+03  5.157536E+05  9.660726E+03  1.837598E+02
     14258   1 -2.791272E+06 -4.421337E+02  6.044428E+03  4.639185E+05  2.479899E+04  5.887552E+02
     14259   1 -2.791740E+06 -1.243169E+03  9.978559E+03  4.355547E+05  2.947427E+04  8.987445E+02
     14260   1 -2.794666E+06 -4.079339E+02  1.750336E+04  4.189551E+05  2.130666E+04 -1.623693E+02
     14261   1 -2.799870E+06 -9.039269E+02  2.148798E+04  4.095099E+05  1.044106E+04 -5.454822E+02
     14262   1 -2.802204E+06 -5.312133E+02  2.303672E+04  4.060765E+05 -3.901660E+03 -1.680535E+03
     14263   1 -2.804357E+06 -7.987727E+02  2.132942E+04  4.085070E+05 -1.731873E+04 -1.860882E+03
     14264   1 -2.804066E+06 -5.403627E+02  1.651125E+04  4.165704E+05 -2.857077E+04 -2.910141E+03
     14265   1 -2.805117E+06 -7.169994E+02  1.045474E+04  4.326194E+05 -3.470077E+04 -2.143631E+03
     14266   1 -2.808465E+06 -1.168250E+03  4.664790E+03  4.599621E+05 -2.896184E+04 -2.708346E+03
     14267   1 -2.816784E+06 -2.537623E+03  1.450860E+03  5.114063E+05 -1.090794E+04 -8.640273E+01
     14268   1 -3.491865E+06 -3.584796E+03 -2.036389E+03  1.890166E+05  2.793449E+04  8.706090E+02
     14269   1 -3.485885E+06 -5.530100E+02  7.295463E+03  1.645040E+05  5.692524E+04  3.353584E+02
     14270   1 -3.488309E+06 -2.409111E+02  1.352475E+04  1.549288E+05  5.550581E+04  2.550626E+02
     14271   1 -3.493481E+06  1.024334E+02  2.337368E+04  1.485977E+05  3.901864E+04 -1.580274E+02
     14272   1 -3.500436E+06 -1.527234E+02  2.859725E+04  1.455303E+05  1.917191E+04 -1.898891E+02
     14273   1 -3.503825E+06 -4.917511E+01  3.056385E+04  1.440605E+05 -4.590822E+03 -7.110537E+02
     14274   1 -3.505722E+06  1.889326E+01  2.821750E+04  1.451958E+05 -2.701703E+04 -5.404125E+02
     14275   1 -3.504855E+06 -2.080437E+02  2.154528E+04  1.476632E+05 -4.770967E+04 -1.195957E+03
     14276   1 -3.504182E+06  1.074204E+02  1.371863E+04  1.539459E+05 -6.141184E+04 -5.143269E+02
     14277   1 -3.506515E+06 -4.903588E+02  5.188542E+03  1.629040E+05 -6.223871E+04 -1.170078E+03
     14278   1 -3.514951E+06 -7.820280E+01  7.197963E+02  1.876943E+05 -2.923879E+04  3.790548E+01
     14279   1  3.162609E+06 -4.556250E+03 -3.115978E+03  1.915190E+05 -2.602582E+04 -1.860823E+03
     14280   1  3.156742E+06 -6.614040E+02 -7.956695E+03  1.660320E+05 -5.453296E+04  6.645004E+02
     14281   1  3.159455E+06 -5.518055E+02 -1.903804E+04  1.574437E+05 -4.991855E+04 -1.623766E+02
     14282   1  3.167940E+06 -2.995727E+02 -3.018320E+04  1.505606E+05 -3.536488E+04  4.913301E+02
     14283   1  3.175504E+06 -5.684655E+02 -3.780262E+04  1.478842E+05 -1.599287E+04 -4.222488E+02
     14284   1  3.180444E+06 -3.777737E+02 -4.022062E+04  1.464482E+05  5.033993E+03 -4.067051E+02
     14285   1  3.182348E+06 -4.977718E+02 -3.667352E+04  1.472355E+05  2.585256E+04 -1.142340E+03
     14286   1  3.180444E+06 -5.165079E+02 -2.823668E+04  1.501416E+05  4.474593E+04 -8.653195E+02
     14287   1  3.179925E+06 -5.824477E+02 -1.704580E+04  1.557309E+05  5.911347E+04 -1.483572E+03
     14288   1  3.182041E+06 -3.547622E+02 -7.510011E+03  1.651065E+05  5.986722E+04 -3.219828E+02
     14289   1  3.192463E+06  5.774506E+02 -3.817037E+01  1.893616E+05  2.891319E+04 -1.005753E+03
     14290   1  2.536727E+06  4.114244E+03 -2.171788E+01  5.195378E+05 -9.306696E+03  1.330501E+03
     14291   1  2.529041E+06 -1.160012E+02 -6.766587E+03  4.690111E+05 -2.280465E+04  2.139313E+03
     14292   1  2.529973E+06 -1.058783E+03 -1.428492E+04  4.411506E+05 -2.632526E+04  9.383201E+02
     14293   1  2.534152E+06 -1.023553E+03 -2.288850E+04  4.245869E+05 -1.876064E+04  7.746240E+02
     14294   1  2.540144E+06 -8.458029E+02 -2.866090E+04  4.153663E+05 -8.385428E+03 -5.273568E+02
     14295   1  2.543407E+06 -9.730582E+02 -3.032903E+04  4.122808E+05  4.195915E+03 -1.345813E+03
     14296   1  2.545545E+06 -9.626039E+02 -2.798865E+04  4.139887E+05  1.655603E+04 -2.862252E+03
     14297   1  2.545114E+06 -1.179778E+03 -2.161779E+04  4.226499E+05  2.679117E+04 -2.809136E+03
     14298   1  2.546356E+06 -1.224585E+03 -1.353044E+04  4.374899E+05  3.319989E+04 -3.996210E+03
     14299   1  2.550596E+06 -1.195943E+03 -6.293500E+03  4.651855E+05  2.783245E+04 -1.964440E+03
     14300   1  2.561078E+06  7.890936E+01 -1.765971E+03  5.161062E+05  1.060542E+04 -1.588259E+03
     14301   1  1.906150E+06 -1.339911E+03 -1.768318E+03  7.620916E+05 -4.387104E+03 -8.759203E+01
     14302   1  1.900495E+06 -2.268620E+03 -4.716740E+03  7.040596E+05 -1.083512E+04  2.468588E+03
     14303   1  1.899542E+06 -2.327594E+03 -1.037274E+04  6.649621E+05 -1.224320E+04  2.439613E+03
     14304   1  1.902162E+06 -2.610507E+03 -1.602099E+04  6.407690E+05 -9.371635E+03  1.589599E+03
     14305   1  1.905640E+06 -2.568599E+03 -2.056898E+04  6.268231E+05 -3.680309E+03 -4.838762E+02
     14306   1  1.908331E+06 -2.497437E+03 -2.153811E+04  6.221645E+05  3.216581E+03 -1.822530E+03
     14307   1  1.909938E+06 -2.738125E+03 -2.010193E+04  6.248907E+05  1.001958E+04 -4.267946E+03
     14308   1  1.910670E+06 -2.970228E+03 -1.538483E+04  6.376406E+05  1.543102E+04 -4.435327E+03
     14309   1  1.912609E+06 -3.110069E+03 -9.867952E+03  6.597375E+05  1.754018E+04 -6.350642E+03
     14310   1  1.917195E+06 -2.674784E+03 -4.413335E+03  6.981173E+05  1.435800E+04 -3.565784E+03
     14311   1  1.926629E+06 -1.201658E+02 -5.615753E+02  7.542243E+05  6.141649E+03 -3.107849E+03
     14312   1  1.275108E+06 -3.574085E+02 -6.758990E+02  9.286195E+05 -2.294063E+03  1.890396E+03
     14313   1  1.270337E+06 -2.550295E+03 -2.120548E+03  8.681196E+05 -5.685489E+03  5.122573E+03
     14314   1  1.268749E+06 -3.582349E+03 -6.399756E+03  8.253274E+05 -5.517689E+03  3.051770E+03
     14315   1  1.270333E+06 -3.470433E+03 -9.987892E+03  7.958166E+05 -4.319393E+03  2.632337E+03
     14316   1  1.271931E+06 -3.454540E+03 -1.257878E+04  7.791253E+05 -1.329435E+03 -3.615147E+02
     14317   1  1.273959E+06 -3.484846E+03 -1.364585E+04  7.731405E+05  2.224946E+03 -2.101423E+03
     14318   1  1.275051E+06 -3.701697E+03 -1.236789E+04  7.766250E+05  5.638766E+03 -5.280917E+03
     14319   1  1.276154E+06 -3.907816E+03 -9.587074E+03  7.920095E+05  8.350337E+03 -5.852861E+03
     14320   1  1.278092E+06 -4.282960E+03 -6.002659E+03  8.184295E+05  9.226344E+03 -8.150988E+03
     14321   1  1.282013E+06 -3.896041E+03 -2.404675E+03  8.608463E+05  7.761583E+03 -5.273586E+03
     14322   1  1.288665E+06 -2.340524E+03 -8.375364E+02  9.202810E+05  3.007511E+03 -3.883295E+03
     14323   1  6.409133E+05 -3.795839E+03  1.548790E+02  1.028579E+06 -9.230323E+02  4.644145E+02
     14324   1  6.382077E+05 -4.763110E+03 -1.766657E+03  9.657086E+05 -2.126438E+03  5.028811E+03
     14325   1  6.373936E+05 -4.741858E+03 -2.526075E+03  9.202062E+05 -2.600253E+03  3.994679E+03
     14326   1  6.372760E+05 -4.819503E+03 -4.890621E+03  8.887104E+05 -1.692886E+03  3.142053E+03
     14327   1  6.381012E+05 -4.573346E+03 -5.697384E+03  8.702776E+05 -5.381961E+02 -1.907420E+02
     14328   1  6.388386E+05 -4.711975E+03 -6.460290E+03  8.636032E+05  1.242147E+03 -2.292610E+03
     14329   1  6.397095E+05 -4.798523E+03 -5.733652E+03  8.674247E+05  2.590877E+03 -5.926956E+03
     14330   1  6.405179E+05 -5.193392E+03 -4.479161E+03  8.843131E+05  3.955111E+03 -6.643058E+03
     14331   1  6.421549E+05 -5.476715E+03 -2.786743E+03  9.124137E+05  4.243480E+03 -9.433092E+03
     14332   1  6.447454E+05 -5.497615E+03 -1.128764E+03  9.568831E+05  3.600545E+03 -5.993719E+03
     14333   1  6.489698E+05 -5.044956E+03 -2.783161E+02  1.017221E+06  1.498950E+03 -4.431099E+03
     14334   1  7.216411E+03 -8.078051E+03 -5.999746E+01  1.058828E+06 -4.115239E+02  2.252104E+03
     14335   1  5.832295E+03 -6.361440E+03  2.100092E+02  9.963352E+05 -6.421245E+02  5.616182E+03
     14336   1  4.609021E+03 -5.379868E+03  4.847694E+02  9.504237E+05 -6.661156E+02  4.062095E+03
     14337   1  3.805737E+03 -5.004832E+03  6.598999E+02  9.182901E+05 -5.098244E+02  3.178142E+03
     14338   1  3.367595E+03 -4.809342E+03  8.236303E+02  8.992885E+05 -2.959385E+02 -1.910658E+02
     14339   1  3.187853E+03 -4.789242E+03  8.765722E+02  8.924508E+05  6.080308E+01 -2.386652E+03
     14340   1  3.480886E+03 -4.926661E+03  7.842678E+02  8.963292E+05  3.941429E+02 -6.045429E+03
     14341   1  4.022018E+03 -5.238011E+03  6.197635E+02  9.135551E+05  5.947424E+02 -6.934849E+03
     14342   1  4.932750E+03 -5.773056E+03  4.202069E+02  9.422062E+05  7.026374E+02 -9.648715E+03
     14343   1  6.029394E+03 -6.659200E+03  1.487165E+02  9.870424E+05  5.395308E+02 -6.329269E+03
     14344   1  7.301001E+03 -7.801621E+03  7.405626E+01  1.047542E+06  2.264630E+02 -4.550074E+03
     14345   1 -6.292621E+05 -8.517073E+03  5.275233E+01  1.022984E+06  8.095038E+02  5.597023E+02
     14346   1 -6.285463E+05 -6.709302E+03  2.118531E+03  9.612066E+05  1.034317E+03  4.812808E+03
     14347   1 -6.296280E+05 -5.868309E+03  3.257510E+03  9.162431E+05  1.091110E+03  3.662676E+03
     14348   1 -6.312776E+05 -4.897836E+03  6.215187E+03  8.848615E+05  3.315721E+02  2.737227E+03
     14349   1 -6.331888E+05 -4.825137E+03  7.334804E+03  8.663315E+05 -1.020976E+02 -4.124762E+02
     14350   1 -6.341822E+05 -4.658103E+03  8.154122E+03  8.596860E+05 -1.152564E+03 -2.325257E+03
     14351   1 -6.345465E+05 -4.803169E+03  7.312463E+03  8.634179E+05 -1.699393E+03 -5.798252E+03
     14352   1 -6.341770E+05 -5.028774E+03  5.600381E+03  8.802801E+05 -2.565504E+03 -6.345038E+03
     14353   1 -6.339167E+05 -5.652182E+03  3.560953E+03  9.081647E+05 -2.612253E+03 -9.174493E+03
     14354   1 -6.342553E+05 -7.080405E+03  1.349540E+03  9.521894E+05 -2.328720E+03 -5.750537E+03
     14355   1 -6.359995E+05 -9.499507E+03  4.399934E+02  1.011655E+06 -9.655949E+02 -4.392308E+03
     14356   1 -1.266215E+06 -1.156634E+04  3.677509E+02  9.203902E+05  1.213589E+03  1.399366E+03
     14357   1 -1.263784E+06 -6.697168E+03  3.140709E+03  8.608314E+05  3.589002E+03  4.513087E+03
     14358   1 -1.264633E+06 -4.471855E+03  7.511565E+03  8.184572E+05  3.451264E+03  2.410690E+03
     14359   1 -1.267923E+06 -3.846826E+03  1.212253E+04  7.892061E+05  2.351405E+03  2.040096E+03
     14360   1 -1.270878E+06 -3.577535E+03  1.501339E+04  7.725016E+05  3.303246E+02 -8.108456E+02
     14361   1 -1.273290E+06 -3.528724E+03  1.633368E+04  7.663930E+05 -2.173303E+03 -2.161345E+03
     14362   1 -1.273748E+06 -3.496834E+03  1.473594E+04  7.698420E+05 -4.382997E+03 -5.010654E+03
     14363   1 -1.273641E+06 -3.796857E+03  1.141280E+04  7.851313E+05 -6.502859E+03 -5.359555E+03
     14364   1 -1.273554E+06 -4.226613E+03  7.274097E+03  8.111539E+05 -6.951311E+03 -7.703110E+03
     14365   1 -1.275386E+06 -6.073608E+03  2.756586E+03  8.527751E+05 -6.094954E+03 -4.911356E+03
     14366   1 -1.279992E+06 -9.252213E+03  1.152152E+03  9.105592E+05 -2.288539E+03 -3.847640E+03
     14367   1 -1.903655E+06 -5.427821E+03  2.590649E+03  7.504477E+05  3.656122E+03  9.283027E+01
     14368   1 -1.899176E+06 -4.304029E+03  4.603253E+03  6.952323E+05  8.622900E+03  2.535350E+03
     14369   1 -1.900239E+06 -2.969907E+03  1.247337E+04  6.573910E+05  8.393285E+03  1.383844E+03
     14370   1 -1.905727E+06 -2.720768E+03  1.865763E+04  6.330555E+05  6.976152E+03  9.612317E+02
     14371   1 -1.909901E+06 -2.317665E+03  2.366397E+04  6.193029E+05  1.813241E+03 -1.053317E+03
     14372   1 -1.914088E+06 -2.505409E+03  2.539255E+04  6.143530E+05 -3.103810E+03 -1.884050E+03
     14373   1 -1.914224E+06 -2.322704E+03  2.300505E+04  6.171094E+05 -8.168582E+03 -3.926220E+03
     14374   1 -1.914027E+06 -2.472939E+03  1.791440E+04  6.297793E+05 -1.287400E+04 -3.810024E+03
     14375   1 -1.913409E+06 -2.702541E+03  1.144972E+04  6.514681E+05 -1.405826E+04 -5.794640E+03
     14376   1 -1.916023E+06 -4.064185E+03  4.768827E+03  6.888487E+05 -1.204552E+04 -3.134726E+03
     14377   1 -1.923935E+06 -7.399127E+03  1.037811E+03  7.428369E+05 -5.056854E+03 -3.102347E+03
     14378   1 -2.538732E+06 -5.773920E+03  3.256513E+03  5.114691E+05  6.986124E+03  3.991457E+02
     14379   1 -2.532537E+06 -3.149873E+03  6.029076E+03  4.622052E+05  1.992244E+04  1.646168E+03
     14380   1 -2.534762E+06 -6.288383E+02  1.821296E+04  4.350703E+05  2.034119E+04  2.994909E+02
     14381   1 -2.543347E+06 -1.223103E+03  2.667857E+04  4.186116E+05  1.560685E+04  1.094153E+02
     14382   1 -2.549486E+06 -7.896666E+02  3.351822E+04  4.092705E+05  5.555872E+03 -9.956767E+02
     14383   1 -2.555202E+06 -9.365079E+02  3.602293E+04  4.061538E+05 -3.966832E+03 -1.378347E+03
     14384   1 -2.555199E+06 -8.523608E+02  3.243334E+04  4.077364E+05 -1.405491E+04 -2.579239E+03
     14385   1 -2.553868E+06 -8.946926E+02  2.567651E+04  4.164758E+05 -2.310366E+04 -2.180047E+03
     14386   1 -2.551985E+06 -1.038679E+03  1.605110E+04  4.309434E+05 -2.822293E+04 -3.596672E+03
     14387   1 -2.554316E+06 -1.777152E+03  7.141638E+03  4.578438E+05 -2.443251E+04 -1.611128E+03
     14388   1 -2.563957E+06 -3.398165E+03  2.361557E+03  5.065354E+05 -9.069254E+03 -1.705123E+03
     14389   1 -3.166965E+06  3.075989E+03  4.905237E+03  1.874463E+05  2.350492E+04 -4.428317E+02
     14390   1 -3.161803E+06 -7.327557E+02  8.344591E+03  1.636735E+05  4.911822E+04  1.955820E+02
     14391   1 -3.167215E+06  2.108106E+02  2.427161E+04  1.548017E+05  4.242350E+04 -1.172123E+02
     14392   1 -3.179990E+06 -7.239427E+02  3.540639E+04  1.485144E+05  3.073147E+04 -3.123176E+01
     14393   1 -3.188709E+06 -1.253252E+01  4.450337E+04  1.452616E+05  1.247236E+04 -5.159729E+02
     14394   1 -3.195934E+06 -4.722679E+02  4.739593E+04  1.442214E+05 -4.693328E+03 -4.277548E+02
     14395   1 -3.195745E+06 -1.944536E+02  4.285442E+04  1.446540E+05 -2.273435E+04 -1.062658E+03
     14396   1 -3.192404E+06 -3.234626E+02  3.377209E+04  1.478354E+05 -3.954868E+04 -5.056948E+02
     14397   1 -3.188278E+06 -1.436729E+02  2.080857E+04  1.531328E+05 -5.244192E+04 -1.375765E+03
     14398   1 -3.187872E+06 -4.740104E+02  9.342069E+03  1.623393E+05 -5.429157E+04 -2.298648E+01
     14399   1 -3.197679E+06 -1.391317E+03  6.180738E+02  1.854445E+05 -2.642528E+04 -1.179620E+03
     14400   1  2.830803E+06  7.007088E+03  6.756689E+02  1.889005E+05 -2.222601E+04  3.659504E+03
     14401   1  2.824117E+06  7.860013E+02 -1.369741E+04  1.674471E+05 -4.113163E+04 -1.979782E+02
     14402   1  2.834820E+06 -2.577273E+02 -3.112476E+04  1.569725E+05 -3.593857E+04  9.585900E+02
     14403   1  2.848829E+06  5.778107E+01 -4.756813E+04  1.521007E+05 -2.302311E+04 -1.130634E+02
     14404   1  2.862418E+06 -6.484502E+01 -5.974463E+04  1.484026E+05 -8.596217E+03  4.742817E+01
     14405   1  2.869778E+06  8.939013E+01 -6.282150E+04  1.473636E+05  4.638696E+03 -6.856963E+02
     14406   1  2.868452E+06 -1.697291E+02 -5.665148E+04  1.483966E+05  1.950399E+04 -7.650111E+02
     14407   1  2.864774E+06  1.421791E+02 -4.410235E+04  1.504810E+05  3.460093E+04 -1.659612E+03
     14408   1  2.857264E+06 -3.812174E+02 -2.749003E+04  1.567126E+05  4.606744E+04 -6.774274E+02
     14409   1  2.857327E+06  1.995674E+02 -1.091595E+04  1.648363E+05  5.111160E+04 -1.630630E+03
     14410   1  2.868352E+06 -3.750770E+02 -2.888645E+03  1.884807E+05  2.444235E+04  4.474639E+02
     14411   1  2.272512E+06 -1.853770E+03 -5.535972E+03  5.185746E+05 -5.141892E+03 -6.950128E+02
     14412   1  2.266314E+06 -9.017320E+02 -1.025527E+04  4.693805E+05 -1.601082E+04  6.994167E+02
     14413   1  2.269733E+06 -1.119319E+03 -2.399464E+04  4.423923E+05 -1.562917E+04  2.250402E+03
     14414   1  2.280176E+06 -1.435269E+03 -3.644924E+04  4.270451E+05 -1.077551E+04  9.232903E+02
     14415   1  2.288747E+06 -1.351740E+03 -4.505000E+04  4.178713E+05 -3.151655E+03  9.656012E+00
     14416   1  2.294727E+06 -1.450787E+03 -4.793738E+04  4.144934E+05  3.939073E+03 -1.550616E+03
     14417   1  2.294416E+06 -1.423440E+03 -4.300445E+04  4.171002E+05  1.184052E+04 -2.458450E+03
     14418   1  2.292570E+06 -1.760954E+03 -3.405103E+04  4.239282E+05  1.970307E+04 -4.299124E+03
     14419   1  2.289564E+06 -1.867734E+03 -2.145222E+04  4.396050E+05  2.436832E+04 -2.943988E+03
     14420   1  2.292676E+06 -1.019173E+03 -9.261257E+03  4.646641E+05  2.220521E+04 -4.334187E+03
     14421   1  2.305037E+06  1.532711E+03 -2.849663E+03  5.132542E+05  8.252717E+03  1.628070E+02
     14422   1  1.711239E+06  5.837379E+03 -9.358953E+00  7.577120E+05 -3.620697E+03  3.979283E+03
     14423   1  1.703670E+06 -1.868653E+02 -7.314569E+03  7.042872E+05 -6.034735E+03  4.046392E+03
     14424   1  1.705878E+06 -2.090237E+03 -1.630688E+04  6.668868E+05 -5.792845E+03  3.992630E+03
     14425   1  1.711634E+06 -2.231681E+03 -2.564621E+04  6.435733E+05 -3.867853E+03  2.275909E+03
     14426   1  1.717789E+06 -2.218314E+03 -3.156657E+04  6.305034E+05 -3.475001E+02  6.213380E+02
     14427   1  1.721760E+06 -2.364732E+03 -3.379883E+04  6.250052E+05  3.080744E+03 -2.230990E+03
     14428   1  1.722348E+06 -2.459128E+03 -3.033287E+04  6.290225E+05  6.858987E+03 -3.683469E+03
     14429   1  1.721706E+06 -2.844618E+03 -2.387631E+04  6.392050E+05  1.062234E+04 -6.822502E+03
     14430   1  1.721360E+06 -2.832115E+03 -1.481071E+04  6.620831E+05  1.203779E+04 -5.448543E+03
     14431   1  1.725254E+06 -2.331225E+03 -6.667748E+03  6.971055E+05  1.076928E+04 -7.303621E+03
     14432   1  1.735932E+06  1.158947E+03 -1.367008E+03  7.515208E+05  4.551578E+03 -8.172237E+02
     14433   1  1.143807E+06  7.713286E+02 -8.338005E+02  9.284830E+05 -1.007355E+03  2.682035E+03
     14434   1  1.139541E+06 -2.378672E+03 -5.094629E+03  8.699585E+05 -1.843946E+03  4.157587E+03
     14435   1  1.140671E+06 -3.604452E+03 -1.009541E+04  8.271260E+05 -2.266659E+03  6.537194E+03
     14436   1  1.143188E+06 -3.962626E+03 -1.598269E+04  7.999233E+05 -5.608396E+02  3.417926E+03
     14437   1  1.147512E+06 -4.124342E+03 -2.030879E+04  7.832893E+05  6.227741E+02  1.264867E+03
     14438   1  1.149642E+06 -4.115326E+03 -2.122014E+04  7.769008E+05  2.039067E+03 -2.589281E+03
     14439   1  1.150633E+06 -4.383747E+03 -1.941093E+04  7.814383E+05  3.928620E+03 -4.740316E+03
     14440   1  1.150741E+06 -4.752791E+03 -1.508659E+04  7.940054E+05  5.192714E+03 -8.855696E+03
     14441   1  1.151439E+06 -4.837449E+03 -9.270018E+03  8.211791E+05  6.136234E+03 -7.495280E+03
     14442   1  1.155269E+06 -3.975226E+03 -4.048329E+03  8.596987E+05  5.521408E+03 -9.835407E+03
     14443   1  1.163200E+06 -1.050186E+03 -8.142179E+02  9.174216E+05  2.244716E+03 -1.401115E+03
     14444   1  5.784126E+05 -3.968004E+03 -1.001419E+03  1.027234E+06 -6.705235E+02  5.626339E+03
     14445   1  5.751863E+05 -4.690071E+03 -1.370408E+03  9.674995E+05 -1.265790E+03  5.818542E+03
     14446   1  5.742244E+05 -5.152866E+03 -5.085558E+03  9.222705E+05 -4.937757E+02  7.585402E+03
     14447   1  5.756190E+05 -5.120133E+03 -6.994359E+03  8.928781E+05 -1.507585E+02  4.098992E+03
     14448   1  5.770438E+05 -5.209031E+03 -9.685079E+03  8.744354E+05  6.897936E+02  1.680085E+03
     14449   1  5.783770E+05 -5.159867E+03 -9.733102E+03  8.673535E+05  9.738167E+02 -2.764677E+03
     14450   1  5.788594E+05 -5.449764E+03 -9.113056E+03  8.722484E+05  1.937196E+03 -5.456582E+03
     14451   1  5.795493E+05 -5.786977E+03 -6.932857E+03  8.859962E+05  2.313147E+03 -9.992846E+03
     14452   1  5.804971E+05 -6.099615E+03 -4.136423E+03  9.150091E+05  2.829418E+03 -8.925729E+03
     14453   1  5.832178E+05 -6.233585E+03 -1.981991E+03  9.555348E+05  2.449596E+03 -1.112444E+04
     14454   1  5.881326E+05 -5.393002E+03 -1.784497E+02  1.014659E+06  1.093266E+03 -1.778810E+03
     14455   1  1.018900E+04 -8.350656E+03  2.316182E+02  1.058342E+06  5.573662E+01  2.904719E+03
     14456   1  8.339591E+03 -7.718946E+03  1.544269E+02  9.977189E+05 -3.968226E+02  5.723894E+03
     14457   1  7.015682E+03 -7.135936E+03  2.533555E+02  9.523223E+05 -5.403878E+02  7.511552E+03
     14458   1  5.987661E+03 -6.539309E+03  4.802652E+02  9.217513E+05 -4.944970E+02  4.375450E+03
     14459   1  5.350634E+03 -6.314664E+03  5.928025E+02  9.030701E+05 -1.647619E+02  1.551290E+03
     14460   1  5.312856E+03 -6.312530E+03  5.584582E+02  8.954764E+05  1.070926E+02 -2.832157E+03
     14461   1  5.554347E+03 -6.477300E+03  5.358611E+02  9.006448E+05  3.749087E+02 -5.522557E+03
     14462   1  6.358413E+03 -6.866132E+03  3.634043E+02  9.146023E+05  6.168169E+02 -1.034740E+04
     14463   1  7.481283E+03 -7.559443E+03  2.008064E+02  9.442593E+05  6.224845E+02 -8.996380E+03
     14464   1  9.156894E+03 -8.573767E+03  1.462296E+02  9.849866E+05  5.923087E+02 -1.145596E+04
     14465   1  1.122155E+04 -1.022967E+04 -3.458949E+01  1.044208E+06  2.138869E+02 -1.734304E+03
     14466   1 -5.585746E+05 -1.590810E+04  8.072829E+02  1.020714E+06 -4.457781E+02  5.159948E+03
     14467   1 -5.594684E+05 -1.051685E+04  1.825820E+03  9.617865E+05 -3.116923E+02  5.208506E+03
     14468   1 -5.619237E+05 -7.487115E+03  6.158754E+03  9.167734E+05 -1.083798E+03  6.765106E+03
     14469   1 -5.655113E+05 -6.700629E+03  8.447652E+03  8.873338E+05 -9.888014E+02  3.471627E+03
     14470   1 -5.680774E+05 -6.144785E+03  1.136704E+04  8.689296E+05 -1.274318E+03  1.257959E+03
     14471   1 -5.697274E+05 -6.162274E+03  1.153666E+04  8.616605E+05 -7.673157E+02 -2.834508E+03
     14472   1 -5.696029E+05 -6.221975E+03  1.065678E+04  8.666089E+05 -9.804216E+02 -5.112058E+03
     14473   1 -5.686316E+05 -6.556958E+03  8.186599E+03  8.802831E+05 -8.305699E+02 -9.495042E+03
     14474   1 -5.673269E+05 -7.652007E+03  4.855190E+03  9.091430E+05 -1.274948E+03 -8.292982E+03
     14475   1 -5.667955E+05 -9.691472E+03  2.446685E+03  9.490642E+05 -1.070012E+03 -1.073795E+04
     14476   1 -5.678427E+05 -1.377630E+04  1.195831E+02  1.006988E+06 -5.806857E+02 -1.560725E+03
     14477   1 -1.131007E+06 -1.347323E+04  1.708176E+03  9.148713E+05  6.538697E+02  2.764865E+03
     14478   1 -1.129832E+06 -9.767588E+03  5.018399E+03  8.591326E+05  3.800292E+01  3.412844E+03
     14479   1 -1.133909E+06 -7.160803E+03  1.152978E+04  8.174819E+05 -6.457567E+02  5.225864E+03
     14480   1 -1.139508E+06 -5.983212E+03  1.775775E+04  7.902486E+05 -1.565557E+03  2.145414E+03
     14481   1 -1.145243E+06 -5.508288E+03  2.265893E+04  7.733294E+05 -1.740580E+03  5.302028E+02
     14482   1 -1.147782E+06 -5.486959E+03  2.348268E+04  7.668452E+05 -1.809681E+03 -2.660125E+03
     14483   1 -1.148200E+06 -5.481027E+03  2.151750E+04  7.713694E+05 -2.537575E+03 -4.186524E+03
     14484   1 -1.146242E+06 -5.675006E+03  1.660788E+04  7.838787E+05 -2.723152E+03 -7.897095E+03
     14485   1 -1.144433E+06 -6.705769E+03  1.003788E+04  8.108385E+05 -3.671603E+03 -6.388940E+03
     14486   1 -1.144789E+06 -8.999793E+03  4.675480E+03  8.482486E+05 -3.224931E+03 -9.121228E+03
     14487   1 -1.149196E+06 -1.442879E+04  5.839596E+02  9.038159E+05 -1.447973E+03 -1.000759E+03
     14488   1 -1.704981E+06 -1.593381E+04 -8.607017E+02  7.444710E+05  1.577020E+03  3.215396E+03
     14489   1 -1.700987E+06 -7.062808E+03  9.541989E+03  6.925933E+05  1.548049E+03  2.121691E+03
     14490   1 -1.707286E+06 -4.891550E+03  1.801396E+04  6.555556E+05  2.237876E+03  2.952067E+03
     14491   1 -1.715384E+06 -3.553566E+03  2.871997E+04  6.329116E+05 -5.505593E+02  6.389769E+02
     14492   1 -1.725137E+06 -3.570442E+03  3.613132E+04  6.190643E+05 -1.312964E+03 -2.769118E+02
     14493   1 -1.728391E+06 -3.378096E+03  3.719227E+04  6.136429E+05 -2.797082E+03 -2.279944E+03
     14494   1 -1.729173E+06 -3.418742E+03  3.443663E+04  6.176041E+05 -4.920607E+03 -3.013647E+03
     14495   1 -1.725495E+06 -3.411071E+03  2.646033E+04  6.277364E+05 -6.424510E+03 -5.667049E+03
     14496   1 -1.722476E+06 -4.351900E+03  1.636555E+04  6.503965E+05 -8.361902E+03 -4.189573E+03
     14497   1 -1.722822E+06 -5.942733E+03  7.862892E+03  6.839472E+05 -7.041776E+03 -6.633645E+03
     14498   1 -1.730661E+06 -1.141724E+04  9.279363E+02  7.355326E+05 -3.330186E+03 -4.033823E+02
     14499   1 -2.275381E+06 -5.091094E+03  1.106488E+03  5.043798E+05  4.420432E+03  5.199779E+02
     14500   1 -2.270274E+06 -2.139216E+03  1.444809E+04  4.595511E+05  8.534782E+03  6.048858E+01
     14501   1 -2.280163E+06 -2.961231E+03  2.577754E+04  4.333256E+05  1.057816E+04  8.558769E+02
     14502   1 -2.292115E+06 -1.506558E+03  4.109955E+04  4.179581E+05  3.837322E+03 -3.932283E+02
     14503   1 -2.306492E+06 -1.946017E+03  5.131746E+04  4.085076E+05  7.232473E+02 -7.923521E+02
     14504   1 -2.310985E+06 -1.711637E+03  5.264623E+04  4.048363E+05 -3.662946E+03 -1.637954E+03
     14505   1 -2.311279E+06 -1.817835E+03  4.876375E+04  4.076522E+05 -8.975296E+03 -1.770756E+03
     14506   1 -2.305502E+06 -1.635213E+03  3.765990E+04  4.143521E+05 -1.358464E+04 -3.331950E+03
     14507   1 -2.299265E+06 -1.901102E+03  2.386198E+04  4.300714E+05 -1.859154E+04 -1.659006E+03
     14508   1 -2.298406E+06 -2.947888E+03  1.078752E+04  4.538764E+05 -1.652575E+04 -3.867939E+03
     14509   1 -2.308743E+06 -6.499626E+03  2.361988E+03  4.993980E+05 -6.477639E+03  5.514790E+02
     14510   1 -2.837737E+06 -6.605539E+03 -1.882444E+03  1.842603E+05  1.843172E+04  1.264172E+03
     14511   1 -2.833212E+06 -4.864488E+02  1.896165E+04  1.632069E+05  3.141126E+04  2.924827E+01
     14512   1 -2.849930E+06 -7.071762E+02  3.501788E+04  1.539857E+05  2.767283E+04 -3.067396E+01
     14513   1 -2.867678E+06 -5.959365E+01  5.496764E+04  1.481282E+05  1.422017E+04 -3.987591E+02
     14514   1 -2.887084E+06 -3.217473E+02  6.816257E+04  1.450774E+05  5.240190E+03 -3.729398E+02
     14515   1 -2.893523E+06 -2.796260E+02  7.021379E+04  1.433593E+05 -4.423439E+03 -7.458849E+02
     14516   1 -2.892418E+06 -1.306078E+02  6.458641E+04  1.448658E+05 -1.544873E+04 -3.838034E+02
     14517   1 -2.884326E+06 -4.117346E+02  5.013352E+04  1.466521E+05 -2.669358E+04 -1.371036E+03
     14518   1 -2.872550E+06 -1.711144E+02  3.200352E+04  1.530930E+05 -3.740607E+04 -2.884684E+01
     14519   1 -2.868010E+06 -8.563201E+02  1.350749E+04  1.606690E+05 -4.268246E+04 -1.710229E+03
     14520   1 -2.877211E+06 -6.914138E+02  3.234235E+03  1.827582E+05 -2.094340E+04  7.469206E+02
     14521   1  2.487990E+06 -6.663077E+03 -8.795908E+03  1.882734E+05 -1.196734E+04 -5.263644E+03
     14522   1  2.488279E+06 -4.528193E+02 -2.244717E+04  1.647817E+05 -2.325355E+04  1.258319E+03
     14523   1  2.507037E+06 -3.507996E+02 -4.861511E+04  1.593560E+05 -1.247081E+04 -6.956567E+01
     14524   1  2.536175E+06 -5.502380E+02 -7.588098E+04  1.515488E+05 -4.320926E+03  7.515395E+02
     14525   1  2.555836E+06 -5.572077E+02 -9.092343E+04  1.498694E+05 -9.605765E+02  2.315506E+02
     14526   1  2.563994E+06 -5.102486E+02 -9.459590E+04  1.485761E+05  4.613916E+03 -4.767549E+02
     14527   1  2.562770E+06 -6.164188E+02 -8.679254E+04  1.487683E+05  8.644507E+03 -1.196706E+03
     14528   1  2.547938E+06 -6.575415E+02 -6.599802E+04  1.521958E+05  1.669567E+04 -8.814565E+02
     14529   1  2.535726E+06 -6.671813E+02 -4.196865E+04  1.563506E+05  2.876572E+04 -2.163594E+03
     14530   1  2.526119E+06 -5.048708E+02 -1.943588E+04  1.654209E+05  3.345660E+04  2.906196E+02
     14531   1  2.537767E+06  2.267632E+03 -1.567854E+03  1.858306E+05  1.915880E+04 -1.782624E+03
     14532   1  2.004534E+06  1.158536E+04 -2.903387E+02  5.110891E+05 -2.896063E+03  2.786823E+03
     14533   1  1.997128E+06  1.890394E+03 -1.782127E+04  4.679374E+05 -2.253615E+03  4.243752E+03
     14534   1  2.010822E+06 -3.961708E+02 -3.669393E+04  4.439559E+05 -1.680304E+03  2.100430E+03
     14535   1  2.027955E+06 -4.001733E+02 -5.621604E+04  4.282212E+05  2.423916E+03  2.294913E+03
     14536   1  2.043488E+06 -3.940320E+02 -6.851733E+04  4.203421E+05  2.160151E+03  1.093398E+03
     14537   1  2.049208E+06 -4.307067E+02 -7.038047E+04  4.178004E+05  3.249293E+03 -1.158049E+03
     14538   1  2.048810E+06 -7.192985E+02 -6.507480E+04  4.183847E+05  4.427341E+03 -3.223056E+03
     14539   1  2.039985E+06 -7.079961E+02 -4.965238E+04  4.273898E+05  7.137561E+03 -3.410486E+03
     14540   1  2.032946E+06 -8.015169E+02 -3.190022E+04  4.391529E+05  1.258432E+04 -6.048008E+03
     14541   1  2.030777E+06 -4.290384E+02 -1.492849E+04  4.648128E+05  1.140831E+04 -1.871041E+03
     14542   1  2.043828E+06  3.622148E+03 -2.954230E+03  5.086471E+05  4.970413E+03 -3.441488E+03
     14543   1  1.506282E+06  6.657887E+03 -4.069008E+03  7.549669E+05  1.101987E+03 -2.748221E+02
     14544   1  1.503769E+06  1.007825E+03 -1.194045E+04  7.033879E+05  1.880246E+03  5.797070E+03
     14545   1  1.510309E+06 -8.035437E+02 -2.594966E+04  6.691139E+05  3.696108E+03  6.153447E+03
     14546   1  1.522500E+06 -1.968514E+03 -3.916453E+04  6.468090E+05  4.507201E+03  4.798377E+03
     14547   1  1.532607E+06 -2.063666E+03 -4.853463E+04  6.343885E+05  3.340351E+03  2.028238E+03
     14548   1  1.537317E+06 -2.000792E+03 -4.971140E+04  6.305593E+05  2.379337E+03 -1.199037E+03
     14549   1  1.537163E+06 -2.477586E+03 -4.589037E+04  6.316487E+05  1.873868E+03 -5.261725E+03
     14550   1  1.532589E+06 -2.629431E+03 -3.506628E+04  6.444051E+05  2.491397E+03 -5.948512E+03
     14551   1  1.529034E+06 -2.640607E+03 -2.250418E+04  6.621255E+05  4.197108E+03 -1.026374E+04
     14552   1  1.530136E+06 -8.252545E+02 -1.002772E+04  6.973208E+05  4.228594E+03 -4.829961E+03
     14553   1  1.541628E+06  5.152383E+03 -1.651178E+03  7.460918E+05  2.604387E+03 -6.105225E+03
     14554   1  1.009768E+06  7.207487E+03 -2.575158E+03  9.263925E+05  7.142733E+02  3.107819E+03
     14555   1  1.007123E+06  8.592403E+02 -6.045035E+03  8.689513E+05  1.288073E+03  1.137831E+04
     14556   1  1.010060E+06 -2.031110E+03 -1.586879E+04  8.316104E+05  4.700778E+03  7.864442E+03
     14557   1  1.018784E+06 -3.027009E+03 -2.490038E+04  8.032358E+05  4.144666E+03  7.358764E+03
     14558   1  1.024228E+06 -3.044138E+03 -2.977963E+04  7.887103E+05  2.926349E+03  3.099405E+03
     14559   1  1.027903E+06 -3.305163E+03 -3.173126E+04  7.833423E+05  1.886751E+03 -1.390948E+03
     14560   1  1.027988E+06 -3.589498E+03 -2.847241E+04  7.849130E+05  4.392332E+02 -6.702137E+03
     14561   1  1.025823E+06 -3.784356E+03 -2.186393E+04  8.000229E+05  5.990371E+02 -8.386597E+03
     14562   1  1.024619E+06 -3.911704E+03 -1.382738E+04  8.213163E+05  1.097370E+03 -1.364323E+04
     14563   1  1.026277E+06 -2.200864E+03 -5.788305E+03  8.608071E+05  1.724761E+03 -7.582741E+03
     14564   1  1.034374E+06  2.123339E+03 -1.583235E+03  9.135003E+05  9.113930E+02 -7.700237E+03
     14565   1  5.117019E+05 -3.162495E+02  4.581408E+02  1.028641E+06  4.260822E+02  1.474222E+02
     14566   1  5.087920E+05 -3.355486E+03 -4.307425E+03  9.684981E+05  2.083585E+03  1.169681E+04
     14567   1  5.110525E+05 -4.852539E+03 -6.961103E+03  9.279487E+05  2.370160E+03  9.801332E+03
     14568   1  5.138669E+05 -5.369996E+03 -1.245713E+04  8.969167E+05  2.720322E+03  8.565218E+03
     14569   1  5.169671E+05 -5.198928E+03 -1.421196E+04  8.807259E+05  1.608240E+03  3.797526E+03
     14570   1  5.184307E+05 -5.496316E+03 -1.554273E+04  8.746227E+05  1.198243E+03 -1.531116E+03
     14571   1  5.190238E+05 -5.621118E+03 -1.384249E+04  8.762449E+05 -1.007631E+01 -7.598707E+03
     14572   1  5.181935E+05 -6.068177E+03 -1.057564E+04  8.928667E+05  9.664853E+01 -9.772227E+03
     14573   1  5.185941E+05 -6.323630E+03 -6.767517E+03  9.154928E+05  2.233180E+02 -1.575139E+04
     14574   1  5.205800E+05 -5.851153E+03 -2.711697E+03  9.573987E+05  6.012043E+02 -8.748619E+03
     14575   1  5.262172E+05 -4.491727E+03 -7.567494E+02  1.011697E+06  4.665381E+02 -8.627418E+03
     14576   1  1.523922E+04 -1.322227E+04 -3.431677E+02  1.060129E+06 -4.219248E+02  4.387956E+03
     14577   1  1.261101E+04 -9.699253E+03  5.814744E+01  9.996611E+05 -2.987280E+02  1.174044E+04
     14578   1  1.058702E+04 -7.865358E+03  2.833880E+02  9.570941E+05 -2.036653E+02  9.782127E+03
     14579   1  9.441705E+03 -7.289121E+03  3.040857E+02  9.259272E+05  2.024219E+01  8.514715E+03
     14580   1  9.042035E+03 -7.048028E+03  2.665789E+02  9.086851E+05  4.637224E+01  3.810285E+03
     14581   1  8.917899E+03 -7.012074E+03  3.262309E+02  9.024896E+05  1.881821E+02 -1.568045E+03
     14582   1  9.361042E+03 -7.219392E+03  1.489980E+02  9.040763E+05  2.550602E+02 -7.709692E+03
     14583   1  1.002559E+04 -7.676475E+03  1.927786E+02  9.211278E+05  2.258854E+02 -9.918616E+03
     14584   1  1.141466E+04 -8.571081E+03  1.237486E+02  9.442712E+05  3.376206E+02 -1.603048E+04
     14585   1  1.334730E+04 -1.022995E+04 -2.637525E+01  9.865192E+05  1.797059E+02 -8.990923E+03
     14586   1  1.628864E+04 -1.259759E+04  1.043182E+02  1.040872E+06  1.231342E+02 -8.827667E+03
     14587   1 -4.845412E+05 -1.839444E+04  1.983946E+02  1.019129E+06 -9.221674E+01 -1.544633E+01
     14588   1 -4.872815E+05 -1.365028E+04  4.549785E+03  9.604760E+05 -2.734409E+03  1.051147E+04
     14589   1 -4.932348E+05 -1.076254E+04  7.330297E+03  9.204228E+05 -3.218284E+03  8.540893E+03
     14590   1 -4.984166E+05 -8.734466E+03  1.293868E+04  8.894415E+05 -3.390010E+03  7.335530E+03
     14591   1 -5.029708E+05 -8.436613E+03  1.497080E+04  8.727589E+05 -1.788367E+03  3.090820E+03
     14592   1 -5.045587E+05 -8.144536E+03  1.606005E+04  8.666539E+05 -7.243690E+02 -1.503791E+03
     14593   1 -5.042104E+05 -8.333815E+03  1.421406E+04  8.682545E+05  7.221898E+02 -7.056314E+03
     14594   1 -5.019095E+05 -8.850264E+03  1.079728E+04  8.850387E+05  9.041280E+02 -8.701450E+03
     14595   1 -4.991625E+05 -1.019616E+04  6.897368E+03  9.075331E+05  1.021644E+03 -1.468852E+04
     14596   1 -4.970098E+05 -1.345277E+04  2.591651E+03  9.488679E+05  2.859864E+02 -7.744324E+03
     14597   1 -4.966540E+05 -1.904472E+04  9.851897E+02  1.001592E+06  1.951486E+01 -8.352748E+03
     14598   1 -9.884484E+05 -2.763874E+04  1.345455E+03  9.113788E+05 -2.503165E+03  1.869288E+03
     14599   1 -9.917454E+05 -1.517515E+04  7.552693E+03  8.559518E+05 -4.555625E+03  9.136213E+03
     14600   1 -1.000172E+06 -9.989591E+03  1.700737E+04  8.186832E+05 -7.060341E+03  5.441643E+03
     14601   1 -1.011457E+06 -8.089591E+03  2.674149E+04  7.900272E+05 -6.254181E+03  5.268644E+03
     14602   1 -1.019117E+06 -7.577836E+03  3.184614E+04  7.751769E+05 -3.958075E+03  1.907565E+03
     14603   1 -1.023242E+06 -7.298037E+03  3.386190E+04  7.695168E+05 -1.397448E+03 -1.485290E+03
     14604   1 -1.021976E+06 -7.345352E+03  3.002030E+04  7.711137E+05  1.228487E+03 -5.604129E+03
     14605   1 -1.017991E+06 -7.864510E+03  2.311940E+04  7.865701E+05  1.608948E+03 -6.562434E+03
     14606   1 -1.013086E+06 -9.103129E+03  1.473645E+04  8.074768E+05  1.740803E+03 -1.180348E+04
     14607   1 -1.010526E+06 -1.354764E+04  5.783638E+03  8.459346E+05  2.424365E+02 -5.942767E+03
     14608   1 -1.013090E+06 -2.117242E+04  2.126797E+03  8.954946E+05  4.693244E+01 -7.310357E+03
     14609   1 -1.497493E+06 -1.704748E+04  6.157022E+03  7.332217E+05 -2.178547E+03 -7.343167E+02
     14610   1 -1.499484E+06 -1.190017E+04  1.102008E+04  6.865835E+05 -5.417082E+03  4.969316E+03
     14611   1 -1.511173E+06 -7.363770E+03  2.832846E+04  6.545415E+05 -1.075036E+04  2.559285E+03
     14612   1 -1.529896E+06 -6.205955E+03  4.291253E+04  6.305450E+05 -8.101271E+03  2.310026E+03
     14613   1 -1.540790E+06 -5.782124E+03  5.077904E+04  6.182410E+05 -5.710094E+03  6.639045E+02
     14614   1 -1.547924E+06 -5.640158E+03  5.415073E+04  6.138376E+05 -2.166749E+03 -1.411105E+03
     14615   1 -1.545204E+06 -5.602948E+03  4.790507E+04  6.149740E+05  1.615491E+03 -3.873712E+03
     14616   1 -1.538335E+06 -5.791677E+03  3.729162E+04  6.283294E+05  1.369943E+03 -3.707973E+03
     14617   1 -1.530033E+06 -6.564569E+03  2.387126E+04  6.456868E+05  1.597676E+03 -8.035940E+03
     14618   1 -1.526277E+06 -1.016645E+04  9.766248E+03  6.796109E+05 -5.377431E+02 -2.848673E+03
     14619   1 -1.532738E+06 -1.756394E+04  2.759606E+03  7.243430E+05 -6.938455E+02 -5.699191E+03
     14620   1 -2.005484E+06 -1.306328E+04  8.304969E+03  4.958924E+05 -2.985502E+03 -1.617688E+02
     14621   1 -2.005799E+06 -7.461472E+03  1.567523E+04  4.544871E+05 -2.850010E+03  2.247059E+03
     14622   1 -2.022505E+06 -2.429111E+03  4.164724E+04  4.316638E+05 -1.041107E+04 -2.769501E+02
     14623   1 -2.050845E+06 -2.845894E+03  6.256590E+04  4.152304E+05 -8.288328E+03 -5.875710E+01
     14624   1 -2.066261E+06 -2.570556E+03  7.281199E+04  4.067404E+05 -6.107942E+03 -2.139383E+02
     14625   1 -2.075981E+06 -2.345136E+03  7.780733E+04  4.040762E+05 -3.141047E+03 -1.217947E+03
     14626   1 -2.072094E+06 -2.410181E+03  6.907986E+04  4.045138E+05  9.216188E+02 -2.087743E+03
     14627   1 -2.060056E+06 -2.478667E+03  5.401925E+04  4.142475E+05 -7.992250E+02 -1.291140E+03
     14628   1 -2.047127E+06 -2.898393E+03  3.461918E+04  4.256408E+05 -3.351300E+03 -4.339436E+03
     14629   1 -2.039464E+06 -4.631340E+03  1.526537E+04  4.503015E+05 -5.167124E+03 -2.586091E+02
     14630   1 -2.048310E+06 -9.069022E+03  4.385434E+03  4.896596E+05 -1.975759E+03 -3.446956E+03
     14631   1 -2.498342E+06  2.872503E+03  1.274317E+04  1.797696E+05  6.308762E+03 -1.539181E+03
     14632   1 -2.503921E+06 -2.213235E+03  2.214826E+04  1.605381E+05  1.214907E+04 -2.903057E+02
     14633   1 -2.530173E+06 -3.032321E+02  5.620903E+04  1.533781E+05 -3.198851E+03 -6.620635E+02
     14634   1 -2.570499E+06 -9.834523E+02  8.391787E+04  1.469794E+05 -4.435198E+03 -4.527525E+02
     14635   1 -2.591895E+06 -7.264298E+02  9.769674E+04  1.438280E+05 -4.509442E+03 -3.270726E+02
     14636   1 -2.604283E+06 -7.566359E+02  1.034015E+05  1.432052E+05 -4.262169E+03 -4.025204E+02
     14637   1 -2.599199E+06 -7.602076E+02  9.292117E+04  1.428856E+05 -1.902280E+03 -8.493070E+02
     14638   1 -2.579933E+06 -7.079145E+02  7.201574E+04  1.469963E+05 -7.333116E+03  1.951225E+02
     14639   1 -2.560819E+06 -6.047655E+02  4.658586E+04  1.507500E+05 -1.606174E+04 -1.563947E+03
     14640   1 -2.544067E+06 -9.994289E+02  2.152490E+04  1.597782E+05 -2.247898E+04  1.317698E+03
     14641   1 -2.551881E+06 -3.616660E+03  2.724026E+03  1.777979E+05 -1.415511E+04 -2.098389E+03
     14642   1  2.135224E+06  1.460542E+04 -1.201185E+03  1.794509E+05 -2.408605E+03  9.368523E+03
     14643   1  2.140650E+06  1.547623E+03 -3.589203E+04  1.680304E+05  1.176654E+04 -9.886841E+02
     14644   1  2.188668E+06  1.507819E+02 -7.925514E+04  1.549598E+05  2.002499E+04  1.632615E+03
     14645   1  2.229284E+06  1.048200E+03 -1.107659E+05  1.539127E+05  1.790613E+04  1.868849E+03
     14646   1  2.260195E+06  4.234989E+02 -1.349008E+05  1.498980E+05  1.269933E+04  2.342261E+02
     14647   1  2.271770E+06  6.772797E+02 -1.385656E+05  1.488712E+05 -1.988830E+03  3.232559E+02
     14648   1  2.259305E+06  6.122018E+02 -1.219114E+05  1.508404E+05 -6.626834E+03 -1.065678E+03
     14649   1  2.241416E+06  5.013559E+02 -9.855056E+04  1.509924E+05 -6.836114E+03 -2.374102E+03
     14650   1  2.209126E+06  4.794946E+02 -6.164389E+04  1.578062E+05 -2.765701E+03 -3.579397E+02
     14651   1  2.191095E+06  9.233357E+02 -2.635310E+04  1.632851E+05  1.245652E+04 -2.815525E+03
     14652   1  2.195959E+06  4.988920E+02 -9.079794E+03  1.828338E+05  7.112635E+03  1.847543E+03
     14653   1  1.718954E+06  6.476811E+03 -1.213478E+04  5.017570E+05  9.076553E+03 -6.923173E+02
     14654   1  1.726188E+06  2.309310E+03 -2.619886E+04  4.652782E+05  1.492752E+04  1.612502E+03
     14655   1  1.750452E+06  8.333926E+02 -5.820329E+04  4.417777E+05  2.140247E+04  6.405243E+03
     14656   1  1.782469E+06  2.109410E+01 -8.400571E+04  4.311080E+05  1.694329E+04  5.550878E+03
     14657   1  1.803195E+06 -8.599254E+01 -9.900710E+04  4.231278E+05  1.005863E+04  2.141775E+03
     14658   1  1.811930E+06 -3.415449E+02 -1.030378E+05  4.198948E+05 -6.829997E+02  4.000637E+02
     14659   1  1.804818E+06  1.264151E+01 -9.054431E+04  4.236542E+05 -6.850060E+03 -3.295952E+03
     14660   1  1.792205E+06 -8.984620E+02 -7.357181E+04  4.266169E+05 -8.615359E+03 -6.599091E+03
     14661   1  1.773169E+06 -4.885747E+02 -4.677601E+04  4.422596E+05 -8.043728E+03 -3.590157E+03
     14662   1  1.764579E+06  1.798680E+03 -2.044244E+04  4.604152E+05 -1.930183E+03 -7.857214E+03
     14663   1  1.774932E+06  8.066786E+03 -6.319131E+03  5.002283E+05 -1.231186E+03  1.785178E+03
     14664   1  1.295459E+06  2.189129E+04 -1.888238E+03  7.453274E+05  2.870715E+03  8.949788E+03
     14665   1  1.295417E+06  7.587426E+03 -1.799910E+04  7.005024E+05  1.361312E+04  1.005277E+04
     14666   1  1.315327E+06  1.553634E+03 -3.913923E+04  6.682214E+05  1.797859E+04  1.150265E+04
     14667   1  1.336128E+06  9.007212E+02 -5.834589E+04  6.507382E+05  1.422618E+04  9.850915E+03
     14668   1  1.351258E+06  6.539148E+02 -6.849526E+04  6.393574E+05  7.991100E+03  4.846024E+03
     14669   1  1.357391E+06  2.270364E+02 -7.135964E+04  6.341942E+05 -5.819276E+01  1.574575E+02
     14670   1  1.353670E+06  3.925454E+02 -6.311850E+04  6.392205E+05 -5.717367E+03 -5.181364E+03
     14671   1  1.345449E+06 -3.750922E+02 -5.036501E+04  6.440732E+05 -7.974716E+03 -1.131268E+04
     14672   1  1.334880E+06  3.628087E+02 -3.176454E+04  6.660710E+05 -8.288416E+03 -8.371411E+03
     14673   1  1.330518E+06  3.017723E+03 -1.427216E+04  6.924146E+05 -4.406742E+03 -1.410805E+04
     14674   1  1.339036E+06  1.233992E+04 -3.474830E+03  7.394250E+05 -1.386786E+03  3.490863E+02
     14675   1  8.640745E+05  1.626165E+04 -1.600763E+02  9.210509E+05  3.314976E+03  8.703764E+03
     14676   1  8.656585E+05  6.031284E+03 -1.244216E+04  8.730998E+05  1.212107E+04  1.052475E+04
     14677   1  8.806534E+05  5.043842E+02 -2.503079E+04  8.314615E+05  1.215918E+04  1.772976E+04
     14678   1  8.922093E+05 -3.988112E+02 -3.564362E+04  8.114407E+05  1.062298E+04  1.343328E+04
     14679   1  9.031806E+05 -1.149881E+03 -4.434771E+04  7.961680E+05  6.204130E+03  6.611084E+03
     14680   1  9.069934E+05 -1.007847E+03 -4.459770E+04  7.901201E+05 -2.826459E+02  4.256135E+02
     14681   1  9.049988E+05 -1.382825E+03 -4.017917E+04  7.956451E+05 -3.672963E+03 -7.158108E+03
     14682   1  9.005758E+05 -1.851267E+03 -3.167828E+04  8.018850E+05 -6.360838E+03 -1.514348E+04
     14683   1  8.946429E+05 -1.124598E+03 -1.970345E+04  8.279076E+05 -6.161977E+03 -1.258150E+04
     14684   1  8.935327E+05  1.656464E+03 -8.868491E+03  8.574650E+05 -3.691928E+03 -1.888746E+04
     14685   1  8.997402E+05  9.390820E+03 -1.805997E+03  9.100518E+05 -1.282688E+03 -5.559434E+02
     14686   1  4.395522E+05  3.601064E+03 -3.176304E+03  1.030595E+06  2.567226E+03  1.412113E+04
     14687   1  4.422247E+05 -1.193707E+03 -4.269909E+03  9.752517E+05  5.253436E+03  1.295035E+04
     14688   1  4.468721E+05 -2.649809E+03 -1.277378E+04  9.291019E+05  7.416451E+03  1.964164E+04
     14689   1  4.538997E+05 -3.220917E+03 -1.672749E+04  9.071567E+05  5.852328E+03  1.561361E+04
     14690   1  4.586359E+05 -3.630783E+03 -2.186480E+04  8.896746E+05  3.787130E+03  7.608839E+03
     14691   1  4.610247E+05 -3.400564E+03 -2.160707E+04  8.827877E+05 -2.067853E+02  5.632256E+02
     14692   1  4.598897E+05 -3.804772E+03 -1.947568E+04  8.888297E+05 -1.937561E+03 -8.320589E+03
     14693   1  4.584983E+05 -4.248839E+03 -1.540274E+04  8.956420E+05 -3.659733E+03 -1.733110E+04
     14694   1  4.559651E+05 -4.189656E+03 -9.254514E+03  9.239736E+05 -3.678648E+03 -1.497809E+04
     14695   1  4.562058E+05 -3.387869E+03 -4.443421E+03  9.556310E+05 -2.360701E+03 -2.152184E+04
     14696   1  4.607203E+05 -4.696872E+02 -6.298617E+02  1.011319E+06 -8.177325E+02 -9.875738E+02
     14697   1  2.068321E+04 -1.097716E+04  6.104849E+02  1.061804E+06  5.980880E+02  6.994858E+03
     14698   1  1.623693E+04 -9.324309E+03 -4.825649E+01  1.004839E+06  6.748602E+02  1.354093E+04
     14699   1  1.436110E+04 -8.219245E+03 -4.171376E+02  9.600101E+05  9.637709E+02  1.962309E+04
     14700   1  1.374203E+04 -7.352205E+03 -6.486872E+02  9.351657E+05  7.884416E+02  1.568064E+04
     14701   1  1.341790E+04 -6.957573E+03 -7.004558E+02  9.177232E+05  6.134520E+02  7.666620E+03
     14702   1  1.351149E+04 -6.900660E+03 -9.503345E+02  9.102303E+05  1.645700E+02  5.810359E+02
     14703   1  1.369433E+04 -7.066138E+03 -7.156814E+02  9.165911E+05 -1.917165E+02 -8.273840E+03
     14704   1  1.450486E+04 -7.706381E+03 -8.348076E+02  9.235621E+05 -4.031176E+02 -1.769356E+04
     14705   1  1.562768E+04 -8.911056E+03 -5.456939E+02  9.527257E+05 -7.058833E+02 -1.492652E+04
     14706   1  1.809013E+04 -1.085550E+04 -1.326228E+02  9.851108E+05 -3.675547E+02 -2.178275E+04
     14707   1  2.201794E+04 -1.435353E+04 -2.170882E+02  1.041467E+06 -2.177547E+02 -7.633739E+02
     14708   1 -4.028101E+05 -3.209811E+04  2.054783E+03  1.019768E+06 -3.311722E+03  1.308353E+04
     14709   1 -4.116816E+05 -1.831764E+04  4.110596E+03  9.663931E+05 -4.882301E+03  1.127122E+04
     14710   1 -4.205902E+05 -1.228757E+04  1.246503E+04  9.204269E+05 -6.753466E+03  1.718617E+04
     14711   1 -4.302611E+05 -1.044208E+04  1.666224E+04  8.974158E+05 -4.931899E+03  1.368187E+04
     14712   1 -4.353865E+05 -9.446550E+03  2.095301E+04  8.797852E+05 -2.729909E+03  6.738178E+03
     14713   1 -4.376691E+05 -9.473252E+03  2.073055E+04  8.727107E+05  4.230823E+02  5.943062E+02
     14714   1 -4.361892E+05 -9.493136E+03  1.866365E+04  8.789869E+05  2.152814E+03 -7.208424E+03
     14715   1 -4.327201E+05 -1.008353E+04  1.441350E+04  8.859783E+05  3.421574E+03 -1.571804E+04
     14716   1 -4.279139E+05 -1.243789E+04  8.664866E+03  9.144361E+05  3.001813E+03 -1.296874E+04
     14717   1 -4.232074E+05 -1.725049E+04  4.356499E+03  9.453361E+05  2.119770E+03 -2.009045E+04
     14718   1 -4.201978E+05 -2.675090E+04  1.864408E+02  9.990674E+05  5.614799E+02 -2.229032E+02
     14719   1 -8.357974E+05 -3.203814E+04  2.811926E+03  9.009941E+05 -3.236822E+03  7.544935E+03
     14720   1 -8.458138E+05 -2.169864E+04  1.158798E+04  8.557221E+05 -1.279598E+04  7.146553E+03
     14721   1 -8.651849E+05 -1.418826E+04  2.536594E+04  8.147348E+05 -1.463462E+04  1.357850E+04
     14722   1 -8.818735E+05 -1.148403E+04  3.632423E+04  7.940099E+05 -1.208758E+04  1.007325E+04
     14723   1 -8.942154E+05 -1.039096E+04  4.453954E+04  7.775522E+05 -6.085235E+03  4.651615E+03
     14724   1 -8.978508E+05 -1.057827E+04  4.428992E+04  7.712384E+05  8.093361E+02  7.260863E+02
     14725   1 -8.952352E+05 -1.035001E+04  4.002191E+04  7.773726E+05  5.041418E+03 -5.288955E+03
     14726   1 -8.877551E+05 -1.084138E+04  3.099470E+04  7.838493E+05  8.349554E+03 -1.214370E+04
     14727   1 -8.785192E+05 -1.345705E+04  1.909809E+04  8.104018E+05  7.763978E+03 -8.940991E+03
     14728   1 -8.712874E+05 -1.890252E+04  9.096067E+03  8.386170E+05  5.685992E+03 -1.625773E+04
     14729   1 -8.697351E+05 -3.188355E+04  1.033722E+03  8.877583E+05  1.819178E+03  9.042833E+02
     14730   1 -1.277893E+06 -3.898564E+04 -1.218961E+03  7.236906E+05 -7.029599E+03  7.374487E+03
     14731   1 -1.288464E+06 -1.673927E+04  2.178773E+04  6.820520E+05 -2.203543E+04  3.704097E+03
     14732   1 -1.318260E+06 -1.076471E+04  4.154331E+04  6.474376E+05 -2.230528E+04  7.324389E+03
     14733   1 -1.342229E+06 -8.560154E+03  5.931726E+04  6.308801E+05 -1.981280E+04  5.815054E+03
     14734   1 -1.363409E+06 -7.660908E+03  7.329516E+04  6.173366E+05 -1.005334E+04  2.092756E+03
     14735   1 -1.368271E+06 -7.945283E+03  7.194187E+04  6.118542E+05  1.847166E+03  6.968038E+02
     14736   1 -1.363416E+06 -7.654833E+03  6.563179E+04  6.178133E+05  8.262914E+03 -2.950996E+03
     14737   1 -1.351022E+06 -7.805003E+03  5.107486E+04  6.228289E+05  1.388370E+04 -7.658165E+03
     14738   1 -1.335397E+06 -9.900830E+03  3.199749E+04  6.456427E+05  1.293626E+04 -4.086431E+03
     14739   1 -1.324087E+06 -1.456757E+04  1.555139E+04  6.699744E+05  9.736203E+03 -1.135008E+04
     14740   1 -1.325047E+06 -2.795507E+04  1.888394E+03  7.121593E+05  3.021621E+03  1.959276E+03
     14741   1 -1.721087E+06 -1.929961E+04 -1.845294E+02  4.762806E+05 -8.623598E+03  2.078556E+03
     14742   1 -1.732234E+06 -6.549363E+03  3.320802E+04  4.487322E+05 -3.127105E+04 -1.547815E+03
     14743   1 -1.775877E+06 -6.243676E+03  6.207952E+04  4.244649E+05 -3.012765E+04  1.544646E+03
     14744   1 -1.809680E+06 -4.866196E+03  8.588006E+04  4.128590E+05 -2.720152E+04  1.818851E+03
     14745   1 -1.840853E+06 -4.112913E+03  1.068521E+05  4.036345E+05 -1.453896E+04 -8.209123E+01
     14746   1 -1.847812E+06 -4.720393E+03  1.043630E+05  3.997676E+05  3.531893E+03  6.526518E+02
     14747   1 -1.838576E+06 -4.402192E+03  9.455649E+04  4.045202E+05  1.128054E+04 -1.173483E+03
     14748   1 -1.820607E+06 -4.172868E+03  7.525808E+04  4.076114E+05  1.883126E+04 -3.406248E+03
     14749   1 -1.793985E+06 -4.952581E+03  4.774052E+04  4.245395E+05  1.753893E+04  5.941050E+02
     14750   1 -1.776865E+06 -7.696782E+03  2.202261E+04  4.409665E+05  1.172697E+04 -5.710407E+03
     14751   1 -1.779997E+06 -1.595849E+04  4.382983E+03  4.754194E+05  4.244773E+03  3.359991E+03
     14752   1 -2.148199E+06 -1.176558E+04 -2.844720E+03  1.719113E+05 -5.726737E+03  2.311115E+03
     14753   1 -2.163692E+06 -7.639567E+02  4.570182E+04  1.594191E+05 -3.330132E+04 -1.082284E+03
     14754   1 -2.229717E+06 -1.206952E+03  8.572347E+04  1.498222E+05 -3.520963E+04 -6.108853E+02
     14755   1 -2.277420E+06 -1.220921E+03  1.169544E+05  1.455698E+05 -3.267258E+04  1.678754E+02
     14756   1 -2.320415E+06 -3.943984E+02  1.447254E+05  1.425227E+05 -1.873109E+04 -4.911644E+02
     14757   1 -2.330021E+06 -1.065242E+03  1.426831E+05  1.405154E+05  5.128946E+03  2.282085E+02
     14758   1 -2.314900E+06 -6.354373E+02  1.274816E+05  1.432885E+05  1.333090E+04  1.699470E+00
     14759   1 -2.290320E+06 -7.959002E+02  1.032682E+05  1.432020E+05  2.078101E+04 -1.209927E+03
     14760   1 -2.247556E+06 -1.136841E+03  6.530567E+04  1.509192E+05  1.810342E+04  1.570075E+03
     14761   1 -2.219663E+06 -1.827102E+03  2.949646E+04  1.555020E+05  2.768859E+03 -2.623456E+03
     14762   1 -2.216885E+06 -2.172058E+03  9.051731E+03  1.722733E+05 -3.595899E+02  2.809129E+03
     14763   1  1.754419E+06 -7.900444E+03 -2.494874E+04  1.755255E+05  2.820132E+04 -1.595315E+04
     14764   1  1.801944E+06  5.176555E+02 -6.077729E+04  1.549727E+05  5.412783E+04  3.517406E+03
     14765   1  1.871363E+06  1.199704E+03 -1.129594E+05  1.598335E+05  6.516492E+04  4.254711E+03
     14766   1  1.944331E+06 -1.203469E+03 -1.701601E+05  1.505704E+05  5.120526E+04  1.887330E+03
     14767   1  1.981511E+06  1.704422E+02 -1.888032E+05  1.511873E+05  1.416731E+04  4.410142E+03
     14768   1  1.984532E+06 -1.649521E+02 -1.871146E+05  1.516176E+05 -5.498999E+03 -8.198169E+02
     14769   1  1.974445E+06 -6.677603E+02 -1.751944E+05  1.491557E+05 -2.905725E+04 -1.516087E+03
     14770   1  1.934447E+06  8.693041E+01 -1.341236E+05  1.540561E+05 -4.152513E+04 -1.838844E+03
     14771   1  1.893322E+06 -9.316902E+02 -9.208686E+04  1.539271E+05 -3.855674E+04 -4.147282E+03
     14772   1  1.844635E+06  5.826914E+02 -4.376017E+04  1.631721E+05 -2.988142E+04  1.931968E+03
     14773   1  1.841530E+06  7.342264E+03 -3.052708E+03  1.739395E+05 -4.681634E+03 -3.987053E+03
     14774   1  1.426043E+06  2.900214E+04 -1.792725E+03  4.808668E+05  1.229925E+04  5.448781E+03
     14775   1  1.441277E+06  9.055210E+03 -4.387526E+04  4.523310E+05  4.506175E+04  1.357171E+04
     14776   1  1.498133E+06  3.628052E+03 -8.566831E+04  4.419811E+05  4.838818E+04  1.158264E+04
     14777   1  1.545852E+06  2.718704E+03 -1.205909E+05  4.286274E+05  3.600702E+04  1.031910E+04
     14778   1  1.573286E+06  3.188677E+03 -1.373420E+05  4.255140E+05  1.191699E+04  9.817556E+03
     14779   1  1.577785E+06  3.526382E+03 -1.341658E+05  4.256777E+05 -5.107402E+03 -5.629504E+02
     14780   1  1.569918E+06  2.111103E+03 -1.264970E+05  4.219712E+05 -2.053891E+04 -4.917688E+03
     14781   1  1.545357E+06  3.317179E+03 -9.828825E+04  4.315887E+05 -3.148352E+04 -7.288068E+03
     14782   1  1.517127E+06  2.551418E+03 -6.684970E+04  4.344760E+05 -3.103386E+04 -1.238694E+04
     14783   1  1.490307E+06  4.737203E+03 -3.207150E+04  4.578406E+05 -2.595061E+04 -1.566698E+03
     14784   1  1.493093E+06  1.694831E+04 -4.720968E+03  4.846682E+05 -8.274881E+03 -8.816110E+03
     14785   1  1.054789E+06  3.421587E+04 -9.099690E+03  7.278942E+05  1.636151E+04  1.563742E+03
     14786   1  1.081923E+06  1.161004E+04 -2.951784E+04  6.915912E+05  3.288506E+04  2.073925E+04
     14787   1  1.118324E+06  6.294339E+03 -5.911925E+04  6.716634E+05  3.505956E+04  2.273459E+04
     14788   1  1.153186E+06  3.835776E+03 -8.236083E+04  6.522663E+05  2.604757E+04  1.856925E+04
     14789   1  1.173108E+06  4.167621E+03 -9.492322E+04  6.469868E+05  9.384378E+03  1.419686E+04
     14790   1  1.177015E+06  4.708083E+03 -9.291649E+04  6.456526E+05 -3.820594E+03  8.554089E+01
     14791   1  1.171835E+06  3.239037E+03 -8.641814E+04  6.412811E+05 -1.429054E+04 -8.621521E+03
     14792   1  1.156672E+06  3.749727E+03 -6.832132E+04  6.543157E+05 -2.217532E+04 -1.321347E+04
     14793   1  1.138236E+06  4.054265E+03 -4.542489E+04  6.595964E+05 -2.317961E+04 -2.204647E+04
     14794   1  1.123138E+06  9.583796E+03 -2.082326E+04  6.907920E+05 -1.817310E+04 -8.226808E+03
     14795   1  1.124955E+06  2.516169E+04 -3.718318E+03  7.245784E+05 -5.734792E+03 -1.452881E+04
     14796   1  7.012751E+05  2.955528E+04 -9.640410E+03  9.252331E+05  1.091352E+04  3.386003E+03
     14797   1  7.235707E+05  1.100958E+04 -1.663974E+04  8.617853E+05  1.900987E+04  3.215967E+04
     14798   1  7.454485E+05  6.224373E+03 -3.475270E+04  8.414367E+05  2.495915E+04  2.901066E+04
     14799   1  7.713591E+05  3.657687E+03 -5.343107E+04  8.150090E+05  1.841690E+04  2.459109E+04
     14800   1  7.837032E+05  4.705537E+03 -5.792917E+04  8.081612E+05  5.783719E+03  1.844103E+04
     14801   1  7.860674E+05  4.381378E+03 -5.874340E+04  8.059388E+05 -1.607855E+03 -2.015496E+02
     14802   1  7.838170E+05  3.753280E+03 -5.357929E+04  8.006873E+05 -9.796449E+03 -1.122903E+04
     14803   1  7.743736E+05  3.626053E+03 -4.208693E+04  8.161372E+05 -1.439066E+04 -1.864216E+04
     14804   1  7.634533E+05  4.204138E+03 -2.792566E+04  8.233472E+05 -1.559025E+04 -2.976620E+04
     14805   1  7.532705E+05  1.007227E+04 -1.217858E+04  8.605578E+05 -1.195178E+04 -1.388756E+04
     14806   1  7.539950E+05  2.243915E+04 -2.847312E+03  9.011856E+05 -4.036433E+03 -1.844091E+04
     14807   1  3.646391E+05  9.240873E+03  1.458105E+03  1.030843E+06  3.700747E+03 -1.854820E+03
     14808   1  3.670533E+05  5.615249E+03 -1.024119E+04  9.680671E+05  1.318919E+04  3.519460E+04
     14809   1  3.818853E+05  1.484946E+03 -1.657535E+04  9.443466E+05  1.401372E+04  3.380050E+04
     14810   1  3.936601E+05  6.560064E+02 -2.738873E+04  9.131793E+05  1.058484E+04  2.736278E+04
     14811   1  4.004191E+05  1.894112E+03 -2.863988E+04  9.056085E+05  3.287199E+03  2.098118E+04
     14812   1  4.012105E+05  1.484774E+03 -2.924397E+04  9.028483E+05 -5.006813E+02 -2.136699E+02
     14813   1  4.007187E+05  1.214926E+03 -2.693006E+04  8.969537E+05 -5.403994E+03 -1.292613E+04
     14814   1  3.958452E+05  7.660306E+02 -2.081451E+04  9.140576E+05 -8.095975E+03 -2.167779E+04
     14815   1  3.912640E+05  4.837019E+02 -1.417381E+04  9.220054E+05 -8.821337E+03 -3.421843E+04
     14816   1  3.872252E+05  2.504765E+03 -5.884414E+03  9.636807E+05 -7.108439E+03 -1.621031E+04
     14817   1  3.889825E+05  7.322810E+03 -1.550501E+03  1.008935E+06 -2.345435E+03 -2.050402E+04
     14818   1  2.169829E+04 -1.370862E+04 -1.188315E+03  1.067557E+06  7.288686E+02  9.864689E+03
     14819   1  2.061354E+04 -8.404714E+03 -7.713953E+02  1.004043E+06  2.759163E+03  3.285914E+04
     14820   1  2.043729E+04 -5.962401E+03 -1.354913E+03  9.734950E+05  2.871307E+03  3.308957E+04
     14821   1  2.027473E+04 -4.696819E+03 -1.694902E+03  9.437990E+05  2.241459E+03  2.809610E+04
     14822   1  2.031262E+04 -4.005449E+03 -2.056816E+03  9.346401E+05  1.082922E+03  2.117517E+04
     14823   1  2.033573E+04 -3.679501E+03 -1.802650E+03  9.320009E+05  1.566414E+02  2.039916E+01
     14824   1  2.058290E+04 -4.015917E+03 -2.174963E+03  9.259724E+05 -9.092520E+02 -1.302504E+04
     14825   1  2.073669E+04 -4.724574E+03 -1.591585E+03  9.438202E+05 -1.940987E+03 -2.170822E+04
     14826   1  2.164126E+04 -6.410061E+03 -1.264068E+03  9.522012E+05 -2.249963E+03 -3.467481E+04
     14827   1  2.323869E+04 -9.530511E+03 -7.846717E+02  9.944192E+05 -2.273457E+03 -1.621036E+04
     14828   1  2.770703E+04 -1.416007E+04  1.475336E+02  1.040593E+06 -7.793038E+02 -2.086156E+04
     14829   1 -3.150488E+05 -2.874323E+04  1.426976E+02  1.022675E+06 -1.432460E+03 -3.197321E+03
     14830   1 -3.293472E+05 -2.026363E+04  9.335732E+03  9.588654E+05 -9.926607E+03  3.097446E+04
     14831   1 -3.481495E+05 -1.334786E+04  1.495007E+04  9.329616E+05 -9.461091E+03  3.019545E+04
     14832   1 -3.593978E+05 -1.032914E+04  2.322714E+04  9.016672E+05 -6.640941E+03  2.514178E+04
     14833   1 -3.666335E+05 -9.981359E+03  2.504953E+04  8.936224E+05 -1.819582E+03  1.980141E+04
     14834   1 -3.677229E+05 -9.282567E+03  2.535119E+04  8.909264E+05  1.318515E+03  2.117715E+02
     14835   1 -3.660059E+05 -9.391118E+03  2.255615E+04  8.852875E+05  3.947195E+03 -1.138261E+04
     14836   1 -3.608768E+05 -1.050257E+04  1.755275E+04  9.029524E+05  5.312144E+03 -1.899829E+04
     14837   1 -3.534573E+05 -1.337194E+04  1.139166E+04  9.110465E+05  5.561943E+03 -3.134439E+04
     14838   1 -3.453307E+05 -2.077858E+04  4.370098E+03  9.524493E+05  3.665152E+03 -1.342265E+04
     14839   1 -3.373962E+05 -3.427092E+04  1.936783E+03  9.954545E+05  1.359375E+03 -1.968503E+04
     14840   1 -6.632952E+05 -5.822445E+04  4.697712E+03  9.031110E+05 -1.191978E+04  1.286443E+03
     14841   1 -6.936491E+05 -2.600843E+04  1.754766E+04  8.446747E+05 -2.151745E+04  2.652762E+04
     14842   1 -7.254743E+05 -1.577944E+04  3.504340E+04  8.229820E+05 -2.454477E+04  2.255782E+04
     14843   1 -7.529983E+05 -1.247972E+04  5.145007E+04  7.937068E+05 -1.667434E+04  1.945411E+04
     14844   1 -7.660274E+05 -1.281608E+04  5.576668E+04  7.863795E+05 -5.256359E+03  1.681731E+04
     14845   1 -7.687962E+05 -1.188326E+04  5.635984E+04  7.845477E+05  2.826556E+03  2.010816E+02
     14846   1 -7.647127E+05 -1.191997E+04  5.048852E+04  7.792890E+05  1.017270E+04 -8.281243E+03
     14847   1 -7.539623E+05 -1.268871E+04  4.007497E+04  7.962277E+05  1.431545E+04 -1.371967E+04
     14848   1 -7.385658E+05 -1.567348E+04  2.615389E+04  8.034411E+05  1.566977E+04 -2.463251E+04
     14849   1 -7.233509E+05 -2.660050E+04  1.068172E+04  8.401107E+05  1.096354E+04 -8.917455E+03
     14850   1 -7.140013E+05 -4.546256E+04  3.773768E+03  8.759760E+05  4.087665E+03 -1.712095E+04
     14851   1 -1.033119E+06 -4.172543E+04  1.571666E+04  6.991808E+05 -1.711370E+04 -3.208351E+03
     14852   1 -1.073149E+06 -2.522471E+04  2.698248E+04  6.651769E+05 -3.519977E+04  1.663577E+04
     14853   1 -1.117872E+06 -1.463364E+04  5.815288E+04  6.495894E+05 -4.422102E+04  1.420456E+04
     14854   1 -1.165071E+06 -1.099042E+04  8.655002E+04  6.241923E+05 -2.966535E+04  1.118355E+04
     14855   1 -1.184929E+06 -1.255218E+04  9.092533E+04  6.178436E+05 -8.470213E+03  1.252655E+04
     14856   1 -1.188524E+06 -1.144996E+04  9.249983E+04  6.173403E+05  4.135243E+03  1.787384E+02
     14857   1 -1.182147E+06 -1.139565E+04  8.337654E+04  6.124909E+05  1.840130E+04 -4.807263E+03
     14858   1 -1.162456E+06 -1.178122E+04  6.686099E+04  6.281333E+05  2.618248E+04 -6.922462E+03
     14859   1 -1.137225E+06 -1.371931E+04  4.404428E+04  6.337206E+05  2.949236E+04 -1.561033E+04
     14860   1 -1.114004E+06 -2.250901E+04  1.847290E+04  6.645679E+05  2.159282E+04 -1.877370E+03
     14861   1 -1.104410E+06 -4.076173E+04  6.077839E+03  6.921846E+05  8.071732E+03 -1.288902E+04
     14862   1 -1.415922E+06 -2.753083E+04  2.424675E+04  4.602362E+05 -2.846364E+04 -3.641882E+03
     14863   1 -1.461137E+06 -1.578971E+04  4.067730E+04  4.313521E+05 -5.231544E+04  6.823867E+03
     14864   1 -1.522132E+06 -7.500530E+03  8.626534E+04  4.215073E+05 -6.781081E+04  4.527868E+03
     14865   1 -1.593243E+06 -4.603305E+03  1.314719E+05  4.043893E+05 -4.615637E+04  3.983090E+03
     14866   1 -1.621166E+06 -7.018615E+03  1.339030E+05  3.998757E+05 -1.159279E+04  7.546615E+03
     14867   1 -1.624688E+06 -5.502098E+03  1.362473E+05  4.002586E+05  4.944610E+03 -3.090764E+02
     14868   1 -1.615941E+06 -5.589752E+03  1.251730E+05  3.964874E+05  2.882721E+04 -1.443111E+03
     14869   1 -1.582805E+06 -6.160113E+03  9.861365E+04  4.087247E+05  4.106269E+04 -1.439887E+03
     14870   1 -1.545005E+06 -6.551477E+03  6.697348E+04  4.116896E+05  4.464167E+04 -7.019741E+03
     14871   1 -1.506735E+06 -1.126140E+04  3.013771E+04  4.352729E+05  3.531495E+04  3.922510E+03
     14872   1 -1.497751E+06 -2.397332E+04  7.665519E+03  4.543613E+05  1.311333E+04 -8.359575E+03
     14873   1 -1.768498E+06 -1.557416E+03  3.639816E+04  1.602560E+05 -4.134770E+04 -5.253983E+03
     14874   1 -1.838438E+06 -4.248722E+03  5.933934E+04  1.506051E+05 -7.494966E+04 -7.490802E+02
     14875   1 -1.926724E+06 -2.920521E+03  1.195616E+05  1.480330E+05 -9.485315E+04  3.153141E+02
     14876   1 -2.027198E+06 -4.317903E+02  1.817210E+05  1.412266E+05 -6.614966E+04 -1.437016E+01
     14877   1 -2.065511E+06 -2.892157E+03  1.865618E+05  1.395076E+05 -1.604825E+04  2.827333E+03
     14878   1 -2.069163E+06 -1.478786E+03  1.872992E+05  1.405029E+05  6.089457E+03 -4.484751E+02
     14879   1 -2.056117E+06 -1.818117E+03  1.741169E+05  1.377871E+05  4.062390E+04 -1.524144E+02
     14880   1 -2.004757E+06 -2.152295E+03  1.340253E+05  1.442965E+05  5.675987E+04  8.183618E+02
     14881   1 -1.951580E+06 -9.728778E+02  9.436412E+04  1.436562E+05  5.929379E+04 -1.911451E+03
     14882   1 -1.885905E+06 -3.007917E+03  4.430899E+04  1.540883E+05  4.931746E+04  5.190133E+03
     14883   1 -1.871132E+06 -9.242036E+03  4.465671E+03  1.604444E+05  1.327551E+04 -4.569420E+03
     14884   1  1.364738E+06  3.303920E+04 -2.537699E+03  1.411536E+05  4.628990E+04  3.154121E+04
     14885   1  1.446327E+06  5.444209E+03 -8.644700E+04  1.640259E+05  1.342606E+05  4.441940E+03
     14886   1  1.601886E+06 -1.143619E+03 -1.932745E+05  1.448559E+05  1.245253E+05  5.182648E+03
     14887   1  1.686947E+06  4.978918E+03 -2.246783E+05  1.534196E+05  5.546361E+04  1.522626E+04
     14888   1  1.703977E+06  2.301148E+03 -2.406797E+05  1.532490E+05  2.103849E+04  1.733156E+03
     14889   1  1.713939E+06  2.612271E+03 -2.454036E+05  1.495940E+05 -1.724265E+04  2.228868E+03
     14890   1  1.696305E+06  3.568523E+03 -2.224594E+05  1.532062E+05 -4.732941E+04 -4.049933E+03
     14891   1  1.655343E+06  1.340229E+03 -1.930711E+05  1.474544E+05 -8.130272E+04 -6.005035E+03
     14892   1  1.573979E+06  4.476678E+03 -1.221059E+05  1.554416E+05 -9.663941E+04 -2.320308E+03
     14893   1  1.505502E+06  1.879557E+03 -5.931409E+04  1.534250E+05 -7.117325E+04 -7.183356E+03
     14894   1  1.464768E+06  4.031088E+03 -2.561429E+04  1.638866E+05 -3.529546E+04  5.952080E+03
     14895   1  1.072198E+06  3.834859E+04 -2.994492E+04  4.423367E+05  4.737360E+04  9.207326E+03
     14896   1  1.161872E+06  7.238062E+03 -6.879413E+04  4.478909E+05  8.651921E+04  1.527321E+04
     14897   1  1.259757E+06  1.585857E+03 -1.321085E+05  4.269694E+05  8.035087E+04  2.838585E+04
     14898   1  1.322612E+06  5.893237E+03 -1.628103E+05  4.343452E+05  3.974481E+04  3.282535E+04
     14899   1  1.341539E+06  5.705062E+03 -1.671898E+05  4.347364E+05  1.158543E+04  1.120819E+04
     14900   1  1.346192E+06  4.074650E+03 -1.736177E+05  4.279982E+05 -1.066628E+04  3.599703E+03
     14901   1  1.337576E+06  5.881514E+03 -1.584242E+05  4.325494E+05 -3.304855E+04 -1.090864E+04
     14902   1  1.308032E+06  2.651126E+03 -1.376202E+05  4.235266E+05 -5.443011E+04 -1.764186E+04
     14903   1  1.257337E+06  5.630962E+03 -9.100405E+04  4.389340E+05 -6.525996E+04 -1.222036E+04
     14904   1  1.213755E+06  9.904765E+03 -4.326962E+04  4.364511E+05 -5.017080E+04 -2.096574E+04
     14905   1  1.192773E+06  2.648959E+04 -1.510668E+04  4.602158E+05 -2.232324E+04  7.257183E+03
     14906   1  7.975389E+05  4.284745E+04 -8.139682E+03  7.163080E+05  1.967835E+04  2.740238E+04
     14907   1  8.540987E+05  1.656264E+04 -4.426113E+04  6.834956E+05  5.641124E+04  3.535933E+04
     14908   1  9.313930E+05  6.578917E+03 -8.671750E+04  6.557573E+05  5.632620E+04  4.767889E+04
     14909   1  9.784181E+05  1.090554E+04 -1.104276E+05  6.650693E+05  2.780642E+04  4.734271E+04
     14910   1  9.919638E+05  1.224404E+04 -1.125917E+05  6.599962E+05  7.005821E+03  1.864334E+04
     14911   1  9.961308E+05  9.897535E+03 -1.154992E+05  6.529098E+05 -6.689329E+03  5.162948E+03
     14912   1  9.908228E+05  1.115580E+04 -1.076094E+05  6.580367E+05 -2.231770E+04 -1.685929E+04
     14913   1  9.711179E+05  8.620260E+03 -9.059346E+04  6.463502E+05 -3.609173E+04 -2.948663E+04
     14914   1  9.386378E+05  1.097001E+04 -6.068845E+04  6.675004E+05 -4.209702E+04 -2.537526E+04
     14915   1  9.071577E+05  1.901893E+04 -2.913411E+04  6.684197E+05 -3.337364E+04 -3.782453E+04
     14916   1  8.898684E+05  4.460069E+04 -7.947283E+03  7.056336E+05 -1.406971E+04  4.006492E+03
     14917   1  5.299537E+05  3.143383E+04  5.048591E+03  8.826017E+05  1.216637E+04  4.122625E+04
     14918   1  5.618800E+05  1.766753E+04 -2.727062E+04  8.728866E+05  4.411272E+04  4.422270E+04
     14919   1  6.192948E+05  9.071127E+03 -5.918546E+04  8.272006E+05  3.829928E+04  6.135149E+04
     14920   1  6.488172E+05  1.368615E+04 -6.592376E+04  8.368478E+05  1.654762E+04  5.965710E+04
     14921   1  6.564345E+05  1.384182E+04 -7.171210E+04  8.305990E+05  6.559611E+03  2.260582E+04
     14922   1  6.618888E+05  1.359534E+04 -7.174670E+04  8.202027E+05 -4.977437E+03  6.889444E+03
     14923   1  6.569252E+05  1.297556E+04 -6.683723E+04  8.274427E+05 -1.392127E+04 -2.176202E+04
     14924   1  6.454081E+05  1.172790E+04 -5.644302E+04  8.137889E+05 -2.323084E+04 -3.885263E+04
     14925   1  6.249711E+05  1.334207E+04 -3.705612E+04  8.389846E+05 -2.691684E+04 -3.606771E+04
     14926   1  6.051793E+05  1.941778E+04 -1.808869E+04  8.431544E+05 -2.167960E+04 -4.950095E+04
     14927   1  5.910831E+05  4.049965E+04 -4.267927E+03  8.944284E+05 -9.121664E+03  2.330208E+03
     14928   1  2.590918E+05  2.325456E+04 -9.388691E+03  1.017156E+06  1.440599E+04  5.118744E+04
     14929   1  2.936662E+05  5.418345E+03 -1.321861E+04  9.832480E+05  2.415818E+04  4.674919E+04
     14930   1  3.205280E+05  6.177021E+03 -3.128936E+04  9.311723E+05  2.106016E+04  6.690132E+04
     14931   1  3.355371E+05  1.063191E+04 -3.219084E+04  9.429141E+05  9.639782E+03  6.740540E+04
     14932   1  3.390668E+05  1.050772E+04 -3.576724E+04  9.343722E+05  4.242391E+03  2.505843E+04
     14933   1  3.421910E+05  1.129500E+04 -3.601349E+04  9.228649E+05 -2.421300E+03  7.464544E+03
     14934   1  3.396520E+05  1.051863E+04 -3.309334E+04  9.306687E+05 -7.716497E+03 -2.427412E+04
     14935   1  3.343263E+05  8.974287E+03 -2.855005E+04  9.165338E+05 -1.296946E+04 -4.417183E+04
     14936   1  3.236218E+05  9.144433E+03 -1.817962E+04  9.446877E+05 -1.553457E+04 -4.180015E+04
     14937   1  3.134215E+05  1.131189E+04 -9.333256E+03  9.503172E+05 -1.249702E+04 -5.603572E+04
     14938   1  3.073060E+05  1.943209E+04 -1.936314E+03  1.010405E+06 -5.507401E+03  1.843886E+03
     14939   1  3.012313E+04 -8.656591E+03  1.041794E+03  1.052819E+06  3.014274E+03  2.879588E+04
     14940   1  2.553569E+04 -3.674767E+03 -1.918522E+03  1.012031E+06  5.424404E+03  4.990947E+04
     14941   1  2.603236E+04  4.795727E+02 -3.055981E+03  9.649974E+05  5.291162E+03  7.008022E+04
     14942   1  2.678475E+04  3.153785E+03 -3.728396E+03  9.736936E+05  3.281255E+03  6.792035E+04
     14943   1  2.649176E+04  4.834629E+03 -3.199334E+03  9.661958E+05  1.634340E+03  2.631627E+04
     14944   1  2.636901E+04  5.198382E+03 -3.793531E+03  9.539467E+05  7.212429E+00  7.666045E+03
     14945   1  2.677613E+04  5.126779E+03 -3.565186E+03  9.621973E+05 -1.798643E+03 -2.440194E+04
     14946   1  2.676576E+04  3.386912E+03 -3.818426E+03  9.475405E+05 -3.809713E+03 -4.512082E+04
     14947   1  2.623539E+04  7.541667E+02 -2.577592E+03  9.768960E+05 -5.173303E+03 -4.243573E+04
     14948   1  2.749527E+04 -3.488855E+03 -1.179958E+03  9.842504E+05 -4.295668E+03 -5.701003E+04
     14949   1  3.121695E+04 -1.054568E+04 -8.609409E+02  1.046365E+06 -2.103126E+03  2.366292E+03
     14950   1 -2.188501E+05 -4.158525E+04  6.220118E+03  1.004412E+06 -1.102282E+04  4.844930E+04
     14951   1 -2.497040E+05 -1.267360E+04  1.057163E+04  9.716267E+05 -1.289175E+04  4.314796E+04
     14952   1 -2.715030E+05 -7.135809E+03  2.366307E+04  9.209677E+05 -1.100343E+04  6.386113E+04
     14953   1 -2.865792E+05 -6.113037E+03  2.669459E+04  9.323685E+05 -4.301710E+03  6.489931E+04
     14954   1 -2.910715E+05 -4.041297E+03  2.915312E+04  9.239991E+05 -5.362273E+02  2.446262E+04
     14955   1 -2.932945E+05 -3.422000E+03  2.894799E+04  9.128297E+05  2.232928E+03  8.074554E+03
     14956   1 -2.908013E+05 -3.375944E+03  2.668325E+04  9.209707E+05  4.965001E+03 -2.220930E+04
     14957   1 -2.844479E+05 -4.419970E+03  2.131252E+04  9.069075E+05  6.331542E+03 -4.089641E+04
     14958   1 -2.748334E+05 -9.161691E+03  1.382411E+04  9.356138E+05  6.295837E+03 -3.764731E+04
     14959   1 -2.618894E+05 -1.958361E+04  7.010267E+03  9.402785E+05  4.899419E+03 -5.283332E+04
     14960   1 -2.479339E+05 -4.086911E+04  2.595768E+01  9.985409E+05  1.597485E+03  3.765963E+03
     14961   1 -4.773098E+05 -3.633259E+04  4.073318E+03  8.746078E+05 -1.201512E+04  3.532412E+04
     14962   1 -5.335994E+05 -2.168662E+04  2.652267E+04  8.560960E+05 -3.839351E+04  3.339590E+04
     14963   1 -5.910263E+05 -1.309560E+04  5.312022E+04  8.041001E+05 -3.132566E+04  5.279249E+04
     14964   1 -6.197898E+05 -1.433122E+04  6.018479E+04  8.143851E+05 -1.327814E+04  5.633262E+04
     14965   1 -6.292726E+05 -1.193999E+04  6.443428E+04  8.084958E+05 -3.476482E+03  2.032349E+04
     14966   1 -6.338054E+05 -1.183063E+04  6.467315E+04  7.974461E+05  5.045453E+03  7.979890E+03
     14967   1 -6.282828E+05 -1.104425E+04  6.065387E+04  8.061679E+05  1.344986E+04 -1.761235E+04
     14968   1 -6.141887E+05 -1.199683E+04  4.913695E+04  7.927904E+05  2.010367E+04 -3.262189E+04
     14969   1 -5.929488E+05 -1.703230E+04  3.273627E+04  8.198632E+05  2.189989E+04 -2.784709E+04
     14970   1 -5.667878E+05 -2.861449E+04  1.637957E+04  8.229204E+05  1.841112E+04 -4.331569E+04
     14971   1 -5.421428E+05 -6.120021E+04  1.809223E+03  8.705102E+05  6.815054E+03  6.172534E+03
     14972   1 -7.585877E+05 -7.559930E+04 -3.845801E+03  6.892296E+05 -2.550098E+04  2.903327E+04
     14973   1 -8.363587E+05 -2.080589E+04  4.771613E+04  6.688496E+05 -7.051562E+04  2.060570E+04
     14974   1 -9.383195E+05 -9.296608E+03  9.342893E+04  6.253629E+05 -5.751941E+04  3.427032E+04
     14975   1 -9.841407E+05 -1.542372E+04  9.957359E+04  6.339127E+05 -2.370025E+04  4.364210E+04
     14976   1 -9.963544E+05 -1.251833E+04  1.081794E+05  6.304294E+05 -9.235344E+03  1.415096E+04
     14977   1 -1.005502E+06 -1.284386E+04  1.088112E+05  6.205123E+05  9.111737E+03  6.790135E+03
     14978   1 -9.943051E+05 -1.237919E+04  1.027590E+05  6.288392E+05  2.499326E+04 -1.149479E+04
     14979   1 -9.715315E+05 -1.185426E+04  8.439308E+04  6.172775E+05  3.941757E+04 -2.114307E+04
     14980   1 -9.334151E+05 -1.577358E+04  5.712225E+04  6.420006E+05  4.390883E+04 -1.453303E+04
     14981   1 -8.916532E+05 -2.780670E+04  2.890796E+04  6.411551E+05  3.679923E+04 -3.015108E+04
     14982   1 -8.616354E+05 -6.207517E+04  3.358519E+03  6.724399E+05  1.409440E+04  8.821284E+03
     14983   1 -1.065132E+06 -5.840807E+04 -8.284488E+03  4.079150E+05 -3.881113E+04  1.536397E+04
     14984   1 -1.165163E+06 -1.360229E+04  7.521040E+04  4.272056E+05 -1.195379E+05  4.035680E+03
     14985   1 -1.315087E+06 -3.215427E+03  1.498811E+05  3.980975E+05 -9.505740E+04  1.594842E+04
     14986   1 -1.380861E+06 -1.245987E+04  1.468952E+05  4.028256E+05 -3.804350E+04  2.678252E+04
     14987   1 -1.396853E+06 -7.961605E+03  1.625784E+05  4.017253E+05 -1.889361E+04  7.262492E+03
     14988   1 -1.411281E+06 -9.715369E+03  1.642987E+05  3.939908E+05  1.530622E+04  4.935328E+03
     14989   1 -1.392175E+06 -9.343529E+03  1.517169E+05  4.006851E+05  3.969842E+04 -6.058835E+03
     14990   1 -1.357666E+06 -7.629820E+03  1.309961E+05  3.923177E+05  6.639469E+04 -9.339546E+03
     14991   1 -1.293507E+06 -1.054341E+04  8.666201E+04  4.130015E+05  7.833125E+04 -1.009285E+03
     14992   1 -1.233229E+06 -1.592218E+04  4.261956E+04  4.091225E+05  6.383474E+04 -1.412876E+04
     14993   1 -1.195455E+06 -3.652728E+04  9.573618E+03  4.264074E+05  2.600469E+04  1.273901E+04
     14994   1 -1.368856E+06 -2.156703E+04 -1.359537E+04  1.352526E+05 -6.456123E+04  9.092933E+03
     14995   1 -1.490692E+06 -5.427957E+03  1.046598E+05  1.485159E+05 -1.873559E+05  1.734309E+01
     14996   1 -1.707546E+06  2.658871E+03  2.148864E+05  1.360929E+05 -1.503251E+05  2.720163E+03
     14997   1 -1.798983E+06 -5.361151E+03  2.141095E+05  1.393185E+05 -6.049715E+04  1.035732E+04
     14998   1 -1.818025E+06 -8.381431E+01  2.320503E+05  1.390926E+05 -2.954117E+04  8.146353E+02
     14999   1 -1.835336E+06 -2.596332E+03  2.342943E+05  1.351262E+05  2.229573E+04  2.564456E+03
     15000   1 -1.808452E+06 -2.109462E+03  2.136214E+05  1.396201E+05  5.773574E+04 -2.012707E+03
     15001   1 -1.757377E+06 -6.232508E+02  1.882986E+05  1.338234E+05  1.024551E+05 -2.249127E+03
     15002   1 -1.653568E+06 -4.387876E+03  1.184057E+05  1.452188E+05  1.212957E+05  2.578722E+03
     15003   1 -1.564865E+06 -2.269492E+03  6.072879E+04  1.416187E+05  9.525143E+04 -6.053660E+03
     15004   1 -1.502597E+06 -6.145229E+03  2.510143E+04  1.485644E+05  4.733537E+04  9.100532E+03
     15005   1  8.803328E+05 -2.055554E+04 -8.968175E+04  1.431442E+05  1.511157E+05 -5.396616E+04
     15006   1  1.188027E+06 -1.980114E+04 -2.035406E+05  1.273040E+05  2.263279E+05  1.277792E+04
     15007   1  1.395644E+06  7.898934E+03 -2.329674E+05  1.547964E+05  1.068568E+05  4.438867E+04
     15008   1  1.399640E+06 -2.891589E+03 -2.629201E+05  1.595664E+05  6.006459E+04  8.253513E+03
     15009   1  1.441747E+06  2.872181E+02 -2.925517E+05  1.525806E+05  2.469842E+04  1.209688E+04
     15010   1  1.452579E+06  2.426112E+01 -2.983235E+05  1.570466E+05 -2.458769E+04 -1.459989E+03
     15011   1  1.424508E+06 -1.824540E+03 -2.817545E+05  1.506186E+05 -7.209608E+04 -5.012051E+03
     15012   1  1.387513E+06  2.324964E+03 -2.346298E+05  1.550882E+05 -1.033896E+05 -1.324308E+04
     15013   1  1.307324E+06 -5.743804E+03 -1.942510E+05  1.404852E+05 -1.520350E+05 -1.417228E+04
     15014   1  1.153512E+06  5.905713E+03 -8.971424E+04  1.514458E+05 -1.606490E+05  2.442754E+03
     15015   1  1.073404E+06  1.845640E+04  3.923535E+02  1.361617E+05 -5.565691E+04 -1.293210E+04
     15016   1  6.943859E+05  4.538725E+03 -1.593596E+04  4.142379E+05  5.539624E+04  6.991683E+03
     15017   1  9.053995E+05 -2.071786E+04 -1.224334E+05  3.832049E+05  1.253999E+05  7.128733E+04
     15018   1  1.052839E+06  1.355174E+04 -1.680085E+05  4.419449E+05  7.408072E+04  9.121001E+04
     15019   1  1.086597E+06  1.284171E+04 -1.688292E+05  4.475831E+05  3.161613E+04  4.019500E+04
     15020   1  1.105411E+06  7.784810E+03 -1.976265E+05  4.369512E+05  1.565678E+04  2.724140E+04
     15021   1  1.120050E+06  1.088657E+04 -2.006786E+05  4.420355E+05 -1.753557E+04 -1.106855E+02
     15022   1  1.099796E+06  8.001436E+03 -1.906348E+05  4.313825E+05 -4.442167E+04 -1.664502E+04
     15023   1  1.076663E+06  1.174281E+04 -1.632496E+05  4.355325E+05 -6.504212E+04 -3.722138E+04
     15024   1  1.019601E+06  4.069180E+03 -1.326213E+05  4.070782E+05 -9.358981E+04 -4.291707E+04
     15025   1  9.233306E+05  1.431806E+04 -6.561402E+04  4.312290E+05 -9.311126E+04 -1.159168E+04
     15026   1  8.670377E+05  4.882592E+04 -6.768983E+03  4.096988E+05 -3.306889E+04 -3.187427E+04
     15027   1  4.790277E+05  3.640412E+04 -2.616670E+04  6.441890E+05  6.132277E+04  1.634472E+04
     15028   1  6.480225E+05 -9.230505E+03 -8.094866E+04  6.154101E+05  9.846169E+04  1.193474E+05
     15029   1  7.623192E+05  1.593527E+04 -1.150855E+05  6.922707E+05  4.814300E+04  1.245249E+05
     15030   1  7.833728E+05  2.253678E+04 -1.136658E+05  6.855386E+05  1.866944E+04  6.077658E+04
     15031   1  8.002271E+05  1.585405E+04 -1.281118E+05  6.779687E+05  9.053949E+03  4.329192E+04
     15032   1  8.092593E+05  1.863789E+04 -1.330896E+05  6.808976E+05 -1.148026E+04 -8.639371E+02
     15033   1  7.979395E+05  1.641747E+04 -1.250136E+05  6.671896E+05 -2.743299E+04 -2.538311E+04
     15034   1  7.804508E+05  1.739802E+04 -1.109448E+05  6.743301E+05 -4.137721E+04 -5.707942E+04
     15035   1  7.420559E+05  1.291982E+04 -8.522374E+04  6.362749E+05 -5.904086E+04 -7.059513E+04
     15036   1  6.782585E+05  2.282670E+04 -4.159010E+04  6.677489E+05 -5.648132E+04 -3.199312E+04
     15037   1  6.267137E+05  6.364021E+04 -7.632783E+03  6.627899E+05 -2.120809E+04 -4.909474E+04
     15038   1  2.992429E+05  2.025379E+04 -3.935062E+04  8.966451E+05  4.866815E+04 -6.156678E+03
     15039   1  4.273587E+05 -4.214177E+03 -6.157256E+04  7.832242E+05  6.179208E+04  1.337706E+05
     15040   1  5.037349E+05  1.820726E+04 -6.335028E+04  8.752385E+05  2.704665E+04  1.558737E+05
     15041   1  5.120682E+05  2.298630E+04 -7.329500E+04  8.694829E+05  1.573475E+04  7.202970E+04
     15042   1  5.296097E+05  2.277590E+04 -7.883479E+04  8.534477E+05  4.053720E+03  5.412446E+04
     15043   1  5.309072E+05  2.221308E+04 -8.073016E+04  8.608216E+05 -6.642761E+03 -8.586842E+02
     15044   1  5.269087E+05  2.161175E+04 -7.754909E+04  8.420633E+05 -1.679869E+04 -3.171550E+04
     15045   1  5.150333E+05  1.986108E+04 -6.767708E+04  8.531956E+05 -2.614925E+04 -7.166093E+04
     15046   1  4.892818E+05  1.654311E+04 -5.234350E+04  8.097783E+05 -3.673186E+04 -9.160160E+04
     15047   1  4.465508E+05  2.722260E+04 -2.447952E+04  8.502002E+05 -3.566506E+04 -4.678692E+04
     15048   1  4.108179E+05  5.330735E+04 -4.936323E+03  8.591234E+05 -1.370175E+04 -6.077952E+04
     15049   1  1.855989E+05 -3.157060E+04  3.385797E+02  9.717584E+05  1.134454E+04 -1.243563E+04
     15050   1  2.288614E+05  7.049343E+02 -3.011184E+04  8.880151E+05  2.906816E+04  1.562095E+05
     15051   1  2.595114E+05  2.245626E+04 -3.001743E+04  9.892008E+05  1.697458E+04  1.741876E+05
     15052   1  2.655876E+05  2.411980E+04 -3.717771E+04  9.805460E+05  9.811579E+03  7.900891E+04
     15053   1  2.739677E+05  2.753956E+04 -3.966285E+04  9.641999E+05  3.246231E+03  5.925392E+04
     15054   1  2.749764E+05  2.678036E+04 -4.005446E+04  9.699629E+05 -3.691963E+03 -1.706875E+02
     15055   1  2.727417E+05  2.608912E+04 -3.910006E+04  9.514791E+05 -9.038551E+03 -3.548616E+04
     15056   1  2.672200E+05  2.414031E+04 -3.389119E+04  9.624944E+05 -1.521760E+04 -8.037961E+04
     15057   1  2.542779E+05  1.963057E+04 -2.726007E+04  9.171966E+05 -2.145218E+04 -1.033211E+05
     15058   1  2.324018E+05  2.067975E+04 -1.241714E+04  9.649506E+05 -2.147496E+04 -5.397995E+04
     15059   1  2.147657E+05  2.954599E+04 -2.840005E+03  9.794960E+05 -8.018964E+03 -6.707307E+04
     15060   1  1.880461E+04 -3.068880E+03 -3.208843E+03  9.936924E+05  4.342801E+03  3.331860E+04
     15061   1  2.827380E+04  9.156521E+03 -3.661855E+03  9.194747E+05  9.394559E+03  1.615569E+05
     15062   1  3.239625E+04  1.686526E+04 -4.734349E+03  1.028106E+06  6.218304E+03  1.758598E+05
     15063   1  3.097740E+04  2.126246E+04 -3.025595E+03  1.021519E+06  3.868886E+03  8.289441E+04
     15064   1  3.067509E+04  2.354504E+04 -4.588707E+03  1.002588E+06  2.526535E+03  6.026067E+04
     15065   1  3.154766E+04  2.535050E+04 -5.030975E+03  1.009786E+06 -2.625479E+02  5.196312E+02
     15066   1  3.078426E+04  2.401473E+04 -4.849887E+03  9.899314E+05 -3.208633E+03 -3.623015E+04
     15067   1  3.125314E+04  2.197216E+04 -4.579261E+03  1.002458E+06 -5.071178E+03 -8.202735E+04
     15068   1  3.091466E+04  1.658335E+04 -4.918971E+03  9.550190E+05 -7.951148E+03 -1.058788E+05
     15069   1  2.832132E+04  9.108880E+03 -2.708889E+03  1.002374E+06 -8.497394E+03 -5.509113E+04
     15070   1  3.016858E+04 -1.468555E+02  3.643543E+02  1.018131E+06 -3.206333E+03 -6.930021E+04
     15071   1 -1.313237E+05  2.557896E+04 -1.112986E+03  9.638239E+05  4.523260E+02 -1.211884E+04
     15072   1 -1.723821E+05  1.079420E+04  1.934623E+04  8.837920E+05 -1.235649E+04  1.540070E+05
     15073   1 -1.980707E+05  5.142291E+03  2.436892E+04  9.858659E+05 -6.582886E+03  1.716175E+05
     15074   1 -2.077396E+05  1.046373E+04  2.883659E+04  9.774998E+05 -1.031333E+03  7.902402E+04
     15075   1 -2.144321E+05  1.391819E+04  2.985131E+04  9.627937E+05  1.491314E+03  5.934618E+04
     15076   1 -2.153020E+05  1.563079E+04  3.045876E+04  9.688132E+05  3.115175E+03  3.060081E+02
     15077   1 -2.135227E+05  1.524363E+04  2.906426E+04  9.500578E+05  3.393041E+03 -3.317556E+04
     15078   1 -2.073230E+05  1.288357E+04  2.524620E+04  9.615241E+05  5.709771E+03 -7.734921E+04
     15079   1 -1.948175E+05  7.826977E+03  1.668942E+04  9.143925E+05  6.519715E+03 -1.001281E+05
     15080   1 -1.775038E+05 -5.820242E+03  7.479138E+03  9.613044E+05  4.601845E+03 -5.051431E+04
     15081   1 -1.554920E+05 -3.240622E+04  4.022465E+03  9.729869E+05  1.988669E+03 -6.665577E+04
     15082   1 -2.844475E+05 -2.397938E+04  2.229154E+04  8.797717E+05 -3.777436E+04 -1.102107E+04
     15083   1 -3.867617E+05  3.932146E+03  5.033548E+04  7.635719E+05 -4.682626E+04  1.271244E+05
     15084   1 -4.542336E+05 -6.297568E+03  5.697835E+04  8.594759E+05 -1.828030E+04  1.555098E+05
     15085   1 -4.685479E+05 -1.853796E+03  6.167275E+04  8.571502E+05 -6.587302E+03  6.913061E+04
     15086   1 -4.820206E+05  6.618143E+02  6.843446E+04  8.410970E+05 -1.133934E+03  5.287005E+04
     15087   1 -4.842630E+05  2.670046E+03  7.106471E+04  8.492446E+05  7.073123E+03  5.245541E+02
     15088   1 -4.801754E+05  1.629663E+03  6.791194E+04  8.300988E+05  1.256050E+04 -2.746752E+04
     15089   1 -4.667124E+05  1.678237E+03  5.999365E+04  8.427307E+05  2.021750E+04 -6.437433E+04
     15090   1 -4.394266E+05 -1.451788E+03  4.234117E+04  7.977174E+05  2.517594E+04 -8.377216E+04
     15091   1 -4.011145E+05 -2.181620E+04  1.932334E+04  8.385366E+05  2.119528E+04 -3.742010E+04
     15092   1 -3.571621E+05 -6.145570E+04  7.195771E+03  8.429358E+05  8.851104E+03 -5.888462E+04
     15093   1 -4.111487E+05 -7.617941E+03  5.199907E+04  6.611618E+05 -6.889528E+04 -1.174031E+04
     15094   1 -6.500379E+05  9.707071E+03  8.853095E+04  5.791564E+05 -9.026669E+04  1.014854E+05
     15095   1 -7.624126E+05 -1.777049E+04  8.729603E+04  6.608586E+05 -3.328273E+04  1.264961E+05
     15096   1 -7.720113E+05 -1.075341E+04  1.011332E+05  6.609845E+05 -2.110413E+04  5.114046E+04
     15097   1 -8.025935E+05 -9.749423E+03  1.143771E+05  6.458633E+05 -5.439544E+03  4.112567E+04
     15098   1 -8.024134E+05 -8.882710E+03  1.198297E+05  6.528377E+05  1.172898E+04  3.786567E+02
     15099   1 -7.967485E+05 -9.217508E+03  1.137922E+05  6.369769E+05  2.674854E+04 -1.892948E+04
     15100   1 -7.709382E+05 -9.210926E+03  1.023783E+05  6.489258E+05  4.346961E+04 -4.591809E+04
     15101   1 -7.264010E+05 -9.172235E+03  7.406962E+04  6.107328E+05  5.727000E+04 -5.808052E+04
     15102   1 -6.587709E+05 -2.455725E+04  3.568635E+04  6.463047E+05  5.100784E+04 -1.723795E+04
     15103   1 -5.888903E+05 -7.293205E+04  1.342096E+04  6.346072E+05  2.152049E+04 -4.544464E+04
     15104   1 -6.270832E+05 -1.446821E+04  9.574577E+04  3.997011E+05 -1.050609E+05 -1.824473E+04
     15105   1 -9.508388E+05  2.668825E+04  1.478911E+05  3.593039E+05 -1.356993E+05  5.928053E+04
     15106   1 -1.121683E+06 -1.827982E+04  1.241808E+05  4.133768E+05 -6.149823E+04  8.375477E+04
     15107   1 -1.131963E+06 -5.114477E+03  1.572643E+05  4.153425E+05 -4.665481E+04  2.962181E+04
     15108   1 -1.181355E+06 -8.616053E+03  1.789424E+05  4.017178E+05 -1.459960E+04  2.404080E+04
     15109   1 -1.181746E+06 -7.190485E+03  1.839612E+05  4.069267E+05  1.776386E+04  7.522228E+02
     15110   1 -1.168687E+06 -6.960601E+03  1.772770E+05  3.966212E+05  5.053950E+04 -9.493383E+03
     15111   1 -1.128785E+06 -8.921351E+03  1.529425E+05  4.056652E+05  7.825871E+04 -2.589417E+04
     15112   1 -1.057465E+06 -3.612534E+03  1.222798E+05  3.777898E+05  1.063445E+05 -2.974985E+04
     15113   1 -9.450364E+05 -1.808295E+04  5.908139E+04  4.090407E+05  1.014904E+05  3.979193E+03
     15114   1 -8.634988E+05 -5.450082E+04  1.309395E+04  3.759222E+05  3.899880E+04 -3.081124E+04
     15115   1 -8.499513E+05 -1.138807E+04  1.440891E+05  1.161414E+05 -2.021229E+05 -2.281183E+04
     15116   1 -1.299083E+06  1.948666E+04  2.363948E+05  1.224918E+05 -2.634372E+05  1.094274E+04
     15117   1 -1.540395E+06 -1.319548E+04  2.032775E+05  1.397614E+05 -1.078430E+05  3.317157E+04
     15118   1 -1.532961E+06  2.186906E+03  2.337443E+05  1.414238E+05 -7.869105E+04  5.522672E+03
     15119   1 -1.606135E+06 -6.269679E+03  2.624257E+05  1.336731E+05 -3.188335E+04  9.772142E+03
     15120   1 -1.612692E+06 -2.655681E+03  2.710225E+05  1.376619E+05  2.583770E+04 -1.147560E+03
     15121   1 -1.582469E+06 -2.770550E+03  2.573983E+05  1.314483E+05  8.721380E+04 -1.312704E+03
     15122   1 -1.524290E+06 -5.989251E+03  2.140389E+05  1.391691E+05  1.259090E+05 -8.637244E+03
     15123   1 -1.420241E+06  3.056724E+03  1.854101E+05  1.233514E+05  1.832072E+05 -7.127837E+03
     15124   1 -1.228602E+06 -9.831515E+03  8.327487E+04  1.414626E+05  1.927776E+05  1.249692E+04
     15125   1 -1.118429E+06 -2.044629E+04 -1.158584E+03  1.190857E+05  6.864929E+04 -1.423501E+04
     15126   1  3.206383E+05 -4.981306E+04 -8.570870E+03  1.203400E+05  1.670466E+05  1.579725E+05
     15127   1  1.106659E+06  3.501790E+04 -9.581357E+04  1.580240E+05  1.714697E+05  1.338027E+05
     15128   1  1.063251E+06  1.706882E+03 -2.126519E+05  1.789157E+05  9.190683E+04  1.981968E+04
     15129   1  1.148497E+06  9.479031E+03 -2.902599E+05  1.488523E+05  8.015661E+04  3.077995E+04
     15130   1  1.179193E+06  4.793207E+03 -3.243230E+05  1.635890E+05  3.860067E+03  1.326482E+04
     15131   1  1.162143E+06  7.167113E+03 -3.237509E+05  1.591803E+05 -2.526733E+04  2.999049E+03
     15132   1  1.178352E+06  7.898811E+03 -3.241695E+05  1.595152E+05 -6.641661E+04 -1.747766E+04
     15133   1  1.121175E+06  2.165312E+03 -2.906651E+05  1.461411E+05 -1.354483E+05 -2.015897E+04
     15134   1  1.062667E+06  1.688305E+04 -2.005349E+05  1.508990E+05 -1.662982E+05 -3.382853E+04
     15135   1  8.954319E+05 -1.375218E+04 -1.585994E+05  1.183437E+05 -2.169395E+05 -3.368668E+04
     15136   1  6.323526E+05  1.392588E+04 -8.347384E+04  1.092995E+05 -1.413086E+05  1.933274E+04
     15137   1  3.881232E+05 -1.679214E+05 -8.506808E+04  2.203521E+05  1.080997E+05  2.079415E+05
     15138   1  7.124708E+05  2.640572E+04 -9.869994E+04  4.922708E+05  1.218003E+05  2.661320E+05
     15139   1  8.069949E+05  2.541601E+04 -1.102684E+05  4.877170E+05  4.482261E+04  8.844497E+04
     15140   1  8.268361E+05 -3.419243E+03 -1.873848E+05  4.534495E+05  4.527679E+04  7.642756E+04
     15141   1  8.696525E+05  9.642758E+03 -2.105465E+05  4.698399E+05 -7.979844E+02  4.207126E+04
     15142   1  8.547701E+05  5.311762E+03 -2.118979E+05  4.664290E+05 -1.726583E+04  3.837456E+03
     15143   1  8.642017E+05  6.917342E+03 -2.136975E+05  4.619200E+05 -3.823965E+04 -4.273110E+04
     15144   1  8.271007E+05  2.588263E+03 -1.927801E+05  4.357647E+05 -7.412404E+04 -6.135350E+04
     15145   1  7.833187E+05  1.197721E+04 -1.447035E+05  4.415762E+05 -9.401921E+04 -9.044097E+04
     15146   1  6.699436E+05 -1.464684E+04 -1.054425E+05  3.520482E+05 -1.155209E+05 -9.486019E+04
     15147   1  4.830658E+05  3.988659E+04 -4.525668E+04  3.681437E+05 -6.672264E+04  2.368839E+04
     15148   1  1.412011E+05 -2.194430E+05 -2.874645E+04  3.532808E+05  7.241628E+04  2.921607E+05
     15149   1  5.071204E+05 -9.630396E+03 -7.709730E+04  7.622098E+05  6.980852E+04  3.221799E+05
     15150   1  5.556846E+05  3.394765E+04 -7.805330E+04  7.408523E+05  2.256933E+04  1.307480E+05
     15151   1  5.846291E+05  4.666351E+03 -1.112456E+05  6.998537E+05  2.365734E+04  1.231250E+05
     15152   1  6.088299E+05  1.327999E+04 -1.341464E+05  7.216626E+05 -3.701637E+02  5.676940E+04
     15153   1  6.055235E+05  1.193512E+04 -1.344391E+05  7.145340E+05 -1.136285E+04  8.721567E+03
     15154   1  6.072127E+05  1.094531E+04 -1.372616E+05  7.093157E+05 -2.267303E+04 -6.306390E+04
     15155   1  5.855417E+05  8.692869E+03 -1.227628E+05  6.744184E+05 -4.251083E+04 -9.015647E+04
     15156   1  5.491175E+05  7.098951E+03 -9.786075E+04  6.873002E+05 -5.384047E+04 -1.374509E+05
     15157   1  4.685310E+05 -2.002203E+03 -6.467306E+04  5.680110E+05 -7.108822E+04 -1.522477E+05
     15158   1  3.356049E+05  4.181184E+04 -2.180232E+04  6.277689E+05 -4.242863E+04  1.423174E+04
     15159   1  6.511891E+04 -1.351386E+05  1.966473E+04  4.502000E+05  3.245382E+04  3.993444E+05
     15160   1  3.515195E+05 -7.282551E+03 -1.406691E+04  9.618160E+05  3.994605E+04  4.315599E+05
     15161   1  3.426285E+05  3.196590E+04 -5.801939E+04  9.371048E+05  2.123765E+04  1.415026E+05
     15162   1  3.790959E+05  3.053271E+04 -6.987261E+04  8.791915E+05  1.273428E+04  1.507391E+05
     15163   1  3.860947E+05  2.849953E+04 -7.719381E+04  9.102751E+05 -7.754908E+02  7.017450E+04
     15164   1  3.894045E+05  2.986010E+04 -8.192822E+04  8.967292E+05 -5.740580E+03  9.540418E+03
     15165   1  3.879995E+05  2.819253E+04 -8.164548E+04  8.939615E+05 -1.467743E+04 -7.428572E+04
     15166   1  3.749432E+05  2.515356E+04 -7.487336E+04  8.527876E+05 -2.425418E+04 -1.108953E+05
     15167   1  3.533569E+05  2.013484E+04 -5.976442E+04  8.707704E+05 -3.495721E+04 -1.698466E+05
     15168   1  2.987565E+05  4.493729E+03 -4.132659E+04  7.394038E+05 -4.635218E+04 -1.889824E+05
     15169   1  2.158065E+05  2.934485E+04 -1.322365E+04  8.148753E+05 -2.612932E+04  1.228377E+04
     15170   1  1.254726E+05 -9.643024E+03 -1.915783E+04  5.626868E+05  3.064281E+04  4.519637E+05
     15171   1  1.722784E+05  2.811733E+04 -9.622082E+03  1.063119E+06  2.930877E+04  4.617288E+05
     15172   1  1.824145E+05  3.115862E+04 -2.977961E+04  1.066973E+06  1.208814E+04  1.610783E+05
     15173   1  1.928232E+05  4.434551E+04 -3.676199E+04  1.001150E+06  8.947743E+03  1.596304E+05
     15174   1  1.989739E+05  4.419860E+04 -3.952509E+04  1.030711E+06 -5.377656E+01  7.804160E+04
     15175   1  1.989847E+05  4.497383E+04 -4.148400E+04  1.018717E+06 -2.480128E+03  1.109387E+04
     15176   1  1.997295E+05  4.373734E+04 -4.165671E+04  1.013664E+06 -8.770385E+03 -8.136646E+04
     15177   1  1.923761E+05  3.909629E+04 -3.890389E+04  9.720805E+05 -1.394529E+04 -1.219256E+05
     15178   1  1.834106E+05  3.180663E+04 -3.097493E+04  9.906899E+05 -1.975091E+04 -1.891721E+05
     15179   1  1.575424E+05  1.683133E+04 -2.209941E+04  8.429907E+05 -2.549722E+04 -2.104464E+05
     15180   1  1.138765E+05  2.198460E+04 -6.885096E+03  9.278015E+05 -1.533268E+04  9.907725E+03
     15181   1  2.259699E+04  1.182585E+04 -1.529573E+03  5.273092E+05  8.210415E+03  3.857621E+05
     15182   1  3.261449E+04  3.586598E+04 -2.146584E+03  1.124766E+06  9.112162E+03  4.740970E+05
     15183   1  3.071023E+04  4.534661E+04 -9.317111E+02  1.105005E+06  5.994137E+03  1.696609E+05
     15184   1  3.016308E+04  5.078373E+04 -3.680783E+03  1.046178E+06  5.776374E+03  1.637273E+05
     15185   1  3.075780E+04  5.668778E+04 -5.747182E+03  1.075702E+06  2.134409E+03  8.098595E+04
     15186   1  2.974540E+04  5.800033E+04 -5.061624E+03  1.062803E+06 -7.090782E+02  1.136445E+04
     15187   1  3.091411E+04  5.667074E+04 -5.887682E+03  1.058622E+06 -3.207974E+03 -8.271156E+04
     15188   1  3.009638E+04  5.170224E+04 -5.785941E+03  1.014632E+06 -7.095964E+03 -1.261151E+05
     15189   1  3.062010E+04  4.436989E+04 -4.518907E+03  1.032971E+06 -8.494974E+03 -1.967063E+05
     15190   1  2.826836E+04  3.101806E+04 -5.030456E+03  8.798802E+05 -1.051833E+04 -2.201955E+05
     15191   1  2.099198E+04  1.606744E+04 -3.346835E+03  9.666613E+05 -6.468065E+03  1.016548E+04
     15192   1 -1.141704E+05  3.094140E+04  1.990984E+04  5.559505E+05 -1.755150E+04  4.515166E+05
     15193   1 -1.037811E+05  3.964090E+04  1.387212E+04  1.072341E+06 -1.022392E+04  4.615511E+05
     15194   1 -1.229582E+05  4.963295E+04  2.807028E+04  1.075112E+06  1.116833E+03  1.630697E+05
     15195   1 -1.325936E+05  5.255157E+04  2.667634E+04  1.012136E+06  3.137283E+03  1.632231E+05
     15196   1 -1.374258E+05  6.188216E+04  2.932588E+04  1.043618E+06  3.615758E+03  7.828899E+04
     15197   1 -1.398502E+05  6.353450E+04  3.169462E+04  1.031418E+06  1.692228E+03  1.225065E+04
     15198   1 -1.377271E+05  6.245003E+04  3.101186E+04  1.026634E+06  2.165832E+03 -8.067790E+04
     15199   1 -1.324119E+05  5.767835E+04  2.793357E+04  9.830916E+05  1.090286E+02 -1.206072E+05
     15200   1 -1.212197E+05  5.205896E+04  2.377608E+04  1.001090E+06  2.747635E+03 -1.886116E+05
     15201   1 -1.014623E+05  4.004152E+04  1.147093E+04  8.469164E+05  4.262666E+03 -2.119491E+05
     15202   1 -7.149056E+04  4.651384E+03 -1.042926E+03  9.308795E+05  1.730310E+03  1.121811E+04
     15203   1 -4.529613E+04  1.422352E+05 -1.052493E+03  4.468047E+05 -2.099595E+04  4.025170E+05
     15204   1 -2.795231E+05  4.245495E+04  2.935419E+04  9.700329E+05 -2.746353E+04  4.399960E+05
     15205   1 -2.944967E+05  2.265359E+04  4.441935E+04  9.492104E+05 -4.397853E+03  1.482996E+05
     15206   1 -3.145293E+05  4.268079E+04  5.630356E+04  8.955499E+05 -1.528493E+03  1.516336E+05
     15207   1 -3.262859E+05  4.823103E+04  6.713194E+04  9.283831E+05  3.286222E+03  7.022883E+04
     15208   1 -3.303767E+05  4.926132E+04  7.313498E+04  9.148530E+05  5.260942E+03  1.127493E+04
     15209   1 -3.255600E+05  4.937315E+04  7.195239E+04  9.127153E+05  9.700956E+03 -7.173306E+04
     15210   1 -3.144945E+05  4.461838E+04  6.453870E+04  8.685247E+05  1.090287E+04 -1.070745E+05
     15211   1 -2.912067E+05  4.093168E+04  5.418005E+04  8.854060E+05  1.899595E+04 -1.661371E+05
     15212   1 -2.418911E+05  3.662369E+04  3.102565E+04  7.434853E+05  2.465373E+04 -1.889793E+05
     15213   1 -1.732000E+05 -1.742313E+04  3.758534E+03  8.161456E+05  1.087104E+04  1.664551E+04
     15214   1 -1.381953E+05  1.892359E+05 -1.141823E+04  3.551957E+05 -7.027048E+04  3.258183E+05
     15215   1 -5.140782E+05 -1.585397E+04  1.151533E+04  7.438118E+05 -5.512459E+04  3.606099E+05
     15216   1 -5.073660E+05  5.533656E+03  5.913072E+04  7.428481E+05 -1.281441E+04  1.231933E+05
     15217   1 -5.556649E+05  2.064117E+04  9.134451E+04  6.910066E+05 -1.640584E+04  1.185577E+05
     15218   1 -5.665223E+05  2.121884E+04  1.171636E+05  7.183535E+05  9.289274E+02  5.542976E+04
     15219   1 -5.764332E+05  2.046995E+04  1.234146E+05  7.088316E+05  1.004453E+04  1.030043E+04
     15220   1 -5.663249E+05  2.201650E+04  1.228519E+05  7.059065E+05  2.299548E+04 -5.790865E+04
     15221   1 -5.488082E+05  1.923283E+04  1.098162E+05  6.678315E+05  3.226214E+04 -8.125844E+04
     15222   1 -5.061440E+05  2.080862E+04  9.364428E+04  6.848568E+05  4.536832E+04 -1.246275E+05
     15223   1 -4.267797E+05  1.837453E+04  5.380890E+04  5.579331E+05  5.556100E+04 -1.418965E+05
     15224   1 -2.989591E+05 -4.639072E+04  6.776033E+03  6.198690E+05  2.858356E+04  2.584376E+04
     15225   1 -1.765414E+05  1.632171E+05 -7.521101E+04  2.196271E+05 -9.444972E+04  2.541451E+05
     15226   1 -8.596896E+05 -5.627319E+04 -4.457648E+04  4.710467E+05 -1.111384E+05  2.739535E+05
     15227   1 -8.139712E+05  4.929720E+02  8.762154E+04  4.657594E+05 -6.398688E+04  6.663130E+04
     15228   1 -9.039183E+05  1.148455E+03  1.529155E+05  4.146680E+05 -4.631285E+04  6.911732E+04
     15229   1 -9.219140E+05  2.916146E+02  1.777265E+05  4.351284E+05 -4.643724E+03  3.781627E+04
     15230   1 -9.303537E+05 -8.979663E+02  1.855354E+05  4.288879E+05  1.634556E+04  5.968526E+03
     15231   1 -9.222036E+05  1.546954E+02  1.854942E+05  4.265004E+05  4.514614E+04 -3.716776E+04
     15232   1 -8.841598E+05  1.582374E+03  1.710314E+05  4.001015E+05  7.738932E+04 -4.748343E+04
     15233   1 -8.194034E+05 -4.345022E+03  1.341601E+05  4.169410E+05  1.076351E+05 -7.143928E+04
     15234   1 -6.835172E+05  1.783208E+04  9.380835E+04  3.267267E+05  1.253530E+05 -7.814959E+04
     15235   1 -4.690850E+05 -4.886694E+04  2.919575E+04  3.478279E+05  6.561960E+04  4.260890E+04
     15236   1 -2.836155E+05  6.562434E+04 -6.460680E+04  6.781298E+04 -1.944310E+05  1.240914E+05
     15237   1 -1.300598E+06 -3.313698E+04  2.251064E+02  1.751341E+05 -1.957870E+05  1.234703E+05
     15238   1 -1.190609E+06  8.334453E+03  1.580302E+05  1.571677E+05 -1.173520E+05  1.107779E+04
     15239   1 -1.346170E+06 -4.532788E+03  2.413998E+05  1.335673E+05 -1.080583E+05  2.524709E+04
     15240   1 -1.382012E+06  3.096086E+03  2.766538E+05  1.430571E+05 -1.440644E+04  1.132603E+04
     15241   1 -1.378995E+06 -9.556304E+02  2.746447E+05  1.403995E+05  2.508116E+04  4.065661E+03
     15242   1 -1.384284E+06 -9.924257E+02  2.828319E+05  1.402906E+05  7.982702E+04 -1.537132E+04
     15243   1 -1.304732E+06  4.863286E+03  2.596200E+05  1.275566E+05  1.646043E+05 -1.164667E+04
     15244   1 -1.206123E+06 -1.162223E+04  1.744725E+05  1.402519E+05  2.011301E+05 -2.585815E+04
     15245   1 -9.933439E+05  1.795401E+04  1.528743E+05  1.046711E+05  2.529491E+05 -3.021840E+04
     15246   1 -6.734538E+05 -1.694855E+04  8.341265E+04  9.608591E+04  1.626462E+05  3.027583E+04
     15247   1  7.713796E+05  5.705071E+04 -5.197983E+04  2.347827E+05  1.612438E+05  2.597680E+04
     15248   1  7.699405E+05 -4.062749E+04 -2.118910E+05  1.502774E+05  1.513439E+05  5.224999E+04
     15249   1  8.925758E+05 -1.225843E+04 -3.000611E+05  1.985744E+05  2.971570E+04  5.262286E+04
     15250   1  8.466474E+05 -1.539425E+04 -3.256228E+05  1.843739E+05  4.105057E+03  1.523802E+04
     15251   1  8.647424E+05 -1.877149E+04 -3.539150E+05  1.842555E+05 -3.002434E+04 -9.820682E+02
     15252   1  8.485879E+05 -1.576931E+04 -3.381977E+05  1.852508E+05 -4.859309E+04 -1.172988E+04
     15253   1  8.923159E+05 -1.235815E+04 -3.210131E+05  1.865222E+05 -9.607696E+04 -5.863495E+04
     15254   1  7.858235E+05 -3.275684E+04 -2.623166E+05  1.432527E+05 -1.903525E+05 -5.515441E+04
     15255   1  6.988065E+05  1.387243E+04 -6.980283E+04  1.567184E+05 -2.307861E+05 -6.786005E+04
     15256   1  1.977690E+05 -3.667980E+04  3.201074E+04  5.998789E+04 -1.281630E+05 -9.187360E+04
     15257   1  1.432686E+05 -1.922307E+03  1.350820E+05  5.583728E+04  1.385401E+05  4.934620E+04
     15258   1  5.365983E+05  1.338460E+05  9.346328E+04  6.203190E+05  1.276714E+05  1.017551E+05
     15259   1  5.122522E+05 -6.230041E+04 -1.000139E+05  4.561733E+05  6.368293E+04  1.825348E+05
     15260   1  6.041649E+05 -1.402373E+04 -1.685717E+05  5.223306E+05  1.844667E+04  1.265175E+05
     15261   1  5.851764E+05 -2.297201E+04 -1.941827E+05  5.178038E+05 -3.389085E+03  5.049694E+04
     15262   1  5.993520E+05 -2.532625E+04 -2.215819E+05  4.993589E+05 -1.522092E+04 -2.460163E+03
     15263   1  5.896459E+05 -2.030811E+04 -2.056446E+05  5.127342E+05 -2.978608E+04 -4.011731E+04
     15264   1  5.983939E+05 -2.062117E+04 -1.899618E+05  4.999609E+05 -4.497522E+04 -1.432297E+05
     15265   1  5.271939E+05 -3.772306E+04 -1.560249E+05  4.208614E+05 -8.379497E+04 -1.626647E+05
     15266   1  4.425265E+05 -1.042928E+04 -5.882814E+04  4.441964E+05 -9.787651E+04 -2.020090E+05
     15267   1  1.341508E+05 -1.065643E+05  1.251825E+03  2.054609E+05 -5.014321E+04 -2.286149E+05
     15268   1  3.160785E+05  8.277908E+04  2.915990E+04  9.805506E+05  6.024316E+04  1.583642E+05
     15269   1  3.373891E+05 -1.532153E+04 -4.289403E+04  6.730324E+05  4.329147E+04  2.658979E+05
     15270   1  3.936521E+05 -9.451630E+03 -9.528141E+04  8.008416E+05  7.461909E+03  1.885060E+05
     15271   1  3.897672E+05 -4.997120E+03 -1.156571E+05  7.679972E+05 -4.675743E+03  7.168467E+04
     15272   1  3.965435E+05 -1.320940E+04 -1.283222E+05  7.567204E+05 -8.567687E+03 -2.277753E+03
     15273   1  3.942384E+05 -5.495573E+03 -1.255277E+05  7.641727E+05 -1.359715E+04 -5.897704E+04
     15274   1  3.912270E+05 -9.464319E+03 -1.179230E+05  7.539183E+05 -2.350612E+04 -2.009314E+05
     15275   1  3.503519E+05 -1.880785E+04 -9.469120E+04  6.506255E+05 -4.616052E+04 -2.251649E+05
     15276   1  2.759239E+05 -5.009014E+04 -5.120329E+04  6.935154E+05 -5.779127E+04 -2.954061E+05
     15277   1  9.244655E+04 -1.361621E+05 -1.299979E+04  3.436555E+05 -3.456126E+04 -3.227840E+05
     15278   1  1.897493E+05  1.116410E+04 -9.014379E+03  1.170499E+06  2.437237E+04  1.335603E+05
     15279   1  2.047146E+05  4.610509E+03 -4.361428E+04  8.702510E+05  2.325844E+04  3.214147E+05
     15280   1  2.310476E+05  1.593239E+04 -6.173556E+04  9.947430E+05  1.873295E+03  2.181513E+05
     15281   1  2.328440E+05  9.222595E+03 -6.978303E+04  9.690391E+05 -2.675960E+03  9.008585E+04
     15282   1  2.355706E+05  1.054962E+04 -7.859018E+04  9.463037E+05 -5.903244E+03 -2.954743E+03
     15283   1  2.355705E+05  1.087089E+04 -7.840418E+04  9.599062E+05 -5.160287E+03 -7.066842E+04
     15284   1  2.331754E+05  8.300095E+03 -7.732814E+04  9.464857E+05 -1.362093E+04 -2.347296E+05
     15285   1  2.078093E+05 -7.761153E+03 -6.383940E+04  8.316765E+05 -2.405062E+04 -2.635198E+05
     15286   1  1.745078E+05 -3.815430E+04 -3.086491E+04  8.696500E+05 -3.217598E+04 -3.609324E+05
     15287   1  5.738363E+04 -1.053727E+05 -7.773151E+03  4.379259E+05 -1.838992E+04 -3.937080E+05
     15288   1  1.209255E+05 -4.598670E+03 -3.045562E+04  1.319487E+06  1.338247E+04  2.108420E+05
     15289   1  1.048681E+05  4.766420E+04 -2.495907E+04  9.617586E+05  1.390359E+04  3.249303E+05
     15290   1  1.242777E+05  4.549276E+04 -3.190922E+04  1.122520E+06  7.373289E+02  2.405754E+05
     15291   1  1.193098E+05  4.940097E+04 -3.695989E+04  1.080178E+06 -1.040911E+02  9.792726E+04
     15292   1  1.241117E+05  4.876311E+04 -3.808509E+04  1.064825E+06 -3.772093E+03 -1.924501E+03
     15293   1  1.217924E+05  4.839247E+04 -4.108717E+04  1.073605E+06 -2.415011E+03 -7.683201E+04
     15294   1  1.235095E+05  4.277197E+04 -3.968167E+04  1.062181E+06 -8.743644E+03 -2.546504E+05
     15295   1  1.099958E+05  2.841093E+04 -3.207081E+04  9.381334E+05 -1.359711E+04 -2.905410E+05
     15296   1  9.336058E+04  7.567487E+03 -1.612705E+04  9.761712E+05 -1.856052E+04 -4.070869E+05
     15297   1  3.075300E+04 -4.021048E+04 -4.424927E+03  4.946129E+05 -1.153373E+04 -4.348687E+05
     15298   1  8.651540E+03  1.646797E+03  8.278616E+03  1.128221E+05  8.547603E+03  1.005115E+05
     15299   1  2.814803E+04  7.856847E+04  1.792275E+03  1.308640E+06  8.548616E+03  1.932876E+05
     15300   1  2.370115E+04  8.582467E+04  3.350918E+03  1.031221E+06  9.646866E+03  3.398358E+05
     15301   1  2.362840E+04  9.519173E+04 -5.632698E+03  1.154749E+06  3.803131E+03  2.461916E+05
     15302   1  2.274786E+04  1.049607E+05 -3.885765E+03  1.134187E+06  2.297018E+03  1.014063E+05
     15303   1  2.219001E+04  1.036355E+05 -5.788303E+03  1.105600E+06 -1.027129E+03 -1.255305E+03
     15304   1  2.237360E+04  1.036372E+05 -4.997652E+03  1.122047E+06 -3.320791E+03 -7.902972E+04
     15305   1  2.447835E+04  9.564196E+04 -4.988615E+03  1.105857E+06 -5.870299E+03 -2.630519E+05
     15306   1  2.312742E+04  8.288329E+04 -4.484858E+03  9.802012E+05 -8.801872E+03 -3.004652E+05
     15307   1  2.421398E+04  6.718148E+04  6.214136E+02  1.018581E+06 -9.599618E+03 -4.217922E+05
     15308   1  6.715836E+03  3.957153E+04  1.925637E+03  5.150425E+05 -5.180847E+03 -4.534844E+05
     15309   1 -6.076694E+04  1.490168E+05  4.977900E+04  1.342708E+06  9.320752E+03  2.126663E+05
     15310   1 -5.953446E+04  1.112613E+05  1.495484E+04  9.838873E+05  2.084319E+03  3.375596E+05
     15311   1 -7.071842E+04  1.478072E+05  2.726680E+04  1.148128E+06  9.269374E+03  2.452941E+05
     15312   1 -7.307443E+04  1.483864E+05  2.837125E+04  1.106983E+06  3.924025E+03  9.959821E+04
     15313   1 -7.486710E+04  1.571690E+05  2.830938E+04  1.090914E+06  2.222564E+03 -1.172692E+03
     15314   1 -7.494703E+04  1.501594E+05  3.273834E+04  1.100105E+06 -4.857833E+03 -7.747886E+04
     15315   1 -7.038180E+04  1.453053E+05  3.100544E+04  1.087591E+06 -3.492485E+03 -2.587262E+05
     15316   1 -6.239372E+04  1.308731E+05  2.332308E+04  9.578370E+05 -6.255792E+03 -2.965880E+05
     15317   1 -4.017420E+04  1.233736E+05  1.931276E+04  9.951458E+05 -3.088745E+03 -4.154454E+05
     15318   1 -1.609707E+04  1.142371E+05  1.198077E+04  5.001129E+05  3.305718E+01 -4.449192E+05
     15319   1 -1.466212E+05  9.418463E+04 -1.777034E+04  1.217915E+06 -1.187749E+04  1.504557E+05
     15320   1 -1.491290E+05  1.530607E+05  4.186903E+04  9.073533E+05  9.285016E+02  3.335781E+05
     15321   1 -1.763428E+05  1.553278E+05  5.544985E+04  1.048794E+06  3.797430E+03  2.256449E+05
     15322   1 -1.808932E+05  1.770841E+05  6.613431E+04  1.019611E+06  9.607588E+03  9.283192E+04
     15323   1 -1.819497E+05  1.740323E+05  7.231676E+04  9.983157E+05  3.018845E+03 -2.934010E+03
     15324   1 -1.842623E+05  1.735217E+05  7.439832E+04  1.011453E+06 -2.120900E+03 -6.906552E+04
     15325   1 -1.742630E+05  1.642884E+05  7.292700E+04  9.977346E+05  2.002167E+02 -2.419021E+05
     15326   1 -1.543354E+05  1.530285E+05  5.856166E+04  8.707862E+05  8.871399E+02 -2.719540E+05
     15327   1 -1.150128E+05  1.558921E+05  3.933638E+04  9.041584E+05  5.683459E+03 -3.728675E+05
     15328   1 -4.200523E+04  1.646402E+05  1.764382E+04  4.466591E+05  4.165090E+03 -4.111943E+05
     15329   1 -2.778955E+05  2.071047E+04 -1.270128E+03  1.012569E+06 -3.286700E+04  1.400011E+05
     15330   1 -2.843774E+05  1.085314E+05  2.190657E+04  7.282647E+05 -2.795593E+04  2.782753E+05
     15331   1 -3.193585E+05  1.343323E+05  9.365761E+04  8.620077E+05  9.947398E+02  1.944354E+05
     15332   1 -3.303361E+05  1.308893E+05  1.142746E+05  8.328713E+05  7.657389E+03  7.020614E+04
     15333   1 -3.296511E+05  1.404838E+05  1.205978E+05  8.175840E+05  8.617835E+03 -4.897993E+02
     15334   1 -3.328791E+05  1.315161E+05  1.270484E+05  8.279535E+05  4.177022E+03 -5.557317E+04
     15335   1 -3.162178E+05  1.309251E+05  1.162420E+05  8.182824E+05  1.480834E+04 -2.040788E+05
     15336   1 -2.866922E+05  1.131750E+05  8.680384E+04  6.965384E+05  1.821626E+04 -2.338165E+05
     15337   1 -2.066568E+05  1.340638E+05  6.627806E+04  7.337268E+05  2.491574E+04 -3.029240E+05
     15338   1 -7.697874E+04  1.735751E+05  3.392451E+04  3.504661E+05  1.711960E+04 -3.404000E+05
     15339   1 -5.342462E+05 -7.376066E+04 -3.278151E+04  6.597538E+05 -9.262222E+04  6.876619E+04
     15340   1 -5.270813E+05  7.144712E+04  5.897532E+04  4.446050E+05 -7.545412E+04  1.777959E+05
     15341   1 -5.914949E+05  5.386223E+04  1.471714E+05  5.391620E+05 -1.421159E+04  1.248808E+05
     15342   1 -5.991394E+05  5.452592E+04  1.688521E+05  5.244701E+05  1.285890E+03  4.785818E+04
     15343   1 -6.000096E+05  6.058232E+04  1.849262E+05  5.074579E+05  1.720671E+04 -2.468769E+03
     15344   1 -5.991812E+05  5.323876E+04  1.838038E+05  5.211631E+05  2.117395E+04 -3.293726E+04
     15345   1 -5.898518E+05  5.405192E+04  1.743199E+05  5.118839E+05  4.719551E+04 -1.415377E+05
     15346   1 -5.174567E+05  6.000637E+04  1.368489E+05  4.194877E+05  7.043985E+04 -1.528412E+05
     15347   1 -4.143482E+05  3.674468E+04  5.918130E+04  4.567829E+05  7.914379E+04 -1.821323E+05
     15348   1 -1.227336E+05  1.228142E+05  1.539593E+04  2.058450E+05  3.713814E+04 -2.359647E+05
     15349   1 -9.070245E+05 -5.757418E+04  4.626685E+03  2.340541E+05 -2.187965E+05 -7.030987E+03
     15350   1 -9.774295E+05  3.076773E+04  1.438869E+05  1.200123E+05 -2.212781E+05  4.330425E+04
     15351   1 -1.145459E+06 -1.960566E+03  2.375547E+05  1.744125E+05 -5.034000E+04  5.086936E+04
     15352   1 -1.113124E+06  5.743160E+03  2.328756E+05  1.596428E+05 -5.470287E+03  1.256189E+04
     15353   1 -1.120972E+06  4.726433E+03  2.500355E+05  1.560372E+05  3.047089E+04 -8.051609E+02
     15354   1 -1.111803E+06  5.128802E+03  2.519324E+05  1.601230E+05  4.330646E+04 -7.200846E+03
     15355   1 -1.146897E+06 -1.381869E+03  2.672159E+05  1.621133E+05  1.173063E+05 -5.806829E+04
     15356   1 -9.747570E+05  2.414402E+04  2.254561E+05  1.148708E+05  2.443875E+05 -3.988131E+04
     15357   1 -8.069083E+05 -1.967717E+04  2.975456E+04  1.503903E+05  2.806586E+05 -3.984898E+04
     15358   1 -2.154534E+05  4.054083E+04 -4.761649E+04  5.830852E+04  1.457549E+05 -9.285100E+04
     15359   1  1.997924E+05 -5.912773E+04 -4.150100E+04  8.719277E+04  9.936251E+04  1.363862E+05
     15360   1  5.836722E+05  1.022209E+04 -1.285452E+05  2.760848E+05  1.037953E+05  1.448909E+05
     15361   1  4.512932E+05 -5.093898E+03 -2.502356E+05  2.395668E+05 -4.513067E+02  3.659222E+04
     15362   1  4.673560E+05 -4.383765E+03 -3.199813E+05  2.251891E+05 -1.301563E+03  2.687837E+04
     15363   1  4.686054E+05 -5.511450E+03 -3.414263E+05  2.360793E+05 -1.713114E+04  1.049423E+03
     15364   1  4.629389E+05 -7.540403E+03 -3.346695E+05  2.211734E+05 -4.203253E+04 -3.047356E+04
     15365   1  4.792058E+05  2.730123E+03 -2.909291E+05  2.426054E+05 -2.714035E+04 -3.509949E+04
     15366   1  5.601028E+05  4.952006E+03 -1.667927E+05  2.584602E+05 -1.186535E+05 -1.734452E+05
     15367   1  2.970103E+05 -5.633600E+04 -3.462443E+04  1.388926E+05 -1.522739E+05 -1.889782E+05
     15368   1  2.334333E+05 -1.392732E+05  4.323276E+04  3.152400E+05  1.018862E+05  3.291532E+05
     15369   1  3.228331E+05 -5.156311E+04  2.861981E+03  6.961072E+05  6.118871E+04  3.534025E+05
     15370   1  3.148413E+05 -3.825772E+04 -1.062903E+05  6.361228E+05  3.053356E+03  1.108973E+05
     15371   1  3.132001E+05 -6.878242E+04 -1.703341E+05  5.948405E+05 -2.567813E+02  7.169137E+04
     15372   1  3.278634E+05 -5.058322E+04 -1.824349E+05  6.135429E+05 -1.255943E+04  2.581342E+03
     15373   1  3.164698E+05 -6.648135E+04 -1.807649E+05  5.839497E+05 -1.627799E+04 -8.055571E+04
     15374   1  3.197244E+05 -3.487795E+04 -1.342440E+05  6.379387E+05 -1.801336E+04 -1.113375E+05
     15375   1  3.250261E+05 -4.731959E+04 -5.436628E+04  6.462111E+05 -4.876036E+04 -3.990607E+05
     15376   1  1.567103E+05 -1.567639E+05 -5.458268E+03  3.850854E+05 -5.119661E+04 -4.268736E+05
     15377   1  8.809591E+04 -1.464785E+05  9.686794E+03  4.819050E+05  5.576187E+04  4.417372E+05
     15378   1  1.788685E+05 -1.057611E+05 -7.463872E+03  9.833665E+05  3.799835E+04  4.800462E+05
     15379   1  1.650102E+05 -9.986896E+04 -7.219006E+04  9.017895E+05 -8.608890E+03  1.646727E+05
     15380   1  1.707213E+05 -1.127954E+05 -1.069276E+05  8.447252E+05 -6.827063E+02  1.069176E+05
     15381   1  1.777775E+05 -1.132860E+05 -1.231683E+05  8.704378E+05 -7.790163E+03  3.150742E+03
     15382   1  1.719477E+05 -1.106427E+05 -1.158912E+05  8.280374E+05 -4.500841E+03 -1.163759E+05
     15383   1  1.743911E+05 -9.562010E+04 -9.711843E+04  8.991982E+05  1.734082E+03 -1.615969E+05
     15384   1  1.689774E+05 -1.071403E+05 -6.879539E+04  8.933213E+05 -1.447913E+04 -5.122227E+05
     15385   1  9.037814E+04 -1.964562E+05 -2.564311E+04  5.515519E+05 -2.669939E+04 -5.340637E+05
     15386   1  4.138774E+04 -1.038657E+05 -1.216840E+04  5.429481E+05  4.853666E+03  4.947750E+05
     15387   1  1.099374E+05 -7.519523E+04 -2.821663E+04  1.175870E+06  8.279246E+03  5.659513E+05
     15388   1  9.986830E+04 -7.443466E+04 -4.457840E+04  1.056588E+06 -4.707202E+03  1.947889E+05
     15389   1  1.034073E+05 -8.839851E+04 -6.532056E+04  1.006642E+06 -5.707216E+03  1.310116E+05
     15390   1  1.041489E+05 -8.488324E+04 -7.546889E+04  1.029147E+06 -2.358519E+03  5.458899E+03
     15391   1  1.039919E+05 -8.668328E+04 -7.264874E+04  9.832693E+05  1.846487E+02 -1.386690E+05
     15392   1  1.087301E+05 -7.362030E+04 -6.504483E+04  1.056529E+06  6.881539E+03 -1.885429E+05
     15393   1  9.778424E+04 -9.353785E+04 -5.290161E+04  1.052501E+06 -3.804991E+03 -5.879328E+05
     15394   1  5.738718E+04 -1.455982E+05 -2.128063E+04  6.645986E+05 -8.345302E+03 -6.146881E+05
     15395   1  1.171200E+04 -2.491576E+04 -2.443206E+04  6.091390E+05 -1.458232E+04  5.257875E+05
     15396   1  6.825573E+04  2.634295E+04 -2.827146E+04  1.249596E+06  3.419239E+03  5.848478E+05
     15397   1  4.541126E+04  1.664087E+04 -2.230407E+04  1.152377E+06 -2.332116E+03  2.155288E+05
     15398   1  5.600700E+04  1.856796E+04 -3.397705E+04  1.085275E+06 -3.452011E+03  1.436197E+05
     15399   1  4.983489E+04  1.537316E+04 -3.852449E+04  1.118588E+06 -2.550824E+02  6.724607E+03
     15400   1  5.495234E+04  1.737569E+04 -3.715346E+04  1.061981E+06 -8.520767E+02 -1.494630E+05
     15401   1  5.385710E+04  1.754106E+04 -3.527666E+04  1.144877E+06  3.722754E+03 -2.035623E+05
     15402   1  5.242065E+04  8.561372E+02 -2.684134E+04  1.136999E+06 -3.438720E+03 -6.308088E+05
     15403   1  2.936339E+04 -3.680942E+04 -1.101998E+04  7.365419E+05 -6.135092E+03 -6.610322E+05
     15404   1  8.510507E+03  1.113794E+05 -1.179817E+03  6.315973E+05  5.110099E+03  5.334456E+05
     15405   1  1.704050E+04  1.348695E+05  3.405906E+03  1.291437E+06  7.918224E+03  5.993390E+05
     15406   1  1.086488E+04  1.482564E+05 -4.040857E+03  1.187527E+06  2.027955E+03  2.221438E+05
     15407   1  1.191311E+04  1.557507E+05 -4.025993E+03  1.124853E+06  2.149099E+03  1.480533E+05
     15408   1  1.137489E+04  1.562604E+05 -5.241060E+03  1.154743E+06 -8.913491E+02  7.926799E+03
     15409   1  1.156977E+04  1.540023E+05 -5.008371E+03  1.099496E+06 -3.020067E+03 -1.542475E+05
     15410   1  1.178238E+04  1.455065E+05 -3.069458E+03  1.182329E+06 -3.875192E+03 -2.098362E+05
     15411   1  1.571655E+04  1.313406E+05  2.598593E+02  1.176155E+06 -6.085892E+03 -6.531407E+05
     15412   1  1.091424E+04  1.037968E+05  1.607364E+03  7.645669E+05 -6.413137E+03 -6.825732E+05
     15413   1  1.601579E+04  2.484481E+05  3.291980E+04  6.289284E+05  2.901093E+04  5.445237E+05
     15414   1 -3.563894E+04  2.505771E+05  2.611330E+04  1.283836E+06  6.189781E+03  6.036644E+05
     15415   1 -1.896359E+04  2.876422E+05  2.340356E+04  1.181441E+06  1.019106E+04  2.195594E+05
     15416   1 -3.366167E+04  2.935613E+05  2.655438E+04  1.114714E+06  6.866051E+03  1.482953E+05
     15417   1 -2.413196E+04  3.066298E+05  3.087099E+04  1.149358E+06 -4.970060E+02  7.118314E+03
     15418   1 -3.165460E+04  2.932112E+05  2.968829E+04  1.090471E+06 -7.104620E+03 -1.547472E+05
     15419   1 -2.871161E+04  2.800585E+05  3.168582E+04  1.174680E+06 -1.176186E+04 -2.091581E+05
     15420   1 -1.740754E+04  2.655140E+05  3.080743E+04  1.167336E+06 -1.088357E+04 -6.490320E+05
     15421   1 -7.537887E+03  2.433644E+05  1.475879E+04  7.545637E+05 -6.551414E+03 -6.798891E+05
     15422   1 -4.808508E+04  3.268918E+05  7.768984E+03  5.715571E+05 -6.717629E+03  5.228139E+05
     15423   1 -5.403788E+04  3.686682E+05  4.530862E+04  1.238184E+06  9.422865E+03  5.910398E+05
     15424   1 -7.733173E+04  3.809038E+05  5.147931E+04  1.118441E+06  1.534948E+04  2.059100E+05
     15425   1 -6.934377E+04  4.157602E+05  6.622157E+04  1.066967E+06  1.121632E+04  1.394460E+05
     15426   1 -7.290799E+04  4.135072E+05  7.690249E+04  1.093325E+06  1.173936E+03  4.999722E+03
     15427   1 -7.199066E+04  4.103919E+05  7.278277E+04  1.042527E+06 -1.049781E+04 -1.463304E+05
     15428   1 -7.896852E+04  3.806211E+05  6.882147E+04  1.117985E+06 -1.908298E+04 -1.994122E+05
     15429   1 -5.222487E+04  3.696556E+05  6.546976E+04  1.116038E+06 -1.678361E+04 -6.239265E+05
     15430   1 -2.751284E+04  3.450505E+05  3.061362E+04  6.997087E+05 -1.347604E+04 -6.552211E+05
     15431   1 -4.543301E+04  3.539860E+05  3.481639E+04  4.957496E+05 -7.887538E+03  4.704224E+05
     15432   1 -1.329069E+05  3.989055E+05  5.717839E+04  1.099282E+06 -1.028600E+04  5.179350E+05
     15433   1 -1.248575E+05  4.268453E+05  9.031180E+04  1.011065E+06  2.008982E+04  1.774872E+05
     15434   1 -1.336236E+05  4.444073E+05  1.210138E+05  9.502623E+05  1.124443E+04  1.132539E+05
     15435   1 -1.301146E+05  4.558533E+05  1.439299E+05  9.824911E+05  3.692904E+03  4.893703E+03
     15436   1 -1.336189E+05  4.417183E+05  1.301036E+05  9.318171E+05 -6.823403E+03 -1.258544E+05
     15437   1 -1.346329E+05  4.192396E+05  1.150651E+05  1.009913E+06 -1.910100E+04 -1.683868E+05
     15438   1 -1.027962E+05  3.993175E+05  1.008660E+05  1.007134E+06 -1.440938E+04 -5.652697E+05
     15439   1 -5.529559E+04  3.764330E+05  4.726983E+04  6.006047E+05 -2.251598E+03 -5.953084E+05
     15440   1 -1.214553E+05  2.767345E+05  2.864463E+04  3.404353E+05 -7.639614E+02  4.000787E+05
     15441   1 -2.667216E+05  2.838435E+05  6.819315E+04  8.469044E+05 -3.017324E+04  4.082892E+05
     15442   1 -2.460078E+05  3.019363E+05  1.263694E+05  7.665602E+05  2.631002E+03  1.087438E+05
     15443   1 -2.566823E+05  3.292133E+05  1.920060E+05  7.207277E+05  1.645343E+04  7.797024E+04
     15444   1 -2.512215E+05  3.224456E+05  2.098067E+05  7.469770E+05  5.337720E+03  2.281291E+03
     15445   1 -2.567520E+05  3.281279E+05  2.019117E+05  7.081251E+05  4.193254E+03 -8.511512E+04
     15446   1 -2.563299E+05  2.937857E+05  1.617883E+05  7.705407E+05  4.333732E+02 -1.094330E+05
     15447   1 -2.243679E+05  2.872537E+05  9.647455E+04  7.911418E+05  1.916586E+04 -4.567281E+05
     15448   1 -1.195419E+05  2.814701E+05  3.316273E+04  4.313480E+05  6.848191E+03 -5.113282E+05
     15449   1 -2.412025E+05  1.017494E+05  7.366854E+04  1.040079E+05 -1.197384E+05  1.915789E+05
     15450   1 -8.043081E+05  8.692531E+04  1.387638E+05  3.547309E+05 -1.225368E+05  1.790095E+05
     15451   1 -6.923540E+05  9.956949E+04  1.795137E+05  2.994551E+05  1.759832E+04  2.957142E+04
     15452   1 -6.851558E+05  1.106474E+05  2.233982E+05  2.849973E+05  1.101018E+04  2.889248E+04
     15453   1 -6.884325E+05  1.051065E+05  2.513383E+05  2.990286E+05  1.137832E+04  1.926366E+03
     15454   1 -6.817009E+05  1.119192E+05  2.404568E+05  2.800440E+05  3.205185E+04 -3.327356E+04
     15455   1 -7.169302E+05  9.452966E+04  2.248142E+05  3.037962E+05  5.221187E+02 -2.838179E+04
     15456   1 -7.565911E+05  9.067857E+04  1.604901E+05  3.337642E+05  1.347165E+05 -2.054196E+05
     15457   1 -3.512613E+05  9.934177E+04  5.061357E+04  1.542467E+05  1.862796E+05 -2.412582E+05
     15458   1  2.166275E+05  1.671579E+05 -3.147284E+04  2.061512E+05  1.060608E+04  3.988815E+04
     15459   1  9.749171E+04  1.219875E+05 -1.096716E+05  1.068853E+05  8.950191E+03  5.867331E+04
     15460   1  1.364186E+05  1.469122E+05 -1.953700E+05  1.357170E+05 -4.945085E+03  2.999459E+04
     15461   1  1.095523E+05  1.318358E+05 -2.361693E+05  1.133253E+05 -8.451935E+03 -1.854883E+03
     15462   1  1.474996E+05  1.495200E+05 -2.192157E+05  1.399229E+05 -9.620322E+03 -3.333033E+04
     15463   1  8.250112E+04  1.241902E+05 -1.369768E+05  9.454365E+04 -1.340488E+04 -7.298217E+04
     15464   1  2.458507E+05  1.764012E+05 -3.712235E+04  2.304611E+05 -2.056433E+04 -5.801533E+04
     15465   1  1.460773E+05 -2.559695E+05 -1.963521E+04  5.295600E+05  3.127751E+04  1.347034E+05
     15466   1  4.836760E+04 -3.623226E+05 -9.112812E+04  3.126952E+05  1.162130E+04  1.727185E+05
     15467   1  1.069747E+05 -3.260824E+05 -1.622884E+05  3.567690E+05 -6.800520E+03  8.092848E+04
     15468   1  7.194973E+04 -3.411803E+05 -1.930613E+05  3.217010E+05 -3.533495E+03 -4.007185E+03
     15469   1  1.027681E+05 -3.225406E+05 -1.773518E+05  3.625412E+05 -9.361463E+02 -8.705527E+04
     15470   1  6.394943E+04 -3.460710E+05 -1.135353E+05  2.903010E+05 -1.018353E+04 -1.992452E+05
     15471   1  1.216953E+05 -2.383859E+05 -3.378820E+04  5.615031E+05 -1.850501E+04 -1.700963E+05
     15472   1  6.279756E+04 -3.387777E+05 -1.339780E+04  7.062433E+05  4.956404E+03  2.028928E+05
     15473   1  1.589119E+04 -4.325574E+05 -5.995614E+04  4.264051E+05  2.582842E+02  2.658812E+05
     15474   1  4.499260E+04 -4.283709E+05 -1.185955E+05  4.865658E+05 -3.936046E+03  1.198296E+05
     15475   1  2.862612E+04 -4.297578E+05 -1.432576E+05  4.359311E+05 -5.370690E+02 -2.234023E+03
     15476   1  4.136765E+04 -4.231903E+05 -1.315361E+05  4.937927E+05 -2.205035E+03 -1.234440E+05
     15477   1  2.702572E+04 -4.112854E+05 -8.156154E+04  3.953769E+05  6.116343E+03 -2.848812E+05
     15478   1  5.046812E+04 -3.266639E+05 -2.400935E+04  7.240809E+05  8.466724E+03 -2.337378E+05
     15479   1  2.916731E+04 -2.476702E+05 -1.267534E+04  7.948122E+05 -2.493863E+03  2.293829E+05
     15480   1  2.488747E+04 -2.980416E+05 -4.212614E+04  4.768590E+05 -3.259990E+03  3.144314E+05
     15481   1  2.095442E+04 -3.117196E+05 -7.167911E+04  5.468801E+05 -2.532897E+03  1.497514E+05
     15482   1  2.480864E+04 -3.129772E+05 -8.781002E+04  4.911183E+05 -1.328490E+03  5.770743E+02
     15483   1  2.354403E+04 -3.056724E+05 -8.144205E+04  5.560116E+05  1.931959E+03 -1.467235E+05
     15484   1  2.405885E+04 -2.887690E+05 -5.423355E+04  4.355876E+05  7.729738E+03 -3.250319E+05
     15485   1  2.887171E+04 -2.460428E+05 -1.786615E+04  8.160662E+05  4.650610E+03 -2.607737E+05
     15486   1  8.241553E+03 -5.891936E+04 -1.221417E+04  8.420166E+05 -8.276667E+03  2.412290E+05
     15487   1  1.919364E+04 -7.335751E+04 -2.611610E+04  5.076773E+05 -9.686505E+02  3.326221E+05
     15488   1  4.515297E+03 -8.579522E+04 -3.812243E+04  5.825805E+05 -8.080562E+02  1.648837E+05
     15489   1  1.583745E+04 -8.220548E+04 -4.500838E+04  5.227878E+05 -1.023534E+03  2.729909E+03
     15490   1  9.165585E+03 -8.210173E+04 -4.346048E+04  5.909333E+05  1.151625E+03 -1.556959E+05
     15491   1  1.262346E+04 -7.682199E+04 -2.930939E+04  4.640320E+05  3.283418E+03 -3.440465E+05
     15492   1  1.447038E+04 -6.126723E+04 -9.525348E+03  8.687926E+05  3.981691E+03 -2.778612E+05
     15493   1  6.577050E+03  1.840921E+05 -6.824665E+02  8.619583E+05  9.531640E+02  2.448871E+05
     15494   1  3.828616E+02  1.903976E+05 -3.149385E+03  5.171235E+05  1.674244E+03  3.406662E+05
     15495   1  3.393820E+03  2.000268E+05 -5.621191E+03  5.995168E+05  4.932021E+02  1.706247E+05
     15496   1  1.198744E+03  2.009269E+05 -5.764070E+03  5.334033E+05 -2.611312E+02  3.063588E+03
     15497   1  3.358900E+03  1.975664E+05 -5.697659E+03  6.076562E+05 -1.073777E+03 -1.592977E+05
     15498   1  3.758050E+02  1.856740E+05 -3.266946E+03  4.724134E+05 -2.036807E+03 -3.554449E+05
     15499   1  7.037529E+03  1.778898E+05 -4.706450E+02  8.931204E+05 -1.296183E+03 -2.852271E+05
     15500   1  6.526474E+03  4.406115E+05  1.119566E+04  8.638527E+05  1.296327E+04  2.505179E+05
     15501   1 -1.474467E+04  4.702028E+05  2.277241E+04  5.179382E+05  4.628413E+03  3.437222E+05
     15502   1  3.075212E+03  5.006439E+05  3.350016E+04  5.966733E+05  2.562562E+03  1.697940E+05
     15503   1 -1.024454E+04  5.014007E+05  3.735598E+04  5.352470E+05  3.089617E+01  2.380816E+03
     15504   1 -2.978002E+02  4.931554E+05  3.723935E+04  6.050230E+05 -3.497643E+03 -1.629485E+05
     15505   1 -1.002294E+04  4.632544E+05  2.597493E+04  4.736565E+05 -8.073070E+03 -3.578953E+05
     15506   1  1.455657E+03  4.297071E+05  8.480655E+03  8.911964E+05 -9.487930E+03 -2.883051E+05
     15507   1 -1.424966E+04  6.729978E+05  1.622073E+04  8.392520E+05  4.588562E+03  2.432344E+05
     15508   1 -1.783068E+04  7.410765E+05  5.282902E+04  5.017163E+05  1.175021E+04  3.355499E+05
     15509   1 -1.354228E+04  7.777502E+05  8.172335E+04  5.801358E+05  4.767024E+03  1.620914E+05
     15510   1 -1.676941E+04  7.874794E+05  9.600952E+04  5.203542E+05  1.461164E+02 -3.448472E+02
     15511   1 -1.309624E+04  7.698277E+05  8.792466E+04  5.893758E+05 -5.415991E+03 -1.611440E+05
     15512   1 -2.257352E+04  7.220931E+05  6.032064E+04  4.579395E+05 -1.625511E+04 -3.532942E+05
     15513   1 -4.981778E+03  6.585670E+05  2.170299E+04  8.672144E+05 -1.098325E+04 -2.811808E+05
     15514   1 -2.573003E+04  8.435054E+05  2.726184E+04  7.762654E+05  1.953064E+04  2.257322E+05
     15515   1 -3.274765E+04  9.596709E+05  9.109649E+04  4.720738E+05  1.344538E+04  3.011307E+05
     15516   1 -1.864199E+04  1.000879E+06  1.598949E+05  5.429170E+05  4.120700E+03  1.329084E+05
     15517   1 -3.148394E+04  9.935573E+05  1.879880E+05  4.848446E+05  5.610510E+02 -3.713257E+03
     15518   1 -2.037824E+04  9.912988E+05  1.678263E+05  5.510605E+05 -2.447979E+03 -1.368295E+05
     15519   1 -3.333727E+04  9.383568E+05  1.012896E+05  4.355103E+05 -2.009925E+04 -3.278209E+05
     15520   1 -1.812378E+04  8.230921E+05  3.016363E+04  8.089216E+05 -2.582520E+04 -2.683559E+05
     15521   1 -4.398347E+04  9.271807E+05  5.782888E+04  6.853419E+05  3.693605E+03  1.719800E+05
     15522   1 -5.948497E+04  1.069715E+06  1.807123E+05  4.050827E+05  2.548455E+03  2.054143E+05
     15523   1 -3.842418E+04  1.069909E+06  2.830321E+05  4.670788E+05  7.935194E+03  8.595467E+04
     15524   1 -5.237782E+04  1.067914E+06  3.189317E+05  4.245217E+05  4.331662E+03 -4.126467E+03
     15525   1 -4.722210E+04  1.060497E+06  2.914774E+05  4.740139E+05 -6.742934E+03 -9.324473E+04
     15526   1 -4.878257E+04  1.059660E+06  1.886499E+05  3.788968E+05 -5.411197E+03 -2.352168E+05
     15527   1 -4.194679E+04  9.083764E+05  5.903219E+04  7.236456E+05  1.681335E+02 -2.120003E+05
     15528   1 -3.003886E+05  7.217665E+05  8.584262E+04  3.252700E+05  2.078798E+04  5.898361E+04
     15529   1 -1.948366E+05  7.924494E+05  2.491806E+05  1.662527E+05  1.589224E+04  7.030085E+04
     15530   1 -2.029921E+05  7.705636E+05  3.702058E+05  2.188775E+05  4.590690E+03  3.004880E+04
     15531   1 -1.915494E+05  7.847129E+05  4.117888E+05  1.832914E+05  8.402790E+03 -1.327822E+03
     15532   1 -2.211582E+05  7.658963E+05  3.875084E+05  2.233663E+05  3.491075E+03 -3.442915E+04
     15533   1 -1.662628E+05  7.924657E+05  2.617601E+05  1.537495E+05 -1.181321E+04 -8.506159E+04
     15534   1 -3.344087E+05  7.138524E+05  8.321389E+04  3.476219E+05 -4.002909E+03 -7.591281E+04

 strains (elem, integ.pnt.,exx,eyy,ezz,exy,exz,eyz) for set ALL and time  0.1000000E+01

         1   1  5.977932E-04 -1.505734E-04 -1.364536E-04  6.708160E-05  1.468664E-04  4.332406E-07
         2   1  4.868007E-04 -1.528458E-04 -3.903142E-05  9.057024E-05  1.414215E-04 -9.877952E-07
         3   1  5.029292E-04 -1.565445E-04 -3.935615E-05  1.013189E-04  8.349060E-05 -1.759491E-06
         4   1  5.011742E-04 -1.605556E-04 -2.862891E-05  1.084871E-04  5.929338E-05 -9.724501E-07
         5   1  5.090178E-04 -1.629870E-04 -2.761231E-05  1.120957E-04  2.617680E-05 -6.078224E-07
         6   1  5.079437E-04 -1.637137E-04 -2.581543E-05  1.133506E-04 -5.736018E-14  1.161303E-15
         7   1  5.090178E-04 -1.629870E-04 -2.761231E-05  1.120957E-04 -2.617680E-05  6.078224E-07
         8   1  5.011742E-04 -1.605556E-04 -2.862891E-05  1.084871E-04 -5.929338E-05  9.724501E-07
         9   1  5.029292E-04 -1.565445E-04 -3.935615E-05  1.013189E-04 -8.349060E-05  1.759491E-06
        10   1  4.868007E-04 -1.528458E-04 -3.903142E-05  9.057025E-05 -1.414215E-04  9.877952E-07
        11   1  5.977932E-04 -1.505734E-04 -1.364536E-04  6.708160E-05 -1.468664E-04 -4.332406E-07
        12   1  4.331222E-04 -5.126543E-05 -1.198419E-04  7.952523E-06  1.197680E-04 -8.498018E-07
        13   1  3.280564E-04 -5.089115E-05 -3.320762E-05  4.473629E-05  1.112901E-04 -1.479719E-06
        14   1  3.297052E-04 -5.152467E-05 -3.139289E-05  6.192859E-05  6.430028E-05 -2.673999E-06
        15   1  3.206807E-04 -5.061746E-05 -2.303460E-05  7.197085E-05  4.643944E-05 -2.158423E-06
        16   1  3.231956E-04 -5.071150E-05 -2.212809E-05  7.696848E-05  2.027492E-05 -1.082208E-06
        17   1  3.208699E-04 -5.060909E-05 -2.074747E-05  7.867386E-05 -4.384358E-14  2.657786E-15
        18   1  3.231956E-04 -5.071150E-05 -2.212809E-05  7.696848E-05 -2.027492E-05  1.082208E-06
        19   1  3.206807E-04 -5.061746E-05 -2.303460E-05  7.197085E-05 -4.643944E-05  2.158423E-06
        20   1  3.297052E-04 -5.152467E-05 -3.139289E-05  6.192859E-05 -6.430028E-05  2.673999E-06
        21   1  3.280564E-04 -5.089115E-05 -3.320762E-05  4.473629E-05 -1.112901E-04  1.479719E-06
        22   1  4.331222E-04 -5.126543E-05 -1.198419E-04  7.952523E-06 -1.197680E-04  8.498018E-07
        23   1  3.265021E-04 -3.577264E-05 -9.160542E-05 -4.833131E-05  9.348562E-05 -2.536384E-06
        24   1  2.485617E-04 -3.496959E-05 -2.724888E-05 -1.460379E-05  8.642505E-05 -2.895592E-06
        25   1  2.506250E-04 -3.625325E-05 -2.450246E-05  4.673149E-07  4.818464E-05 -2.082449E-06
        26   1  2.429491E-04 -3.698078E-05 -1.717904E-05  1.048242E-05  3.483902E-05 -2.092424E-06
        27   1  2.446187E-04 -3.691656E-05 -1.671693E-05  1.505510E-05  1.506871E-05 -1.058028E-06
        28   1  2.426313E-04 -3.709656E-05 -1.540798E-05  1.675393E-05 -3.273353E-14  1.319529E-15
        29   1  2.446187E-04 -3.691656E-05 -1.671693E-05  1.505510E-05 -1.506871E-05  1.058028E-06
        30   1  2.429491E-04 -3.698078E-05 -1.717904E-05  1.048242E-05 -3.483902E-05  2.092424E-06
        31   1  2.506250E-04 -3.625325E-05 -2.450246E-05  4.673149E-07 -4.818464E-05  2.082449E-06
        32   1  2.485617E-04 -3.496959E-05 -2.724888E-05 -1.460379E-05 -8.642505E-05  2.895592E-06
        33   1  3.265021E-04 -3.577264E-05 -9.160541E-05 -4.833131E-05 -9.348562E-05  2.536384E-06
        34   1  2.130983E-04 -1.838560E-05 -6.148967E-05 -6.603755E-05  6.281763E-05 -2.556198E-06
        35   1  1.593576E-04 -1.766747E-05 -1.822083E-05 -2.936734E-05  5.868867E-05 -4.218186E-06
        36   1  1.605412E-04 -1.761676E-05 -1.716494E-05 -1.439720E-05  3.273161E-05 -3.072219E-06
        37   1  1.550523E-04 -1.807151E-05 -1.170119E-05 -4.436988E-06  2.322652E-05 -2.030222E-06
        38   1  1.558394E-04 -1.830016E-05 -1.111084E-05  4.448111E-07  1.003047E-05 -1.132957E-06
        39   1  1.544428E-04 -1.822726E-05 -1.034661E-05  2.184205E-06 -2.129404E-14  1.725213E-15
        40   1  1.558394E-04 -1.830016E-05 -1.111084E-05  4.448111E-07 -1.003047E-05  1.132957E-06
        41   1  1.550523E-04 -1.807151E-05 -1.170119E-05 -4.436988E-06 -2.322652E-05  2.030222E-06
        42   1  1.605412E-04 -1.761676E-05 -1.716494E-05 -1.439720E-05 -3.273161E-05  3.072219E-06
        43   1  1.593576E-04 -1.766747E-05 -1.822083E-05 -2.936734E-05 -5.868867E-05  4.218186E-06
        44   1  2.130983E-04 -1.838560E-05 -6.148967E-05 -6.603755E-05 -6.281763E-05  2.556198E-06
        45   1  1.071486E-04 -9.137743E-06 -3.097720E-05 -8.544500E-05  3.181048E-05 -2.897062E-06
        46   1  8.036963E-05 -8.846624E-06 -9.212810E-06 -4.907128E-05  2.964529E-05 -4.296851E-06
        47   1  8.105419E-05 -8.977093E-06 -8.581926E-06 -3.446617E-05  1.654986E-05 -3.563612E-06
        48   1  7.832588E-05 -9.109709E-06 -6.005201E-06 -2.504917E-05  1.174793E-05 -2.377602E-06
        49   1  7.873614E-05 -9.258165E-06 -5.609179E-06 -2.049433E-05  5.018397E-06 -1.136470E-06
        50   1  7.801893E-05 -9.344853E-06 -5.144827E-06 -1.881178E-05 -1.073228E-14  1.426164E-15
        51   1  7.873614E-05 -9.258165E-06 -5.609179E-06 -2.049433E-05 -5.018397E-06  1.136470E-06
        52   1  7.832588E-05 -9.109709E-06 -6.005201E-06 -2.504917E-05 -1.174793E-05  2.377602E-06
        53   1  8.105419E-05 -8.977093E-06 -8.581926E-06 -3.446617E-05 -1.654986E-05  3.563612E-06
        54   1  8.036963E-05 -8.846624E-06 -9.212810E-06 -4.907128E-05 -2.964529E-05  4.296851E-06
        55   1  1.071486E-04 -9.137743E-06 -3.097720E-05 -8.544500E-05 -3.181048E-05  2.897062E-06
        56   1  1.175844E-13 -1.009381E-14 -3.467668E-14 -8.496757E-05  3.431964E-14 -2.772664E-06
        57   1  8.740404E-14 -9.425003E-15 -9.995127E-15 -4.773853E-05  3.290049E-14 -4.665409E-06
        58   1  8.857819E-14 -9.667705E-15 -9.611674E-15 -3.296628E-05  1.785760E-14 -3.607371E-06
        59   1  8.541175E-14 -9.985721E-15 -6.344497E-15 -2.338217E-05  1.294873E-14 -2.476408E-06
        60   1  8.599122E-14 -9.982229E-15 -6.326548E-15 -1.877990E-05  5.416934E-15 -1.208473E-06
        61   1  8.508070E-14 -1.023924E-14 -5.423267E-15 -1.707179E-05 -6.691931E-18  1.457711E-15
        62   1  8.597275E-14 -9.980802E-15 -6.324154E-15 -1.877990E-05 -5.430384E-15  1.208473E-06
        63   1  8.537545E-14 -9.983475E-15 -6.339624E-15 -2.338217E-05 -1.295697E-14  2.476408E-06
        64   1  8.852210E-14 -9.664036E-15 -9.602604E-15 -3.296628E-05 -1.786141E-14  3.607371E-06
        65   1  8.733097E-14 -9.419941E-15 -9.982573E-15 -4.773853E-05 -3.288957E-14  4.665409E-06
        66   1  1.174749E-13 -1.008772E-14 -3.464135E-14 -8.496757E-05 -3.429845E-14  2.772664E-06
        67   1 -1.071486E-04  9.137743E-06  3.097720E-05 -8.544500E-05 -3.181048E-05 -2.897062E-06
        68   1 -8.036963E-05  8.846624E-06  9.212810E-06 -4.907128E-05 -2.964529E-05 -4.296851E-06
        69   1 -8.105419E-05  8.977093E-06  8.581926E-06 -3.446617E-05 -1.654986E-05 -3.563612E-06
        70   1 -7.832588E-05  9.109709E-06  6.005201E-06 -2.504917E-05 -1.174793E-05 -2.377602E-06
        71   1 -7.873614E-05  9.258165E-06  5.609179E-06 -2.049433E-05 -5.018397E-06 -1.136470E-06
        72   1 -7.801893E-05  9.344853E-06  5.144827E-06 -1.881178E-05  1.071849E-14  1.426422E-15
        73   1 -7.873614E-05  9.258165E-06  5.609179E-06 -2.049433E-05  5.018397E-06  1.136470E-06
        74   1 -7.832588E-05  9.109709E-06  6.005201E-06 -2.504917E-05  1.174793E-05  2.377602E-06
        75   1 -8.105419E-05  8.977093E-06  8.581926E-06 -3.446617E-05  1.654986E-05  3.563612E-06
        76   1 -8.036963E-05  8.846624E-06  9.212810E-06 -4.907128E-05  2.964529E-05  4.296851E-06
        77   1 -1.071486E-04  9.137743E-06  3.097720E-05 -8.544500E-05  3.181048E-05  2.897062E-06
        78   1 -2.130983E-04  1.838560E-05  6.148967E-05 -6.603755E-05 -6.281763E-05 -2.556198E-06
        79   1 -1.593576E-04  1.766747E-05  1.822083E-05 -2.936734E-05 -5.868867E-05 -4.218186E-06
        80   1 -1.605411E-04  1.761676E-05  1.716494E-05 -1.439720E-05 -3.273161E-05 -3.072219E-06
        81   1 -1.550523E-04  1.807151E-05  1.170119E-05 -4.436988E-06 -2.322652E-05 -2.030222E-06
        82   1 -1.558394E-04  1.830016E-05  1.111084E-05  4.448110E-07 -1.003047E-05 -1.132957E-06
        83   1 -1.544428E-04  1.822726E-05  1.034661E-05  2.184205E-06  2.127898E-14  1.725618E-15
        84   1 -1.558394E-04  1.830016E-05  1.111084E-05  4.448110E-07  1.003047E-05  1.132957E-06
        85   1 -1.550523E-04  1.807151E-05  1.170119E-05 -4.436988E-06  2.322652E-05  2.030222E-06
        86   1 -1.605412E-04  1.761676E-05  1.716494E-05 -1.439720E-05  3.273161E-05  3.072219E-06
        87   1 -1.593576E-04  1.766747E-05  1.822083E-05 -2.936734E-05  5.868867E-05  4.218186E-06
        88   1 -2.130983E-04  1.838560E-05  6.148967E-05 -6.603755E-05  6.281763E-05  2.556198E-06
        89   1 -3.265021E-04  3.577264E-05  9.160542E-05 -4.833131E-05 -9.348562E-05 -2.536384E-06
        90   1 -2.485617E-04  3.496959E-05  2.724888E-05 -1.460379E-05 -8.642505E-05 -2.895592E-06
        91   1 -2.506250E-04  3.625325E-05  2.450246E-05  4.673148E-07 -4.818464E-05 -2.082449E-06
        92   1 -2.429491E-04  3.698078E-05  1.717904E-05  1.048242E-05 -3.483902E-05 -2.092424E-06
        93   1 -2.446187E-04  3.691656E-05  1.671693E-05  1.505510E-05 -1.506871E-05 -1.058028E-06
        94   1 -2.426313E-04  3.709656E-05  1.540798E-05  1.675393E-05  3.271592E-14  1.320200E-15
        95   1 -2.446187E-04  3.691656E-05  1.671693E-05  1.505510E-05  1.506871E-05  1.058028E-06
        96   1 -2.429491E-04  3.698078E-05  1.717904E-05  1.048242E-05  3.483902E-05  2.092424E-06
        97   1 -2.506250E-04  3.625325E-05  2.450246E-05  4.673149E-07  4.818464E-05  2.082449E-06
        98   1 -2.485617E-04  3.496959E-05  2.724888E-05 -1.460379E-05  8.642505E-05  2.895592E-06
        99   1 -3.265021E-04  3.577264E-05  9.160541E-05 -4.833131E-05  9.348561E-05  2.536384E-06
       100   1 -4.331222E-04  5.126543E-05  1.198419E-04  7.952523E-06 -1.197680E-04 -8.498018E-07
       101   1 -3.280564E-04  5.089115E-05  3.320762E-05  4.473629E-05 -1.112901E-04 -1.479719E-06
       102   1 -3.297052E-04  5.152467E-05  3.139289E-05  6.192859E-05 -6.430028E-05 -2.673999E-06
       103   1 -3.206807E-04  5.061746E-05  2.303460E-05  7.197085E-05 -4.643944E-05 -2.158423E-06
       104   1 -3.231956E-04  5.071150E-05  2.212809E-05  7.696848E-05 -2.027492E-05 -1.082208E-06
       105   1 -3.208699E-04  5.060909E-05  2.074747E-05  7.867386E-05  4.382246E-14  2.658864E-15
       106   1 -3.231956E-04  5.071150E-05  2.212809E-05  7.696848E-05  2.027492E-05  1.082208E-06
       107   1 -3.206807E-04  5.061746E-05  2.303460E-05  7.197085E-05  4.643944E-05  2.158423E-06
       108   1 -3.297052E-04  5.152467E-05  3.139289E-05  6.192859E-05  6.430028E-05  2.673999E-06
       109   1 -3.280564E-04  5.089115E-05  3.320762E-05  4.473629E-05  1.112901E-04  1.479719E-06
       110   1 -4.331222E-04  5.126543E-05  1.198419E-04  7.952523E-06  1.197680E-04  8.498018E-07
       111   1 -5.977932E-04  1.505734E-04  1.364536E-04  6.708160E-05 -1.468664E-04  4.332406E-07
       112   1 -4.868007E-04  1.528458E-04  3.903142E-05  9.057024E-05 -1.414215E-04 -9.877952E-07
       113   1 -5.029292E-04  1.565445E-04  3.935615E-05  1.013189E-04 -8.349060E-05 -1.759491E-06
       114   1 -5.011742E-04  1.605556E-04  2.862891E-05  1.084871E-04 -5.929338E-05 -9.724501E-07
       115   1 -5.090178E-04  1.629870E-04  2.761231E-05  1.120957E-04 -2.617680E-05 -6.078224E-07
       116   1 -5.079437E-04  1.637137E-04  2.581543E-05  1.133506E-04  5.733032E-14  1.162251E-15
       117   1 -5.090178E-04  1.629870E-04  2.761231E-05  1.120957E-04  2.617680E-05  6.078224E-07
       118   1 -5.011742E-04  1.605556E-04  2.862891E-05  1.084871E-04  5.929338E-05  9.724501E-07
       119   1 -5.029292E-04  1.565445E-04  3.935615E-05  1.013189E-04  8.349060E-05  1.759491E-06
       120   1 -4.868007E-04  1.528458E-04  3.903142E-05  9.057025E-05  1.414215E-04  9.877952E-07
       121   1 -5.977932E-04  1.505734E-04  1.364536E-04  6.708160E-05  1.468664E-04 -4.332406E-07
       122   1  5.525267E-04 -2.055081E-04 -1.879369E-04 -3.166533E-05  1.658894E-05  2.134948E-06
       123   1  5.754188E-04 -2.202813E-04 -1.482334E-04 -1.348685E-05  9.788510E-05  2.737975E-07
       124   1  5.233895E-04 -2.280355E-04 -9.320565E-05 -6.962515E-06  7.131712E-05 -2.569876E-06
       125   1  5.334314E-04 -2.327889E-04 -8.760598E-05 -2.966684E-06  4.628443E-05 -1.627034E-06
       126   1  5.227552E-04 -2.364579E-04 -7.400907E-05 -1.224640E-06  2.356973E-05 -1.040146E-06
       127   1  5.292607E-04 -2.372774E-04 -7.562873E-05 -5.521925E-07 -5.414540E-14  1.915451E-15
       128   1  5.227552E-04 -2.364579E-04 -7.400907E-05 -1.224640E-06 -2.356973E-05  1.040146E-06
       129   1  5.334314E-04 -2.327889E-04 -8.760598E-05 -2.966684E-06 -4.628443E-05  1.627034E-06
       130   1  5.233895E-04 -2.280355E-04 -9.320565E-05 -6.962515E-06 -7.131712E-05  2.569877E-06
       131   1  5.754188E-04 -2.202813E-04 -1.482334E-04 -1.348685E-05 -9.788510E-05 -2.737974E-07
       132   1  5.525267E-04 -2.055081E-04 -1.879369E-04 -3.166533E-05 -1.658894E-05 -2.134948E-06
       133   1  4.709669E-04 -1.526659E-04 -1.618499E-04 -1.571619E-07  6.009939E-06 -1.242852E-06
       134   1  4.911256E-04 -1.556775E-04 -1.246458E-04  3.078045E-05  7.216594E-05 -3.236177E-06
       135   1  4.448704E-04 -1.619362E-04 -7.481529E-05  4.756162E-05  5.418920E-05 -4.626038E-06
       136   1  4.525989E-04 -1.642034E-04 -7.102109E-05  5.719062E-05  3.486365E-05 -4.377196E-06
       137   1  4.424314E-04 -1.656868E-04 -5.972605E-05  6.259744E-05  1.807914E-05 -2.211223E-06
       138   1  4.479404E-04 -1.662678E-04 -6.132578E-05  6.404469E-05 -4.121517E-14  4.234172E-15
       139   1  4.424314E-04 -1.656868E-04 -5.972605E-05  6.259744E-05 -1.807914E-05  2.211223E-06
       140   1  4.525989E-04 -1.642034E-04 -7.102109E-05  5.719062E-05 -3.486365E-05  4.377196E-06
       141   1  4.448704E-04 -1.619362E-04 -7.481529E-05  4.756162E-05 -5.418920E-05  4.626038E-06
       142   1  4.911256E-04 -1.556775E-04 -1.246458E-04  3.078045E-05 -7.216594E-05  3.236177E-06
       143   1  4.709669E-04 -1.526659E-04 -1.618499E-04 -1.571618E-07 -6.009939E-06  1.242852E-06
       144   1  3.242504E-04 -8.318806E-05 -1.253801E-04 -1.432976E-05  6.440182E-06 -5.946086E-06
       145   1  3.365914E-04 -8.103272E-05 -9.857176E-05  1.390549E-05  5.544568E-05 -8.648059E-06
       146   1  2.969871E-04 -8.346114E-05 -5.840597E-05  3.066170E-05  4.061202E-05 -5.993065E-06
       147   1  3.007176E-04 -8.513364E-05 -5.381700E-05  3.987744E-05  2.620640E-05 -5.107281E-06
       148   1  2.914277E-04 -8.552603E-05 -4.511544E-05  4.532860E-05  1.344722E-05 -2.704787E-06
       149   1  2.952385E-04 -8.571643E-05 -4.619299E-05  4.685598E-05 -3.044205E-14  4.026691E-15
       150   1  2.914277E-04 -8.552603E-05 -4.511544E-05  4.532860E-05 -1.344722E-05  2.704787E-06
       151   1  3.007176E-04 -8.513364E-05 -5.381700E-05  3.987744E-05 -2.620640E-05  5.107281E-06
       152   1  2.969871E-04 -8.346114E-05 -5.840597E-05  3.066170E-05 -4.061202E-05  5.993065E-06
       153   1  3.365914E-04 -8.103272E-05 -9.857176E-05  1.390549E-05 -5.544568E-05  8.648059E-06
       154   1  3.242504E-04 -8.318806E-05 -1.253801E-04 -1.432976E-05 -6.440182E-06  5.946086E-06
       155   1  2.189987E-04 -5.420751E-05 -8.435173E-05 -3.163705E-05  4.406598E-06 -6.684104E-06
       156   1  2.289330E-04 -5.323017E-05 -6.670062E-05 -2.479916E-06  3.773084E-05 -1.148324E-05
       157   1  2.026680E-04 -5.403473E-05 -4.038315E-05  1.354145E-05  2.725940E-05 -8.282360E-06
       158   1  2.050178E-04 -5.547068E-05 -3.664286E-05  2.279603E-05  1.756285E-05 -5.691235E-06
       159   1  1.988085E-04 -5.625999E-05 -3.019660E-05  2.793247E-05  9.001174E-06 -2.941268E-06
       160   1  2.013300E-04 -5.638206E-05 -3.099222E-05  2.947965E-05 -2.027908E-14  4.168998E-15
       161   1  1.988085E-04 -5.625999E-05 -3.019660E-05  2.793247E-05 -9.001175E-06  2.941268E-06
       162   1  2.050178E-04 -5.547068E-05 -3.664286E-05  2.279603E-05 -1.756285E-05  5.691235E-06
       163   1  2.026680E-04 -5.403473E-05 -4.038315E-05  1.354145E-05 -2.725940E-05  8.282360E-06
       164   1  2.289330E-04 -5.323017E-05 -6.670062E-05 -2.479916E-06 -3.773084E-05  1.148324E-05
       165   1  2.189987E-04 -5.420751E-05 -8.435173E-05 -3.163705E-05 -4.406598E-06  6.684104E-06
       166   1  1.056162E-04 -2.357512E-05 -4.248909E-05 -3.684844E-05  2.405092E-06 -7.513840E-06
       167   1  1.100858E-04 -2.268986E-05 -3.364907E-05 -7.413021E-06  1.910917E-05 -1.274468E-05
       168   1  9.660073E-05 -2.289714E-05 -2.040155E-05  8.634476E-06  1.378168E-05 -9.603919E-06
       169   1  9.761203E-05 -2.332160E-05 -1.861427E-05  1.772998E-05  8.793129E-06 -6.589729E-06
       170   1  9.430439E-05 -2.370553E-05 -1.524912E-05  2.296159E-05  4.522680E-06 -3.160496E-06
       171   1  9.554212E-05 -2.386326E-05 -1.550095E-05  2.440486E-05 -9.982781E-15  4.042652E-15
       172   1  9.430439E-05 -2.370553E-05 -1.524912E-05  2.296159E-05 -4.522680E-06  3.160496E-06
       173   1  9.761203E-05 -2.332160E-05 -1.861427E-05  1.772998E-05 -8.793130E-06  6.589729E-06
       174   1  9.660073E-05 -2.289714E-05 -2.040155E-05  8.634476E-06 -1.378168E-05  9.603919E-06
       175   1  1.100858E-04 -2.268986E-05 -3.364907E-05 -7.413021E-06 -1.910917E-05  1.274468E-05
       176   1  1.056162E-04 -2.357512E-05 -4.248909E-05 -3.684844E-05 -2.405092E-06  7.513840E-06
       177   1  1.154245E-13 -2.589966E-14 -4.648033E-14 -4.297069E-05  2.315305E-15 -7.506080E-06
       178   1  1.211218E-13 -2.457727E-14 -3.784110E-14 -1.342510E-05  2.072933E-14 -1.312104E-05
       179   1  1.055236E-13 -2.509843E-14 -2.187288E-14  2.363934E-06  1.528303E-14 -9.967117E-06
       180   1  1.072082E-13 -2.571197E-14 -2.063158E-14  1.132742E-05  9.483953E-15 -6.850358E-06
       181   1  1.031507E-13 -2.598536E-14 -1.643659E-14  1.638036E-05  4.998681E-15 -3.315690E-06
       182   1  1.048848E-13 -2.633008E-14 -1.712205E-14  1.787017E-05 -2.737928E-18  4.134092E-15
       183   1  1.031279E-13 -2.598205E-14 -1.643041E-14  1.638036E-05 -5.002547E-15  3.315690E-06
       184   1  1.071606E-13 -2.570473E-14 -2.061741E-14  1.132742E-05 -9.486289E-15  6.850358E-06
       185   1  1.054540E-13 -2.508765E-14 -2.185157E-14  2.363934E-06 -1.528059E-14  9.967117E-06
       186   1  1.210193E-13 -2.456305E-14 -3.780246E-14 -1.342510E-05 -2.072227E-14  1.312104E-05
       187   1  1.153057E-13 -2.588180E-14 -4.642766E-14 -4.297069E-05 -2.317979E-15  7.506080E-06
       188   1 -1.056162E-04  2.357512E-05  4.248909E-05 -3.684844E-05 -2.405092E-06 -7.513840E-06
       189   1 -1.100858E-04  2.268986E-05  3.364907E-05 -7.413021E-06 -1.910917E-05 -1.274468E-05
       190   1 -9.660073E-05  2.289714E-05  2.040155E-05  8.634476E-06 -1.378168E-05 -9.603919E-06
       191   1 -9.761203E-05  2.332160E-05  1.861427E-05  1.772998E-05 -8.793129E-06 -6.589729E-06
       192   1 -9.430439E-05  2.370553E-05  1.524912E-05  2.296159E-05 -4.522680E-06 -3.160496E-06
       193   1 -9.554212E-05  2.386326E-05  1.550095E-05  2.440486E-05  9.976952E-15  4.043312E-15
       194   1 -9.430439E-05  2.370553E-05  1.524912E-05  2.296159E-05  4.522680E-06  3.160496E-06
       195   1 -9.761203E-05  2.332160E-05  1.861427E-05  1.772998E-05  8.793129E-06  6.589729E-06
       196   1 -9.660073E-05  2.289714E-05  2.040155E-05  8.634476E-06  1.378168E-05  9.603919E-06
       197   1 -1.100858E-04  2.268986E-05  3.364907E-05 -7.413021E-06  1.910917E-05  1.274468E-05
       198   1 -1.056162E-04  2.357512E-05  4.248909E-05 -3.684844E-05  2.405092E-06  7.513840E-06
       199   1 -2.189987E-04  5.420751E-05  8.435173E-05 -3.163705E-05 -4.406598E-06 -6.684104E-06
       200   1 -2.289330E-04  5.323017E-05  6.670062E-05 -2.479916E-06 -3.773084E-05 -1.148324E-05
       201   1 -2.026680E-04  5.403473E-05  4.038315E-05  1.354145E-05 -2.725940E-05 -8.282360E-06
       202   1 -2.050178E-04  5.547068E-05  3.664286E-05  2.279603E-05 -1.756285E-05 -5.691235E-06
       203   1 -1.988085E-04  5.625999E-05  3.019660E-05  2.793247E-05 -9.001174E-06 -2.941268E-06
       204   1 -2.013300E-04  5.638206E-05  3.099222E-05  2.947965E-05  2.027178E-14  4.170393E-15
       205   1 -1.988085E-04  5.625999E-05  3.019660E-05  2.793247E-05  9.001175E-06  2.941268E-06
       206   1 -2.050178E-04  5.547068E-05  3.664286E-05  2.279603E-05  1.756285E-05  5.691235E-06
       207   1 -2.026680E-04  5.403473E-05  4.038315E-05  1.354145E-05  2.725940E-05  8.282360E-06
       208   1 -2.289330E-04  5.323017E-05  6.670062E-05 -2.479916E-06  3.773084E-05  1.148324E-05
       209   1 -2.189987E-04  5.420751E-05  8.435173E-05 -3.163705E-05  4.406598E-06  6.684104E-06
       210   1 -3.242504E-04  8.318806E-05  1.253801E-04 -1.432976E-05 -6.440182E-06 -5.946086E-06
       211   1 -3.365914E-04  8.103272E-05  9.857176E-05  1.390549E-05 -5.544568E-05 -8.648059E-06
       212   1 -2.969871E-04  8.346114E-05  5.840597E-05  3.066170E-05 -4.061202E-05 -5.993065E-06
       213   1 -3.007176E-04  8.513364E-05  5.381700E-05  3.987744E-05 -2.620640E-05 -5.107281E-06
       214   1 -2.914277E-04  8.552603E-05  4.511544E-05  4.532860E-05 -1.344722E-05 -2.704787E-06
       215   1 -2.952385E-04  8.571643E-05  4.619299E-05  4.685598E-05  3.043271E-14  4.028949E-15
       216   1 -2.914277E-04  8.552603E-05  4.511544E-05  4.532860E-05  1.344722E-05  2.704787E-06
       217   1 -3.007176E-04  8.513364E-05  5.381700E-05  3.987744E-05  2.620640E-05  5.107281E-06
       218   1 -2.969871E-04  8.346114E-05  5.840597E-05  3.066170E-05  4.061202E-05  5.993065E-06
       219   1 -3.365914E-04  8.103272E-05  9.857176E-05  1.390549E-05  5.544568E-05  8.648059E-06
       220   1 -3.242504E-04  8.318806E-05  1.253801E-04 -1.432976E-05  6.440182E-06  5.946086E-06
       221   1 -4.709669E-04  1.526659E-04  1.618499E-04 -1.571618E-07 -6.009939E-06 -1.242852E-06
       222   1 -4.911256E-04  1.556775E-04  1.246458E-04  3.078045E-05 -7.216594E-05 -3.236177E-06
       223   1 -4.448704E-04  1.619362E-04  7.481529E-05  4.756162E-05 -5.418920E-05 -4.626038E-06
       224   1 -4.525989E-04  1.642034E-04  7.102109E-05  5.719062E-05 -3.486365E-05 -4.377196E-06
       225   1 -4.424314E-04  1.656868E-04  5.972605E-05  6.259744E-05 -1.807914E-05 -2.211223E-06
       226   1 -4.479404E-04  1.662678E-04  6.132578E-05  6.404469E-05  4.120187E-14  4.237058E-15
       227   1 -4.424314E-04  1.656868E-04  5.972605E-05  6.259744E-05  1.807914E-05  2.211223E-06
       228   1 -4.525989E-04  1.642034E-04  7.102109E-05  5.719062E-05  3.486365E-05  4.377196E-06
       229   1 -4.448704E-04  1.619362E-04  7.481529E-05  4.756162E-05  5.418920E-05  4.626038E-06
       230   1 -4.911256E-04  1.556775E-04  1.246458E-04  3.078045E-05  7.216594E-05  3.236177E-06
       231   1 -4.709669E-04  1.526659E-04  1.618499E-04 -1.571618E-07  6.009939E-06  1.242852E-06
       232   1 -5.525267E-04  2.055081E-04  1.879369E-04 -3.166533E-05 -1.658894E-05  2.134948E-06
       233   1 -5.754188E-04  2.202813E-04  1.482334E-04 -1.348685E-05 -9.788510E-05  2.737975E-07
       234   1 -5.233895E-04  2.280355E-04  9.320565E-05 -6.962515E-06 -7.131712E-05 -2.569876E-06
       235   1 -5.334314E-04  2.327889E-04  8.760598E-05 -2.966684E-06 -4.628443E-05 -1.627034E-06
       236   1 -5.227552E-04  2.364579E-04  7.400907E-05 -1.224640E-06 -2.356973E-05 -1.040146E-06
       237   1 -5.292607E-04  2.372774E-04  7.562873E-05 -5.521925E-07  5.412499E-14  1.916974E-15
       238   1 -5.227552E-04  2.364579E-04  7.400907E-05 -1.224640E-06  2.356973E-05  1.040146E-06
       239   1 -5.334314E-04  2.327889E-04  8.760598E-05 -2.966684E-06  4.628443E-05  1.627034E-06
       240   1 -5.233895E-04  2.280355E-04  9.320565E-05 -6.962515E-06  7.131712E-05  2.569877E-06
       241   1 -5.754188E-04  2.202813E-04  1.482334E-04 -1.348685E-05  9.788510E-05 -2.737974E-07
       242   1 -5.525267E-04  2.055081E-04  1.879369E-04 -3.166533E-05  1.658894E-05 -2.134948E-06
       243   1  5.203215E-04 -1.668477E-04 -1.598816E-04 -7.614123E-06  1.761535E-05  6.295528E-07
       244   1  5.508450E-04 -1.802725E-04 -1.743184E-04 -9.703516E-07  2.312402E-05  9.902289E-07
       245   1  5.548519E-04 -1.893801E-04 -1.493048E-04  2.388279E-06  5.138184E-05 -1.053638E-06
       246   1  5.307466E-04 -1.939174E-04 -1.219982E-04  5.652116E-06  3.167045E-05 -1.532684E-06
       247   1  5.367933E-04 -1.965415E-04 -1.177354E-04  6.898939E-06  1.802059E-05 -7.798656E-07
       248   1  5.269647E-04 -1.975129E-04 -1.096919E-04  7.540488E-06 -4.856054E-14  1.242545E-15
       249   1  5.367933E-04 -1.965415E-04 -1.177354E-04  6.898939E-06 -1.802059E-05  7.798656E-07
       250   1  5.307466E-04 -1.939174E-04 -1.219982E-04  5.652116E-06 -3.167045E-05  1.532684E-06
       251   1  5.548519E-04 -1.893801E-04 -1.493048E-04  2.388279E-06 -5.138184E-05  1.053638E-06
       252   1  5.508450E-04 -1.802725E-04 -1.743184E-04 -9.703515E-07 -2.312402E-05 -9.902289E-07
       253   1  5.203215E-04 -1.668477E-04 -1.598816E-04 -7.614123E-06 -1.761535E-05 -6.295528E-07
       254   1  4.291285E-04 -1.564128E-04 -1.275340E-04 -3.461249E-05  7.335004E-06 -6.982658E-07
       255   1  4.594754E-04 -1.639493E-04 -1.432099E-04 -1.416504E-05  8.860075E-06 -2.957104E-06
       256   1  4.672940E-04 -1.726655E-04 -1.215766E-04 -3.154395E-06  3.691304E-05 -4.257972E-06
       257   1  4.477877E-04 -1.777298E-04 -9.851713E-05  3.265181E-06  2.233736E-05 -3.978921E-06
       258   1  4.539939E-04 -1.800712E-04 -9.585170E-05  6.971263E-06  1.317497E-05 -2.323192E-06
       259   1  4.455155E-04 -1.809752E-04 -8.896263E-05  8.049110E-06 -3.613855E-14  3.463440E-15
       260   1  4.539939E-04 -1.800712E-04 -9.585170E-05  6.971263E-06 -1.317497E-05  2.323192E-06
       261   1  4.477877E-04 -1.777298E-04 -9.851713E-05  3.265181E-06 -2.233736E-05  3.978921E-06
       262   1  4.672940E-04 -1.726655E-04 -1.215766E-04 -3.154395E-06 -3.691304E-05  4.257972E-06
       263   1  4.594754E-04 -1.639493E-04 -1.432099E-04 -1.416504E-05 -8.860076E-06  2.957104E-06
       264   1  4.291285E-04 -1.564128E-04 -1.275340E-04 -3.461249E-05 -7.335004E-06  6.982658E-07
       265   1  3.350882E-04 -1.188096E-04 -9.801727E-05 -1.023394E-05  3.750987E-06 -4.817274E-06
       266   1  3.570089E-04 -1.183209E-04 -1.111468E-04  1.231510E-05  3.809346E-06 -9.978098E-06
       267   1  3.614236E-04 -1.225394E-04 -9.405912E-05  2.890835E-05  2.619515E-05 -8.441454E-06
       268   1  3.458814E-04 -1.259794E-04 -7.525499E-05  3.777154E-05  1.593439E-05 -6.017798E-06
       269   1  3.503259E-04 -1.278134E-04 -7.270331E-05  4.281251E-05  9.455490E-06 -3.377303E-06
       270   1  3.437452E-04 -1.282396E-04 -6.750885E-05  4.448291E-05 -2.538180E-14  4.599861E-15
       271   1  3.503259E-04 -1.278134E-04 -7.270331E-05  4.281251E-05 -9.455491E-06  3.377303E-06
       272   1  3.458814E-04 -1.259794E-04 -7.525499E-05  3.777154E-05 -1.593439E-05  6.017798E-06
       273   1  3.614236E-04 -1.225394E-04 -9.405912E-05  2.890835E-05 -2.619515E-05  8.441454E-06
       274   1  3.570089E-04 -1.183209E-04 -1.111468E-04  1.231510E-05 -3.809346E-06  9.978098E-06
       275   1  3.350882E-04 -1.188096E-04 -9.801727E-05 -1.023394E-05 -3.750987E-06  4.817274E-06
       276   1  2.127806E-04 -6.989619E-05 -6.643269E-05 -1.397612E-05  2.773906E-06 -7.150822E-06
       277   1  2.273414E-04 -6.869896E-05 -7.568448E-05  7.231061E-06  2.560051E-06 -1.386029E-05
       278   1  2.290876E-04 -7.018311E-05 -6.403503E-05  2.345501E-05  1.721306E-05 -1.166169E-05
       279   1  2.178892E-04 -7.199688E-05 -5.115055E-05  3.268671E-05  1.043550E-05 -7.814972E-06
       280   1  2.203439E-04 -7.312001E-05 -4.899484E-05  3.774116E-05  6.278220E-06 -4.038568E-06
       281   1  2.157870E-04 -7.351050E-05 -4.533127E-05  3.936950E-05 -1.701062E-14  5.720055E-15
       282   1  2.203439E-04 -7.312001E-05 -4.899484E-05  3.774116E-05 -6.278220E-06  4.038568E-06
       283   1  2.178892E-04 -7.199688E-05 -5.115055E-05  3.268671E-05 -1.043550E-05  7.814972E-06
       284   1  2.290876E-04 -7.018311E-05 -6.403503E-05  2.345501E-05 -1.721306E-05  1.166169E-05
       285   1  2.273414E-04 -6.869896E-05 -7.568448E-05  7.231061E-06 -2.560052E-06  1.386029E-05
       286   1  2.127806E-04 -6.989619E-05 -6.643269E-05 -1.397612E-05 -2.773906E-06  7.150822E-06
       287   1  1.087783E-04 -3.571013E-05 -3.327974E-05 -1.541726E-05  1.288338E-06 -7.783830E-06
       288   1  1.164570E-04 -3.497066E-05 -3.818765E-05  6.421100E-06  1.209051E-06 -1.602297E-05
       289   1  1.174581E-04 -3.550011E-05 -3.246596E-05  2.287134E-05  8.602023E-06 -1.348635E-05
       290   1  1.118135E-04 -3.638795E-05 -2.585990E-05  3.217673E-05  5.164538E-06 -9.026911E-06
       291   1  1.130965E-04 -3.703151E-05 -2.470470E-05  3.740516E-05  3.117940E-06 -4.556942E-06
       292   1  1.107863E-04 -3.724077E-05 -2.279248E-05  3.904402E-05 -8.220221E-15  5.388804E-15
       293   1  1.130965E-04 -3.703151E-05 -2.470470E-05  3.740516E-05 -3.117940E-06  4.556942E-06
       294   1  1.118135E-04 -3.638795E-05 -2.585990E-05  3.217673E-05 -5.164538E-06  9.026911E-06
       295   1  1.174581E-04 -3.550011E-05 -3.246596E-05  2.287134E-05 -8.602023E-06  1.348635E-05
       296   1  1.164570E-04 -3.497066E-05 -3.818765E-05  6.421100E-06 -1.209051E-06  1.602297E-05
       297   1  1.087783E-04 -3.571013E-05 -3.327974E-05 -1.541726E-05 -1.288338E-06  7.783830E-06
       298   1  1.186087E-13 -3.873079E-14 -3.660046E-14 -1.575845E-05  1.189250E-15 -8.297100E-06
       299   1  1.269189E-13 -3.773677E-14 -4.189311E-14  5.753564E-06  1.056885E-15 -1.649066E-05
       300   1  1.285282E-13 -3.854400E-14 -3.587525E-14  2.210645E-05  9.523749E-15 -1.421491E-05
       301   1  1.216269E-13 -3.954819E-14 -2.791915E-14  3.144872E-05  5.617988E-15 -9.441626E-06
       302   1  1.236380E-13 -4.019321E-14 -2.731045E-14  3.664647E-05  3.416978E-15 -4.777199E-06
       303   1  1.205077E-13 -4.049646E-14 -2.457141E-14  3.832307E-05 -8.047872E-19  6.222156E-15
       304   1  1.236113E-13 -4.018733E-14 -2.730104E-14  3.664647E-05 -3.417699E-15  4.777199E-06
       305   1  1.215754E-13 -3.953732E-14 -2.790107E-14  3.144872E-05 -5.618588E-15  9.441626E-06
       306   1  1.284473E-13 -3.852813E-14 -3.584417E-14  2.210645E-05 -9.521967E-15  1.421491E-05
       307   1  1.268153E-13 -3.771498E-14 -4.185128E-14  5.753564E-06 -1.061241E-15  1.649066E-05
       308   1  1.184866E-13 -3.870454E-14 -3.655477E-14 -1.575845E-05 -1.189861E-15  8.297100E-06
       309   1 -1.087783E-04  3.571013E-05  3.327974E-05 -1.541726E-05 -1.288338E-06 -7.783830E-06
       310   1 -1.164570E-04  3.497066E-05  3.818765E-05  6.421100E-06 -1.209051E-06 -1.602297E-05
       311   1 -1.174581E-04  3.550011E-05  3.246596E-05  2.287134E-05 -8.602023E-06 -1.348635E-05
       312   1 -1.118135E-04  3.638795E-05  2.585990E-05  3.217673E-05 -5.164537E-06 -9.026911E-06
       313   1 -1.130965E-04  3.703151E-05  2.470470E-05  3.740516E-05 -3.117940E-06 -4.556942E-06
       314   1 -1.107863E-04  3.724077E-05  2.279248E-05  3.904402E-05  8.218629E-15  5.389601E-15
       315   1 -1.130965E-04  3.703151E-05  2.470470E-05  3.740516E-05  3.117940E-06  4.556942E-06
       316   1 -1.118135E-04  3.638795E-05  2.585990E-05  3.217673E-05  5.164538E-06  9.026911E-06
       317   1 -1.174581E-04  3.550011E-05  3.246596E-05  2.287134E-05  8.602023E-06  1.348635E-05
       318   1 -1.164570E-04  3.497066E-05  3.818765E-05  6.421100E-06  1.209051E-06  1.602297E-05
       319   1 -1.087783E-04  3.571013E-05  3.327974E-05 -1.541726E-05  1.288338E-06  7.783830E-06
       320   1 -2.127806E-04  6.989619E-05  6.643269E-05 -1.397612E-05 -2.773906E-06 -7.150822E-06
       321   1 -2.273414E-04  6.869896E-05  7.568448E-05  7.231061E-06 -2.560051E-06 -1.386029E-05
       322   1 -2.290876E-04  7.018311E-05  6.403503E-05  2.345501E-05 -1.721306E-05 -1.166169E-05
       323   1 -2.178892E-04  7.199688E-05  5.115055E-05  3.268671E-05 -1.043550E-05 -7.814972E-06
       324   1 -2.203439E-04  7.312001E-05  4.899484E-05  3.774116E-05 -6.278220E-06 -4.038568E-06
       325   1 -2.157870E-04  7.351050E-05  4.533127E-05  3.936950E-05  1.700735E-14  5.721872E-15
       326   1 -2.203439E-04  7.312001E-05  4.899484E-05  3.774116E-05  6.278220E-06  4.038568E-06
       327   1 -2.178892E-04  7.199688E-05  5.115055E-05  3.268671E-05  1.043550E-05  7.814972E-06
       328   1 -2.290876E-04  7.018311E-05  6.403503E-05  2.345501E-05  1.721306E-05  1.166169E-05
       329   1 -2.273414E-04  6.869896E-05  7.568448E-05  7.231061E-06  2.560051E-06  1.386029E-05
       330   1 -2.127806E-04  6.989619E-05  6.643269E-05 -1.397612E-05  2.773906E-06  7.150822E-06
       331   1 -3.350882E-04  1.188096E-04  9.801727E-05 -1.023394E-05 -3.750987E-06 -4.817274E-06
       332   1 -3.570089E-04  1.183209E-04  1.111468E-04  1.231510E-05 -3.809346E-06 -9.978098E-06
       333   1 -3.614236E-04  1.225394E-04  9.405912E-05  2.890835E-05 -2.619515E-05 -8.441454E-06
       334   1 -3.458814E-04  1.259794E-04  7.525499E-05  3.777154E-05 -1.593439E-05 -6.017798E-06
       335   1 -3.503259E-04  1.278134E-04  7.270331E-05  4.281251E-05 -9.455490E-06 -3.377303E-06
       336   1 -3.437452E-04  1.282396E-04  6.750885E-05  4.448291E-05  2.537620E-14  4.602664E-15
       337   1 -3.503259E-04  1.278134E-04  7.270331E-05  4.281251E-05  9.455491E-06  3.377303E-06
       338   1 -3.458814E-04  1.259794E-04  7.525499E-05  3.777154E-05  1.593439E-05  6.017798E-06
       339   1 -3.614236E-04  1.225394E-04  9.405912E-05  2.890835E-05  2.619515E-05  8.441454E-06
       340   1 -3.570089E-04  1.183209E-04  1.111468E-04  1.231510E-05  3.809346E-06  9.978098E-06
       341   1 -3.350882E-04  1.188096E-04  9.801727E-05 -1.023394E-05  3.750987E-06  4.817274E-06
       342   1 -4.291285E-04  1.564128E-04  1.275340E-04 -3.461249E-05 -7.335004E-06 -6.982658E-07
       343   1 -4.594754E-04  1.639493E-04  1.432099E-04 -1.416504E-05 -8.860075E-06 -2.957104E-06
       344   1 -4.672940E-04  1.726655E-04  1.215766E-04 -3.154395E-06 -3.691304E-05 -4.257972E-06
       345   1 -4.477877E-04  1.777298E-04  9.851713E-05  3.265181E-06 -2.233736E-05 -3.978921E-06
       346   1 -4.539939E-04  1.800712E-04  9.585170E-05  6.971263E-06 -1.317497E-05 -2.323192E-06
       347   1 -4.455155E-04  1.809752E-04  8.896263E-05  8.049110E-06  3.612862E-14  3.466648E-15
       348   1 -4.539939E-04  1.800712E-04  9.585170E-05  6.971263E-06  1.317497E-05  2.323192E-06
       349   1 -4.477877E-04  1.777298E-04  9.851713E-05  3.265181E-06  2.233736E-05  3.978921E-06
       350   1 -4.672940E-04  1.726655E-04  1.215766E-04 -3.154395E-06  3.691304E-05  4.257972E-06
       351   1 -4.594754E-04  1.639493E-04  1.432099E-04 -1.416504E-05  8.860076E-06  2.957104E-06
       352   1 -4.291285E-04  1.564128E-04  1.275340E-04 -3.461249E-05  7.335004E-06  6.982658E-07
       353   1 -5.203215E-04  1.668477E-04  1.598816E-04 -7.614123E-06 -1.761535E-05  6.295528E-07
       354   1 -5.508450E-04  1.802725E-04  1.743184E-04 -9.703516E-07 -2.312402E-05  9.902289E-07
       355   1 -5.548519E-04  1.893801E-04  1.493048E-04  2.388279E-06 -5.138184E-05 -1.053638E-06
       356   1 -5.307466E-04  1.939174E-04  1.219982E-04  5.652116E-06 -3.167045E-05 -1.532684E-06
       357   1 -5.367933E-04  1.965415E-04  1.177354E-04  6.898939E-06 -1.802059E-05 -7.798656E-07
       358   1 -5.269647E-04  1.975129E-04  1.096919E-04  7.540488E-06  4.854561E-14  1.244400E-15
       359   1 -5.367933E-04  1.965415E-04  1.177354E-04  6.898939E-06  1.802059E-05  7.798656E-07
       360   1 -5.307466E-04  1.939174E-04  1.219982E-04  5.652116E-06  3.167045E-05  1.532684E-06
       361   1 -5.548519E-04  1.893801E-04  1.493048E-04  2.388279E-06  5.138184E-05  1.053638E-06
       362   1 -5.508450E-04  1.802725E-04  1.743184E-04 -9.703515E-07  2.312402E-05 -9.902289E-07
       363   1 -5.203215E-04  1.668477E-04  1.598816E-04 -7.614123E-06  1.761535E-05 -6.295528E-07
       364   1  5.394389E-04 -1.857633E-04 -1.795865E-04 -1.065543E-05  2.233223E-06 -2.771124E-07
       365   1  5.552019E-04 -1.930407E-04 -1.693998E-04 -3.791794E-06  1.857457E-05 -7.182191E-07
       366   1  5.608424E-04 -2.002728E-04 -1.676323E-04 -1.874896E-06  1.393215E-05 -9.036169E-07
       367   1  5.635526E-04 -2.055502E-04 -1.543350E-04 -3.862544E-07  2.273320E-05 -1.278317E-06
       368   1  5.516391E-04 -2.083403E-04 -1.415789E-04  8.283978E-07  9.548692E-06 -7.720772E-07
       369   1  5.581038E-04 -2.092141E-04 -1.422828E-04  9.774616E-07 -4.036737E-14  1.033100E-15
       370   1  5.516391E-04 -2.083403E-04 -1.415789E-04  8.283978E-07 -9.548692E-06  7.720772E-07
       371   1  5.635526E-04 -2.055502E-04 -1.543350E-04 -3.862544E-07 -2.273320E-05  1.278317E-06
       372   1  5.608424E-04 -2.002728E-04 -1.676323E-04 -1.874896E-06 -1.393215E-05  9.036169E-07
       373   1  5.552019E-04 -1.930407E-04 -1.693998E-04 -3.791794E-06 -1.857457E-05  7.182191E-07
       374   1  5.394389E-04 -1.857633E-04 -1.795865E-04 -1.065543E-05 -2.233224E-06  2.771124E-07
       375   1  4.296946E-04 -1.426376E-04 -1.425257E-04 -1.087849E-05 -7.402182E-07 -1.364401E-06
       376   1  4.448072E-04 -1.478288E-04 -1.354357E-04  5.241975E-07  8.955428E-06 -3.048426E-06
       377   1  4.530379E-04 -1.540472E-04 -1.356215E-04  7.938682E-06  6.305342E-06 -4.088980E-06
       378   1  4.573030E-04 -1.587179E-04 -1.249074E-04  1.307030E-05  1.577557E-05 -3.655282E-06
       379   1  4.479468E-04 -1.611289E-04 -1.147269E-04  1.587687E-05  6.238300E-06 -2.137215E-06
       380   1  4.539081E-04 -1.618796E-04 -1.156548E-04  1.691329E-05 -2.866311E-14  3.144448E-15
       381   1  4.479468E-04 -1.611289E-04 -1.147269E-04  1.587687E-05 -6.238300E-06  2.137215E-06
       382   1  4.573030E-04 -1.587179E-04 -1.249074E-04  1.307030E-05 -1.577557E-05  3.655282E-06
       383   1  4.530379E-04 -1.540472E-04 -1.356215E-04  7.938682E-06 -6.305342E-06  4.088980E-06
       384   1  4.448072E-04 -1.478288E-04 -1.354357E-04  5.241976E-07 -8.955428E-06  3.048426E-06
       385   1  4.296946E-04 -1.426376E-04 -1.425257E-04 -1.087849E-05  7.402181E-07  1.364401E-06
       386   1  3.277433E-04 -1.180612E-04 -1.064039E-04 -1.792984E-05 -2.242374E-06 -3.180073E-06
       387   1  3.404351E-04 -1.198956E-04 -1.029419E-04 -3.745037E-06  3.252715E-06 -7.644711E-06
       388   1  3.484490E-04 -1.244965E-04 -1.037871E-04  7.496554E-06  1.979749E-06 -8.222291E-06
       389   1  3.519926E-04 -1.283605E-04 -9.525551E-05  1.497397E-05  1.052282E-05 -6.110565E-06
       390   1  3.450443E-04 -1.306014E-04 -8.714946E-05  1.878675E-05  4.016413E-06 -3.277007E-06
       391   1  3.496835E-04 -1.313002E-04 -8.781624E-05  2.016076E-05 -1.974087E-14  4.082423E-15
       392   1  3.450443E-04 -1.306014E-04 -8.714946E-05  1.878675E-05 -4.016413E-06  3.277007E-06
       393   1  3.519926E-04 -1.283605E-04 -9.525551E-05  1.497397E-05 -1.052282E-05  6.110565E-06
       394   1  3.484490E-04 -1.244965E-04 -1.037871E-04  7.496554E-06 -1.979749E-06  8.222291E-06
       395   1  3.404351E-04 -1.198956E-04 -1.029419E-04 -3.745037E-06 -3.252715E-06  7.644711E-06
       396   1  3.277433E-04 -1.180612E-04 -1.064039E-04 -1.792984E-05  2.242374E-06  3.180073E-06
       397   1  2.241851E-04 -8.036098E-05 -7.153992E-05 -2.953662E-06 -2.211391E-06 -5.271433E-06
       398   1  2.320989E-04 -7.951441E-05 -6.965516E-05  1.175497E-05  1.118713E-06 -1.170422E-05
       399   1  2.371039E-04 -8.151555E-05 -7.033608E-05  2.505971E-05  4.481648E-07 -1.172784E-05
       400   1  2.394167E-04 -8.376338E-05 -6.444759E-05  3.416127E-05  6.430241E-06 -8.332668E-06
       401   1  2.347129E-04 -8.525811E-05 -5.878547E-05  3.889932E-05  2.444948E-06 -4.289077E-06
       402   1  2.377704E-04 -8.574935E-05 -5.910011E-05  4.052169E-05 -1.246279E-14  5.895945E-15
       403   1  2.347129E-04 -8.525811E-05 -5.878547E-05  3.889932E-05 -2.444948E-06  4.289077E-06
       404   1  2.394167E-04 -8.376338E-05 -6.444759E-05  3.416127E-05 -6.430241E-06  8.332668E-06
       405   1  2.371039E-04 -8.151555E-05 -7.033608E-05  2.505971E-05 -4.481648E-07  1.172784E-05
       406   1  2.320989E-04 -7.951441E-05 -6.965516E-05  1.175497E-05 -1.118713E-06  1.170422E-05
       407   1  2.241851E-04 -8.036098E-05 -7.153992E-05 -2.953662E-06  2.211391E-06  5.271433E-06
       408   1  1.095254E-04 -3.873570E-05 -3.586344E-05 -3.795739E-06 -1.042583E-06 -6.259481E-06
       409   1  1.135983E-04 -3.821184E-05 -3.511625E-05  1.007283E-05  4.249290E-07 -1.382203E-05
       410   1  1.159475E-04 -3.890038E-05 -3.553480E-05  2.337401E-05  2.856405E-08 -1.380531E-05
       411   1  1.169327E-04 -3.989445E-05 -3.252789E-05  3.270785E-05  3.118671E-06 -9.786510E-06
       412   1  1.144615E-04 -4.060125E-05 -2.961739E-05  3.760174E-05  1.156433E-06 -4.962801E-06
       413   1  1.159858E-04 -4.085634E-05 -2.975286E-05  3.929342E-05 -6.067480E-15  5.967867E-15
       414   1  1.144615E-04 -4.060125E-05 -2.961739E-05  3.760174E-05 -1.156433E-06  4.962801E-06
       415   1  1.169327E-04 -3.989445E-05 -3.252789E-05  3.270785E-05 -3.118671E-06  9.786510E-06
       416   1  1.159475E-04 -3.890038E-05 -3.553480E-05  2.337401E-05 -2.856405E-08  1.380531E-05
       417   1  1.135983E-04 -3.821184E-05 -3.511625E-05  1.007283E-05 -4.249290E-07  1.382203E-05
       418   1  1.095254E-04 -3.873570E-05 -3.586344E-05 -3.795739E-06  1.042583E-06  6.259481E-06
       419   1  1.202852E-13 -4.280761E-14 -3.929414E-14 -8.917022E-07 -1.192400E-15 -6.464351E-06
       420   1  1.248203E-13 -4.196413E-14 -3.874102E-14  1.343536E-05  5.280395E-16 -1.451130E-05
       421   1  1.271533E-13 -4.292331E-14 -3.866277E-14  2.700191E-05 -1.496902E-16 -1.451942E-05
       422   1  1.287057E-13 -4.409998E-14 -3.582019E-14  3.656717E-05  3.533423E-15 -1.024233E-05
       423   1  1.254022E-13 -4.478534E-14 -3.209985E-14  4.161013E-05  1.215326E-15 -5.217243E-06
       424   1  1.276654E-13 -4.517942E-14 -3.274578E-14  4.335578E-05 -2.332517E-19  6.693031E-15
       425   1  1.253744E-13 -4.477855E-14 -3.208986E-14  4.161013E-05 -1.216447E-15  5.217243E-06
       426   1  1.286487E-13 -4.408575E-14 -3.579920E-14  3.656717E-05 -3.533752E-15  1.024233E-05
       427   1  1.270697E-13 -4.290197E-14 -3.863122E-14  2.700191E-05  1.462292E-16  1.451942E-05
       428   1  1.247122E-13 -4.193600E-14 -3.870262E-14  1.343537E-05 -5.299106E-16  1.451130E-05
       429   1  1.201526E-13 -4.277322E-14 -3.924442E-14 -8.917022E-07  1.190708E-15  6.464351E-06
       430   1 -1.095254E-04  3.873570E-05  3.586344E-05 -3.795739E-06  1.042583E-06 -6.259481E-06
       431   1 -1.135983E-04  3.821184E-05  3.511625E-05  1.007283E-05 -4.249289E-07 -1.382203E-05
       432   1 -1.159475E-04  3.890038E-05  3.553480E-05  2.337401E-05 -2.856405E-08 -1.380531E-05
       433   1 -1.169327E-04  3.989445E-05  3.252789E-05  3.270785E-05 -3.118671E-06 -9.786510E-06
       434   1 -1.144615E-04  4.060125E-05  2.961739E-05  3.760174E-05 -1.156433E-06 -4.962801E-06
       435   1 -1.159858E-04  4.085634E-05  2.975286E-05  3.929342E-05  6.066560E-15  5.968353E-15
       436   1 -1.144615E-04  4.060125E-05  2.961739E-05  3.760174E-05  1.156433E-06  4.962801E-06
       437   1 -1.169327E-04  3.989445E-05  3.252789E-05  3.270785E-05  3.118671E-06  9.786511E-06
       438   1 -1.159475E-04  3.890038E-05  3.553480E-05  2.337401E-05  2.856404E-08  1.380531E-05
       439   1 -1.135983E-04  3.821184E-05  3.511625E-05  1.007283E-05  4.249290E-07  1.382203E-05
       440   1 -1.095254E-04  3.873570E-05  3.586344E-05 -3.795739E-06 -1.042583E-06  6.259481E-06
       441   1 -2.241851E-04  8.036098E-05  7.153992E-05 -2.953662E-06  2.211391E-06 -5.271433E-06
       442   1 -2.320989E-04  7.951441E-05  6.965516E-05  1.175497E-05 -1.118713E-06 -1.170422E-05
       443   1 -2.371038E-04  8.151555E-05  7.033608E-05  2.505971E-05 -4.481648E-07 -1.172784E-05
       444   1 -2.394167E-04  8.376338E-05  6.444759E-05  3.416127E-05 -6.430241E-06 -8.332668E-06
       445   1 -2.347129E-04  8.525811E-05  5.878547E-05  3.889932E-05 -2.444948E-06 -4.289077E-06
       446   1 -2.377704E-04  8.574935E-05  5.910011E-05  4.052169E-05  1.246069E-14  5.897923E-15
       447   1 -2.347129E-04  8.525811E-05  5.878547E-05  3.889932E-05  2.444948E-06  4.289077E-06
       448   1 -2.394167E-04  8.376338E-05  6.444759E-05  3.416127E-05  6.430241E-06  8.332668E-06
       449   1 -2.371038E-04  8.151555E-05  7.033608E-05  2.505971E-05  4.481648E-07  1.172784E-05
       450   1 -2.320989E-04  7.951441E-05  6.965516E-05  1.175497E-05  1.118713E-06  1.170422E-05
       451   1 -2.241851E-04  8.036098E-05  7.153992E-05 -2.953662E-06 -2.211391E-06  5.271433E-06
       452   1 -3.277433E-04  1.180612E-04  1.064039E-04 -1.792984E-05  2.242374E-06 -3.180073E-06
       453   1 -3.404351E-04  1.198956E-04  1.029419E-04 -3.745037E-06 -3.252715E-06 -7.644711E-06
       454   1 -3.484490E-04  1.244965E-04  1.037871E-04  7.496554E-06 -1.979749E-06 -8.222291E-06
       455   1 -3.519926E-04  1.283605E-04  9.525551E-05  1.497397E-05 -1.052282E-05 -6.110565E-06
       456   1 -3.450443E-04  1.306014E-04  8.714946E-05  1.878675E-05 -4.016413E-06 -3.277007E-06
       457   1 -3.496835E-04  1.313002E-04  8.781624E-05  2.016076E-05  1.973682E-14  4.085229E-15
       458   1 -3.450443E-04  1.306014E-04  8.714946E-05  1.878675E-05  4.016413E-06  3.277007E-06
       459   1 -3.519926E-04  1.283605E-04  9.525551E-05  1.497397E-05  1.052282E-05  6.110565E-06
       460   1 -3.484490E-04  1.244965E-04  1.037871E-04  7.496554E-06  1.979749E-06  8.222291E-06
       461   1 -3.404351E-04  1.198956E-04  1.029419E-04 -3.745036E-06  3.252715E-06  7.644711E-06
       462   1 -3.277433E-04  1.180612E-04  1.064039E-04 -1.792984E-05 -2.242374E-06  3.180073E-06
       463   1 -4.296946E-04  1.426376E-04  1.425257E-04 -1.087849E-05  7.402182E-07 -1.364401E-06
       464   1 -4.448072E-04  1.478288E-04  1.354357E-04  5.241975E-07 -8.955428E-06 -3.048426E-06
       465   1 -4.530379E-04  1.540472E-04  1.356215E-04  7.938682E-06 -6.305342E-06 -4.088980E-06
       466   1 -4.573030E-04  1.587179E-04  1.249074E-04  1.307030E-05 -1.577557E-05 -3.655282E-06
       467   1 -4.479468E-04  1.611289E-04  1.147269E-04  1.587687E-05 -6.238300E-06 -2.137215E-06
       468   1 -4.539081E-04  1.618796E-04  1.156548E-04  1.691329E-05  2.865479E-14  3.147369E-15
       469   1 -4.479468E-04  1.611289E-04  1.147269E-04  1.587687E-05  6.238300E-06  2.137215E-06
       470   1 -4.573030E-04  1.587179E-04  1.249074E-04  1.307030E-05  1.577557E-05  3.655282E-06
       471   1 -4.530379E-04  1.540472E-04  1.356215E-04  7.938682E-06  6.305342E-06  4.088980E-06
       472   1 -4.448072E-04  1.478288E-04  1.354357E-04  5.241976E-07  8.955428E-06  3.048426E-06
       473   1 -4.296946E-04  1.426376E-04  1.425257E-04 -1.087849E-05 -7.402181E-07  1.364401E-06
       474   1 -5.394389E-04  1.857633E-04  1.795865E-04 -1.065543E-05 -2.233223E-06 -2.771124E-07
       475   1 -5.552019E-04  1.930407E-04  1.693998E-04 -3.791794E-06 -1.857457E-05 -7.182191E-07
       476   1 -5.608424E-04  2.002728E-04  1.676323E-04 -1.874896E-06 -1.393215E-05 -9.036169E-07
       477   1 -5.635526E-04  2.055502E-04  1.543350E-04 -3.862544E-07 -2.273320E-05 -1.278317E-06
       478   1 -5.516391E-04  2.083403E-04  1.415789E-04  8.283978E-07 -9.548692E-06 -7.720772E-07
       479   1 -5.581038E-04  2.092141E-04  1.422828E-04  9.774616E-07  4.035562E-14  1.034071E-15
       480   1 -5.516391E-04  2.083403E-04  1.415789E-04  8.283978E-07  9.548692E-06  7.720772E-07
       481   1 -5.635526E-04  2.055502E-04  1.543350E-04 -3.862544E-07  2.273320E-05  1.278317E-06
       482   1 -5.608424E-04  2.002728E-04  1.676323E-04 -1.874896E-06  1.393215E-05  9.036169E-07
       483   1 -5.552019E-04  1.930407E-04  1.693998E-04 -3.791794E-06  1.857457E-05  7.182191E-07
       484   1 -5.394389E-04  1.857633E-04  1.795865E-04 -1.065543E-05  2.233224E-06  2.771124E-07
       485   1  5.337851E-04 -1.744670E-04 -1.718656E-04 -2.489325E-06  2.417278E-06  1.422986E-08
       486   1  5.519726E-04 -1.811367E-04 -1.813838E-04 -3.156963E-08  1.676297E-06 -6.247194E-07
       487   1  5.576883E-04 -1.861810E-04 -1.716282E-04  1.967968E-06  1.054321E-05 -1.236966E-06
       488   1  5.572061E-04 -1.897332E-04 -1.680759E-04  3.164502E-06  5.315624E-06 -9.884875E-07
       489   1  5.603791E-04 -1.922049E-04 -1.623450E-04  3.766104E-06  6.762400E-06 -6.863711E-07
       490   1  5.542346E-04 -1.928256E-04 -1.584784E-04  4.190223E-06 -3.672920E-14  8.869011E-16
       491   1  5.603791E-04 -1.922049E-04 -1.623450E-04  3.766104E-06 -6.762400E-06  6.863711E-07
       492   1  5.572061E-04 -1.897332E-04 -1.680759E-04  3.164502E-06 -5.315624E-06  9.884875E-07
       493   1  5.576883E-04 -1.861810E-04 -1.716282E-04  1.967968E-06 -1.054321E-05  1.236966E-06
       494   1  5.519726E-04 -1.811367E-04 -1.813838E-04 -3.156961E-08 -1.676297E-06  6.247194E-07
       495   1  5.337851E-04 -1.744670E-04 -1.718656E-04 -2.489325E-06 -2.417278E-06 -1.422985E-08
       496   1  4.293334E-04 -1.496751E-04 -1.360580E-04 -1.062030E-05 -7.901390E-07 -1.343296E-06
       497   1  4.461084E-04 -1.533729E-04 -1.450022E-04 -2.406720E-06 -2.503210E-06 -3.199623E-06
       498   1  4.531465E-04 -1.582286E-04 -1.376710E-04  2.627307E-06  5.160184E-06 -3.658681E-06
       499   1  4.547770E-04 -1.621274E-04 -1.357313E-04  5.914999E-06  1.750642E-06 -3.311957E-06
       500   1  4.585305E-04 -1.644532E-04 -1.314291E-04  8.119225E-06  4.369129E-06 -1.865304E-06
       501   1  4.536210E-04 -1.652417E-04 -1.283734E-04  8.704417E-06 -2.628015E-14  2.528902E-15
       502   1  4.585305E-04 -1.644532E-04 -1.314291E-04  8.119225E-06 -4.369129E-06  1.865304E-06
       503   1  4.547770E-04 -1.621274E-04 -1.357313E-04  5.914999E-06 -1.750642E-06  3.311957E-06
       504   1  4.531465E-04 -1.582286E-04 -1.376710E-04  2.627307E-06 -5.160184E-06  3.658681E-06
       505   1  4.461084E-04 -1.533729E-04 -1.450022E-04 -2.406720E-06  2.503210E-06  3.199623E-06
       506   1  4.293334E-04 -1.496751E-04 -1.360580E-04 -1.062030E-05  7.901390E-07  1.343296E-06
       507   1  3.231748E-04 -1.111690E-04 -1.013479E-04 -2.228157E-06 -1.227761E-06 -2.851354E-06
       508   1  3.357552E-04 -1.123435E-04 -1.091169E-04  6.718246E-06 -4.040643E-06 -6.344494E-06
       509   1  3.420324E-04 -1.154977E-04 -1.042402E-04  1.443169E-05  1.612597E-06 -6.745846E-06
       510   1  3.442988E-04 -1.185919E-04 -1.030132E-04  2.010323E-05 -1.634948E-07 -5.563012E-06
       511   1  3.474524E-04 -1.205084E-04 -9.970259E-05  2.356142E-05  2.644665E-06 -2.977598E-06
       512   1  3.438243E-04 -1.211393E-04 -9.732522E-05  2.454952E-05 -1.777445E-14  3.614448E-15
       513   1  3.474524E-04 -1.205084E-04 -9.970259E-05  2.356142E-05 -2.644665E-06  2.977598E-06
       514   1  3.442988E-04 -1.185919E-04 -1.030132E-04  2.010323E-05  1.634948E-07  5.563012E-06
       515   1  3.420324E-04 -1.154977E-04 -1.042402E-04  1.443169E-05 -1.612597E-06  6.745846E-06
       516   1  3.357552E-04 -1.123435E-04 -1.091169E-04  6.718246E-06  4.040643E-06  6.344494E-06
       517   1  3.231748E-04 -1.111690E-04 -1.013479E-04 -2.228157E-06  1.227761E-06  2.851354E-06
       518   1  2.175652E-04 -7.900076E-05 -6.739563E-05 -3.800119E-06 -1.395962E-06 -3.958561E-06
       519   1  2.264639E-04 -7.927903E-05 -7.308830E-05  5.775636E-06 -3.848541E-06 -9.026170E-06
       520   1  2.312337E-04 -8.129284E-05 -7.020187E-05  1.473907E-05  4.352654E-08 -9.632156E-06
       521   1  2.329726E-04 -8.340206E-05 -6.944263E-05  2.160707E-05 -7.978933E-07 -7.542390E-06
       522   1  2.352472E-04 -8.486704E-05 -6.710201E-05  2.575195E-05  1.443069E-06 -3.959433E-06
       523   1  2.328599E-04 -8.535555E-05 -6.550176E-05  2.696739E-05 -1.103527E-14  5.266707E-15
       524   1  2.352472E-04 -8.486704E-05 -6.710201E-05  2.575195E-05 -1.443069E-06  3.959433E-06
       525   1  2.329726E-04 -8.340206E-05 -6.944263E-05  2.160707E-05  7.978933E-07  7.542390E-06
       526   1  2.312337E-04 -8.129284E-05 -7.020187E-05  1.473907E-05 -4.352658E-08  9.632156E-06
       527   1  2.264639E-04 -7.927903E-05 -7.308830E-05  5.775636E-06  3.848541E-06  9.026170E-06
       528   1  2.175652E-04 -7.900076E-05 -6.739563E-05 -3.800119E-06  1.395962E-06  3.958561E-06
       529   1  1.104428E-04 -3.992780E-05 -3.373431E-05  5.696925E-06 -8.498713E-07 -4.837254E-06
       530   1  1.146344E-04 -3.949359E-05 -3.674341E-05  1.537627E-05 -2.205859E-06 -1.096858E-05
       531   1  1.169480E-04 -4.021830E-05 -3.533601E-05  2.526765E-05 -2.460092E-07 -1.145205E-05
       532   1  1.178664E-04 -4.119168E-05 -3.496593E-05  3.297592E-05 -6.016075E-07 -8.938014E-06
       533   1  1.190204E-04 -4.188770E-05 -3.378613E-05  3.770195E-05  6.309985E-07 -4.634512E-06
       534   1  1.178218E-04 -4.214371E-05 -3.294369E-05  3.908843E-05 -5.219437E-15  5.587816E-15
       535   1  1.190204E-04 -4.188770E-05 -3.378613E-05  3.770195E-05 -6.309985E-07  4.634512E-06
       536   1  1.178664E-04 -4.119168E-05 -3.496593E-05  3.297592E-05  6.016075E-07  8.938014E-06
       537   1  1.169480E-04 -4.021830E-05 -3.533601E-05  2.526765E-05  2.460092E-07  1.145205E-05
       538   1  1.146344E-04 -3.949359E-05 -3.674341E-05  1.537627E-05  2.205859E-06  1.096858E-05
       539   1  1.104428E-04 -3.992780E-05 -3.373431E-05  5.696925E-06  8.498713E-07  4.837254E-06
       540   1  1.204045E-13 -4.340368E-14 -3.701503E-14  3.249662E-06 -9.441436E-16 -5.089075E-06
       541   1  1.249854E-13 -4.273459E-14 -4.043381E-14  1.249651E-05 -2.555142E-15 -1.147975E-05
       542   1  1.276083E-13 -4.370953E-14 -3.866670E-14  2.221376E-05 -1.080780E-16 -1.211926E-05
       543   1  1.283030E-13 -4.480257E-14 -3.808228E-14  2.994466E-05 -8.132219E-16 -9.378332E-06
       544   1  1.299505E-13 -4.548477E-14 -3.712472E-14  3.467361E-05  7.746101E-16 -4.887629E-06
       545   1  1.281386E-13 -4.584923E-14 -3.576011E-14  3.607985E-05 -1.592422E-18  6.226773E-15
       546   1  1.299208E-13 -4.547575E-14 -3.711450E-14  3.467361E-05 -7.758995E-16  4.887629E-06
       547   1  1.282459E-13 -4.478696E-14 -3.806098E-14  2.994466E-05  8.101108E-16  9.378332E-06
       548   1  1.275243E-13 -4.368438E-14 -3.863762E-14  2.221376E-05  1.058114E-16  1.211926E-05
       549   1  1.248747E-13 -4.270244E-14 -4.039360E-14  1.249651E-05  2.551890E-15  1.147975E-05
       550   1  1.202690E-13 -4.336417E-14 -3.696813E-14  3.249662E-06  9.431576E-16  5.089075E-06
       551   1 -1.104428E-04  3.992780E-05  3.373431E-05  5.696925E-06  8.498713E-07 -4.837254E-06
       552   1 -1.146344E-04  3.949359E-05  3.674341E-05  1.537627E-05  2.205859E-06 -1.096858E-05
       553   1 -1.169480E-04  4.021830E-05  3.533601E-05  2.526765E-05  2.460092E-07 -1.145205E-05
       554   1 -1.178664E-04  4.119168E-05  3.496593E-05  3.297592E-05  6.016075E-07 -8.938014E-06
       555   1 -1.190204E-04  4.188770E-05  3.378613E-05  3.770195E-05 -6.309985E-07 -4.634512E-06
       556   1 -1.178218E-04  4.214371E-05  3.294369E-05  3.908843E-05  5.217061E-15  5.589255E-15
       557   1 -1.190204E-04  4.188770E-05  3.378613E-05  3.770195E-05  6.309985E-07  4.634512E-06
       558   1 -1.178664E-04  4.119168E-05  3.496593E-05  3.297592E-05 -6.016075E-07  8.938014E-06
       559   1 -1.169480E-04  4.021830E-05  3.533601E-05  2.526765E-05 -2.460092E-07  1.145205E-05
       560   1 -1.146344E-04  3.949359E-05  3.674341E-05  1.537627E-05 -2.205859E-06  1.096858E-05
       561   1 -1.104428E-04  3.992780E-05  3.373431E-05  5.696925E-06 -8.498713E-07  4.837254E-06
       562   1 -2.175652E-04  7.900076E-05  6.739563E-05 -3.800119E-06  1.395962E-06 -3.958561E-06
       563   1 -2.264639E-04  7.927903E-05  7.308829E-05  5.775636E-06  3.848541E-06 -9.026170E-06
       564   1 -2.312337E-04  8.129284E-05  7.020187E-05  1.473907E-05 -4.352653E-08 -9.632156E-06
       565   1 -2.329726E-04  8.340206E-05  6.944263E-05  2.160707E-05  7.978933E-07 -7.542390E-06
       566   1 -2.352472E-04  8.486704E-05  6.710201E-05  2.575195E-05 -1.443069E-06 -3.959433E-06
       567   1 -2.328599E-04  8.535555E-05  6.550176E-05  2.696739E-05  1.103106E-14  5.267881E-15
       568   1 -2.352472E-04  8.486704E-05  6.710201E-05  2.575195E-05  1.443069E-06  3.959433E-06
       569   1 -2.329726E-04  8.340206E-05  6.944263E-05  2.160707E-05 -7.978933E-07  7.542390E-06
       570   1 -2.312337E-04  8.129284E-05  7.020187E-05  1.473907E-05  4.352657E-08  9.632156E-06
       571   1 -2.264639E-04  7.927903E-05  7.308829E-05  5.775636E-06 -3.848541E-06  9.026170E-06
       572   1 -2.175652E-04  7.900076E-05  6.739563E-05 -3.800119E-06 -1.395962E-06  3.958561E-06
       573   1 -3.231748E-04  1.111690E-04  1.013479E-04 -2.228157E-06  1.227761E-06 -2.851354E-06
       574   1 -3.357552E-04  1.123435E-04  1.091169E-04  6.718246E-06  4.040643E-06 -6.344494E-06
       575   1 -3.420324E-04  1.154977E-04  1.042402E-04  1.443169E-05 -1.612597E-06 -6.745846E-06
       576   1 -3.442988E-04  1.185919E-04  1.030132E-04  2.010323E-05  1.634948E-07 -5.563012E-06
       577   1 -3.474524E-04  1.205084E-04  9.970259E-05  2.356142E-05 -2.644665E-06 -2.977598E-06
       578   1 -3.438243E-04  1.211393E-04  9.732522E-05  2.454952E-05  1.776767E-14  3.617245E-15
       579   1 -3.474524E-04  1.205084E-04  9.970259E-05  2.356142E-05  2.644665E-06  2.977598E-06
       580   1 -3.442988E-04  1.185919E-04  1.030132E-04  2.010323E-05 -1.634948E-07  5.563012E-06
       581   1 -3.420324E-04  1.154977E-04  1.042402E-04  1.443169E-05  1.612597E-06  6.745846E-06
       582   1 -3.357552E-04  1.123435E-04  1.091169E-04  6.718246E-06 -4.040643E-06  6.344494E-06
       583   1 -3.231748E-04  1.111690E-04  1.013479E-04 -2.228157E-06 -1.227761E-06  2.851354E-06
       584   1 -4.293334E-04  1.496751E-04  1.360580E-04 -1.062030E-05  7.901390E-07 -1.343296E-06
       585   1 -4.461084E-04  1.533729E-04  1.450022E-04 -2.406720E-06  2.503210E-06 -3.199623E-06
       586   1 -4.531465E-04  1.582286E-04  1.376710E-04  2.627307E-06 -5.160184E-06 -3.658681E-06
       587   1 -4.547770E-04  1.621274E-04  1.357313E-04  5.914999E-06 -1.750642E-06 -3.311957E-06
       588   1 -4.585305E-04  1.644532E-04  1.314291E-04  8.119225E-06 -4.369129E-06 -1.865304E-06
       589   1 -4.536210E-04  1.652417E-04  1.283734E-04  8.704417E-06  2.627056E-14  2.530960E-15
       590   1 -4.585305E-04  1.644532E-04  1.314291E-04  8.119225E-06  4.369129E-06  1.865304E-06
       591   1 -4.547770E-04  1.621274E-04  1.357313E-04  5.914999E-06  1.750642E-06  3.311957E-06
       592   1 -4.531465E-04  1.582286E-04  1.376710E-04  2.627307E-06  5.160184E-06  3.658681E-06
       593   1 -4.461084E-04  1.533729E-04  1.450022E-04 -2.406720E-06 -2.503210E-06  3.199623E-06
       594   1 -4.293334E-04  1.496751E-04  1.360580E-04 -1.062030E-05 -7.901390E-07  1.343296E-06
       595   1 -5.337851E-04  1.744670E-04  1.718656E-04 -2.489325E-06 -2.417278E-06  1.422986E-08
       596   1 -5.519726E-04  1.811367E-04  1.813838E-04 -3.156963E-08 -1.676297E-06 -6.247194E-07
       597   1 -5.576883E-04  1.861810E-04  1.716282E-04  1.967968E-06 -1.054321E-05 -1.236966E-06
       598   1 -5.572061E-04  1.897332E-04  1.680759E-04  3.164502E-06 -5.315624E-06 -9.884875E-07
       599   1 -5.603791E-04  1.922049E-04  1.623450E-04  3.766104E-06 -6.762400E-06 -6.863711E-07
       600   1 -5.542346E-04  1.928256E-04  1.584784E-04  4.190223E-06  3.671806E-14  8.875465E-16
       601   1 -5.603791E-04  1.922049E-04  1.623450E-04  3.766104E-06  6.762400E-06  6.863711E-07
       602   1 -5.572061E-04  1.897332E-04  1.680759E-04  3.164502E-06  5.315624E-06  9.884875E-07
       603   1 -5.576883E-04  1.861810E-04  1.716282E-04  1.967968E-06  1.054321E-05  1.236966E-06
       604   1 -5.519726E-04  1.811367E-04  1.813838E-04 -3.156961E-08  1.676297E-06  6.247194E-07
       605   1 -5.337851E-04  1.744670E-04  1.718656E-04 -2.489325E-06  2.417278E-06 -1.422985E-08
       606   1  5.436263E-04 -1.826471E-04 -1.801648E-04 -1.682948E-06 -1.063120E-06 -3.471917E-07
       607   1  5.515596E-04 -1.859017E-04 -1.765921E-04  5.988273E-07  1.120419E-06 -6.898358E-07
       608   1  5.589688E-04 -1.898690E-04 -1.798550E-04  1.447374E-06 -5.091774E-07 -9.729643E-07
       609   1  5.622305E-04 -1.928659E-04 -1.737004E-04  2.376987E-06  3.757372E-06 -1.002560E-06
       610   1  5.610199E-04 -1.947049E-04 -1.721905E-04  2.926676E-06  6.757509E-07 -5.257012E-07
       611   1  5.640394E-04 -1.954052E-04 -1.706535E-04  3.029064E-06 -3.070131E-14  6.294115E-16
       612   1  5.610199E-04 -1.947049E-04 -1.721905E-04  2.926676E-06 -6.757510E-07  5.257012E-07
       613   1  5.622305E-04 -1.928659E-04 -1.737004E-04  2.376987E-06 -3.757372E-06  1.002560E-06
       614   1  5.589688E-04 -1.898690E-04 -1.798550E-04  1.447374E-06  5.091774E-07  9.729643E-07
       615   1  5.515596E-04 -1.859017E-04 -1.765921E-04  5.988273E-07 -1.120419E-06  6.898358E-07
       616   1  5.436263E-04 -1.826471E-04 -1.801648E-04 -1.682948E-06  1.063120E-06  3.471917E-07
       617   1  4.300880E-04 -1.416823E-04 -1.425522E-04  3.836820E-07 -1.698100E-06 -1.010843E-06
       618   1  4.380977E-04 -1.445655E-04 -1.406704E-04  4.275079E-06 -1.807726E-06 -2.515472E-06
       619   1  4.460521E-04 -1.478478E-04 -1.442965E-04  7.733132E-06 -2.728745E-06 -3.209274E-06
       620   1  4.498245E-04 -1.504819E-04 -1.397303E-04  1.034463E-05  1.316627E-06 -2.727311E-06
       621   1  4.496647E-04 -1.521519E-04 -1.391257E-04  1.185287E-05 -4.099606E-07 -1.596504E-06
       622   1  4.524131E-04 -1.527502E-04 -1.379103E-04  1.247867E-05 -2.157512E-14  2.142447E-15
       623   1  4.496647E-04 -1.521519E-04 -1.391257E-04  1.185287E-05  4.099606E-07  1.596504E-06
       624   1  4.498245E-04 -1.504819E-04 -1.397303E-04  1.034463E-05 -1.316627E-06  2.727311E-06
       625   1  4.460521E-04 -1.478478E-04 -1.442965E-04  7.733132E-06  2.728745E-06  3.209274E-06
       626   1  4.380977E-04 -1.445655E-04 -1.406704E-04  4.275079E-06  1.807726E-06  2.515472E-06
       627   1  4.300880E-04 -1.416823E-04 -1.425522E-04  3.836820E-07  1.698100E-06  1.010843E-06
       628   1  3.253016E-04 -1.130135E-04 -1.061202E-04 -1.468090E-06 -2.162938E-06 -1.991836E-06
       629   1  3.318899E-04 -1.141293E-04 -1.055272E-04  4.142985E-06 -2.912544E-06 -4.940034E-06
       630   1  3.388467E-04 -1.166409E-04 -1.088212E-04  9.311276E-06 -3.612035E-06 -5.481385E-06
       631   1  3.425244E-04 -1.190687E-04 -1.055703E-04  1.316780E-05 -1.732628E-07 -4.455233E-06
       632   1  3.429985E-04 -1.206677E-04 -1.052734E-04  1.557660E-05 -9.082408E-07 -2.534573E-06
       633   1  3.452118E-04 -1.212046E-04 -1.043707E-04  1.648377E-05 -1.429309E-14  2.800331E-15
       634   1  3.429985E-04 -1.206677E-04 -1.052734E-04  1.557660E-05  9.082408E-07  2.534573E-06
       635   1  3.425244E-04 -1.190687E-04 -1.055703E-04  1.316780E-05  1.732628E-07  4.455233E-06
       636   1  3.388467E-04 -1.166409E-04 -1.088212E-04  9.311276E-06  3.612035E-06  5.481385E-06
       637   1  3.318899E-04 -1.141293E-04 -1.055272E-04  4.142985E-06  2.912544E-06  4.940034E-06
       638   1  3.253016E-04 -1.130135E-04 -1.061202E-04 -1.468090E-06  2.162938E-06  1.991836E-06
       639   1  2.173307E-04 -7.451772E-05 -7.061594E-05  6.801466E-06 -1.656789E-06 -2.923604E-06
       640   1  2.215135E-04 -7.466559E-05 -7.040005E-05  1.252820E-05 -2.615615E-06 -6.807852E-06
       641   1  2.263743E-04 -7.601912E-05 -7.290159E-05  1.882252E-05 -3.219412E-06 -7.577846E-06
       642   1  2.291959E-04 -7.757652E-05 -7.090546E-05  2.395477E-05 -7.077865E-07 -6.025123E-06
       643   1  2.296675E-04 -7.869417E-05 -7.070528E-05  2.715284E-05 -8.983576E-07 -3.349291E-06
       644   1  2.312151E-04 -7.908028E-05 -7.009957E-05  2.831883E-05 -8.679380E-15  4.574753E-15
       645   1  2.296675E-04 -7.869417E-05 -7.070528E-05  2.715284E-05  8.983575E-07  3.349291E-06
       646   1  2.291959E-04 -7.757652E-05 -7.090546E-05  2.395477E-05  7.077865E-07  6.025123E-06
       647   1  2.263743E-04 -7.601912E-05 -7.290159E-05  1.882252E-05  3.219412E-06  7.577846E-06
       648   1  2.215135E-04 -7.466559E-05 -7.040005E-05  1.252820E-05  2.615615E-06  6.807852E-06
       649   1  2.173307E-04 -7.451772E-05 -7.061594E-05  6.801466E-06  1.656789E-06  2.923604E-06
       650   1  1.093775E-04 -3.903545E-05 -3.519004E-05  5.408026E-06 -9.582613E-07 -3.355262E-06
       651   1  1.116359E-04 -3.903127E-05 -3.525402E-05  1.117113E-05 -1.580390E-06 -8.086524E-06
       652   1  1.142476E-04 -3.973799E-05 -3.659724E-05  1.784825E-05 -1.856237E-06 -8.931770E-06
       653   1  1.157372E-04 -4.056635E-05 -3.561762E-05  2.340534E-05 -5.335599E-07 -7.118883E-06
       654   1  1.160486E-04 -4.116644E-05 -3.554005E-05  2.692560E-05 -5.461897E-07 -3.902740E-06
       655   1  1.168448E-04 -4.138914E-05 -3.522092E-05  2.820962E-05 -4.051446E-15  4.533226E-15
       656   1  1.160486E-04 -4.116644E-05 -3.554005E-05  2.692560E-05  5.461897E-07  3.902740E-06
       657   1  1.157372E-04 -4.056635E-05 -3.561762E-05  2.340534E-05  5.335599E-07  7.118883E-06
       658   1  1.142476E-04 -3.973799E-05 -3.659724E-05  1.784825E-05  1.856237E-06  8.931770E-06
       659   1  1.116359E-04 -3.903127E-05 -3.525402E-05  1.117113E-05  1.580390E-06  8.086524E-06
       660   1  1.093775E-04 -3.903545E-05 -3.519004E-05  5.408026E-06  9.582613E-07  3.355262E-06
       661   1  1.200533E-13 -4.295945E-14 -3.857835E-14  1.104389E-05 -1.088734E-15 -3.632459E-06
       662   1  1.224985E-13 -4.273567E-14 -3.877169E-14  1.690871E-05 -1.677401E-15 -8.550064E-06
       663   1  1.253289E-13 -4.367600E-14 -3.999438E-14  2.397003E-05 -2.140783E-15 -9.463927E-06
       664   1  1.270786E-13 -4.465661E-14 -3.895719E-14  2.989156E-05 -4.833632E-16 -7.479144E-06
       665   1  1.271884E-13 -4.522988E-14 -3.878524E-14  3.364871E-05 -6.636090E-16 -4.123599E-06
       666   1  1.283326E-13 -4.556712E-14 -3.854220E-14  3.501413E-05 -1.677761E-18  5.384347E-15
       667   1  1.271603E-13 -4.522283E-14 -3.877456E-14  3.364871E-05  6.599966E-16  4.123599E-06
       668   1  1.270210E-13 -4.463801E-14 -3.893777E-14  2.989156E-05  4.801288E-16  7.479144E-06
       669   1  1.252430E-13 -4.364993E-14 -3.996439E-14  2.397003E-05  2.137051E-15  9.463927E-06
       670   1  1.223864E-13 -4.270125E-14 -3.873384E-14  1.690871E-05  1.674823E-15  8.550064E-06
       671   1  1.199131E-13 -4.291622E-14 -3.853012E-14  1.104389E-05  1.087538E-15  3.632459E-06
       672   1 -1.093775E-04  3.903545E-05  3.519004E-05  5.408026E-06  9.582613E-07 -3.355262E-06
       673   1 -1.116359E-04  3.903127E-05  3.525402E-05  1.117113E-05  1.580390E-06 -8.086524E-06
       674   1 -1.142476E-04  3.973799E-05  3.659724E-05  1.784825E-05  1.856237E-06 -8.931770E-06
       675   1 -1.157372E-04  4.056635E-05  3.561762E-05  2.340534E-05  5.335599E-07 -7.118883E-06
       676   1 -1.160486E-04  4.116644E-05  3.554005E-05  2.692560E-05  5.461897E-07 -3.902740E-06
       677   1 -1.168448E-04  4.138914E-05  3.522092E-05  2.820962E-05  4.048060E-15  4.532818E-15
       678   1 -1.160486E-04  4.116644E-05  3.554005E-05  2.692560E-05 -5.461897E-07  3.902740E-06
       679   1 -1.157372E-04  4.056635E-05  3.561762E-05  2.340534E-05 -5.335599E-07  7.118883E-06
       680   1 -1.142476E-04  3.973799E-05  3.659724E-05  1.784825E-05 -1.856237E-06  8.931770E-06
       681   1 -1.116359E-04  3.903127E-05  3.525402E-05  1.117113E-05 -1.580390E-06  8.086524E-06
       682   1 -1.093775E-04  3.903545E-05  3.519004E-05  5.408026E-06 -9.582613E-07  3.355262E-06
       683   1 -2.173307E-04  7.451772E-05  7.061594E-05  6.801466E-06  1.656789E-06 -2.923604E-06
       684   1 -2.215135E-04  7.466559E-05  7.040005E-05  1.252820E-05  2.615615E-06 -6.807852E-06
       685   1 -2.263743E-04  7.601912E-05  7.290159E-05  1.882252E-05  3.219412E-06 -7.577846E-06
       686   1 -2.291958E-04  7.757652E-05  7.090546E-05  2.395477E-05  7.077865E-07 -6.025123E-06
       687   1 -2.296675E-04  7.869417E-05  7.070528E-05  2.715284E-05  8.983576E-07 -3.349291E-06
       688   1 -2.312151E-04  7.908028E-05  7.009957E-05  2.831883E-05  8.674530E-15  4.576719E-15
       689   1 -2.296675E-04  7.869417E-05  7.070528E-05  2.715284E-05 -8.983575E-07  3.349291E-06
       690   1 -2.291958E-04  7.757652E-05  7.090546E-05  2.395477E-05 -7.077865E-07  6.025123E-06
       691   1 -2.263743E-04  7.601912E-05  7.290159E-05  1.882252E-05 -3.219412E-06  7.577846E-06
       692   1 -2.215135E-04  7.466559E-05  7.040005E-05  1.252820E-05 -2.615615E-06  6.807852E-06
       693   1 -2.173307E-04  7.451772E-05  7.061594E-05  6.801466E-06 -1.656789E-06  2.923604E-06
       694   1 -3.253016E-04  1.130135E-04  1.061202E-04 -1.468090E-06  2.162938E-06 -1.991836E-06
       695   1 -3.318899E-04  1.141293E-04  1.055272E-04  4.142985E-06  2.912544E-06 -4.940034E-06
       696   1 -3.388467E-04  1.166409E-04  1.088212E-04  9.311276E-06  3.612035E-06 -5.481385E-06
       697   1 -3.425244E-04  1.190687E-04  1.055703E-04  1.316780E-05  1.732628E-07 -4.455233E-06
       698   1 -3.429985E-04  1.206677E-04  1.052734E-04  1.557660E-05  9.082408E-07 -2.534573E-06
       699   1 -3.452118E-04  1.212046E-04  1.043707E-04  1.648377E-05  1.428928E-14  2.802716E-15
       700   1 -3.429985E-04  1.206677E-04  1.052734E-04  1.557660E-05 -9.082408E-07  2.534573E-06
       701   1 -3.425244E-04  1.190687E-04  1.055703E-04  1.316780E-05 -1.732628E-07  4.455233E-06
       702   1 -3.388467E-04  1.166409E-04  1.088212E-04  9.311276E-06 -3.612035E-06  5.481385E-06
       703   1 -3.318899E-04  1.141293E-04  1.055272E-04  4.142985E-06 -2.912544E-06  4.940034E-06
       704   1 -3.253016E-04  1.130135E-04  1.061202E-04 -1.468090E-06 -2.162938E-06  1.991836E-06
       705   1 -4.300880E-04  1.416823E-04  1.425522E-04  3.836820E-07  1.698100E-06 -1.010843E-06
       706   1 -4.380977E-04  1.445655E-04  1.406704E-04  4.275079E-06  1.807726E-06 -2.515472E-06
       707   1 -4.460521E-04  1.478478E-04  1.442965E-04  7.733132E-06  2.728745E-06 -3.209274E-06
       708   1 -4.498245E-04  1.504819E-04  1.397303E-04  1.034463E-05 -1.316627E-06 -2.727311E-06
       709   1 -4.496647E-04  1.521519E-04  1.391257E-04  1.185287E-05  4.099606E-07 -1.596504E-06
       710   1 -4.524131E-04  1.527502E-04  1.379103E-04  1.247867E-05  2.156634E-14  2.143600E-15
       711   1 -4.496647E-04  1.521519E-04  1.391257E-04  1.185287E-05 -4.099606E-07  1.596504E-06
       712   1 -4.498245E-04  1.504819E-04  1.397303E-04  1.034463E-05  1.316627E-06  2.727311E-06
       713   1 -4.460521E-04  1.478478E-04  1.442965E-04  7.733132E-06 -2.728745E-06  3.209274E-06
       714   1 -4.380977E-04  1.445655E-04  1.406704E-04  4.275079E-06 -1.807726E-06  2.515472E-06
       715   1 -4.300880E-04  1.416823E-04  1.425522E-04  3.836820E-07 -1.698100E-06  1.010843E-06
       716   1 -5.436263E-04  1.826471E-04  1.801648E-04 -1.682948E-06  1.063120E-06 -3.471917E-07
       717   1 -5.515596E-04  1.859017E-04  1.765921E-04  5.988273E-07 -1.120419E-06 -6.898358E-07
       718   1 -5.589688E-04  1.898690E-04  1.798550E-04  1.447374E-06  5.091774E-07 -9.729643E-07
       719   1 -5.622305E-04  1.928659E-04  1.737004E-04  2.376987E-06 -3.757372E-06 -1.002560E-06
       720   1 -5.610199E-04  1.947049E-04  1.721905E-04  2.926676E-06 -6.757509E-07 -5.257012E-07
       721   1 -5.640394E-04  1.954052E-04  1.706535E-04  3.029064E-06  3.069027E-14  6.297792E-16
       722   1 -5.610199E-04  1.947049E-04  1.721905E-04  2.926676E-06  6.757510E-07  5.257012E-07
       723   1 -5.622305E-04  1.928659E-04  1.737004E-04  2.376987E-06  3.757372E-06  1.002560E-06
       724   1 -5.589688E-04  1.898690E-04  1.798550E-04  1.447374E-06 -5.091774E-07  9.729643E-07
       725   1 -5.515596E-04  1.859017E-04  1.765921E-04  5.988273E-07  1.120419E-06  6.898358E-07
       726   1 -5.436263E-04  1.826471E-04  1.801648E-04 -1.682948E-06 -1.063120E-06  3.471917E-07
       727   1  5.399322E-04 -1.771995E-04 -1.763174E-04  1.412587E-06 -7.849756E-07 -2.263505E-08
       728   1  5.488084E-04 -1.800872E-04 -1.817332E-04  2.016995E-06 -2.810960E-06 -5.768392E-07
       729   1  5.525800E-04 -1.825443E-04 -1.778132E-04  2.902339E-06 -6.965846E-07 -8.425285E-07
       730   1  5.556189E-04 -1.844684E-04 -1.794543E-04  3.418587E-06 -1.546920E-06 -7.251541E-07
       731   1  5.576939E-04 -1.858704E-04 -1.760986E-04  3.823827E-06  3.693571E-07 -4.659953E-07
       732   1  5.567781E-04 -1.862182E-04 -1.770009E-04  3.985115E-06 -2.968614E-14  5.213589E-16
       733   1  5.576939E-04 -1.858704E-04 -1.760986E-04  3.823827E-06 -3.693572E-07  4.659953E-07
       734   1  5.556189E-04 -1.844684E-04 -1.794543E-04  3.418587E-06  1.546920E-06  7.251541E-07
       735   1  5.525800E-04 -1.825443E-04 -1.778132E-04  2.902339E-06  6.965845E-07  8.425285E-07
       736   1  5.488084E-04 -1.800872E-04 -1.817332E-04  2.016995E-06  2.810960E-06  5.768392E-07
       737   1  5.399322E-04 -1.771995E-04 -1.763174E-04  1.412587E-06  7.849756E-07  2.263505E-08
       738   1  4.318220E-04 -1.459260E-04 -1.401945E-04  1.865785E-06 -1.589283E-06 -8.952660E-07
       739   1  4.397805E-04 -1.475007E-04 -1.448968E-04  4.431911E-06 -3.609095E-06 -2.017349E-06
       740   1  4.440695E-04 -1.498885E-04 -1.422844E-04  6.441287E-06 -2.210956E-06 -2.437507E-06
       741   1  4.477722E-04 -1.519392E-04 -1.443123E-04  8.096447E-06 -2.467283E-06 -2.220428E-06
       742   1  4.500313E-04 -1.532042E-04 -1.418381E-04  9.257293E-06 -3.668107E-07 -1.244719E-06
       743   1  4.495716E-04 -1.536695E-04 -1.428317E-04  9.579214E-06 -2.096778E-14  1.654560E-15
       744   1  4.500313E-04 -1.532042E-04 -1.418381E-04  9.257293E-06  3.668107E-07  1.244719E-06
       745   1  4.477722E-04 -1.519392E-04 -1.443123E-04  8.096447E-06  2.467283E-06  2.220428E-06
       746   1  4.440695E-04 -1.498885E-04 -1.422844E-04  6.441287E-06  2.210956E-06  2.437507E-06
       747   1  4.397805E-04 -1.475007E-04 -1.448968E-04  4.431911E-06  3.609095E-06  2.017349E-06
       748   1  4.318220E-04 -1.459260E-04 -1.401945E-04  1.865785E-06  1.589283E-06  8.952660E-07
       749   1  3.221527E-04 -1.073982E-04 -1.043795E-04  7.100092E-06 -1.413359E-06 -1.528156E-06
       750   1  3.283970E-04 -1.082447E-04 -1.085702E-04  9.981083E-06 -3.688843E-06 -3.626888E-06
       751   1  3.322784E-04 -1.098712E-04 -1.070268E-04  1.319201E-05 -2.726087E-06 -4.135059E-06
       752   1  3.356324E-04 -1.114777E-04 -1.088032E-04  1.598830E-05 -2.638676E-06 -3.504106E-06
       753   1  3.376552E-04 -1.125513E-04 -1.070488E-04  1.778811E-05 -7.097891E-07 -1.949596E-06
       754   1  3.374800E-04 -1.129284E-04 -1.078795E-04  1.837836E-05 -1.402944E-14  2.131663E-15
       755   1  3.376552E-04 -1.125513E-04 -1.070488E-04  1.778811E-05  7.097891E-07  1.949596E-06
       756   1  3.356324E-04 -1.114777E-04 -1.088032E-04  1.598830E-05  2.638676E-06  3.504106E-06
       757   1  3.322784E-04 -1.098712E-04 -1.070268E-04  1.319201E-05  2.726087E-06  4.135059E-06
       758   1  3.283970E-04 -1.082447E-04 -1.085702E-04  9.981083E-06  3.688843E-06  3.626888E-06
       759   1  3.221527E-04 -1.073982E-04 -1.043795E-04  7.100092E-06  1.413359E-06  1.528156E-06
       760   1  2.162642E-04 -7.485079E-05 -6.938108E-05  6.599869E-06 -1.260401E-06 -2.068958E-06
       761   1  2.206523E-04 -7.513807E-05 -7.235783E-05  1.005202E-05 -2.986734E-06 -4.930949E-06
       762   1  2.235539E-04 -7.622946E-05 -7.154907E-05  1.393704E-05 -2.342911E-06 -5.612219E-06
       763   1  2.260908E-04 -7.741333E-05 -7.288297E-05  1.732073E-05 -2.201180E-06 -4.623101E-06
       764   1  2.276920E-04 -7.828353E-05 -7.174570E-05  1.958587E-05 -7.004230E-07 -2.558804E-06
       765   1  2.276294E-04 -7.857912E-05 -7.232798E-05  2.033251E-05 -8.511009E-15  3.494218E-15
       766   1  2.276920E-04 -7.828353E-05 -7.174570E-05  1.958587E-05  7.004230E-07  2.558804E-06
       767   1  2.260908E-04 -7.741333E-05 -7.288297E-05  1.732073E-05  2.201180E-06  4.623101E-06
       768   1  2.235539E-04 -7.622946E-05 -7.154907E-05  1.393704E-05  2.342911E-06  5.612219E-06
       769   1  2.206523E-04 -7.513807E-05 -7.235783E-05  1.005202E-05  2.986734E-06  4.930949E-06
       770   1  2.162642E-04 -7.485079E-05 -6.938108E-05  6.599869E-06  1.260401E-06  2.068958E-06
       771   1  1.079415E-04 -3.672364E-05 -3.461723E-05  1.269291E-05 -6.483151E-07 -2.478926E-06
       772   1  1.100440E-04 -3.671359E-05 -3.619236E-05  1.611401E-05 -1.619759E-06 -5.827185E-06
       773   1  1.115179E-04 -3.715967E-05 -3.583870E-05  2.049584E-05 -1.347961E-06 -6.555886E-06
       774   1  1.128672E-04 -3.772745E-05 -3.655401E-05  2.447818E-05 -1.234043E-06 -5.434181E-06
       775   1  1.136999E-04 -3.814330E-05 -3.600866E-05  2.714204E-05 -4.218043E-07 -2.972350E-06
       776   1  1.136901E-04 -3.830394E-05 -3.629382E-05  2.802439E-05 -3.998624E-15  3.493182E-15
       777   1  1.136999E-04 -3.814330E-05 -3.600866E-05  2.714204E-05  4.218043E-07  2.972350E-06
       778   1  1.128672E-04 -3.772745E-05 -3.655401E-05  2.447818E-05  1.234043E-06  5.434181E-06
       779   1  1.115179E-04 -3.715967E-05 -3.583870E-05  2.049584E-05  1.347961E-06  6.555886E-06
       780   1  1.100440E-04 -3.671359E-05 -3.619236E-05  1.611401E-05  1.619759E-06  5.827185E-06
       781   1  1.079415E-04 -3.672364E-05 -3.461723E-05  1.269291E-05  6.483151E-07  2.478926E-06
       782   1  1.178193E-13 -4.010334E-14 -3.795402E-14  9.767154E-06 -7.003980E-16 -2.536378E-06
       783   1  1.201660E-13 -3.991257E-14 -3.987610E-14  1.320670E-05 -1.819256E-15 -6.073825E-06
       784   1  1.217268E-13 -4.057410E-14 -3.909748E-14  1.757462E-05 -1.411704E-15 -6.920071E-06
       785   1  1.231614E-13 -4.124945E-14 -3.998361E-14  2.156028E-05 -1.419486E-15 -5.679612E-06
       786   1  1.241297E-13 -4.161688E-14 -3.936025E-14  2.424795E-05 -4.222936E-16 -3.132870E-06
       787   1  1.239842E-13 -4.188685E-14 -3.962927E-14  2.514678E-05 -2.612673E-18  4.097578E-15
       788   1  1.241003E-13 -4.160756E-14 -3.935042E-14  2.424795E-05  4.183026E-16  3.132870E-06
       789   1  1.231035E-13 -4.123015E-14 -3.996397E-14  2.156028E-05  1.414180E-15  5.679612E-06
       790   1  1.216401E-13 -4.054607E-14 -3.906899E-14  1.757462E-05  1.408458E-15  6.920071E-06
       791   1  1.200511E-13 -3.987522E-14 -3.983679E-14  1.320670E-05  1.816601E-15  6.073825E-06
       792   1  1.176772E-13 -4.005748E-14 -3.790693E-14  9.767154E-06  6.995967E-16  2.536378E-06
       793   1 -1.079415E-04  3.672364E-05  3.461723E-05  1.269291E-05  6.483151E-07 -2.478926E-06
       794   1 -1.100440E-04  3.671359E-05  3.619236E-05  1.611401E-05  1.619759E-06 -5.827185E-06
       795   1 -1.115179E-04  3.715967E-05  3.583869E-05  2.049584E-05  1.347961E-06 -6.555886E-06
       796   1 -1.128672E-04  3.772745E-05  3.655401E-05  2.447818E-05  1.234043E-06 -5.434181E-06
       797   1 -1.136999E-04  3.814330E-05  3.600866E-05  2.714204E-05  4.218043E-07 -2.972350E-06
       798   1 -1.136901E-04  3.830394E-05  3.629382E-05  2.802439E-05  3.993521E-15  3.494002E-15
       799   1 -1.136999E-04  3.814330E-05  3.600866E-05  2.714204E-05 -4.218043E-07  2.972350E-06
       800   1 -1.128672E-04  3.772745E-05  3.655401E-05  2.447818E-05 -1.234043E-06  5.434181E-06
       801   1 -1.115179E-04  3.715967E-05  3.583869E-05  2.049584E-05 -1.347961E-06  6.555886E-06
       802   1 -1.100440E-04  3.671359E-05  3.619236E-05  1.611401E-05 -1.619759E-06  5.827185E-06
       803   1 -1.079415E-04  3.672364E-05  3.461723E-05  1.269291E-05 -6.483151E-07  2.478926E-06
       804   1 -2.162642E-04  7.485079E-05  6.938108E-05  6.599869E-06  1.260401E-06 -2.068958E-06
       805   1 -2.206523E-04  7.513807E-05  7.235783E-05  1.005202E-05  2.986734E-06 -4.930949E-06
       806   1 -2.235539E-04  7.622946E-05  7.154907E-05  1.393704E-05  2.342911E-06 -5.612219E-06
       807   1 -2.260908E-04  7.741333E-05  7.288297E-05  1.732073E-05  2.201180E-06 -4.623101E-06
       808   1 -2.276920E-04  7.828353E-05  7.174570E-05  1.958587E-05  7.004230E-07 -2.558804E-06
       809   1 -2.276294E-04  7.857912E-05  7.232798E-05  2.033251E-05  8.505043E-15  3.494516E-15
       810   1 -2.276920E-04  7.828353E-05  7.174570E-05  1.958587E-05 -7.004230E-07  2.558804E-06
       811   1 -2.260908E-04  7.741333E-05  7.288297E-05  1.732073E-05 -2.201180E-06  4.623101E-06
       812   1 -2.235539E-04  7.622946E-05  7.154907E-05  1.393704E-05 -2.342911E-06  5.612219E-06
       813   1 -2.206523E-04  7.513807E-05  7.235783E-05  1.005202E-05 -2.986734E-06  4.930949E-06
       814   1 -2.162642E-04  7.485079E-05  6.938108E-05  6.599869E-06 -1.260401E-06  2.068958E-06
       815   1 -3.221527E-04  1.073982E-04  1.043795E-04  7.100092E-06  1.413359E-06 -1.528156E-06
       816   1 -3.283970E-04  1.082447E-04  1.085702E-04  9.981083E-06  3.688843E-06 -3.626888E-06
       817   1 -3.322784E-04  1.098712E-04  1.070268E-04  1.319201E-05  2.726087E-06 -4.135059E-06
       818   1 -3.356324E-04  1.114777E-04  1.088032E-04  1.598830E-05  2.638676E-06 -3.504106E-06
       819   1 -3.376552E-04  1.125513E-04  1.070488E-04  1.778811E-05  7.097891E-07 -1.949596E-06
       820   1 -3.374800E-04  1.129284E-04  1.078795E-04  1.837836E-05  1.402157E-14  2.133590E-15
       821   1 -3.376552E-04  1.125513E-04  1.070488E-04  1.778811E-05 -7.097891E-07  1.949596E-06
       822   1 -3.356324E-04  1.114777E-04  1.088032E-04  1.598830E-05 -2.638676E-06  3.504106E-06
       823   1 -3.322784E-04  1.098712E-04  1.070268E-04  1.319201E-05 -2.726087E-06  4.135059E-06
       824   1 -3.283970E-04  1.082447E-04  1.085702E-04  9.981083E-06 -3.688843E-06  3.626888E-06
       825   1 -3.221527E-04  1.073982E-04  1.043795E-04  7.100092E-06 -1.413359E-06  1.528156E-06
       826   1 -4.318220E-04  1.459260E-04  1.401945E-04  1.865785E-06  1.589283E-06 -8.952660E-07
       827   1 -4.397805E-04  1.475007E-04  1.448968E-04  4.431911E-06  3.609095E-06 -2.017349E-06
       828   1 -4.440695E-04  1.498885E-04  1.422844E-04  6.441287E-06  2.210956E-06 -2.437507E-06
       829   1 -4.477722E-04  1.519392E-04  1.443123E-04  8.096447E-06  2.467283E-06 -2.220428E-06
       830   1 -4.500313E-04  1.532042E-04  1.418381E-04  9.257293E-06  3.668107E-07 -1.244719E-06
       831   1 -4.495716E-04  1.536695E-04  1.428317E-04  9.579214E-06  2.095748E-14  1.657240E-15
       832   1 -4.500313E-04  1.532042E-04  1.418381E-04  9.257293E-06 -3.668107E-07  1.244719E-06
       833   1 -4.477722E-04  1.519392E-04  1.443123E-04  8.096447E-06 -2.467283E-06  2.220428E-06
       834   1 -4.440695E-04  1.498885E-04  1.422844E-04  6.441287E-06 -2.210956E-06  2.437507E-06
       835   1 -4.397805E-04  1.475007E-04  1.448968E-04  4.431911E-06 -3.609095E-06  2.017349E-06
       836   1 -4.318220E-04  1.459260E-04  1.401945E-04  1.865785E-06 -1.589283E-06  8.952660E-07
       837   1 -5.399322E-04  1.771995E-04  1.763174E-04  1.412587E-06  7.849756E-07 -2.263505E-08
       838   1 -5.488084E-04  1.800872E-04  1.817332E-04  2.016995E-06  2.810960E-06 -5.768392E-07
       839   1 -5.525800E-04  1.825443E-04  1.778132E-04  2.902339E-06  6.965846E-07 -8.425285E-07
       840   1 -5.556189E-04  1.844684E-04  1.794543E-04  3.418587E-06  1.546920E-06 -7.251541E-07
       841   1 -5.576939E-04  1.858704E-04  1.760986E-04  3.823827E-06 -3.693571E-07 -4.659953E-07
       842   1 -5.567781E-04  1.862182E-04  1.770009E-04  3.985115E-06  2.967392E-14  5.227803E-16
       843   1 -5.576939E-04  1.858704E-04  1.760986E-04  3.823827E-06  3.693572E-07  4.659953E-07
       844   1 -5.556189E-04  1.844684E-04  1.794543E-04  3.418587E-06 -1.546920E-06  7.251541E-07
       845   1 -5.525800E-04  1.825443E-04  1.778132E-04  2.902339E-06 -6.965845E-07  8.425285E-07
       846   1 -5.488084E-04  1.800872E-04  1.817332E-04  2.016995E-06 -2.810960E-06  5.768392E-07
       847   1 -5.399322E-04  1.771995E-04  1.763174E-04  1.412587E-06 -7.849756E-07  2.263505E-08
       848   1  5.429301E-04 -1.806478E-04 -1.797219E-04  1.773001E-06 -1.476928E-06 -1.856342E-07
       849   1  5.462865E-04 -1.818906E-04 -1.780365E-04  2.267464E-06 -2.512871E-06 -3.825011E-07
       850   1  5.509531E-04 -1.837505E-04 -1.811455E-04  2.550752E-06 -3.109726E-06 -6.297896E-07
       851   1  5.530362E-04 -1.851834E-04 -1.782739E-04  2.991903E-06 -1.462112E-06 -5.863848E-07
       852   1  5.543862E-04 -1.861583E-04 -1.798638E-04  3.220707E-06 -1.172542E-06 -3.329804E-07
       853   1  5.551753E-04 -1.865053E-04 -1.778177E-04  3.323453E-06 -2.851312E-14  3.670448E-16
       854   1  5.543862E-04 -1.861583E-04 -1.798638E-04  3.220707E-06  1.172542E-06  3.329804E-07
       855   1  5.530362E-04 -1.851834E-04 -1.782739E-04  2.991903E-06  1.462112E-06  5.863848E-07
       856   1  5.509531E-04 -1.837505E-04 -1.811455E-04  2.550752E-06  3.109726E-06  6.297896E-07
       857   1  5.462865E-04 -1.818906E-04 -1.780365E-04  2.267464E-06  2.512871E-06  3.825011E-07
       858   1  5.429301E-04 -1.806478E-04 -1.797219E-04  1.773001E-06  1.476928E-06  1.856342E-07
       859   1  4.310562E-04 -1.415872E-04 -1.429766E-04  6.530654E-06 -1.332949E-06 -5.595409E-07
       860   1  4.346069E-04 -1.428774E-04 -1.420661E-04  7.295414E-06 -2.975024E-06 -1.437361E-06
       861   1  4.392732E-04 -1.443962E-04 -1.450221E-04  8.550564E-06 -3.390536E-06 -1.854375E-06
       862   1  4.415176E-04 -1.456536E-04 -1.430162E-04  9.674110E-06 -2.021122E-06 -1.624208E-06
       863   1  4.431593E-04 -1.464946E-04 -1.447628E-04  1.041780E-05 -1.385875E-06 -9.589036E-07
       864   1  4.438589E-04 -1.467983E-04 -1.430602E-04  1.072997E-05 -2.046117E-14  1.308997E-15
       865   1  4.431593E-04 -1.464946E-04 -1.447628E-04  1.041780E-05  1.385875E-06  9.589036E-07
       866   1  4.415176E-04 -1.456536E-04 -1.430162E-04  9.674110E-06  2.021122E-06  1.624208E-06
       867   1  4.392732E-04 -1.443962E-04 -1.450221E-04  8.550564E-06  3.390536E-06  1.854375E-06
       868   1  4.346069E-04 -1.428774E-04 -1.420661E-04  7.295414E-06  2.975024E-06  1.437361E-06
       869   1  4.310562E-04 -1.415872E-04 -1.429766E-04  6.530654E-06  1.332949E-06  5.595409E-07
       870   1  3.241354E-04 -1.092150E-04 -1.067239E-04  7.699647E-06 -1.380668E-06 -1.045155E-06
       871   1  3.270226E-04 -1.096682E-04 -1.064298E-04  9.226376E-06 -2.806030E-06 -2.641970E-06
       872   1  3.309949E-04 -1.108323E-04 -1.089756E-04  1.109279E-05 -3.196734E-06 -3.000587E-06
       873   1  3.331855E-04 -1.120385E-04 -1.076202E-04  1.274628E-05 -2.068029E-06 -2.566643E-06
       874   1  3.347666E-04 -1.128273E-04 -1.091008E-04  1.392330E-05 -1.324487E-06 -1.469135E-06
       875   1  3.353632E-04 -1.131015E-04 -1.078198E-04  1.434450E-05 -1.384271E-14  1.422005E-15
       876   1  3.347666E-04 -1.128273E-04 -1.091008E-04  1.392330E-05  1.324487E-06  1.469135E-06
       877   1  3.331855E-04 -1.120385E-04 -1.076202E-04  1.274628E-05  2.068029E-06  2.566643E-06
       878   1  3.309949E-04 -1.108323E-04 -1.089756E-04  1.109279E-05  3.196734E-06  3.000587E-06
       879   1  3.270226E-04 -1.096682E-04 -1.064298E-04  9.226376E-06  2.806030E-06  2.641970E-06
       880   1  3.241354E-04 -1.092150E-04 -1.067239E-04  7.699647E-06  1.380668E-06  1.045155E-06
       881   1  2.152169E-04 -7.147374E-05 -7.100514E-05  1.285234E-05 -9.628699E-07 -1.451629E-06
       882   1  2.171593E-04 -7.171081E-05 -7.086754E-05  1.438458E-05 -2.164482E-06 -3.467586E-06
       883   1  2.199950E-04 -7.239084E-05 -7.276705E-05  1.677268E-05 -2.492982E-06 -4.053258E-06
       884   1  2.216361E-04 -7.313561E-05 -7.198407E-05  1.903663E-05 -1.646523E-06 -3.353346E-06
       885   1  2.227973E-04 -7.370131E-05 -7.300058E-05  2.058411E-05 -1.038688E-06 -1.902408E-06
       886   1  2.232598E-04 -7.389496E-05 -7.217626E-05  2.114715E-05 -8.496390E-15  2.728850E-15
       887   1  2.227973E-04 -7.370131E-05 -7.300058E-05  2.058411E-05  1.038688E-06  1.902408E-06
       888   1  2.216361E-04 -7.313561E-05 -7.198407E-05  1.903663E-05  1.646523E-06  3.353346E-06
       889   1  2.199950E-04 -7.239084E-05 -7.276705E-05  1.677268E-05  2.492982E-06  4.053258E-06
       890   1  2.171593E-04 -7.171081E-05 -7.086754E-05  1.438458E-05  2.164482E-06  3.467586E-06
       891   1  2.152169E-04 -7.147374E-05 -7.100514E-05  1.285234E-05  9.628699E-07  1.451629E-06
       892   1  1.081562E-04 -3.687911E-05 -3.541841E-05  1.183969E-05 -5.614028E-07 -1.623786E-06
       893   1  1.091883E-04 -3.691665E-05 -3.544132E-05  1.357184E-05 -1.194308E-06 -4.077413E-06
       894   1  1.106800E-04 -3.726934E-05 -3.642470E-05  1.617318E-05 -1.351303E-06 -4.670432E-06
       895   1  1.115679E-04 -3.769116E-05 -3.605786E-05  1.861451E-05 -9.187254E-07 -3.911605E-06
       896   1  1.122151E-04 -3.799784E-05 -3.660180E-05  2.032953E-05 -5.692885E-07 -2.187287E-06
       897   1  1.124584E-04 -3.811731E-05 -3.617596E-05  2.095487E-05 -4.012305E-15  2.426646E-15
       898   1  1.122151E-04 -3.799784E-05 -3.660180E-05  2.032953E-05  5.692885E-07  2.187287E-06
       899   1  1.115679E-04 -3.769116E-05 -3.605786E-05  1.861451E-05  9.187254E-07  3.911605E-06
       900   1  1.106800E-04 -3.726934E-05 -3.642470E-05  1.617318E-05  1.351303E-06  4.670432E-06
       901   1  1.091883E-04 -3.691665E-05 -3.544132E-05  1.357184E-05  1.194308E-06  4.077413E-06
       902   1  1.081562E-04 -3.687911E-05 -3.541841E-05  1.183969E-05  5.614028E-07  1.623786E-06
       903   1  1.185353E-13 -4.036734E-14 -3.886454E-14  1.560387E-05 -6.202856E-16 -1.771769E-06
       904   1  1.195891E-13 -4.020829E-14 -3.893457E-14  1.727079E-05 -1.299747E-15 -4.251714E-06
       905   1  1.212819E-13 -4.074508E-14 -3.988077E-14  2.003174E-05 -1.508013E-15 -4.937920E-06
       906   1  1.221909E-13 -4.127319E-14 -3.932411E-14  2.269540E-05 -9.782371E-16 -4.083244E-06
       907   1  1.229118E-13 -4.152288E-14 -4.009523E-14  2.454908E-05 -6.454711E-16 -2.308050E-06
       908   1  1.231629E-13 -4.174504E-14 -3.943186E-14  2.521883E-05 -2.689330E-18  3.126399E-15
       909   1  1.228827E-13 -4.151247E-14 -4.008577E-14  2.454908E-05  6.405238E-16  2.308050E-06
       910   1  1.221328E-13 -4.125433E-14 -3.930524E-14  2.269540E-05  9.730342E-16  4.083244E-06
       911   1  1.211953E-13 -4.071808E-14 -3.985134E-14  2.003174E-05  1.504207E-15  4.937920E-06
       912   1  1.194739E-13 -4.017327E-14 -3.889606E-14  1.727079E-05  1.297294E-15  4.251714E-06
       913   1  1.183911E-13 -4.032235E-14 -3.881594E-14  1.560387E-05  6.194911E-16  1.771769E-06
       914   1 -1.081562E-04  3.687911E-05  3.541841E-05  1.183969E-05  5.614028E-07 -1.623786E-06
       915   1 -1.091883E-04  3.691665E-05  3.544132E-05  1.357184E-05  1.194308E-06 -4.077413E-06
       916   1 -1.106800E-04  3.726934E-05  3.642470E-05  1.617318E-05  1.351303E-06 -4.670432E-06
       917   1 -1.115679E-04  3.769116E-05  3.605786E-05  1.861451E-05  9.187254E-07 -3.911605E-06
       918   1 -1.122151E-04  3.799784E-05  3.660180E-05  2.032953E-05  5.692885E-07 -2.187287E-06
       919   1 -1.124584E-04  3.811731E-05  3.617596E-05  2.095487E-05  4.007337E-15  2.426616E-15
       920   1 -1.122151E-04  3.799784E-05  3.660180E-05  2.032953E-05 -5.692885E-07  2.187287E-06
       921   1 -1.115679E-04  3.769116E-05  3.605786E-05  1.861451E-05 -9.187254E-07  3.911605E-06
       922   1 -1.106800E-04  3.726934E-05  3.642470E-05  1.617318E-05 -1.351303E-06  4.670432E-06
       923   1 -1.091883E-04  3.691665E-05  3.544132E-05  1.357184E-05 -1.194308E-06  4.077414E-06
       924   1 -1.081562E-04  3.687911E-05  3.541841E-05  1.183969E-05 -5.614028E-07  1.623786E-06
       925   1 -2.152169E-04  7.147374E-05  7.100514E-05  1.285234E-05  9.628699E-07 -1.451629E-06
       926   1 -2.171593E-04  7.171081E-05  7.086754E-05  1.438458E-05  2.164481E-06 -3.467586E-06
       927   1 -2.199950E-04  7.239084E-05  7.276705E-05  1.677268E-05  2.492982E-06 -4.053258E-06
       928   1 -2.216361E-04  7.313561E-05  7.198407E-05  1.903663E-05  1.646523E-06 -3.353346E-06
       929   1 -2.227973E-04  7.370131E-05  7.300058E-05  2.058411E-05  1.038688E-06 -1.902408E-06
       930   1 -2.232598E-04  7.389496E-05  7.217626E-05  2.114715E-05  8.491026E-15  2.731149E-15
       931   1 -2.227973E-04  7.370131E-05  7.300058E-05  2.058411E-05 -1.038688E-06  1.902408E-06
       932   1 -2.216361E-04  7.313561E-05  7.198407E-05  1.903663E-05 -1.646523E-06  3.353346E-06
       933   1 -2.199950E-04  7.239084E-05  7.276705E-05  1.677268E-05 -2.492982E-06  4.053258E-06
       934   1 -2.171593E-04  7.171081E-05  7.086754E-05  1.438458E-05 -2.164481E-06  3.467586E-06
       935   1 -2.152169E-04  7.147374E-05  7.100514E-05  1.285234E-05 -9.628699E-07  1.451629E-06
       936   1 -3.241354E-04  1.092150E-04  1.067239E-04  7.699647E-06  1.380668E-06 -1.045155E-06
       937   1 -3.270226E-04  1.096682E-04  1.064298E-04  9.226376E-06  2.806030E-06 -2.641970E-06
       938   1 -3.309949E-04  1.108323E-04  1.089756E-04  1.109279E-05  3.196734E-06 -3.000587E-06
       939   1 -3.331855E-04  1.120385E-04  1.076202E-04  1.274628E-05  2.068029E-06 -2.566643E-06
       940   1 -3.347666E-04  1.128273E-04  1.091008E-04  1.392330E-05  1.324487E-06 -1.469135E-06
       941   1 -3.353632E-04  1.131015E-04  1.078198E-04  1.434450E-05  1.383368E-14  1.423008E-15
       942   1 -3.347666E-04  1.128273E-04  1.091008E-04  1.392330E-05 -1.324487E-06  1.469135E-06
       943   1 -3.331855E-04  1.120385E-04  1.076202E-04  1.274628E-05 -2.068029E-06  2.566643E-06
       944   1 -3.309949E-04  1.108323E-04  1.089756E-04  1.109279E-05 -3.196734E-06  3.000587E-06
       945   1 -3.270226E-04  1.096682E-04  1.064298E-04  9.226376E-06 -2.806030E-06  2.641970E-06
       946   1 -3.241354E-04  1.092150E-04  1.067239E-04  7.699647E-06 -1.380668E-06  1.045155E-06
       947   1 -4.310562E-04  1.415872E-04  1.429766E-04  6.530654E-06  1.332949E-06 -5.595409E-07
       948   1 -4.346069E-04  1.428774E-04  1.420661E-04  7.295414E-06  2.975024E-06 -1.437361E-06
       949   1 -4.392732E-04  1.443962E-04  1.450221E-04  8.550564E-06  3.390536E-06 -1.854375E-06
       950   1 -4.415176E-04  1.456536E-04  1.430162E-04  9.674110E-06  2.021122E-06 -1.624208E-06
       951   1 -4.431593E-04  1.464946E-04  1.447628E-04  1.041780E-05  1.385875E-06 -9.589036E-07
       952   1 -4.438589E-04  1.467983E-04  1.430602E-04  1.072997E-05  2.045092E-14  1.309755E-15
       953   1 -4.431593E-04  1.464946E-04  1.447628E-04  1.041780E-05 -1.385875E-06  9.589036E-07
       954   1 -4.415176E-04  1.456536E-04  1.430162E-04  9.674110E-06 -2.021122E-06  1.624208E-06
       955   1 -4.392732E-04  1.443962E-04  1.450221E-04  8.550564E-06 -3.390536E-06  1.854375E-06
       956   1 -4.346069E-04  1.428774E-04  1.420661E-04  7.295414E-06 -2.975024E-06  1.437361E-06
       957   1 -4.310562E-04  1.415872E-04  1.429766E-04  6.530654E-06 -1.332949E-06  5.595409E-07
       958   1 -5.429301E-04  1.806478E-04  1.797219E-04  1.773001E-06  1.476928E-06 -1.856342E-07
       959   1 -5.462865E-04  1.818906E-04  1.780365E-04  2.267464E-06  2.512871E-06 -3.825011E-07
       960   1 -5.509531E-04  1.837505E-04  1.811455E-04  2.550752E-06  3.109726E-06 -6.297896E-07
       961   1 -5.530362E-04  1.851834E-04  1.782739E-04  2.991903E-06  1.462112E-06 -5.863848E-07
       962   1 -5.543862E-04  1.861583E-04  1.798638E-04  3.220707E-06  1.172542E-06 -3.329804E-07
       963   1 -5.551753E-04  1.865053E-04  1.778177E-04  3.323453E-06  2.850526E-14  3.674581E-16
       964   1 -5.543862E-04  1.861583E-04  1.798638E-04  3.220707E-06 -1.172542E-06  3.329804E-07
       965   1 -5.530362E-04  1.851834E-04  1.782739E-04  2.991903E-06 -1.462112E-06  5.863848E-07
       966   1 -5.509531E-04  1.837505E-04  1.811455E-04  2.550752E-06 -3.109726E-06  6.297896E-07
       967   1 -5.462865E-04  1.818906E-04  1.780365E-04  2.267464E-06 -2.512871E-06  3.825011E-07
       968   1 -5.429301E-04  1.806478E-04  1.797219E-04  1.773001E-06 -1.476928E-06  1.856342E-07
       969   1  5.386708E-04 -1.772058E-04 -1.767566E-04  2.979359E-06 -1.206564E-06  2.326383E-08
       970   1  5.427665E-04 -1.783039E-04 -1.799674E-04  2.833812E-06 -2.967345E-06 -3.095388E-07
       971   1  5.445955E-04 -1.793877E-04 -1.780996E-04  3.114658E-06 -2.747340E-06 -4.377767E-07
       972   1  5.470740E-04 -1.802503E-04 -1.803348E-04  3.280301E-06 -2.384899E-06 -4.109813E-07
       973   1  5.479519E-04 -1.809192E-04 -1.782285E-04  3.488507E-06 -1.048846E-06 -2.493894E-07
       974   1  5.484564E-04 -1.810842E-04 -1.800316E-04  3.526550E-06 -2.815584E-14  2.472489E-16
       975   1  5.479519E-04 -1.809192E-04 -1.782285E-04  3.488507E-06  1.048846E-06  2.493894E-07
       976   1  5.470740E-04 -1.802503E-04 -1.803348E-04  3.280301E-06  2.384899E-06  4.109813E-07
       977   1  5.445955E-04 -1.793877E-04 -1.780996E-04  3.114658E-06  2.747340E-06  4.377767E-07
       978   1  5.427665E-04 -1.783039E-04 -1.799674E-04  2.833812E-06  2.967345E-06  3.095388E-07
       979   1  5.386708E-04 -1.772058E-04 -1.767566E-04  2.979359E-06  1.206564E-06 -2.326383E-08
       980   1  4.307260E-04 -1.435863E-04 -1.410978E-04  6.927673E-06 -1.205744E-06 -4.672290E-07
       981   1  4.343266E-04 -1.441488E-04 -1.437086E-04  7.179507E-06 -2.667934E-06 -1.001704E-06
       982   1  4.363720E-04 -1.452048E-04 -1.424836E-04  7.693789E-06 -2.828722E-06 -1.287014E-06
       983   1  4.390030E-04 -1.461453E-04 -1.446638E-04  8.319196E-06 -2.380421E-06 -1.189859E-06
       984   1  4.399715E-04 -1.467277E-04 -1.430980E-04  8.796821E-06 -1.151327E-06 -6.780267E-07
       985   1  4.405931E-04 -1.469608E-04 -1.447478E-04  8.948321E-06 -2.020538E-14  9.575115E-16
       986   1  4.399715E-04 -1.467277E-04 -1.430980E-04  8.796821E-06  1.151326E-06  6.780267E-07
       987   1  4.390030E-04 -1.461453E-04 -1.446638E-04  8.319196E-06  2.380421E-06  1.189859E-06
       988   1  4.363720E-04 -1.452048E-04 -1.424836E-04  7.693789E-06  2.828722E-06  1.287014E-06
       989   1  4.343266E-04 -1.441488E-04 -1.437086E-04  7.179507E-06  2.667934E-06  1.001704E-06
       990   1  4.307260E-04 -1.435863E-04 -1.410978E-04  6.927673E-06  1.205744E-06  4.672290E-07
       991   1  3.215268E-04 -1.060895E-04 -1.053607E-04  1.179155E-05 -9.641686E-07 -7.246037E-07
       992   1  3.244502E-04 -1.064749E-04 -1.077068E-04  1.210595E-05 -2.352339E-06 -1.808513E-06
       993   1  3.263077E-04 -1.071910E-04 -1.069909E-04  1.302995E-05 -2.503140E-06 -2.116991E-06
       994   1  3.285453E-04 -1.079172E-04 -1.087674E-04  1.408422E-05 -2.097894E-06 -1.827892E-06
       995   1  3.294451E-04 -1.084135E-04 -1.076699E-04  1.482302E-05 -1.052880E-06 -1.046035E-06
       996   1  3.300093E-04 -1.085885E-04 -1.089745E-04  1.510100E-05 -1.377219E-14  9.550161E-16
       997   1  3.294451E-04 -1.084135E-04 -1.076699E-04  1.482302E-05  1.052880E-06  1.046035E-06
       998   1  3.285453E-04 -1.079172E-04 -1.087674E-04  1.408422E-05  2.097894E-06  1.827892E-06
       999   1  3.263077E-04 -1.071910E-04 -1.069909E-04  1.302995E-05  2.503140E-06  2.116991E-06
      1000   1  3.244502E-04 -1.064749E-04 -1.077068E-04  1.210595E-05  2.352339E-06  1.808513E-06
      1001   1  3.215268E-04 -1.060895E-04 -1.053607E-04  1.179155E-05  9.641686E-07  7.246037E-07
      1002   1  2.149644E-04 -7.223433E-05 -7.015324E-05  1.257749E-05 -7.758291E-07 -9.854228E-07
      1003   1  2.169917E-04 -7.235354E-05 -7.174973E-05  1.318327E-05 -1.755723E-06 -2.380238E-06
      1004   1  2.183614E-04 -7.283490E-05 -7.138586E-05  1.437073E-05 -1.871970E-06 -2.817206E-06
      1005   1  2.200296E-04 -7.337885E-05 -7.267893E-05  1.562948E-05 -1.581793E-06 -2.366069E-06
      1006   1  2.207598E-04 -7.378836E-05 -7.196481E-05  1.655963E-05 -7.952202E-07 -1.345288E-06
      1007   1  2.211614E-04 -7.392306E-05 -7.286145E-05  1.689551E-05 -8.491109E-15  2.013002E-15
      1008   1  2.207598E-04 -7.378836E-05 -7.196481E-05  1.655963E-05  7.952202E-07  1.345288E-06
      1009   1  2.200296E-04 -7.337885E-05 -7.267893E-05  1.562948E-05  1.581793E-06  2.366069E-06
      1010   1  2.183614E-04 -7.283490E-05 -7.138586E-05  1.437073E-05  1.871970E-06  2.817206E-06
      1011   1  2.169917E-04 -7.235354E-05 -7.174973E-05  1.318327E-05  1.755723E-06  2.380238E-06
      1012   1  2.149644E-04 -7.223433E-05 -7.015324E-05  1.257749E-05  7.758291E-07  9.854228E-07
      1013   1  1.070854E-04 -3.549985E-05 -3.501024E-05  1.646761E-05 -3.821224E-07 -1.152876E-06
      1014   1  1.080941E-04 -3.554023E-05 -3.587072E-05  1.700791E-05 -9.292958E-07 -2.777535E-06
      1015   1  1.088132E-04 -3.575302E-05 -3.571521E-05  1.839346E-05 -1.009219E-06 -3.236509E-06
      1016   1  1.096797E-04 -3.600962E-05 -3.638555E-05  1.993983E-05 -8.427112E-07 -2.757421E-06
      1017   1  1.100592E-04 -3.619782E-05 -3.605001E-05  2.104502E-05 -4.291449E-07 -1.539363E-06
      1018   1  1.102764E-04 -3.627626E-05 -3.649428E-05  2.144417E-05 -4.040686E-15  1.691528E-15
      1019   1  1.100592E-04 -3.619782E-05 -3.605001E-05  2.104502E-05  4.291449E-07  1.539363E-06
      1020   1  1.096797E-04 -3.600962E-05 -3.638555E-05  1.993983E-05  8.427112E-07  2.757421E-06
      1021   1  1.088132E-04 -3.575302E-05 -3.571521E-05  1.839346E-05  1.009219E-06  3.236509E-06
      1022   1  1.080941E-04 -3.554023E-05 -3.587072E-05  1.700791E-05  9.292958E-07  2.777535E-06
      1023   1  1.070854E-04 -3.549985E-05 -3.501024E-05  1.646761E-05  3.821224E-07  1.152876E-06
      1024   1  1.170276E-13 -3.892004E-14 -3.835417E-14  1.470253E-05 -4.145752E-16 -1.174167E-06
      1025   1  1.182023E-13 -3.878104E-14 -3.954920E-14  1.534904E-05 -1.017261E-15 -2.883659E-06
      1026   1  1.188837E-13 -3.918523E-14 -3.892408E-14  1.675445E-05 -1.102456E-15 -3.411806E-06
      1027   1  1.199059E-13 -3.953034E-14 -3.986934E-14  1.826748E-05 -9.342740E-16 -2.858088E-06
      1028   1  1.202224E-13 -3.965263E-14 -3.931722E-14  1.937548E-05 -4.655098E-16 -1.622226E-06
      1029   1  1.205171E-13 -3.983099E-14 -3.995264E-14  1.977994E-05 -3.318463E-18  2.258180E-15
      1030   1  1.201932E-13 -3.964342E-14 -3.930778E-14  1.937548E-05  4.602282E-16  1.622226E-06
      1031   1  1.198469E-13 -3.951017E-14 -3.985039E-14  1.826748E-05  9.284252E-16  2.858088E-06
      1032   1  1.187963E-13 -3.915650E-14 -3.889448E-14  1.675445E-05  1.099874E-15  3.411806E-06
      1033   1  1.180861E-13 -3.874418E-14 -3.951043E-14  1.534904E-05  1.013856E-15  2.883659E-06
      1034   1  1.168814E-13 -3.887071E-14 -3.830590E-14  1.470253E-05  4.140331E-16  1.174167E-06
      1035   1 -1.070854E-04  3.549985E-05  3.501024E-05  1.646761E-05  3.821224E-07 -1.152876E-06
      1036   1 -1.080941E-04  3.554023E-05  3.587072E-05  1.700791E-05  9.292958E-07 -2.777535E-06
      1037   1 -1.088132E-04  3.575302E-05  3.571521E-05  1.839346E-05  1.009219E-06 -3.236509E-06
      1038   1 -1.096797E-04  3.600962E-05  3.638555E-05  1.993983E-05  8.427112E-07 -2.757421E-06
      1039   1 -1.100592E-04  3.619782E-05  3.605001E-05  2.104502E-05  4.291449E-07 -1.539363E-06
      1040   1 -1.102764E-04  3.627626E-05  3.649428E-05  2.144417E-05  4.034948E-15  1.691482E-15
      1041   1 -1.100592E-04  3.619782E-05  3.605001E-05  2.104502E-05 -4.291449E-07  1.539363E-06
      1042   1 -1.096797E-04  3.600962E-05  3.638555E-05  1.993983E-05 -8.427112E-07  2.757421E-06
      1043   1 -1.088132E-04  3.575302E-05  3.571521E-05  1.839346E-05 -1.009219E-06  3.236509E-06
      1044   1 -1.080941E-04  3.554023E-05  3.587072E-05  1.700791E-05 -9.292958E-07  2.777535E-06
      1045   1 -1.070854E-04  3.549985E-05  3.501024E-05  1.646761E-05 -3.821224E-07  1.152876E-06
      1046   1 -2.149644E-04  7.223433E-05  7.015324E-05  1.257749E-05  7.758291E-07 -9.854228E-07
      1047   1 -2.169917E-04  7.235354E-05  7.174973E-05  1.318327E-05  1.755723E-06 -2.380238E-06
      1048   1 -2.183614E-04  7.283490E-05  7.138586E-05  1.437073E-05  1.871970E-06 -2.817206E-06
      1049   1 -2.200296E-04  7.337885E-05  7.267893E-05  1.562948E-05  1.581793E-06 -2.366069E-06
      1050   1 -2.207597E-04  7.378836E-05  7.196481E-05  1.655963E-05  7.952202E-07 -1.345288E-06
      1051   1 -2.211614E-04  7.392306E-05  7.286145E-05  1.689551E-05  8.484378E-15  2.013047E-15
      1052   1 -2.207597E-04  7.378836E-05  7.196481E-05  1.655963E-05 -7.952202E-07  1.345288E-06
      1053   1 -2.200296E-04  7.337885E-05  7.267893E-05  1.562948E-05 -1.581793E-06  2.366069E-06
      1054   1 -2.183614E-04  7.283490E-05  7.138586E-05  1.437073E-05 -1.871970E-06  2.817206E-06
      1055   1 -2.169917E-04  7.235354E-05  7.174973E-05  1.318327E-05 -1.755723E-06  2.380238E-06
      1056   1 -2.149644E-04  7.223433E-05  7.015324E-05  1.257749E-05 -7.758291E-07  9.854228E-07
      1057   1 -3.215268E-04  1.060895E-04  1.053607E-04  1.179155E-05  9.641686E-07 -7.246037E-07
      1058   1 -3.244502E-04  1.064749E-04  1.077068E-04  1.210595E-05  2.352339E-06 -1.808513E-06
      1059   1 -3.263077E-04  1.071910E-04  1.069909E-04  1.302995E-05  2.503140E-06 -2.116991E-06
      1060   1 -3.285453E-04  1.079172E-04  1.087674E-04  1.408422E-05  2.097894E-06 -1.827892E-06
      1061   1 -3.294451E-04  1.084135E-04  1.076699E-04  1.482302E-05  1.052880E-06 -1.046035E-06
      1062   1 -3.300093E-04  1.085885E-04  1.089745E-04  1.510100E-05  1.376733E-14  9.559597E-16
      1063   1 -3.294451E-04  1.084135E-04  1.076699E-04  1.482302E-05 -1.052880E-06  1.046035E-06
      1064   1 -3.285453E-04  1.079172E-04  1.087674E-04  1.408422E-05 -2.097894E-06  1.827892E-06
      1065   1 -3.263077E-04  1.071910E-04  1.069909E-04  1.302995E-05 -2.503140E-06  2.116991E-06
      1066   1 -3.244502E-04  1.064749E-04  1.077068E-04  1.210595E-05 -2.352339E-06  1.808513E-06
      1067   1 -3.215268E-04  1.060895E-04  1.053607E-04  1.179155E-05 -9.641686E-07  7.246037E-07
      1068   1 -4.307260E-04  1.435863E-04  1.410978E-04  6.927673E-06  1.205744E-06 -4.672290E-07
      1069   1 -4.343266E-04  1.441488E-04  1.437086E-04  7.179507E-06  2.667934E-06 -1.001704E-06
      1070   1 -4.363720E-04  1.452048E-04  1.424836E-04  7.693789E-06  2.828722E-06 -1.287014E-06
      1071   1 -4.390030E-04  1.461453E-04  1.446638E-04  8.319196E-06  2.380421E-06 -1.189859E-06
      1072   1 -4.399715E-04  1.467277E-04  1.430980E-04  8.796821E-06  1.151327E-06 -6.780267E-07
      1073   1 -4.405931E-04  1.469608E-04  1.447478E-04  8.948321E-06  2.019531E-14  9.579028E-16
      1074   1 -4.399715E-04  1.467277E-04  1.430980E-04  8.796821E-06 -1.151326E-06  6.780267E-07
      1075   1 -4.390030E-04  1.461453E-04  1.446638E-04  8.319196E-06 -2.380421E-06  1.189859E-06
      1076   1 -4.363720E-04  1.452048E-04  1.424836E-04  7.693789E-06 -2.828722E-06  1.287014E-06
      1077   1 -4.343266E-04  1.441488E-04  1.437086E-04  7.179507E-06 -2.667934E-06  1.001704E-06
      1078   1 -4.307260E-04  1.435863E-04  1.410978E-04  6.927673E-06 -1.205744E-06  4.672290E-07
      1079   1 -5.386708E-04  1.772058E-04  1.767566E-04  2.979359E-06  1.206564E-06  2.326383E-08
      1080   1 -5.427665E-04  1.783039E-04  1.799674E-04  2.833812E-06  2.967345E-06 -3.095388E-07
      1081   1 -5.445955E-04  1.793877E-04  1.780996E-04  3.114658E-06  2.747340E-06 -4.377767E-07
      1082   1 -5.470740E-04  1.802503E-04  1.803348E-04  3.280301E-06  2.384899E-06 -4.109813E-07
      1083   1 -5.479519E-04  1.809192E-04  1.782285E-04  3.488507E-06  1.048846E-06 -2.493894E-07
      1084   1 -5.484564E-04  1.810842E-04  1.800316E-04  3.526550E-06  2.814609E-14  2.483501E-16
      1085   1 -5.479519E-04  1.809192E-04  1.782285E-04  3.488507E-06 -1.048846E-06  2.493894E-07
      1086   1 -5.470740E-04  1.802503E-04  1.803348E-04  3.280301E-06 -2.384899E-06  4.109813E-07
      1087   1 -5.445955E-04  1.793877E-04  1.780996E-04  3.114658E-06 -2.747340E-06  4.377767E-07
      1088   1 -5.427665E-04  1.783039E-04  1.799674E-04  2.833812E-06 -2.967345E-06  3.095388E-07
      1089   1 -5.386708E-04  1.772058E-04  1.767566E-04  2.979359E-06 -1.206564E-06 -2.326383E-08
      1090   1  5.379977E-04 -1.782469E-04 -1.779617E-04  2.990262E-06 -1.211236E-06 -6.734239E-08
      1091   1  5.390854E-04 -1.786020E-04 -1.768554E-04  2.828521E-06 -2.610286E-06 -1.554049E-07
      1092   1  5.415974E-04 -1.793907E-04 -1.791180E-04  2.821314E-06 -2.817913E-06 -3.180171E-07
      1093   1  5.425208E-04 -1.799844E-04 -1.775455E-04  2.961607E-06 -2.113705E-06 -2.814535E-07
      1094   1  5.438389E-04 -1.804454E-04 -1.793361E-04  3.022032E-06 -1.203620E-06 -1.731867E-07
      1095   1  5.438197E-04 -1.805795E-04 -1.776619E-04  3.082277E-06 -2.836734E-14  1.578293E-16
      1096   1  5.438389E-04 -1.804454E-04 -1.793361E-04  3.022032E-06  1.203620E-06  1.731867E-07
      1097   1  5.425208E-04 -1.799844E-04 -1.775455E-04  2.961607E-06  2.113705E-06  2.814535E-07
      1098   1  5.415974E-04 -1.793907E-04 -1.791180E-04  2.821314E-06  2.817913E-06  3.180171E-07
      1099   1  5.390854E-04 -1.786020E-04 -1.768554E-04  2.828521E-06  2.610286E-06  1.554049E-07
      1100   1  5.379977E-04 -1.782469E-04 -1.779617E-04  2.990262E-06  1.211236E-06  6.734239E-08
      1101   1  4.286844E-04 -1.409037E-04 -1.421149E-04  8.905171E-06 -8.451670E-07 -2.694874E-07
      1102   1  4.299468E-04 -1.413940E-04 -1.413460E-04  8.444790E-06 -2.247542E-06 -6.660104E-07
      1103   1  4.323674E-04 -1.420347E-04 -1.433505E-04  8.616836E-06 -2.466493E-06 -8.863523E-07
      1104   1  4.333587E-04 -1.425723E-04 -1.422317E-04  8.930245E-06 -1.996676E-06 -8.077259E-07
      1105   1  4.347160E-04 -1.429372E-04 -1.439405E-04  9.194119E-06 -1.119236E-06 -4.780953E-07
      1106   1  4.346971E-04 -1.430766E-04 -1.425376E-04  9.307884E-06 -2.068120E-14  7.204515E-16
      1107   1  4.347160E-04 -1.429372E-04 -1.439405E-04  9.194119E-06  1.119236E-06  4.780953E-07
      1108   1  4.333587E-04 -1.425723E-04 -1.422317E-04  8.930245E-06  1.996676E-06  8.077259E-07
      1109   1  4.323674E-04 -1.420347E-04 -1.433505E-04  8.616836E-06  2.466493E-06  8.863523E-07
      1110   1  4.299468E-04 -1.413940E-04 -1.413460E-04  8.444790E-06  2.247542E-06  6.660105E-07
      1111   1  4.286844E-04 -1.409037E-04 -1.421149E-04  8.905171E-06  8.451670E-07  2.694874E-07
      1112   1  3.218073E-04 -1.070381E-04 -1.063103E-04  1.176023E-05 -7.781778E-07 -4.753780E-07
      1113   1  3.228309E-04 -1.071485E-04 -1.059469E-04  1.156034E-05 -1.835004E-06 -1.246247E-06
      1114   1  3.248576E-04 -1.076193E-04 -1.076189E-04  1.184461E-05 -2.041950E-06 -1.422665E-06
      1115   1  3.258426E-04 -1.081593E-04 -1.068424E-04  1.229499E-05 -1.686746E-06 -1.259733E-06
      1116   1  3.270285E-04 -1.085025E-04 -1.082259E-04  1.270290E-05 -9.394634E-07 -7.234405E-07
      1117   1  3.270478E-04 -1.086259E-04 -1.071680E-04  1.284313E-05 -1.425273E-14  5.092396E-16
      1118   1  3.270285E-04 -1.085025E-04 -1.082259E-04  1.270290E-05  9.394634E-07  7.234405E-07
      1119   1  3.258426E-04 -1.081593E-04 -1.068424E-04  1.229499E-05  1.686746E-06  1.259733E-06
      1120   1  3.248576E-04 -1.076193E-04 -1.076189E-04  1.184461E-05  2.041950E-06  1.422665E-06
      1121   1  3.228309E-04 -1.071485E-04 -1.059469E-04  1.156034E-05  1.835004E-06  1.246247E-06
      1122   1  3.218073E-04 -1.070381E-04 -1.063103E-04  1.176023E-05  7.781778E-07  4.753780E-07
      1123   1  2.138213E-04 -7.040845E-05 -7.082062E-05  1.587052E-05 -5.127256E-07 -6.578121E-07
      1124   1  2.145534E-04 -7.053120E-05 -7.056742E-05  1.561017E-05 -1.327640E-06 -1.588924E-06
      1125   1  2.160078E-04 -7.082033E-05 -7.179383E-05  1.607531E-05 -1.482328E-06 -1.923621E-06
      1126   1  2.167352E-04 -7.112731E-05 -7.134100E-05  1.674693E-05 -1.212410E-06 -1.617423E-06
      1127   1  2.175790E-04 -7.138135E-05 -7.227858E-05  1.728818E-05 -6.845322E-07 -9.304208E-07
      1128   1  2.176242E-04 -7.146297E-05 -7.159441E-05  1.748692E-05 -8.871866E-15  1.514203E-15
      1129   1  2.175790E-04 -7.138135E-05 -7.227858E-05  1.728818E-05  6.845322E-07  9.304208E-07
      1130   1  2.167352E-04 -7.112731E-05 -7.134100E-05  1.674693E-05  1.212410E-06  1.617423E-06
      1131   1  2.160078E-04 -7.082033E-05 -7.179383E-05  1.607531E-05  1.482328E-06  1.923621E-06
      1132   1  2.145534E-04 -7.053120E-05 -7.056742E-05  1.561017E-05  1.327640E-06  1.588924E-06
      1133   1  2.138213E-04 -7.040845E-05 -7.082062E-05  1.587052E-05  5.127256E-07  6.578121E-07
      1134   1  1.071787E-04 -3.577144E-05 -3.536089E-05  1.590831E-05 -2.931081E-07 -7.247446E-07
      1135   1  1.075592E-04 -3.577273E-05 -3.528921E-05  1.578173E-05 -6.985178E-07 -1.875368E-06
      1136   1  1.083116E-04 -3.591814E-05 -3.590958E-05  1.632552E-05 -7.772221E-07 -2.177347E-06
      1137   1  1.087144E-04 -3.610594E-05 -3.569763E-05  1.703698E-05 -6.428577E-07 -1.883024E-06
      1138   1  1.091695E-04 -3.623724E-05 -3.619112E-05  1.763041E-05 -3.591785E-07 -1.057011E-06
      1139   1  1.091953E-04 -3.629316E-05 -3.583637E-05  1.784879E-05 -4.248426E-15  1.052945E-15
      1140   1  1.091695E-04 -3.623724E-05 -3.619112E-05  1.763041E-05  3.591785E-07  1.057011E-06
      1141   1  1.087144E-04 -3.610594E-05 -3.569763E-05  1.703698E-05  6.428577E-07  1.883024E-06
      1142   1  1.083116E-04 -3.591814E-05 -3.590958E-05  1.632552E-05  7.772220E-07  2.177347E-06
      1143   1  1.075592E-04 -3.577273E-05 -3.528921E-05  1.578173E-05  6.985178E-07  1.875368E-06
      1144   1  1.071787E-04 -3.577144E-05 -3.536089E-05  1.590831E-05  2.931081E-07  7.247446E-07
      1145   1  1.173571E-13 -3.903605E-14 -3.883976E-14  1.824220E-05 -3.105070E-16 -7.942050E-07
      1146   1  1.176755E-13 -3.885022E-14 -3.874973E-14  1.803237E-05 -7.768326E-16 -1.927122E-06
      1147   1  1.185853E-13 -3.915965E-14 -3.933946E-14  1.862703E-05 -8.465163E-16 -2.313078E-06
      1148   1  1.189043E-13 -3.942224E-14 -3.890133E-14  1.944883E-05 -7.101003E-16 -1.948970E-06
      1149   1  1.194979E-13 -3.948187E-14 -3.969274E-14  2.010565E-05 -3.960707E-16 -1.118145E-06
      1150   1  1.194045E-13 -3.963106E-14 -3.901439E-14  2.034162E-05 -1.986292E-18  1.642958E-15
      1151   1  1.194686E-13 -3.947298E-14 -3.968382E-14  2.010565E-05  3.894768E-16  1.118145E-06
      1152   1  1.188451E-13 -3.940663E-14 -3.888147E-14  1.944883E-05  7.053396E-16  1.948970E-06
      1153   1  1.184963E-13 -3.913016E-14 -3.931082E-14  1.862703E-05  8.429367E-16  2.313078E-06
      1154   1  1.175568E-13 -3.881227E-14 -3.870983E-14  1.803237E-05  7.737527E-16  1.927122E-06
      1155   1  1.172089E-13 -3.898726E-14 -3.879191E-14  1.824220E-05  3.093076E-16  7.942050E-07
      1156   1 -1.071787E-04  3.577144E-05  3.536089E-05  1.590831E-05  2.931081E-07 -7.247446E-07
      1157   1 -1.075592E-04  3.577273E-05  3.528921E-05  1.578173E-05  6.985178E-07 -1.875368E-06
      1158   1 -1.083116E-04  3.591814E-05  3.590958E-05  1.632552E-05  7.772220E-07 -2.177347E-06
      1159   1 -1.087144E-04  3.610594E-05  3.569763E-05  1.703698E-05  6.428577E-07 -1.883024E-06
      1160   1 -1.091695E-04  3.623724E-05  3.619112E-05  1.763041E-05  3.591785E-07 -1.057011E-06
      1161   1 -1.091953E-04  3.629316E-05  3.583637E-05  1.784879E-05  4.241800E-15  1.053094E-15
      1162   1 -1.091695E-04  3.623724E-05  3.619112E-05  1.763041E-05 -3.591785E-07  1.057011E-06
      1163   1 -1.087144E-04  3.610594E-05  3.569763E-05  1.703698E-05 -6.428577E-07  1.883024E-06
      1164   1 -1.083116E-04  3.591814E-05  3.590958E-05  1.632552E-05 -7.772220E-07  2.177347E-06
      1165   1 -1.075592E-04  3.577273E-05  3.528921E-05  1.578173E-05 -6.985178E-07  1.875368E-06
      1166   1 -1.071787E-04  3.577144E-05  3.536089E-05  1.590831E-05 -2.931081E-07  7.247446E-07
      1167   1 -2.138213E-04  7.040845E-05  7.082062E-05  1.587052E-05  5.127256E-07 -6.578121E-07
      1168   1 -2.145534E-04  7.053120E-05  7.056742E-05  1.561017E-05  1.327640E-06 -1.588924E-06
      1169   1 -2.160078E-04  7.082033E-05  7.179383E-05  1.607531E-05  1.482328E-06 -1.923621E-06
      1170   1 -2.167352E-04  7.112731E-05  7.134100E-05  1.674693E-05  1.212410E-06 -1.617423E-06
      1171   1 -2.175790E-04  7.138135E-05  7.227857E-05  1.728818E-05  6.845322E-07 -9.304208E-07
      1172   1 -2.176242E-04  7.146297E-05  7.159441E-05  1.748692E-05  8.864001E-15  1.513758E-15
      1173   1 -2.175790E-04  7.138135E-05  7.227857E-05  1.728818E-05 -6.845322E-07  9.304208E-07
      1174   1 -2.167352E-04  7.112731E-05  7.134100E-05  1.674693E-05 -1.212410E-06  1.617423E-06
      1175   1 -2.160078E-04  7.082033E-05  7.179383E-05  1.607531E-05 -1.482328E-06  1.923621E-06
      1176   1 -2.145534E-04  7.053120E-05  7.056742E-05  1.561017E-05 -1.327640E-06  1.588924E-06
      1177   1 -2.138213E-04  7.040845E-05  7.082062E-05  1.587052E-05 -5.127256E-07  6.578121E-07
      1178   1 -3.218073E-04  1.070381E-04  1.063103E-04  1.176023E-05  7.781778E-07 -4.753780E-07
      1179   1 -3.228309E-04  1.071485E-04  1.059469E-04  1.156034E-05  1.835004E-06 -1.246247E-06
      1180   1 -3.248576E-04  1.076193E-04  1.076189E-04  1.184461E-05  2.041950E-06 -1.422665E-06
      1181   1 -3.258426E-04  1.081593E-04  1.068424E-04  1.229499E-05  1.686746E-06 -1.259733E-06
      1182   1 -3.270285E-04  1.085025E-04  1.082259E-04  1.270290E-05  9.394634E-07 -7.234405E-07
      1183   1 -3.270478E-04  1.086259E-04  1.071680E-04  1.284313E-05  1.424729E-14  5.107058E-16
      1184   1 -3.270285E-04  1.085025E-04  1.082259E-04  1.270290E-05 -9.394634E-07  7.234405E-07
      1185   1 -3.258426E-04  1.081593E-04  1.068424E-04  1.229499E-05 -1.686746E-06  1.259733E-06
      1186   1 -3.248576E-04  1.076193E-04  1.076189E-04  1.184461E-05 -2.041950E-06  1.422665E-06
      1187   1 -3.228309E-04  1.071485E-04  1.059469E-04  1.156034E-05 -1.835004E-06  1.246247E-06
      1188   1 -3.218073E-04  1.070381E-04  1.063103E-04  1.176023E-05 -7.781778E-07  4.753780E-07
      1189   1 -4.286844E-04  1.409037E-04  1.421149E-04  8.905171E-06  8.451670E-07 -2.694874E-07
      1190   1 -4.299468E-04  1.413940E-04  1.413460E-04  8.444790E-06  2.247542E-06 -6.660104E-07
      1191   1 -4.323674E-04  1.420347E-04  1.433505E-04  8.616836E-06  2.466493E-06 -8.863523E-07
      1192   1 -4.333587E-04  1.425723E-04  1.422317E-04  8.930245E-06  1.996676E-06 -8.077259E-07
      1193   1 -4.347160E-04  1.429372E-04  1.439405E-04  9.194119E-06  1.119236E-06 -4.780953E-07
      1194   1 -4.346971E-04  1.430766E-04  1.425376E-04  9.307884E-06  2.066998E-14  7.219516E-16
      1195   1 -4.347160E-04  1.429372E-04  1.439405E-04  9.194119E-06 -1.119236E-06  4.780953E-07
      1196   1 -4.333587E-04  1.425723E-04  1.422317E-04  8.930245E-06 -1.996676E-06  8.077259E-07
      1197   1 -4.323674E-04  1.420347E-04  1.433505E-04  8.616836E-06 -2.466493E-06  8.863523E-07
      1198   1 -4.299468E-04  1.413940E-04  1.413460E-04  8.444790E-06 -2.247542E-06  6.660105E-07
      1199   1 -4.286844E-04  1.409037E-04  1.421149E-04  8.905171E-06 -8.451670E-07  2.694874E-07
      1200   1 -5.379977E-04  1.782469E-04  1.779617E-04  2.990262E-06  1.211236E-06 -6.734239E-08
      1201   1 -5.390854E-04  1.786020E-04  1.768554E-04  2.828521E-06  2.610286E-06 -1.554049E-07
      1202   1 -5.415974E-04  1.793907E-04  1.791180E-04  2.821314E-06  2.817913E-06 -3.180171E-07
      1203   1 -5.425208E-04  1.799844E-04  1.775455E-04  2.961607E-06  2.113705E-06 -2.814535E-07
      1204   1 -5.438389E-04  1.804454E-04  1.793361E-04  3.022032E-06  1.203620E-06 -1.731867E-07
      1205   1 -5.438197E-04  1.805795E-04  1.776619E-04  3.082277E-06  2.835895E-14  1.607042E-16
      1206   1 -5.438389E-04  1.804454E-04  1.793361E-04  3.022032E-06 -1.203620E-06  1.731867E-07
      1207   1 -5.425208E-04  1.799844E-04  1.775455E-04  2.961607E-06 -2.113705E-06  2.814535E-07
      1208   1 -5.415974E-04  1.793907E-04  1.791180E-04  2.821314E-06 -2.817913E-06  3.180171E-07
      1209   1 -5.390854E-04  1.786020E-04  1.768554E-04  2.828521E-06 -2.610286E-06  1.554049E-07
      1210   1 -5.379977E-04  1.782469E-04  1.779617E-04  2.990262E-06 -1.211236E-06  6.734239E-08
      1211   1  5.332916E-04 -1.757371E-04 -1.753034E-04  3.488812E-06 -1.025819E-06  5.208042E-08
      1212   1  5.351448E-04 -1.760741E-04 -1.772887E-04  3.071754E-06 -2.336830E-06 -1.266530E-07
      1213   1  5.357971E-04 -1.765188E-04 -1.761628E-04  3.071994E-06 -2.502995E-06 -1.897305E-07
      1214   1  5.372901E-04 -1.768424E-04 -1.779207E-04  3.059666E-06 -1.979175E-06 -1.929406E-07
      1215   1  5.375195E-04 -1.771343E-04 -1.765486E-04  3.132604E-06 -1.072168E-06 -1.137945E-07
      1216   1  5.381309E-04 -1.771945E-04 -1.780629E-04  3.123758E-06 -2.821188E-14  8.554186E-17
      1217   1  5.375195E-04 -1.771343E-04 -1.765486E-04  3.132604E-06  1.072168E-06  1.137945E-07
      1218   1  5.372901E-04 -1.768424E-04 -1.779207E-04  3.059666E-06  1.979175E-06  1.929406E-07
      1219   1  5.357971E-04 -1.765188E-04 -1.761628E-04  3.071994E-06  2.502995E-06  1.897305E-07
      1220   1  5.351448E-04 -1.760741E-04 -1.772887E-04  3.071754E-06  2.336830E-06  1.266530E-07
      1221   1  5.332916E-04 -1.757371E-04 -1.753034E-04  3.488812E-06  1.025819E-06 -5.208041E-08
      1222   1  4.266150E-04 -1.414371E-04 -1.402308E-04  8.817485E-06 -7.647951E-07 -2.227490E-07
      1223   1  4.282070E-04 -1.415799E-04 -1.417504E-04  8.195519E-06 -1.713935E-06 -4.184513E-07
      1224   1  4.289641E-04 -1.420062E-04 -1.409455E-04  8.031808E-06 -2.104955E-06 -5.750194E-07
      1225   1  4.304637E-04 -1.424003E-04 -1.425374E-04  8.106249E-06 -1.672375E-06 -5.457869E-07
      1226   1  4.307541E-04 -1.426392E-04 -1.414898E-04  8.208872E-06 -9.526994E-07 -3.161738E-07
      1227   1  4.313699E-04 -1.427473E-04 -1.428180E-04  8.252694E-06 -2.055215E-14  5.186620E-16
      1228   1  4.307541E-04 -1.426392E-04 -1.414898E-04  8.208872E-06  9.526994E-07  3.161738E-07
      1229   1  4.304637E-04 -1.424003E-04 -1.425374E-04  8.106249E-06  1.672375E-06  5.457869E-07
      1230   1  4.289641E-04 -1.420062E-04 -1.409455E-04  8.031808E-06  2.104955E-06  5.750194E-07
      1231   1  4.282070E-04 -1.415799E-04 -1.417504E-04  8.195519E-06  1.713935E-06  4.184513E-07
      1232   1  4.266150E-04 -1.414371E-04 -1.402308E-04  8.817485E-06  7.647951E-07  2.227490E-07
      1233   1  3.190951E-04 -1.051433E-04 -1.049154E-04  1.366927E-05 -5.660656E-07 -3.065061E-07
      1234   1  3.204138E-04 -1.052613E-04 -1.062937E-04  1.297359E-05 -1.347519E-06 -8.125001E-07
      1235   1  3.211238E-04 -1.055332E-04 -1.057823E-04  1.283633E-05 -1.641291E-06 -9.497239E-07
      1236   1  3.223613E-04 -1.058381E-04 -1.070329E-04  1.299697E-05 -1.327269E-06 -8.367037E-07
      1237   1  3.226568E-04 -1.060438E-04 -1.062884E-04  1.316375E-05 -7.664037E-07 -4.876412E-07
      1238   1  3.231643E-04 -1.061170E-04 -1.073176E-04  1.324736E-05 -1.421064E-14  2.455743E-16
      1239   1  3.226568E-04 -1.060438E-04 -1.062884E-04  1.316375E-05  7.664036E-07  4.876412E-07
      1240   1  3.223613E-04 -1.058381E-04 -1.070329E-04  1.299697E-05  1.327269E-06  8.367037E-07
      1241   1  3.211238E-04 -1.055332E-04 -1.057823E-04  1.283633E-05  1.641291E-06  9.497239E-07
      1242   1  3.204138E-04 -1.052613E-04 -1.062937E-04  1.297359E-05  1.347519E-06  8.125001E-07
      1243   1  3.190951E-04 -1.051433E-04 -1.049154E-04  1.366927E-05  5.660656E-07  3.065061E-07
      1244   1  2.129976E-04 -7.077754E-05 -6.993464E-05  1.552589E-05 -4.225113E-07 -4.320537E-07
      1245   1  2.138993E-04 -7.079821E-05 -7.082471E-05  1.493178E-05 -9.440096E-07 -1.038571E-06
      1246   1  2.144244E-04 -7.098145E-05 -7.054180E-05  1.485390E-05 -1.146349E-06 -1.277796E-06
      1247   1  2.153361E-04 -7.120303E-05 -7.144323E-05  1.503391E-05 -9.342773E-07 -1.075933E-06
      1248   1  2.155904E-04 -7.138226E-05 -7.094242E-05  1.524317E-05 -5.363024E-07 -6.248772E-07
      1249   1  2.159409E-04 -7.143592E-05 -7.165266E-05  1.533701E-05 -8.871631E-15  1.131850E-15
      1250   1  2.155904E-04 -7.138226E-05 -7.094242E-05  1.524317E-05  5.363024E-07  6.248772E-07
      1251   1  2.153361E-04 -7.120303E-05 -7.144323E-05  1.503391E-05  9.342773E-07  1.075933E-06
      1252   1  2.144244E-04 -7.098145E-05 -7.054180E-05  1.485390E-05  1.146349E-06  1.277796E-06
      1253   1  2.138993E-04 -7.079821E-05 -7.082471E-05  1.493178E-05  9.440095E-07  1.038571E-06
      1254   1  2.129976E-04 -7.077754E-05 -6.993464E-05  1.552589E-05  4.225113E-07  4.320537E-07
      1255   1  1.062372E-04 -3.502192E-05 -3.492275E-05  1.843622E-05 -2.040158E-07 -4.938030E-07
      1256   1  1.066991E-04 -3.503513E-05 -3.541563E-05  1.777258E-05 -4.877641E-07 -1.220784E-06
      1257   1  1.069825E-04 -3.512013E-05 -3.528036E-05  1.774433E-05 -5.949400E-07 -1.446301E-06
      1258   1  1.074488E-04 -3.522440E-05 -3.573935E-05  1.803421E-05 -4.808045E-07 -1.261307E-06
      1259   1  1.075818E-04 -3.529924E-05 -3.550653E-05  1.830173E-05 -2.777287E-07 -7.079584E-07
      1260   1  1.077658E-04 -3.533595E-05 -3.585417E-05  1.841817E-05 -4.258277E-15  6.526315E-16
      1261   1  1.075818E-04 -3.529924E-05 -3.550653E-05  1.830173E-05  2.777287E-07  7.079584E-07
      1262   1  1.074488E-04 -3.522440E-05 -3.573935E-05  1.803421E-05  4.808045E-07  1.261307E-06
      1263   1  1.069825E-04 -3.512013E-05 -3.528036E-05  1.774433E-05  5.949400E-07  1.446301E-06
      1264   1  1.066991E-04 -3.503513E-05 -3.541563E-05  1.777258E-05  4.877641E-07  1.220784E-06
      1265   1  1.062372E-04 -3.502192E-05 -3.492275E-05  1.843622E-05  2.040158E-07  4.938030E-07
      1266   1  1.161826E-13 -3.845925E-14 -3.823398E-14  1.769685E-05 -2.217532E-16 -5.079650E-07
      1267   1  1.167644E-13 -3.828556E-14 -3.906014E-14  1.711033E-05 -5.232394E-16 -1.257182E-06
      1268   1  1.169603E-13 -3.854534E-14 -3.844538E-14  1.709472E-05 -6.677262E-16 -1.535356E-06
      1269   1  1.175677E-13 -3.872488E-14 -3.917346E-14  1.734697E-05 -5.202743E-16 -1.293070E-06
      1270   1  1.175835E-13 -3.872640E-14 -3.871217E-14  1.760657E-05 -3.122136E-16 -7.515727E-07
      1271   1  1.178865E-13 -3.886149E-14 -3.926982E-14  1.772153E-05 -4.207848E-18  1.190462E-15
      1272   1  1.175520E-13 -3.871339E-14 -3.870186E-14  1.760657E-05  3.060182E-16  7.515727E-07
      1273   1  1.175077E-13 -3.870168E-14 -3.915519E-14  1.734697E-05  5.138424E-16  1.293070E-06
      1274   1  1.168704E-13 -3.851563E-14 -3.841471E-14  1.709472E-05  6.643144E-16  1.535356E-06
      1275   1  1.166446E-13 -3.824458E-14 -3.902114E-14  1.711033E-05  5.193989E-16  1.257182E-06
      1276   1  1.160330E-13 -3.840808E-14 -3.818505E-14  1.769685E-05  2.208808E-16  5.079650E-07
      1277   1 -1.062372E-04  3.502192E-05  3.492275E-05  1.843622E-05  2.040158E-07 -4.938030E-07
      1278   1 -1.066991E-04  3.503513E-05  3.541563E-05  1.777258E-05  4.877641E-07 -1.220784E-06
      1279   1 -1.069825E-04  3.512013E-05  3.528036E-05  1.774433E-05  5.949400E-07 -1.446301E-06
      1280   1 -1.074488E-04  3.522440E-05  3.573935E-05  1.803421E-05  4.808045E-07 -1.261307E-06
      1281   1 -1.075818E-04  3.529924E-05  3.550653E-05  1.830173E-05  2.777287E-07 -7.079584E-07
      1282   1 -1.077658E-04  3.533595E-05  3.585417E-05  1.841817E-05  4.251983E-15  6.518583E-16
      1283   1 -1.075818E-04  3.529924E-05  3.550653E-05  1.830173E-05 -2.777287E-07  7.079584E-07
      1284   1 -1.074488E-04  3.522440E-05  3.573935E-05  1.803421E-05 -4.808045E-07  1.261307E-06
      1285   1 -1.069825E-04  3.512013E-05  3.528036E-05  1.774433E-05 -5.949400E-07  1.446301E-06
      1286   1 -1.066991E-04  3.503513E-05  3.541563E-05  1.777258E-05 -4.877641E-07  1.220784E-06
      1287   1 -1.062372E-04  3.502192E-05  3.492275E-05  1.843622E-05 -2.040158E-07  4.938030E-07
      1288   1 -2.129976E-04  7.077754E-05  6.993464E-05  1.552589E-05  4.225113E-07 -4.320537E-07
      1289   1 -2.138993E-04  7.079821E-05  7.082471E-05  1.493178E-05  9.440096E-07 -1.038571E-06
      1290   1 -2.144244E-04  7.098145E-05  7.054180E-05  1.485390E-05  1.146349E-06 -1.277796E-06
      1291   1 -2.153361E-04  7.120303E-05  7.144323E-05  1.503391E-05  9.342773E-07 -1.075933E-06
      1292   1 -2.155904E-04  7.138226E-05  7.094242E-05  1.524317E-05  5.363024E-07 -6.248772E-07
      1293   1 -2.159409E-04  7.143592E-05  7.165266E-05  1.533701E-05  8.863930E-15  1.133422E-15
      1294   1 -2.155904E-04  7.138226E-05  7.094242E-05  1.524317E-05 -5.363024E-07  6.248772E-07
      1295   1 -2.153361E-04  7.120303E-05  7.144323E-05  1.503391E-05 -9.342773E-07  1.075933E-06
      1296   1 -2.144244E-04  7.098145E-05  7.054180E-05  1.485390E-05 -1.146349E-06  1.277796E-06
      1297   1 -2.138993E-04  7.079821E-05  7.082471E-05  1.493178E-05 -9.440095E-07  1.038571E-06
      1298   1 -2.129976E-04  7.077754E-05  6.993464E-05  1.552589E-05 -4.225113E-07  4.320537E-07
      1299   1 -3.190951E-04  1.051433E-04  1.049154E-04  1.366927E-05  5.660656E-07 -3.065061E-07
      1300   1 -3.204138E-04  1.052613E-04  1.062937E-04  1.297359E-05  1.347519E-06 -8.125001E-07
      1301   1 -3.211238E-04  1.055332E-04  1.057823E-04  1.283633E-05  1.641291E-06 -9.497239E-07
      1302   1 -3.223613E-04  1.058381E-04  1.070329E-04  1.299697E-05  1.327269E-06 -8.367037E-07
      1303   1 -3.226568E-04  1.060438E-04  1.062884E-04  1.316375E-05  7.664037E-07 -4.876412E-07
      1304   1 -3.231643E-04  1.061170E-04  1.073176E-04  1.324736E-05  1.420401E-14  2.526310E-16
      1305   1 -3.226568E-04  1.060438E-04  1.062884E-04  1.316375E-05 -7.664036E-07  4.876412E-07
      1306   1 -3.223613E-04  1.058381E-04  1.070329E-04  1.299697E-05 -1.327269E-06  8.367037E-07
      1307   1 -3.211238E-04  1.055332E-04  1.057823E-04  1.283633E-05 -1.641291E-06  9.497239E-07
      1308   1 -3.204138E-04  1.052613E-04  1.062937E-04  1.297359E-05 -1.347519E-06  8.125001E-07
      1309   1 -3.190951E-04  1.051433E-04  1.049154E-04  1.366927E-05 -5.660656E-07  3.065061E-07
      1310   1 -4.266150E-04  1.414371E-04  1.402308E-04  8.817485E-06  7.647951E-07 -2.227490E-07
      1311   1 -4.282070E-04  1.415799E-04  1.417504E-04  8.195519E-06  1.713935E-06 -4.184513E-07
      1312   1 -4.289641E-04  1.420062E-04  1.409455E-04  8.031808E-06  2.104955E-06 -5.750194E-07
      1313   1 -4.304637E-04  1.424003E-04  1.425374E-04  8.106249E-06  1.672375E-06 -5.457869E-07
      1314   1 -4.307541E-04  1.426392E-04  1.414898E-04  8.208872E-06  9.526994E-07 -3.161738E-07
      1315   1 -4.313699E-04  1.427473E-04  1.428180E-04  8.252694E-06  2.054318E-14  5.264818E-16
      1316   1 -4.307541E-04  1.426392E-04  1.414898E-04  8.208872E-06 -9.526994E-07  3.161738E-07
      1317   1 -4.304637E-04  1.424003E-04  1.425374E-04  8.106249E-06 -1.672375E-06  5.457869E-07
      1318   1 -4.289641E-04  1.420062E-04  1.409455E-04  8.031808E-06 -2.104955E-06  5.750194E-07
      1319   1 -4.282070E-04  1.415799E-04  1.417504E-04  8.195519E-06 -1.713935E-06  4.184513E-07
      1320   1 -4.266150E-04  1.414371E-04  1.402308E-04  8.817485E-06 -7.647951E-07  2.227490E-07
      1321   1 -5.332916E-04  1.757371E-04  1.753034E-04  3.488812E-06  1.025819E-06  5.208042E-08
      1322   1 -5.351448E-04  1.760741E-04  1.772887E-04  3.071754E-06  2.336830E-06 -1.266530E-07
      1323   1 -5.357971E-04  1.765188E-04  1.761628E-04  3.071994E-06  2.502995E-06 -1.897305E-07
      1324   1 -5.372901E-04  1.768424E-04  1.779207E-04  3.059666E-06  1.979175E-06 -1.929406E-07
      1325   1 -5.375195E-04  1.771343E-04  1.765486E-04  3.132604E-06  1.072168E-06 -1.137945E-07
      1326   1 -5.381309E-04  1.771945E-04  1.780629E-04  3.123758E-06  2.820426E-14  8.505227E-17
      1327   1 -5.375195E-04  1.771343E-04  1.765486E-04  3.132604E-06 -1.072168E-06  1.137945E-07
      1328   1 -5.372901E-04  1.768424E-04  1.779207E-04  3.059666E-06 -1.979175E-06  1.929406E-07
      1329   1 -5.357971E-04  1.765188E-04  1.761628E-04  3.071994E-06 -2.502995E-06  1.897305E-07
      1330   1 -5.351448E-04  1.760741E-04  1.772887E-04  3.071754E-06 -2.336830E-06  1.266530E-07
      1331   1 -5.332916E-04  1.757371E-04  1.753034E-04  3.488812E-06 -1.025819E-06 -5.208041E-08
      1332   1  5.307361E-04 -1.755027E-04 -1.754352E-04  3.406756E-06 -9.302780E-07 -4.518980E-09
      1333   1  5.308823E-04 -1.755196E-04 -1.745979E-04  3.017479E-06 -2.100152E-06 -3.872602E-08
      1334   1  5.321428E-04 -1.758366E-04 -1.760955E-04  2.881486E-06 -2.183605E-06 -1.368079E-07
      1335   1  5.324177E-04 -1.760395E-04 -1.751126E-04  2.869252E-06 -1.784203E-06 -1.148838E-07
      1336   1  5.332725E-04 -1.762457E-04 -1.764552E-04  2.850244E-06 -9.532382E-07 -7.773625E-08
      1337   1  5.330609E-04 -1.762795E-04 -1.752786E-04  2.873028E-06 -2.858747E-14  4.216022E-17
      1338   1  5.332725E-04 -1.762457E-04 -1.764552E-04  2.850244E-06  9.532382E-07  7.773625E-08
      1339   1  5.324177E-04 -1.760395E-04 -1.751126E-04  2.869252E-06  1.784203E-06  1.148838E-07
      1340   1  5.321428E-04 -1.758366E-04 -1.760955E-04  2.881486E-06  2.183605E-06  1.368079E-07
      1341   1  5.308823E-04 -1.755196E-04 -1.745979E-04  3.017479E-06  2.100152E-06  3.872602E-08
      1342   1  5.307361E-04 -1.755027E-04 -1.754352E-04  3.406756E-06  9.302780E-07  4.518979E-09
      1343   1  4.238052E-04 -1.394981E-04 -1.403591E-04  9.686220E-06 -5.193618E-07 -1.255711E-07
      1344   1  4.240819E-04 -1.396482E-04 -1.396564E-04  8.785604E-06 -1.485223E-06 -2.579622E-07
      1345   1  4.252653E-04 -1.399012E-04 -1.409250E-04  8.482719E-06 -1.643052E-06 -3.640108E-07
      1346   1  4.255799E-04 -1.401100E-04 -1.401791E-04  8.405012E-06 -1.444090E-06 -3.499718E-07
      1347   1  4.264106E-04 -1.402484E-04 -1.413988E-04  8.412654E-06 -7.720244E-07 -2.071200E-07
      1348   1  4.262247E-04 -1.403115E-04 -1.404064E-04  8.425614E-06 -2.101749E-14  3.927599E-16
      1349   1  4.264106E-04 -1.402484E-04 -1.413988E-04  8.412654E-06  7.720244E-07  2.071200E-07
      1350   1  4.255799E-04 -1.401100E-04 -1.401791E-04  8.405012E-06  1.444090E-06  3.499719E-07
      1351   1  4.252653E-04 -1.399012E-04 -1.409250E-04  8.482719E-06  1.643052E-06  3.640108E-07
      1352   1  4.240819E-04 -1.396482E-04 -1.396564E-04  8.785604E-06  1.485223E-06  2.579622E-07
      1353   1  4.238052E-04 -1.394981E-04 -1.403591E-04  9.686220E-06  5.193618E-07  1.255711E-07
      1354   1  3.180180E-04 -1.052889E-04 -1.051114E-04  1.343793E-05 -4.271819E-07 -1.921109E-07
      1355   1  3.182432E-04 -1.052657E-04 -1.047261E-04  1.257116E-05 -1.080915E-06 -5.408950E-07
      1356   1  3.192175E-04 -1.054254E-04 -1.057621E-04  1.216502E-05 -1.212887E-06 -5.981393E-07
      1357   1  3.195592E-04 -1.056546E-04 -1.052143E-04  1.203805E-05 -1.097066E-06 -5.482064E-07
      1358   1  3.202569E-04 -1.057915E-04 -1.061811E-04  1.204920E-05 -5.881304E-07 -3.158994E-07
      1359   1  3.201320E-04 -1.058427E-04 -1.054304E-04  1.205179E-05 -1.463064E-14  2.251837E-17
      1360   1  3.202569E-04 -1.057915E-04 -1.061811E-04  1.204920E-05  5.881304E-07  3.158994E-07
      1361   1  3.195592E-04 -1.056546E-04 -1.052143E-04  1.203805E-05  1.097066E-06  5.482064E-07
      1362   1  3.192175E-04 -1.054254E-04 -1.057621E-04  1.216502E-05  1.212887E-06  5.981393E-07
      1363   1  3.182432E-04 -1.052657E-04 -1.047261E-04  1.257116E-05  1.080915E-06  5.408950E-07
      1364   1  3.180180E-04 -1.052889E-04 -1.051114E-04  1.343793E-05  4.271819E-07  1.921109E-07
      1365   1  2.116107E-04 -6.964600E-05 -7.008113E-05  1.715566E-05 -2.636562E-07 -2.768469E-07
      1366   1  2.117929E-04 -6.968819E-05 -6.977705E-05  1.619882E-05 -7.372179E-07 -6.614301E-07
      1367   1  2.124916E-04 -6.979229E-05 -7.052999E-05  1.580813E-05 -8.218757E-07 -8.359067E-07
      1368   1  2.127447E-04 -6.990190E-05 -7.020128E-05  1.571619E-05 -7.372240E-07 -7.010726E-07
      1369   1  2.132335E-04 -7.001109E-05 -7.084668E-05  1.574764E-05 -4.017484E-07 -4.101853E-07
      1370   1  2.131637E-04 -7.004051E-05 -7.035983E-05  1.576444E-05 -9.175332E-15  8.657121E-16
      1371   1  2.132335E-04 -7.001109E-05 -7.084668E-05  1.574764E-05  4.017484E-07  4.101853E-07
      1372   1  2.127447E-04 -6.990190E-05 -7.020128E-05  1.571619E-05  7.372240E-07  7.010726E-07
      1373   1  2.124916E-04 -6.979229E-05 -7.052999E-05  1.580813E-05  8.218757E-07  8.359067E-07
      1374   1  2.117929E-04 -6.968819E-05 -6.977705E-05  1.619882E-05  7.372179E-07  6.614301E-07
      1375   1  2.116107E-04 -6.964600E-05 -7.008113E-05  1.715566E-05  2.636562E-07  2.768469E-07
      1376   1  1.059378E-04 -3.510292E-05 -3.500880E-05  1.802705E-05 -1.467606E-07 -2.978750E-07
      1377   1  1.060295E-04 -3.508366E-05 -3.489735E-05  1.713004E-05 -3.732454E-07 -8.005021E-07
      1378   1  1.063873E-04 -3.513425E-05 -3.526961E-05  1.674620E-05 -4.169556E-07 -9.263887E-07
      1379   1  1.065332E-04 -3.521152E-05 -3.511085E-05  1.663624E-05 -3.764912E-07 -8.290854E-07
      1380   1  1.067925E-04 -3.526114E-05 -3.545106E-05  1.666461E-05 -2.029288E-07 -4.615209E-07
      1381   1  1.067582E-04 -3.528756E-05 -3.519580E-05  1.668132E-05 -4.422489E-15  3.323965E-16
      1382   1  1.067925E-04 -3.526114E-05 -3.545106E-05  1.666461E-05  2.029288E-07  4.615209E-07
      1383   1  1.065332E-04 -3.521152E-05 -3.511085E-05  1.663624E-05  3.764912E-07  8.290854E-07
      1384   1  1.063873E-04 -3.513425E-05 -3.526961E-05  1.674620E-05  4.169556E-07  9.263887E-07
      1385   1  1.060295E-04 -3.508366E-05 -3.489735E-05  1.713004E-05  3.732454E-07  8.005021E-07
      1386   1  1.059378E-04 -3.510292E-05 -3.500880E-05  1.802705E-05  1.467606E-07  2.978750E-07
      1387   1  1.159564E-13 -3.828058E-14 -3.847535E-14  1.956988E-05 -1.482579E-16 -3.318800E-07
      1388   1  1.159531E-13 -3.808108E-14 -3.831411E-14  1.860902E-05 -4.207890E-16 -8.049074E-07
      1389   1  1.164277E-13 -3.827971E-14 -3.863859E-14  1.823304E-05 -4.467108E-16 -1.001268E-06
      1390   1  1.164662E-13 -3.842196E-14 -3.826717E-14  1.816879E-05 -4.257192E-16 -8.457049E-07
      1391   1  1.168455E-13 -3.839225E-14 -3.888109E-14  1.822229E-05 -2.201972E-16 -4.949210E-07
      1392   1  1.166795E-13 -3.851108E-14 -3.831914E-14  1.824409E-05 -3.483211E-18  8.686353E-16
      1393   1  1.168161E-13 -3.838379E-14 -3.887065E-14  1.822229E-05  2.135467E-16  4.949210E-07
      1394   1  1.164051E-13 -3.840526E-14 -3.824719E-14  1.816879E-05  4.198802E-16  8.457049E-07
      1395   1  1.163360E-13 -3.825521E-14 -3.860666E-14  1.823304E-05  4.445923E-16  1.001268E-06
      1396   1  1.158332E-13 -3.804010E-14 -3.827718E-14  1.860902E-05  4.178397E-16  8.049074E-07
      1397   1  1.158034E-13 -3.823200E-14 -3.842411E-14  1.956988E-05  1.459963E-16  3.318800E-07
      1398   1 -1.059378E-04  3.510292E-05  3.500880E-05  1.802705E-05  1.467606E-07 -2.978750E-07
      1399   1 -1.060295E-04  3.508366E-05  3.489735E-05  1.713004E-05  3.732454E-07 -8.005021E-07
      1400   1 -1.063873E-04  3.513425E-05  3.526961E-05  1.674620E-05  4.169556E-07 -9.263887E-07
      1401   1 -1.065332E-04  3.521152E-05  3.511085E-05  1.663624E-05  3.764912E-07 -8.290854E-07
      1402   1 -1.067925E-04  3.526114E-05  3.545106E-05  1.666461E-05  2.029288E-07 -4.615209E-07
      1403   1 -1.067582E-04  3.528756E-05  3.519580E-05  1.668132E-05  4.415106E-15  3.331584E-16
      1404   1 -1.067925E-04  3.526114E-05  3.545106E-05  1.666461E-05 -2.029288E-07  4.615209E-07
      1405   1 -1.065332E-04  3.521152E-05  3.511085E-05  1.663624E-05 -3.764912E-07  8.290854E-07
      1406   1 -1.063873E-04  3.513425E-05  3.526961E-05  1.674620E-05 -4.169556E-07  9.263887E-07
      1407   1 -1.060295E-04  3.508366E-05  3.489735E-05  1.713004E-05 -3.732454E-07  8.005022E-07
      1408   1 -1.059378E-04  3.510292E-05  3.500880E-05  1.802705E-05 -1.467606E-07  2.978750E-07
      1409   1 -2.116107E-04  6.964600E-05  7.008113E-05  1.715566E-05  2.636562E-07 -2.768469E-07
      1410   1 -2.117929E-04  6.968819E-05  6.977705E-05  1.619882E-05  7.372179E-07 -6.614301E-07
      1411   1 -2.124916E-04  6.979229E-05  7.052999E-05  1.580813E-05  8.218757E-07 -8.359067E-07
      1412   1 -2.127447E-04  6.990190E-05  7.020128E-05  1.571619E-05  7.372240E-07 -7.010726E-07
      1413   1 -2.132335E-04  7.001109E-05  7.084668E-05  1.574764E-05  4.017484E-07 -4.101853E-07
      1414   1 -2.131637E-04  7.004051E-05  7.035982E-05  1.576444E-05  9.167108E-15  8.656185E-16
      1415   1 -2.132335E-04  7.001109E-05  7.084668E-05  1.574764E-05 -4.017484E-07  4.101853E-07
      1416   1 -2.127447E-04  6.990190E-05  7.020128E-05  1.571619E-05 -7.372240E-07  7.010726E-07
      1417   1 -2.124916E-04  6.979229E-05  7.052999E-05  1.580813E-05 -8.218757E-07  8.359067E-07
      1418   1 -2.117929E-04  6.968819E-05  6.977705E-05  1.619882E-05 -7.372179E-07  6.614301E-07
      1419   1 -2.116107E-04  6.964600E-05  7.008113E-05  1.715566E-05 -2.636562E-07  2.768469E-07
      1420   1 -3.180180E-04  1.052889E-04  1.051114E-04  1.343793E-05  4.271819E-07 -1.921109E-07
      1421   1 -3.182432E-04  1.052657E-04  1.047261E-04  1.257116E-05  1.080915E-06 -5.408950E-07
      1422   1 -3.192175E-04  1.054254E-04  1.057621E-04  1.216502E-05  1.212887E-06 -5.981393E-07
      1423   1 -3.195592E-04  1.056546E-04  1.052143E-04  1.203805E-05  1.097066E-06 -5.482064E-07
      1424   1 -3.202569E-04  1.057915E-04  1.061811E-04  1.204920E-05  5.881304E-07 -3.158994E-07
      1425   1 -3.201320E-04  1.058427E-04  1.054304E-04  1.205179E-05  1.462428E-14  2.247687E-17
      1426   1 -3.202569E-04  1.057915E-04  1.061811E-04  1.204920E-05 -5.881304E-07  3.158994E-07
      1427   1 -3.195592E-04  1.056546E-04  1.052143E-04  1.203805E-05 -1.097066E-06  5.482064E-07
      1428   1 -3.192175E-04  1.054254E-04  1.057621E-04  1.216502E-05 -1.212887E-06  5.981393E-07
      1429   1 -3.182432E-04  1.052657E-04  1.047261E-04  1.257116E-05 -1.080915E-06  5.408950E-07
      1430   1 -3.180180E-04  1.052889E-04  1.051114E-04  1.343793E-05 -4.271819E-07  1.921109E-07
      1431   1 -4.238052E-04  1.394981E-04  1.403591E-04  9.686220E-06  5.193618E-07 -1.255711E-07
      1432   1 -4.240819E-04  1.396482E-04  1.396564E-04  8.785604E-06  1.485223E-06 -2.579622E-07
      1433   1 -4.252653E-04  1.399012E-04  1.409250E-04  8.482719E-06  1.643052E-06 -3.640108E-07
      1434   1 -4.255799E-04  1.401100E-04  1.401791E-04  8.405012E-06  1.444090E-06 -3.499718E-07
      1435   1 -4.264106E-04  1.402484E-04  1.413988E-04  8.412654E-06  7.720244E-07 -2.071200E-07
      1436   1 -4.262247E-04  1.403115E-04  1.404064E-04  8.425614E-06  2.100819E-14  3.963115E-16
      1437   1 -4.264106E-04  1.402484E-04  1.413988E-04  8.412654E-06 -7.720244E-07  2.071200E-07
      1438   1 -4.255799E-04  1.401100E-04  1.401791E-04  8.405012E-06 -1.444090E-06  3.499719E-07
      1439   1 -4.252653E-04  1.399012E-04  1.409250E-04  8.482719E-06 -1.643052E-06  3.640108E-07
      1440   1 -4.240819E-04  1.396482E-04  1.396564E-04  8.785604E-06 -1.485223E-06  2.579622E-07
      1441   1 -4.238052E-04  1.394981E-04  1.403591E-04  9.686220E-06 -5.193618E-07  1.255711E-07
      1442   1 -5.307361E-04  1.755027E-04  1.754352E-04  3.406756E-06  9.302780E-07 -4.518980E-09
      1443   1 -5.308823E-04  1.755196E-04  1.745979E-04  3.017479E-06  2.100152E-06 -3.872602E-08
      1444   1 -5.321428E-04  1.758366E-04  1.760955E-04  2.881486E-06  2.183605E-06 -1.368079E-07
      1445   1 -5.324177E-04  1.760395E-04  1.751126E-04  2.869252E-06  1.784203E-06 -1.148838E-07
      1446   1 -5.332725E-04  1.762457E-04  1.764552E-04  2.850244E-06  9.532382E-07 -7.773625E-08
      1447   1 -5.330609E-04  1.762795E-04  1.752786E-04  2.873028E-06  2.858087E-14  4.150123E-17
      1448   1 -5.332725E-04  1.762457E-04  1.764552E-04  2.850244E-06 -9.532382E-07  7.773625E-08
      1449   1 -5.324177E-04  1.760395E-04  1.751126E-04  2.869252E-06 -1.784203E-06  1.148838E-07
      1450   1 -5.321428E-04  1.758366E-04  1.760955E-04  2.881486E-06 -2.183605E-06  1.368079E-07
      1451   1 -5.308823E-04  1.755196E-04  1.745979E-04  3.017479E-06 -2.100152E-06  3.872602E-08
      1452   1 -5.307361E-04  1.755027E-04  1.754352E-04  3.406756E-06 -9.302780E-07  4.518979E-09
      1453   1  5.258698E-04 -1.734753E-04 -1.730121E-04  3.631404E-06 -8.264376E-07  6.140771E-08
      1454   1  5.267269E-04 -1.735220E-04 -1.742821E-04  3.127812E-06 -1.831001E-06 -3.426766E-08
      1455   1  5.268367E-04 -1.737030E-04 -1.734978E-04  3.009816E-06 -1.995843E-06 -6.892082E-08
      1456   1  5.276400E-04 -1.737905E-04 -1.746954E-04  2.918303E-06 -1.544352E-06 -7.733808E-08
      1457   1  5.276086E-04 -1.739151E-04 -1.737847E-04  2.918075E-06 -8.712969E-07 -4.542579E-08
      1458   1  5.280472E-04 -1.739234E-04 -1.748462E-04  2.893925E-06 -2.850037E-14  2.500441E-18
      1459   1  5.276086E-04 -1.739151E-04 -1.737847E-04  2.918075E-06  8.712969E-07  4.542579E-08
      1460   1  5.276400E-04 -1.737905E-04 -1.746954E-04  2.918303E-06  1.544352E-06  7.733808E-08
      1461   1  5.268367E-04 -1.737030E-04 -1.734978E-04  3.009816E-06  1.995843E-06  6.892082E-08
      1462   1  5.267269E-04 -1.735220E-04 -1.742821E-04  3.127812E-06  1.831001E-06  3.426767E-08
      1463   1  5.258698E-04 -1.734753E-04 -1.730121E-04  3.631404E-06  8.264376E-07 -6.140771E-08
      1464   1  4.207625E-04 -1.391755E-04 -1.385209E-04  9.513348E-06 -4.815720E-07 -1.083833E-07
      1465   1  4.214778E-04 -1.391725E-04 -1.394344E-04  8.583954E-06 -1.126117E-06 -1.425363E-07
      1466   1  4.216477E-04 -1.393355E-04 -1.388192E-04  8.141237E-06 -1.451429E-06 -2.191490E-07
      1467   1  4.224271E-04 -1.394895E-04 -1.398551E-04  7.960661E-06 -1.145254E-06 -2.202145E-07
      1468   1  4.224381E-04 -1.395746E-04 -1.391404E-04  7.885952E-06 -6.797507E-07 -1.289659E-07
      1469   1  4.228549E-04 -1.396249E-04 -1.400475E-04  7.872138E-06 -2.094153E-14  2.936003E-16
      1470   1  4.224381E-04 -1.395746E-04 -1.391404E-04  7.885952E-06  6.797507E-07  1.289659E-07
      1471   1  4.224271E-04 -1.394895E-04 -1.398551E-04  7.960661E-06  1.145254E-06  2.202145E-07
      1472   1  4.216477E-04 -1.393355E-04 -1.388192E-04  8.141237E-06  1.451429E-06  2.191490E-07
      1473   1  4.214778E-04 -1.391725E-04 -1.394344E-04  8.583954E-06  1.126117E-06  1.425363E-07
      1474   1  4.207625E-04 -1.391755E-04 -1.385209E-04  9.513348E-06  4.815719E-07  1.083833E-07
      1475   1  3.151507E-04 -1.039107E-04 -1.037322E-04  1.432358E-05 -3.258125E-07 -1.154133E-07
      1476   1  3.157461E-04 -1.039149E-04 -1.045834E-04  1.326547E-05 -7.787133E-07 -3.422063E-07
      1477   1  3.159318E-04 -1.039972E-04 -1.041656E-04  1.268334E-05 -1.010185E-06 -3.783786E-07
      1478   1  3.165605E-04 -1.041213E-04 -1.049533E-04  1.243596E-05 -8.208685E-07 -3.431691E-07
      1479   1  3.166003E-04 -1.041982E-04 -1.044374E-04  1.233227E-05 -4.960945E-07 -2.027185E-07
      1480   1  3.169324E-04 -1.042267E-04 -1.051300E-04  1.231600E-05 -1.458922E-14 -1.024715E-16
      1481   1  3.166003E-04 -1.041982E-04 -1.044374E-04  1.233227E-05  4.960945E-07  2.027185E-07
      1482   1  3.165605E-04 -1.041213E-04 -1.049533E-04  1.243596E-05  8.208685E-07  3.431691E-07
      1483   1  3.159318E-04 -1.039972E-04 -1.041656E-04  1.268334E-05  1.010185E-06  3.783786E-07
      1484   1  3.157461E-04 -1.039149E-04 -1.045834E-04  1.326547E-05  7.787133E-07  3.422063E-07
      1485   1  3.151507E-04 -1.039107E-04 -1.037322E-04  1.432358E-05  3.258125E-07  1.154133E-07
      1486   1  2.102416E-04 -6.959268E-05 -6.918234E-05  1.684091E-05 -2.229252E-07 -1.780686E-07
      1487   1  2.106424E-04 -6.958009E-05 -6.969611E-05  1.578822E-05 -5.064442E-07 -4.123568E-07
      1488   1  2.107843E-04 -6.963671E-05 -6.945026E-05  1.517372E-05 -6.580529E-07 -5.367657E-07
      1489   1  2.112428E-04 -6.971473E-05 -7.001903E-05  1.486563E-05 -5.359475E-07 -4.421855E-07
      1490   1  2.112931E-04 -6.979245E-05 -6.965974E-05  1.473766E-05 -3.253807E-07 -2.641076E-07
      1491   1  2.115203E-04 -6.981018E-05 -7.014212E-05  1.471158E-05 -9.163826E-15  6.874198E-16
      1492   1  2.112931E-04 -6.979245E-05 -6.965974E-05  1.473766E-05  3.253807E-07  2.641076E-07
      1493   1  2.112428E-04 -6.971473E-05 -7.001903E-05  1.486563E-05  5.359475E-07  4.421856E-07
      1494   1  2.107843E-04 -6.963671E-05 -6.945026E-05  1.517372E-05  6.580529E-07  5.367657E-07
      1495   1  2.106424E-04 -6.958009E-05 -6.969611E-05  1.578822E-05  5.064442E-07  4.123568E-07
      1496   1  2.102416E-04 -6.959268E-05 -6.918234E-05  1.684091E-05  2.229252E-07  1.780686E-07
      1497   1  1.049816E-04 -3.460590E-05 -3.456002E-05  1.929056E-05 -1.052439E-07 -1.950307E-07
      1498   1  1.051904E-04 -3.459974E-05 -3.485652E-05  1.817626E-05 -2.520556E-07 -5.019533E-07
      1499   1  1.052715E-04 -3.462732E-05 -3.472910E-05  1.754622E-05 -3.283495E-07 -5.916072E-07
      1500   1  1.055037E-04 -3.466645E-05 -3.501500E-05  1.726138E-05 -2.652707E-07 -5.341151E-07
      1501   1  1.055308E-04 -3.469149E-05 -3.484996E-05  1.713772E-05 -1.619000E-07 -2.961288E-07
      1502   1  1.056485E-04 -3.470959E-05 -3.508156E-05  1.711476E-05 -4.419711E-15  1.406492E-16
      1503   1  1.055308E-04 -3.469149E-05 -3.484996E-05  1.713772E-05  1.619000E-07  2.961288E-07
      1504   1  1.055037E-04 -3.466645E-05 -3.501500E-05  1.726138E-05  2.652707E-07  5.341151E-07
      1505   1  1.052715E-04 -3.462732E-05 -3.472910E-05  1.754622E-05  3.283495E-07  5.916072E-07
      1506   1  1.051904E-04 -3.459974E-05 -3.485652E-05  1.817626E-05  2.520555E-07  5.019533E-07
      1507   1  1.049816E-04 -3.460590E-05 -3.456002E-05  1.929056E-05  1.052439E-07  1.950307E-07
      1508   1  1.148452E-13 -3.800020E-14 -3.783164E-14  1.918677E-05 -1.123437E-16 -2.063092E-07
      1509   1  1.151461E-13 -3.781524E-14 -3.844142E-14  1.811347E-05 -2.661276E-16 -5.050563E-07
      1510   1  1.151307E-13 -3.799999E-14 -3.785644E-14  1.748611E-05 -3.751678E-16 -6.436073E-07
      1511   1  1.154671E-13 -3.810797E-14 -3.836910E-14  1.716914E-05 -2.827680E-16 -5.352720E-07
      1512   1  1.153817E-13 -3.805506E-14 -3.801011E-14  1.703394E-05 -1.862981E-16 -3.216721E-07
      1513   1  1.155986E-13 -3.816695E-14 -3.841231E-14  1.700652E-05 -3.199032E-18  6.607763E-16
      1514   1  1.153515E-13 -3.804856E-14 -3.799904E-14  1.703394E-05  1.798060E-16  3.216721E-07
      1515   1  1.154057E-13 -3.809193E-14 -3.834729E-14  1.716914E-05  2.777065E-16  5.352720E-07
      1516   1  1.150392E-13 -3.796833E-14 -3.782623E-14  1.748611E-05  3.713020E-16  6.436073E-07
      1517   1  1.150216E-13 -3.777013E-14 -3.840287E-14  1.811347E-05  2.632019E-16  5.050563E-07
      1518   1  1.146926E-13 -3.795380E-14 -3.778015E-14  1.918677E-05  1.104819E-16  2.063092E-07
      1519   1 -1.049816E-04  3.460590E-05  3.456002E-05  1.929056E-05  1.052439E-07 -1.950307E-07
      1520   1 -1.051904E-04  3.459974E-05  3.485652E-05  1.817626E-05  2.520556E-07 -5.019533E-07
      1521   1 -1.052715E-04  3.462732E-05  3.472910E-05  1.754622E-05  3.283495E-07 -5.916072E-07
      1522   1 -1.055037E-04  3.466645E-05  3.501500E-05  1.726138E-05  2.652707E-07 -5.341151E-07
      1523   1 -1.055308E-04  3.469149E-05  3.484996E-05  1.713772E-05  1.619000E-07 -2.961288E-07
      1524   1 -1.056485E-04  3.470959E-05  3.508156E-05  1.711476E-05  4.410446E-15  1.366594E-16
      1525   1 -1.055308E-04  3.469149E-05  3.484996E-05  1.713772E-05 -1.619000E-07  2.961288E-07
      1526   1 -1.055037E-04  3.466645E-05  3.501500E-05  1.726138E-05 -2.652707E-07  5.341151E-07
      1527   1 -1.052715E-04  3.462732E-05  3.472910E-05  1.754622E-05 -3.283495E-07  5.916072E-07
      1528   1 -1.051904E-04  3.459974E-05  3.485652E-05  1.817626E-05 -2.520555E-07  5.019533E-07
      1529   1 -1.049816E-04  3.460590E-05  3.456002E-05  1.929056E-05 -1.052439E-07  1.950307E-07
      1530   1 -2.102416E-04  6.959268E-05  6.918234E-05  1.684091E-05  2.229252E-07 -1.780686E-07
      1531   1 -2.106424E-04  6.958009E-05  6.969611E-05  1.578822E-05  5.064442E-07 -4.123568E-07
      1532   1 -2.107843E-04  6.963671E-05  6.945026E-05  1.517372E-05  6.580529E-07 -5.367657E-07
      1533   1 -2.112428E-04  6.971473E-05  7.001903E-05  1.486563E-05  5.359475E-07 -4.421856E-07
      1534   1 -2.112931E-04  6.979245E-05  6.965974E-05  1.473766E-05  3.253807E-07 -2.641076E-07
      1535   1 -2.115203E-04  6.981018E-05  7.014212E-05  1.471158E-05  9.155514E-15  6.832464E-16
      1536   1 -2.112931E-04  6.979245E-05  6.965974E-05  1.473766E-05 -3.253807E-07  2.641076E-07
      1537   1 -2.112428E-04  6.971473E-05  7.001903E-05  1.486563E-05 -5.359475E-07  4.421856E-07
      1538   1 -2.107843E-04  6.963671E-05  6.945026E-05  1.517372E-05 -6.580529E-07  5.367657E-07
      1539   1 -2.106424E-04  6.958009E-05  6.969611E-05  1.578822E-05 -5.064442E-07  4.123568E-07
      1540   1 -2.102416E-04  6.959268E-05  6.918234E-05  1.684091E-05 -2.229252E-07  1.780686E-07
      1541   1 -3.151507E-04  1.039107E-04  1.037322E-04  1.432358E-05  3.258125E-07 -1.154133E-07
      1542   1 -3.157461E-04  1.039149E-04  1.045834E-04  1.326547E-05  7.787133E-07 -3.422063E-07
      1543   1 -3.159318E-04  1.039972E-04  1.041656E-04  1.268334E-05  1.010185E-06 -3.783786E-07
      1544   1 -3.165605E-04  1.041213E-04  1.049533E-04  1.243596E-05  8.208685E-07 -3.431691E-07
      1545   1 -3.166003E-04  1.041982E-04  1.044374E-04  1.233227E-05  4.960945E-07 -2.027185E-07
      1546   1 -3.169324E-04  1.042267E-04  1.051300E-04  1.231600E-05  1.457741E-14 -1.029314E-16
      1547   1 -3.166003E-04  1.041982E-04  1.044374E-04  1.233227E-05 -4.960945E-07  2.027185E-07
      1548   1 -3.165605E-04  1.041213E-04  1.049533E-04  1.243596E-05 -8.208685E-07  3.431691E-07
      1549   1 -3.159318E-04  1.039972E-04  1.041656E-04  1.268334E-05 -1.010185E-06  3.783786E-07
      1550   1 -3.157461E-04  1.039149E-04  1.045834E-04  1.326547E-05 -7.787133E-07  3.422063E-07
      1551   1 -3.151507E-04  1.039107E-04  1.037322E-04  1.432358E-05 -3.258125E-07  1.154133E-07
      1552   1 -4.207625E-04  1.391755E-04  1.385209E-04  9.513348E-06  4.815720E-07 -1.083833E-07
      1553   1 -4.214778E-04  1.391725E-04  1.394344E-04  8.583954E-06  1.126117E-06 -1.425363E-07
      1554   1 -4.216477E-04  1.393355E-04  1.388192E-04  8.141237E-06  1.451429E-06 -2.191490E-07
      1555   1 -4.224271E-04  1.394895E-04  1.398551E-04  7.960661E-06  1.145254E-06 -2.202145E-07
      1556   1 -4.224381E-04  1.395746E-04  1.391404E-04  7.885952E-06  6.797507E-07 -1.289659E-07
      1557   1 -4.228549E-04  1.396249E-04  1.400475E-04  7.872138E-06  2.092980E-14  2.937781E-16
      1558   1 -4.224381E-04  1.395746E-04  1.391404E-04  7.885952E-06 -6.797507E-07  1.289659E-07
      1559   1 -4.224271E-04  1.394895E-04  1.398551E-04  7.960661E-06 -1.145254E-06  2.202145E-07
      1560   1 -4.216477E-04  1.393355E-04  1.388192E-04  8.141237E-06 -1.451429E-06  2.191490E-07
      1561   1 -4.214778E-04  1.391725E-04  1.394344E-04  8.583954E-06 -1.126117E-06  1.425363E-07
      1562   1 -4.207625E-04  1.391755E-04  1.385209E-04  9.513348E-06 -4.815719E-07  1.083833E-07
      1563   1 -5.258698E-04  1.734753E-04  1.730121E-04  3.631404E-06  8.264376E-07  6.140771E-08
      1564   1 -5.267269E-04  1.735220E-04  1.742821E-04  3.127812E-06  1.831001E-06 -3.426766E-08
      1565   1 -5.268367E-04  1.737030E-04  1.734978E-04  3.009816E-06  1.995843E-06 -6.892082E-08
      1566   1 -5.276400E-04  1.737905E-04  1.746954E-04  2.918303E-06  1.544352E-06 -7.733808E-08
      1567   1 -5.276086E-04  1.739151E-04  1.737847E-04  2.918075E-06  8.712969E-07 -4.542579E-08
      1568   1 -5.280472E-04  1.739234E-04  1.748462E-04  2.893925E-06  2.849238E-14  5.082198E-20
      1569   1 -5.276086E-04  1.739151E-04  1.737847E-04  2.918075E-06 -8.712969E-07  4.542579E-08
      1570   1 -5.276400E-04  1.737905E-04  1.746954E-04  2.918303E-06 -1.544352E-06  7.733808E-08
      1571   1 -5.268367E-04  1.737030E-04  1.734978E-04  3.009816E-06 -1.995843E-06  6.892082E-08
      1572   1 -5.267269E-04  1.735220E-04  1.742821E-04  3.127812E-06 -1.831001E-06  3.426767E-08
      1573   1 -5.258698E-04  1.734753E-04  1.730121E-04  3.631404E-06 -8.264376E-07 -6.140771E-08
      1574   1  5.223580E-04 -1.725818E-04 -1.725519E-04  3.553662E-06 -7.600219E-07  2.506686E-08
      1575   1  5.222033E-04 -1.724918E-04 -1.719280E-04  3.088022E-06 -1.705639E-06  1.037118E-08
      1576   1  5.228241E-04 -1.726250E-04 -1.728829E-04  2.903208E-06 -1.750351E-06 -5.064614E-08
      1577   1  5.228228E-04 -1.726659E-04 -1.722246E-04  2.822360E-06 -1.436857E-06 -3.819131E-08
      1578   1  5.233096E-04 -1.727604E-04 -1.731180E-04  2.770872E-06 -7.601584E-07 -3.085514E-08
      1579   1  5.231044E-04 -1.727531E-04 -1.723360E-04  2.771237E-06 -2.878025E-14 -1.217864E-17
      1580   1  5.233096E-04 -1.727604E-04 -1.731180E-04  2.770872E-06  7.601583E-07  3.085514E-08
      1581   1  5.228228E-04 -1.726659E-04 -1.722246E-04  2.822360E-06  1.436857E-06  3.819131E-08
      1582   1  5.228241E-04 -1.726250E-04 -1.728829E-04  2.903208E-06  1.750351E-06  5.064615E-08
      1583   1  5.222033E-04 -1.724918E-04 -1.719280E-04  3.088022E-06  1.705639E-06 -1.037117E-08
      1584   1  5.223580E-04 -1.725818E-04 -1.725519E-04  3.553662E-06  7.600219E-07 -2.506686E-08
      1585   1  4.175522E-04 -1.375913E-04 -1.381611E-04  9.910084E-06 -3.492830E-07 -6.451963E-08
      1586   1  4.174876E-04 -1.376160E-04 -1.375676E-04  8.867503E-06 -1.018874E-06 -7.517893E-08
      1587   1  4.180569E-04 -1.377160E-04 -1.383490E-04  8.376231E-06 -1.160200E-06 -1.243301E-07
      1588   1  4.180836E-04 -1.377909E-04 -1.378161E-04  8.129945E-06 -1.029774E-06 -1.329779E-07
      1589   1  4.185404E-04 -1.378336E-04 -1.386068E-04  8.018378E-06 -5.496846E-07 -7.819411E-08
      1590   1  4.183607E-04 -1.378644E-04 -1.379405E-04  7.986871E-06 -2.124842E-14  2.359376E-16
      1591   1  4.185404E-04 -1.378336E-04 -1.386068E-04  8.018378E-06  5.496845E-07  7.819411E-08
      1592   1  4.180836E-04 -1.377909E-04 -1.378161E-04  8.129945E-06  1.029774E-06  1.329779E-07
      1593   1  4.180569E-04 -1.377160E-04 -1.383490E-04  8.376231E-06  1.160200E-06  1.243301E-07
      1594   1  4.174876E-04 -1.376160E-04 -1.375676E-04  8.867503E-06  1.018874E-06  7.517893E-08
      1595   1  4.175522E-04 -1.375913E-04 -1.381611E-04  9.910084E-06  3.492830E-07  6.451964E-08
      1596   1  3.132761E-04 -1.035446E-04 -1.035112E-04  1.410555E-05 -2.517742E-07 -6.861702E-08
      1597   1  3.132253E-04 -1.034847E-04 -1.031804E-04  1.300366E-05 -6.543913E-07 -2.265566E-07
      1598   1  3.136844E-04 -1.035210E-04 -1.038115E-04  1.232190E-05 -7.579663E-07 -2.213272E-07
      1599   1  3.137478E-04 -1.036192E-04 -1.033995E-04  1.194793E-05 -7.076231E-07 -2.138255E-07
      1600   1  3.141218E-04 -1.036689E-04 -1.040182E-04  1.177918E-05 -3.796973E-07 -1.233534E-07
      1601   1  3.139928E-04 -1.036889E-04 -1.035118E-04  1.172154E-05 -1.485651E-14 -2.056189E-16
      1602   1  3.141218E-04 -1.036689E-04 -1.040182E-04  1.177918E-05  3.796972E-07  1.233534E-07
      1603   1  3.137478E-04 -1.036192E-04 -1.033995E-04  1.194793E-05  7.076231E-07  2.138255E-07
      1604   1  3.136844E-04 -1.035210E-04 -1.038115E-04  1.232190E-05  7.579663E-07  2.213272E-07
      1605   1  3.132253E-04 -1.034847E-04 -1.031804E-04  1.300366E-05  6.543913E-07  2.265566E-07
      1606   1  3.132761E-04 -1.035446E-04 -1.035112E-04  1.410555E-05  2.517742E-07  6.861702E-08
      1607   1  2.086539E-04 -6.873770E-05 -6.904146E-05  1.761883E-05 -1.418319E-07 -1.115435E-07
      1608   1  2.086352E-04 -6.874676E-05 -6.875778E-05  1.642140E-05 -4.133914E-07 -2.496902E-07
      1609   1  2.089629E-04 -6.877515E-05 -6.921720E-05  1.568443E-05 -4.722674E-07 -3.409946E-07
      1610   1  2.090131E-04 -6.880454E-05 -6.896695E-05  1.526296E-05 -4.414983E-07 -2.746804E-07
      1611   1  2.092719E-04 -6.885261E-05 -6.937116E-05  1.506388E-05 -2.408479E-07 -1.658636E-07
      1612   1  2.091909E-04 -6.886005E-05 -6.904435E-05  1.499990E-05 -9.347696E-15  5.612326E-16
      1613   1  2.092719E-04 -6.885261E-05 -6.937116E-05  1.506388E-05  2.408478E-07  1.658636E-07
      1614   1  2.090131E-04 -6.880454E-05 -6.896695E-05  1.526296E-05  4.414983E-07  2.746804E-07
      1615   1  2.089629E-04 -6.877515E-05 -6.921720E-05  1.568443E-05  4.722674E-07  3.409946E-07
      1616   1  2.086352E-04 -6.874676E-05 -6.875778E-05  1.642140E-05  4.133914E-07  2.496902E-07
      1617   1  2.086539E-04 -6.873770E-05 -6.904146E-05  1.761883E-05  1.418319E-07  1.115435E-07
      1618   1  1.043969E-04 -3.451279E-05 -3.449642E-05  1.898709E-05 -7.580371E-08 -1.122979E-07
      1619   1  1.043854E-04 -3.448966E-05 -3.438947E-05  1.780600E-05 -1.996104E-07 -3.232753E-07
      1620   1  1.045518E-04 -3.450244E-05 -3.461019E-05  1.704262E-05 -2.289584E-07 -3.607892E-07
      1621   1  1.045855E-04 -3.453249E-05 -3.448570E-05  1.658176E-05 -2.157558E-07 -3.412733E-07
      1622   1  1.047215E-04 -3.454761E-05 -3.470203E-05  1.635678E-05 -1.161729E-07 -1.837156E-07
      1623   1  1.046809E-04 -3.456150E-05 -3.452706E-05  1.628470E-05 -4.518468E-15 -3.482364E-18
      1624   1  1.047215E-04 -3.454761E-05 -3.470203E-05  1.635678E-05  1.161729E-07  1.837156E-07
      1625   1  1.045855E-04 -3.453249E-05 -3.448570E-05  1.658176E-05  2.157558E-07  3.412733E-07
      1626   1  1.045518E-04 -3.450244E-05 -3.461019E-05  1.704262E-05  2.289584E-07  3.607892E-07
      1627   1  1.043854E-04 -3.448966E-05 -3.438947E-05  1.780600E-05  1.996104E-07  3.232753E-07
      1628   1  1.043969E-04 -3.451279E-05 -3.449642E-05  1.898709E-05  7.580371E-08  1.122979E-07
      1629   1  1.142577E-13 -3.765304E-14 -3.791582E-14  2.010600E-05 -7.019362E-17 -1.314183E-07
      1630   1  1.141504E-13 -3.745572E-14 -3.776700E-14  1.888101E-05 -2.273826E-16 -3.094557E-07
      1631   1  1.143975E-13 -3.762051E-14 -3.790184E-14  1.810976E-05 -2.453838E-16 -4.080145E-07
      1632   1  1.143328E-13 -3.770118E-14 -3.760421E-14  1.766152E-05 -2.473036E-16 -3.362344E-07
      1633   1  1.145548E-13 -3.763266E-14 -3.804254E-14  1.744352E-05 -1.257791E-16 -2.048063E-07
      1634   1  1.144050E-13 -3.774021E-14 -3.760967E-14  1.737090E-05 -3.265524E-18  5.049917E-16
      1635   1  1.145219E-13 -3.762008E-14 -3.803229E-14  1.744352E-05  1.200534E-16  2.048063E-07
      1636   1  1.142715E-13 -3.768340E-14 -3.758235E-14  1.766152E-05  2.396841E-16  3.362344E-07
      1637   1  1.143019E-13 -3.757801E-14 -3.787222E-14  1.810976E-05  2.410740E-16  4.080145E-07
      1638   1  1.140240E-13 -3.740758E-14 -3.772526E-14  1.888101E-05  2.233253E-16  3.094557E-07
      1639   1  1.141018E-13 -3.760230E-14 -3.786418E-14  2.010600E-05  7.160478E-17  1.314183E-07
      1640   1 -1.043969E-04  3.451279E-05  3.449642E-05  1.898709E-05  7.580371E-08 -1.122979E-07
      1641   1 -1.043854E-04  3.448966E-05  3.438947E-05  1.780600E-05  1.996104E-07 -3.232753E-07
      1642   1 -1.045518E-04  3.450244E-05  3.461019E-05  1.704262E-05  2.289584E-07 -3.607892E-07
      1643   1 -1.045855E-04  3.453249E-05  3.448570E-05  1.658176E-05  2.157558E-07 -3.412733E-07
      1644   1 -1.047215E-04  3.454761E-05  3.470203E-05  1.635678E-05  1.161729E-07 -1.837156E-07
      1645   1 -1.046809E-04  3.456150E-05  3.452706E-05  1.628470E-05  4.511377E-15 -2.282330E-18
      1646   1 -1.047215E-04  3.454761E-05  3.470203E-05  1.635678E-05 -1.161729E-07  1.837156E-07
      1647   1 -1.045855E-04  3.453249E-05  3.448570E-05  1.658176E-05 -2.157558E-07  3.412733E-07
      1648   1 -1.045518E-04  3.450244E-05  3.461019E-05  1.704262E-05 -2.289584E-07  3.607892E-07
      1649   1 -1.043854E-04  3.448966E-05  3.438947E-05  1.780600E-05 -1.996104E-07  3.232753E-07
      1650   1 -1.043969E-04  3.451279E-05  3.449642E-05  1.898709E-05 -7.580371E-08  1.122979E-07
      1651   1 -2.086539E-04  6.873770E-05  6.904146E-05  1.761883E-05  1.418319E-07 -1.115435E-07
      1652   1 -2.086352E-04  6.874676E-05  6.875778E-05  1.642140E-05  4.133914E-07 -2.496902E-07
      1653   1 -2.089629E-04  6.877515E-05  6.921720E-05  1.568443E-05  4.722674E-07 -3.409946E-07
      1654   1 -2.090131E-04  6.880454E-05  6.896695E-05  1.526296E-05  4.414983E-07 -2.746804E-07
      1655   1 -2.092719E-04  6.885261E-05  6.937116E-05  1.506388E-05  2.408479E-07 -1.658636E-07
      1656   1 -2.091909E-04  6.886005E-05  6.904435E-05  1.499990E-05  9.340526E-15  5.603377E-16
      1657   1 -2.092719E-04  6.885261E-05  6.937116E-05  1.506388E-05 -2.408478E-07  1.658636E-07
      1658   1 -2.090131E-04  6.880454E-05  6.896695E-05  1.526296E-05 -4.414983E-07  2.746804E-07
      1659   1 -2.089629E-04  6.877515E-05  6.921720E-05  1.568443E-05 -4.722674E-07  3.409946E-07
      1660   1 -2.086352E-04  6.874676E-05  6.875778E-05  1.642140E-05 -4.133914E-07  2.496902E-07
      1661   1 -2.086539E-04  6.873770E-05  6.904146E-05  1.761883E-05 -1.418319E-07  1.115435E-07
      1662   1 -3.132761E-04  1.035446E-04  1.035112E-04  1.410555E-05  2.517742E-07 -6.861702E-08
      1663   1 -3.132253E-04  1.034847E-04  1.031804E-04  1.300366E-05  6.543913E-07 -2.265566E-07
      1664   1 -3.136844E-04  1.035210E-04  1.038115E-04  1.232190E-05  7.579663E-07 -2.213272E-07
      1665   1 -3.137478E-04  1.036192E-04  1.033995E-04  1.194793E-05  7.076231E-07 -2.138255E-07
      1666   1 -3.141218E-04  1.036689E-04  1.040182E-04  1.177918E-05  3.796973E-07 -1.233534E-07
      1667   1 -3.139928E-04  1.036889E-04  1.035118E-04  1.172154E-05  1.484523E-14 -2.068310E-16
      1668   1 -3.141218E-04  1.036689E-04  1.040182E-04  1.177918E-05 -3.796972E-07  1.233534E-07
      1669   1 -3.137478E-04  1.036192E-04  1.033995E-04  1.194793E-05 -7.076231E-07  2.138255E-07
      1670   1 -3.136844E-04  1.035210E-04  1.038115E-04  1.232190E-05 -7.579663E-07  2.213272E-07
      1671   1 -3.132253E-04  1.034847E-04  1.031804E-04  1.300366E-05 -6.543913E-07  2.265566E-07
      1672   1 -3.132761E-04  1.035446E-04  1.035112E-04  1.410555E-05 -2.517742E-07  6.861702E-08
      1673   1 -4.175522E-04  1.375913E-04  1.381611E-04  9.910084E-06  3.492830E-07 -6.451964E-08
      1674   1 -4.174876E-04  1.376160E-04  1.375676E-04  8.867503E-06  1.018874E-06 -7.517893E-08
      1675   1 -4.180569E-04  1.377160E-04  1.383490E-04  8.376231E-06  1.160200E-06 -1.243301E-07
      1676   1 -4.180836E-04  1.377909E-04  1.378161E-04  8.129945E-06  1.029774E-06 -1.329779E-07
      1677   1 -4.185404E-04  1.378336E-04  1.386068E-04  8.018378E-06  5.496846E-07 -7.819411E-08
      1678   1 -4.183607E-04  1.378644E-04  1.379405E-04  7.986871E-06  2.123891E-14  2.315466E-16
      1679   1 -4.185404E-04  1.378336E-04  1.386068E-04  8.018378E-06 -5.496845E-07  7.819411E-08
      1680   1 -4.180836E-04  1.377909E-04  1.378161E-04  8.129945E-06 -1.029774E-06  1.329779E-07
      1681   1 -4.180569E-04  1.377160E-04  1.383490E-04  8.376231E-06 -1.160200E-06  1.243301E-07
      1682   1 -4.174876E-04  1.376160E-04  1.375676E-04  8.867503E-06 -1.018874E-06  7.517893E-08
      1683   1 -4.175522E-04  1.375913E-04  1.381611E-04  9.910084E-06 -3.492830E-07  6.451964E-08
      1684   1 -5.223580E-04  1.725818E-04  1.725519E-04  3.553662E-06  7.600219E-07  2.506686E-08
      1685   1 -5.222033E-04  1.724918E-04  1.719280E-04  3.088022E-06  1.705639E-06  1.037118E-08
      1686   1 -5.228241E-04  1.726250E-04  1.728829E-04  2.903208E-06  1.750351E-06 -5.064614E-08
      1687   1 -5.228228E-04  1.726659E-04  1.722246E-04  2.822360E-06  1.436857E-06 -3.819131E-08
      1688   1 -5.233096E-04  1.727604E-04  1.731180E-04  2.770872E-06  7.601584E-07 -3.085514E-08
      1689   1 -5.231044E-04  1.727531E-04  1.723360E-04  2.771237E-06  2.877331E-14 -1.913278E-17
      1690   1 -5.233096E-04  1.727604E-04  1.731180E-04  2.770872E-06 -7.601583E-07  3.085514E-08
      1691   1 -5.228228E-04  1.726659E-04  1.722246E-04  2.822360E-06 -1.436857E-06  3.819131E-08
      1692   1 -5.228241E-04  1.726250E-04  1.728829E-04  2.903208E-06 -1.750351E-06  5.064615E-08
      1693   1 -5.222033E-04  1.724918E-04  1.719280E-04  3.088022E-06 -1.705639E-06 -1.037117E-08
      1694   1 -5.223580E-04  1.725818E-04  1.725519E-04  3.553662E-06 -7.600219E-07 -2.506686E-08
      1695   1  5.174946E-04 -1.708087E-04 -1.703537E-04  3.663051E-06 -7.092212E-07  6.143725E-08
      1696   1  5.179195E-04 -1.707567E-04 -1.711918E-04  3.137701E-06 -1.551441E-06  5.912228E-09
      1697   1  5.178377E-04 -1.708411E-04 -1.706241E-04  2.973095E-06 -1.657078E-06 -1.839327E-08
      1698   1  5.182539E-04 -1.708376E-04 -1.714025E-04  2.851239E-06 -1.280650E-06 -2.501162E-08
      1699   1  5.181491E-04 -1.708963E-04 -1.707898E-04  2.816404E-06 -7.181560E-07 -1.553480E-08
      1700   1  5.184229E-04 -1.708821E-04 -1.714917E-04  2.788730E-06 -2.871453E-14 -3.010355E-17
      1701   1  5.181491E-04 -1.708963E-04 -1.707898E-04  2.816404E-06  7.181559E-07  1.553480E-08
      1702   1  5.182539E-04 -1.708376E-04 -1.714025E-04  2.851239E-06  1.280650E-06  2.501162E-08
      1703   1  5.178377E-04 -1.708411E-04 -1.706241E-04  2.973095E-06  1.657077E-06  1.839327E-08
      1704   1  5.179195E-04 -1.707567E-04 -1.711918E-04  3.137701E-06  1.551441E-06 -5.912227E-09
      1705   1  5.174946E-04 -1.708087E-04 -1.703537E-04  3.663051E-06  7.092212E-07 -6.143725E-08
      1706   1  4.140659E-04 -1.368141E-04 -1.364365E-04  9.772302E-06 -3.359335E-07 -6.079033E-08
      1707   1  4.144099E-04 -1.367728E-04 -1.369964E-04  8.741947E-06 -8.314971E-07 -2.805558E-08
      1708   1  4.143667E-04 -1.368383E-04 -1.365204E-04  8.195444E-06 -1.072061E-06 -6.450687E-08
      1709   1  4.147592E-04 -1.368966E-04 -1.371700E-04  7.909764E-06 -8.564437E-07 -7.685374E-08
      1710   1  4.146832E-04 -1.369194E-04 -1.366793E-04  7.760703E-06 -5.054015E-07 -4.481925E-08
      1711   1  4.149352E-04 -1.369457E-04 -1.372668E-04  7.720110E-06 -2.117873E-14  1.928508E-16
      1712   1  4.146832E-04 -1.369194E-04 -1.366793E-04  7.760703E-06  5.054014E-07  4.481925E-08
      1713   1  4.147592E-04 -1.368966E-04 -1.371700E-04  7.909764E-06  8.564436E-07  7.685374E-08
      1714   1  4.143667E-04 -1.368383E-04 -1.365204E-04  8.195444E-06  1.072061E-06  6.450687E-08
      1715   1  4.144099E-04 -1.367728E-04 -1.369964E-04  8.741947E-06  8.314971E-07  2.805557E-08
      1716   1  4.140659E-04 -1.368141E-04 -1.364365E-04  9.772302E-06  3.359335E-07  6.079033E-08
      1717   1  3.103584E-04 -1.023980E-04 -1.022113E-04  1.451620E-05 -2.063188E-07 -3.711851E-08
      1718   1  3.106422E-04 -1.023639E-04 -1.027636E-04  1.334285E-05 -5.028812E-07 -1.441603E-07
      1719   1  3.106320E-04 -1.023748E-04 -1.024305E-04  1.259217E-05 -6.659139E-07 -1.302066E-07
      1720   1  3.109419E-04 -1.024292E-04 -1.029069E-04  1.217580E-05 -5.555938E-07 -1.254948E-07
      1721   1  3.108962E-04 -1.024544E-04 -1.025491E-04  1.195741E-05 -3.362883E-07 -7.487672E-08
      1722   1  3.110932E-04 -1.024650E-04 -1.029919E-04  1.189592E-05 -1.480781E-14 -2.555134E-16
      1723   1  3.108962E-04 -1.024544E-04 -1.025491E-04  1.195741E-05  3.362883E-07  7.487672E-08
      1724   1  3.109419E-04 -1.024292E-04 -1.029069E-04  1.217580E-05  5.555938E-07  1.254948E-07
      1725   1  3.106320E-04 -1.023748E-04 -1.024305E-04  1.259217E-05  6.659138E-07  1.302066E-07
      1726   1  3.106422E-04 -1.023639E-04 -1.027636E-04  1.334285E-05  5.028812E-07  1.441603E-07
      1727   1  3.103584E-04 -1.023980E-04 -1.022113E-04  1.451620E-05  2.063188E-07  3.711851E-08
      1728   1  2.069869E-04 -6.841403E-05 -6.818240E-05  1.738454E-05 -1.256998E-07 -7.228252E-08
      1729   1  2.071749E-04 -6.839773E-05 -6.848721E-05  1.617425E-05 -2.986294E-07 -1.478822E-07
      1730   1  2.071728E-04 -6.840717E-05 -6.828759E-05  1.535335E-05 -3.991861E-07 -2.154118E-07
      1731   1  2.073963E-04 -6.842716E-05 -6.863647E-05  1.484528E-05 -3.328690E-07 -1.632246E-07
      1732   1  2.073753E-04 -6.846357E-05 -6.837855E-05  1.457572E-05 -2.054482E-07 -1.029711E-07
      1733   1  2.075092E-04 -6.846662E-05 -6.869139E-05  1.449648E-05 -9.326464E-15  4.826788E-16
      1734   1  2.073753E-04 -6.846357E-05 -6.837855E-05  1.457572E-05  2.054481E-07  1.029711E-07
      1735   1  2.073963E-04 -6.842716E-05 -6.863647E-05  1.484528E-05  3.328690E-07  1.632246E-07
      1736   1  2.071728E-04 -6.840717E-05 -6.828759E-05  1.535335E-05  3.991860E-07  2.154118E-07
      1737   1  2.071749E-04 -6.839773E-05 -6.848721E-05  1.617425E-05  2.986294E-07  1.478822E-07
      1738   1  2.069869E-04 -6.841403E-05 -6.818240E-05  1.738454E-05  1.256998E-07  7.228252E-08
      1739   1  1.034248E-04 -3.411568E-05 -3.406630E-05  1.958850E-05 -5.751945E-08 -7.082488E-08
      1740   1  1.035233E-04 -3.410286E-05 -3.425408E-05  1.832709E-05 -1.404317E-07 -1.986128E-07
      1741   1  1.035266E-04 -3.410836E-05 -3.414502E-05  1.746518E-05 -1.894474E-07 -2.211602E-07
      1742   1  1.036390E-04 -3.412228E-05 -3.431829E-05  1.694111E-05 -1.567714E-07 -2.145541E-07
      1743   1  1.036288E-04 -3.412732E-05 -3.420216E-05  1.665199E-05 -9.734478E-08 -1.127228E-07
      1744   1  1.036976E-04 -3.413780E-05 -3.434816E-05  1.656716E-05 -4.503435E-15 -8.180136E-17
      1745   1  1.036288E-04 -3.412732E-05 -3.420216E-05  1.665199E-05  9.734478E-08  1.127228E-07
      1746   1  1.036390E-04 -3.412228E-05 -3.431829E-05  1.694111E-05  1.567714E-07  2.145541E-07
      1747   1  1.035266E-04 -3.410836E-05 -3.414502E-05  1.746518E-05  1.894474E-07  2.211602E-07
      1748   1  1.035233E-04 -3.410286E-05 -3.425408E-05  1.832709E-05  1.404317E-07  1.986128E-07
      1749   1  1.034248E-04 -3.411568E-05 -3.406630E-05  1.958850E-05  5.751945E-08  7.082488E-08
      1750   1  1.131596E-13 -3.744314E-14 -3.729706E-14  1.983674E-05 -5.754911E-17 -8.059800E-08
      1751   1  1.133251E-13 -3.725579E-14 -3.776797E-14  1.859339E-05 -1.482392E-16 -1.866817E-07
      1752   1  1.132413E-13 -3.740541E-14 -3.723713E-14  1.772797E-05 -2.181686E-16 -2.576522E-07
      1753   1  1.134243E-13 -3.749561E-14 -3.758654E-14  1.717756E-05 -1.682635E-16 -2.027465E-07
      1754   1  1.133222E-13 -3.741538E-14 -3.732401E-14  1.687656E-05 -1.128085E-16 -1.303278E-07
      1755   1  1.134565E-13 -3.751036E-14 -3.758878E-14  1.678631E-05 -4.546026E-18  4.216896E-16
      1756   1  1.132925E-13 -3.739890E-14 -3.731543E-14  1.687656E-05  1.073945E-16  1.303278E-07
      1757   1  1.133623E-13 -3.747263E-14 -3.756546E-14  1.717756E-05  1.619942E-16  2.027465E-07
      1758   1  1.131492E-13 -3.738199E-14 -3.720297E-14  1.772797E-05  2.124537E-16  2.576522E-07
      1759   1  1.132012E-13 -3.720938E-14 -3.772818E-14  1.859339E-05  1.469907E-16  1.866817E-07
      1760   1  1.130018E-13 -3.739283E-14 -3.724440E-14  1.983674E-05  5.495550E-17  8.059800E-08
      1761   1 -1.034248E-04  3.411568E-05  3.406630E-05  1.958850E-05  5.751945E-08 -7.082488E-08
      1762   1 -1.035233E-04  3.410286E-05  3.425408E-05  1.832709E-05  1.404317E-07 -1.986128E-07
      1763   1 -1.035266E-04  3.410836E-05  3.414502E-05  1.746518E-05  1.894474E-07 -2.211602E-07
      1764   1 -1.036390E-04  3.412228E-05  3.431829E-05  1.694111E-05  1.567714E-07 -2.145541E-07
      1765   1 -1.036288E-04  3.412732E-05  3.420216E-05  1.665199E-05  9.734478E-08 -1.127228E-07
      1766   1 -1.036976E-04  3.413780E-05  3.434816E-05  1.656716E-05  4.497570E-15 -8.322395E-17
      1767   1 -1.036288E-04  3.412732E-05  3.420216E-05  1.665199E-05 -9.734477E-08  1.127228E-07
      1768   1 -1.036390E-04  3.412228E-05  3.431829E-05  1.694111E-05 -1.567714E-07  2.145541E-07
      1769   1 -1.035266E-04  3.410836E-05  3.414502E-05  1.746518E-05 -1.894474E-07  2.211602E-07
      1770   1 -1.035233E-04  3.410286E-05  3.425408E-05  1.832709E-05 -1.404317E-07  1.986128E-07
      1771   1 -1.034248E-04  3.411568E-05  3.406630E-05  1.958850E-05 -5.751945E-08  7.082488E-08
      1772   1 -2.069869E-04  6.841403E-05  6.818240E-05  1.738454E-05  1.256998E-07 -7.228252E-08
      1773   1 -2.071749E-04  6.839773E-05  6.848721E-05  1.617425E-05  2.986294E-07 -1.478822E-07
      1774   1 -2.071728E-04  6.840717E-05  6.828759E-05  1.535335E-05  3.991861E-07 -2.154118E-07
      1775   1 -2.073963E-04  6.842716E-05  6.863646E-05  1.484528E-05  3.328690E-07 -1.632246E-07
      1776   1 -2.073753E-04  6.846357E-05  6.837855E-05  1.457572E-05  2.054482E-07 -1.029711E-07
      1777   1 -2.075092E-04  6.846662E-05  6.869139E-05  1.449648E-05  9.318469E-15  4.896003E-16
      1778   1 -2.073753E-04  6.846357E-05  6.837855E-05  1.457572E-05 -2.054481E-07  1.029711E-07
      1779   1 -2.073963E-04  6.842716E-05  6.863646E-05  1.484528E-05 -3.328690E-07  1.632246E-07
      1780   1 -2.071728E-04  6.840717E-05  6.828759E-05  1.535335E-05 -3.991860E-07  2.154118E-07
      1781   1 -2.071749E-04  6.839773E-05  6.848721E-05  1.617425E-05 -2.986294E-07  1.478822E-07
      1782   1 -2.069869E-04  6.841403E-05  6.818240E-05  1.738454E-05 -1.256998E-07  7.228252E-08
      1783   1 -3.103584E-04  1.023980E-04  1.022113E-04  1.451620E-05  2.063188E-07 -3.711851E-08
      1784   1 -3.106422E-04  1.023639E-04  1.027636E-04  1.334285E-05  5.028812E-07 -1.441603E-07
      1785   1 -3.106320E-04  1.023748E-04  1.024305E-04  1.259217E-05  6.659139E-07 -1.302066E-07
      1786   1 -3.109419E-04  1.024292E-04  1.029069E-04  1.217580E-05  5.555938E-07 -1.254948E-07
      1787   1 -3.108962E-04  1.024544E-04  1.025491E-04  1.195741E-05  3.362883E-07 -7.487672E-08
      1788   1 -3.110932E-04  1.024650E-04  1.029919E-04  1.189592E-05  1.479778E-14 -2.569186E-16
      1789   1 -3.108962E-04  1.024544E-04  1.025491E-04  1.195741E-05 -3.362883E-07  7.487672E-08
      1790   1 -3.109419E-04  1.024292E-04  1.029069E-04  1.217580E-05 -5.555938E-07  1.254948E-07
      1791   1 -3.106320E-04  1.023748E-04  1.024305E-04  1.259217E-05 -6.659138E-07  1.302066E-07
      1792   1 -3.106422E-04  1.023639E-04  1.027636E-04  1.334285E-05 -5.028812E-07  1.441603E-07
      1793   1 -3.103584E-04  1.023980E-04  1.022113E-04  1.451620E-05 -2.063188E-07  3.711851E-08
      1794   1 -4.140659E-04  1.368141E-04  1.364365E-04  9.772302E-06  3.359335E-07 -6.079033E-08
      1795   1 -4.144099E-04  1.367728E-04  1.369964E-04  8.741947E-06  8.314971E-07 -2.805558E-08
      1796   1 -4.143667E-04  1.368383E-04  1.365204E-04  8.195444E-06  1.072061E-06 -6.450687E-08
      1797   1 -4.147592E-04  1.368966E-04  1.371700E-04  7.909764E-06  8.564437E-07 -7.685374E-08
      1798   1 -4.146832E-04  1.369194E-04  1.366793E-04  7.760703E-06  5.054015E-07 -4.481925E-08
      1799   1 -4.149352E-04  1.369457E-04  1.372668E-04  7.720110E-06  2.117116E-14  1.877838E-16
      1800   1 -4.146832E-04  1.369194E-04  1.366793E-04  7.760703E-06 -5.054014E-07  4.481925E-08
      1801   1 -4.147592E-04  1.368966E-04  1.371700E-04  7.909764E-06 -8.564436E-07  7.685374E-08
      1802   1 -4.143667E-04  1.368383E-04  1.365204E-04  8.195444E-06 -1.072061E-06  6.450687E-08
      1803   1 -4.144099E-04  1.367728E-04  1.369964E-04  8.741947E-06 -8.314971E-07  2.805557E-08
      1804   1 -4.140659E-04  1.368141E-04  1.364365E-04  9.772302E-06 -3.359335E-07  6.079033E-08
      1805   1 -5.174946E-04  1.708087E-04  1.703537E-04  3.663051E-06  7.092212E-07  6.143725E-08
      1806   1 -5.179195E-04  1.707567E-04  1.711918E-04  3.137701E-06  1.551441E-06  5.912228E-09
      1807   1 -5.178377E-04  1.708411E-04  1.706241E-04  2.973095E-06  1.657078E-06 -1.839327E-08
      1808   1 -5.182539E-04  1.708376E-04  1.714025E-04  2.851239E-06  1.280650E-06 -2.501162E-08
      1809   1 -5.181491E-04  1.708963E-04  1.707898E-04  2.816404E-06  7.181560E-07 -1.553480E-08
      1810   1 -5.184229E-04  1.708821E-04  1.714917E-04  2.788730E-06  2.870648E-14 -3.395924E-17
      1811   1 -5.181491E-04  1.708963E-04  1.707898E-04  2.816404E-06 -7.181559E-07  1.553480E-08
      1812   1 -5.182539E-04  1.708376E-04  1.714025E-04  2.851239E-06 -1.280650E-06  2.501162E-08
      1813   1 -5.178377E-04  1.708411E-04  1.706241E-04  2.973095E-06 -1.657077E-06  1.839327E-08
      1814   1 -5.179195E-04  1.707567E-04  1.711918E-04  3.137701E-06 -1.551441E-06 -5.912227E-09
      1815   1 -5.174946E-04  1.708087E-04  1.703537E-04  3.663051E-06 -7.092212E-07 -6.143725E-08
      1816   1  5.134988E-04 -1.695896E-04 -1.695328E-04  3.608362E-06 -6.769469E-07  3.822941E-08
      1817   1  5.132991E-04 -1.694762E-04 -1.690962E-04  3.116809E-06 -1.494498E-06  2.770055E-08
      1818   1  5.136137E-04 -1.695462E-04 -1.697004E-04  2.917026E-06 -1.525557E-06 -1.458244E-08
      1819   1  5.135271E-04 -1.695273E-04 -1.692513E-04  2.807657E-06 -1.230273E-06 -7.209608E-09
      1820   1  5.137939E-04 -1.695776E-04 -1.698220E-04  2.745118E-06 -6.543450E-07 -1.066490E-08
      1821   1  5.136385E-04 -1.695557E-04 -1.693116E-04  2.733938E-06 -2.889677E-14 -3.980716E-17
      1822   1  5.137939E-04 -1.695776E-04 -1.698220E-04  2.745118E-06  6.543449E-07  1.066491E-08
      1823   1  5.135271E-04 -1.695273E-04 -1.692513E-04  2.807657E-06  1.230273E-06  7.209607E-09
      1824   1  5.136137E-04 -1.695462E-04 -1.697004E-04  2.917026E-06  1.525557E-06  1.458244E-08
      1825   1  5.132991E-04 -1.694762E-04 -1.690962E-04  3.116809E-06  1.494497E-06 -2.770054E-08
      1826   1  5.134988E-04 -1.695896E-04 -1.695328E-04  3.608362E-06  6.769469E-07 -3.822941E-08
      1827   1  4.106618E-04 -1.354125E-04 -1.357846E-04  9.958981E-06 -2.732090E-07 -4.162257E-08
      1828   1  4.105218E-04 -1.353974E-04 -1.353183E-04  8.878181E-06 -7.882317E-07 -2.824431E-09
      1829   1  4.108038E-04 -1.354439E-04 -1.357969E-04  8.318992E-06 -9.255343E-07 -2.686271E-08
      1830   1  4.107377E-04 -1.354705E-04 -1.354137E-04  8.007332E-06 -8.053737E-07 -4.204257E-08
      1831   1  4.109814E-04 -1.354771E-04 -1.359123E-04  7.846158E-06 -4.361450E-07 -2.392088E-08
      1832   1  4.108456E-04 -1.354954E-04 -1.354712E-04  7.797098E-06 -2.136627E-14  1.663471E-16
      1833   1  4.109814E-04 -1.354771E-04 -1.359123E-04  7.846158E-06  4.361450E-07  2.392088E-08
      1834   1  4.107377E-04 -1.354705E-04 -1.354137E-04  8.007332E-06  8.053737E-07  4.204257E-08
      1835   1  4.108038E-04 -1.354439E-04 -1.357969E-04  8.318992E-06  9.255343E-07  2.686271E-08
      1836   1  4.105218E-04 -1.353974E-04 -1.353183E-04  8.878181E-06  7.882317E-07  2.824430E-09
      1837   1  4.106618E-04 -1.354125E-04 -1.357846E-04  9.958981E-06  2.732090E-07  4.162257E-08
      1838   1  3.080688E-04 -1.017551E-04 -1.017459E-04  1.436365E-05 -1.735430E-07 -2.026202E-08
      1839   1  3.079573E-04 -1.016927E-04 -1.015010E-04  1.318730E-05 -4.506072E-07 -1.001189E-07
      1840   1  3.081789E-04 -1.016865E-04 -1.018877E-04  1.240533E-05 -5.430602E-07 -6.689603E-08
      1841   1  3.081461E-04 -1.017343E-04 -1.015780E-04  1.193656E-05 -5.059717E-07 -7.335442E-08
      1842   1  3.083413E-04 -1.017502E-04 -1.019655E-04  1.169436E-05 -2.765932E-07 -4.198356E-08
      1843   1  3.082414E-04 -1.017579E-04 -1.016277E-04  1.161312E-05 -1.496534E-14 -2.952410E-16
      1844   1  3.083413E-04 -1.017502E-04 -1.019655E-04  1.169436E-05  2.765932E-07  4.198356E-08
      1845   1  3.081461E-04 -1.017343E-04 -1.015780E-04  1.193656E-05  5.059717E-07  7.335442E-08
      1846   1  3.081789E-04 -1.016865E-04 -1.018877E-04  1.240533E-05  5.430602E-07  6.689603E-08
      1847   1  3.079573E-04 -1.016927E-04 -1.015010E-04  1.318730E-05  4.506072E-07  1.001189E-07
      1848   1  3.080688E-04 -1.017551E-04 -1.017459E-04  1.436365E-05  1.735430E-07  2.026202E-08
      1849   1  2.052876E-04 -6.768182E-05 -6.787457E-05  1.774946E-05 -8.847089E-08 -4.625607E-08
      1850   1  2.052194E-04 -6.768154E-05 -6.764259E-05  1.648184E-05 -2.604955E-07 -8.384585E-08
      1851   1  2.053765E-04 -6.768313E-05 -6.792827E-05  1.561803E-05 -3.097586E-07 -1.367803E-07
      1852   1  2.053562E-04 -6.768344E-05 -6.774169E-05  1.506732E-05 -2.917840E-07 -9.544972E-08
      1853   1  2.054897E-04 -6.770802E-05 -6.798677E-05  1.477340E-05 -1.627431E-07 -6.233861E-08
      1854   1  2.054248E-04 -6.770702E-05 -6.777195E-05  1.467704E-05 -9.433268E-15  4.315336E-16
      1855   1  2.054897E-04 -6.770802E-05 -6.798677E-05  1.477340E-05  1.627430E-07  6.233861E-08
      1856   1  2.053562E-04 -6.768344E-05 -6.774169E-05  1.506732E-05  2.917840E-07  9.544972E-08
      1857   1  2.053765E-04 -6.768313E-05 -6.792827E-05  1.561803E-05  3.097586E-07  1.367803E-07
      1858   1  2.052194E-04 -6.768154E-05 -6.764259E-05  1.648184E-05  2.604955E-07  8.384585E-08
      1859   1  2.052876E-04 -6.768182E-05 -6.787457E-05  1.774946E-05  8.847088E-08  4.625607E-08
      1860   1  1.026816E-04 -3.391791E-05 -3.391582E-05  1.938172E-05 -4.456776E-08 -3.864282E-08
      1861   1  1.026455E-04 -3.389729E-05 -3.383231E-05  1.810929E-05 -1.185472E-07 -1.295086E-07
      1862   1  1.027245E-04 -3.389708E-05 -3.396433E-05  1.720508E-05 -1.420574E-07 -1.276988E-07
      1863   1  1.027179E-04 -3.390877E-05 -3.386937E-05  1.660859E-05 -1.354028E-07 -1.360166E-07
      1864   1  1.027876E-04 -3.391049E-05 -3.400469E-05  1.628056E-05 -7.449114E-08 -6.613329E-08
      1865   1  1.027549E-04 -3.391941E-05 -3.388583E-05  1.617316E-05 -4.563737E-15 -1.348233E-16
      1866   1  1.027876E-04 -3.391049E-05 -3.400469E-05  1.628056E-05  7.449113E-08  6.613329E-08
      1867   1  1.027179E-04 -3.390877E-05 -3.386937E-05  1.660859E-05  1.354027E-07  1.360166E-07
      1868   1  1.027245E-04 -3.389708E-05 -3.396433E-05  1.720508E-05  1.420574E-07  1.276988E-07
      1869   1  1.026455E-04 -3.389729E-05 -3.383231E-05  1.810929E-05  1.185472E-07  1.295086E-07
      1870   1  1.026816E-04 -3.391791E-05 -3.391582E-05  1.938172E-05  4.456776E-08  3.864282E-08
      1871   1  1.123774E-13 -3.702941E-14 -3.727026E-14  2.027118E-05 -3.802500E-17 -5.161752E-08
      1872   1  1.122541E-13 -3.683425E-14 -3.716448E-14  1.896854E-05 -1.332137E-16 -1.090973E-07
      1873   1  1.123920E-13 -3.697867E-14 -3.718349E-14  1.805158E-05 -1.522847E-16 -1.627402E-07
      1874   1  1.123041E-13 -3.704936E-14 -3.695052E-14  1.745188E-05 -1.545297E-16 -1.220240E-07
      1875   1  1.124257E-13 -3.696696E-14 -3.725691E-14  1.712231E-05 -8.251583E-17 -8.190612E-08
      1876   1  1.123129E-13 -3.706974E-14 -3.693308E-14  1.701183E-05 -2.076713E-18  3.532477E-16
      1877   1  1.123940E-13 -3.695265E-14 -3.724912E-14  1.712231E-05  7.891001E-17  8.190612E-08
      1878   1  1.122390E-13 -3.702681E-14 -3.692940E-14  1.745188E-05  1.496580E-16  1.220240E-07
      1879   1  1.122956E-13 -3.695048E-14 -3.714858E-14  1.805158E-05  1.498647E-16  1.627402E-07
      1880   1  1.121279E-13 -3.678958E-14 -3.712574E-14  1.896854E-05  1.291488E-16  1.090973E-07
      1881   1  1.122176E-13 -3.698170E-14 -3.721660E-14  2.027118E-05  3.777936E-17  5.161752E-08
      1882   1 -1.026816E-04  3.391791E-05  3.391582E-05  1.938172E-05  4.456776E-08 -3.864282E-08
      1883   1 -1.026455E-04  3.389729E-05  3.383231E-05  1.810929E-05  1.185472E-07 -1.295086E-07
      1884   1 -1.027245E-04  3.389708E-05  3.396433E-05  1.720508E-05  1.420574E-07 -1.276988E-07
      1885   1 -1.027179E-04  3.390877E-05  3.386937E-05  1.660859E-05  1.354028E-07 -1.360166E-07
      1886   1 -1.027876E-04  3.391049E-05  3.400469E-05  1.628056E-05  7.449114E-08 -6.613329E-08
      1887   1 -1.027549E-04  3.391941E-05  3.388583E-05  1.617316E-05  4.555615E-15 -1.338863E-16
      1888   1 -1.027876E-04  3.391049E-05  3.400469E-05  1.628056E-05 -7.449113E-08  6.613329E-08
      1889   1 -1.027179E-04  3.390877E-05  3.386937E-05  1.660859E-05 -1.354027E-07  1.360166E-07
      1890   1 -1.027245E-04  3.389708E-05  3.396433E-05  1.720508E-05 -1.420574E-07  1.276988E-07
      1891   1 -1.026455E-04  3.389729E-05  3.383231E-05  1.810929E-05 -1.185472E-07  1.295086E-07
      1892   1 -1.026816E-04  3.391791E-05  3.391582E-05  1.938172E-05 -4.456776E-08  3.864282E-08
      1893   1 -2.052876E-04  6.768182E-05  6.787457E-05  1.774946E-05  8.847089E-08 -4.625607E-08
      1894   1 -2.052194E-04  6.768154E-05  6.764259E-05  1.648184E-05  2.604955E-07 -8.384585E-08
      1895   1 -2.053765E-04  6.768313E-05  6.792827E-05  1.561803E-05  3.097586E-07 -1.367803E-07
      1896   1 -2.053562E-04  6.768344E-05  6.774169E-05  1.506732E-05  2.917840E-07 -9.544972E-08
      1897   1 -2.054897E-04  6.770802E-05  6.798677E-05  1.477340E-05  1.627431E-07 -6.233861E-08
      1898   1 -2.054248E-04  6.770702E-05  6.777195E-05  1.467704E-05  9.421708E-15  4.316556E-16
      1899   1 -2.054897E-04  6.770802E-05  6.798677E-05  1.477340E-05 -1.627430E-07  6.233861E-08
      1900   1 -2.053562E-04  6.768344E-05  6.774169E-05  1.506732E-05 -2.917840E-07  9.544972E-08
      1901   1 -2.053765E-04  6.768313E-05  6.792827E-05  1.561803E-05 -3.097586E-07  1.367803E-07
      1902   1 -2.052194E-04  6.768154E-05  6.764259E-05  1.648184E-05 -2.604955E-07  8.384585E-08
      1903   1 -2.052876E-04  6.768182E-05  6.787457E-05  1.774946E-05 -8.847088E-08  4.625607E-08
      1904   1 -3.080688E-04  1.017551E-04  1.017459E-04  1.436365E-05  1.735430E-07 -2.026202E-08
      1905   1 -3.079573E-04  1.016927E-04  1.015010E-04  1.318730E-05  4.506072E-07 -1.001189E-07
      1906   1 -3.081789E-04  1.016865E-04  1.018877E-04  1.240533E-05  5.430602E-07 -6.689604E-08
      1907   1 -3.081461E-04  1.017343E-04  1.015780E-04  1.193656E-05  5.059717E-07 -7.335442E-08
      1908   1 -3.083413E-04  1.017502E-04  1.019655E-04  1.169436E-05  2.765932E-07 -4.198356E-08
      1909   1 -3.082414E-04  1.017579E-04  1.016277E-04  1.161312E-05  1.495655E-14 -2.937282E-16
      1910   1 -3.083413E-04  1.017502E-04  1.019655E-04  1.169436E-05 -2.765932E-07  4.198356E-08
      1911   1 -3.081461E-04  1.017343E-04  1.015780E-04  1.193656E-05 -5.059717E-07  7.335442E-08
      1912   1 -3.081789E-04  1.016865E-04  1.018877E-04  1.240533E-05 -5.430602E-07  6.689603E-08
      1913   1 -3.079573E-04  1.016927E-04  1.015010E-04  1.318730E-05 -4.506072E-07  1.001189E-07
      1914   1 -3.080688E-04  1.017551E-04  1.017459E-04  1.436365E-05 -1.735430E-07  2.026202E-08
      1915   1 -4.106618E-04  1.354125E-04  1.357846E-04  9.958981E-06  2.732090E-07 -4.162257E-08
      1916   1 -4.105218E-04  1.353974E-04  1.353183E-04  8.878181E-06  7.882317E-07 -2.824431E-09
      1917   1 -4.108038E-04  1.354439E-04  1.357969E-04  8.318992E-06  9.255343E-07 -2.686271E-08
      1918   1 -4.107377E-04  1.354705E-04  1.354137E-04  8.007332E-06  8.053737E-07 -4.204257E-08
      1919   1 -4.109814E-04  1.354771E-04  1.359123E-04  7.846158E-06  4.361450E-07 -2.392088E-08
      1920   1 -4.108456E-04  1.354954E-04  1.354712E-04  7.797098E-06  2.135428E-14  1.724136E-16
      1921   1 -4.109814E-04  1.354771E-04  1.359123E-04  7.846158E-06 -4.361450E-07  2.392088E-08
      1922   1 -4.107377E-04  1.354705E-04  1.354137E-04  8.007332E-06 -8.053737E-07  4.204257E-08
      1923   1 -4.108038E-04  1.354439E-04  1.357969E-04  8.318992E-06 -9.255343E-07  2.686271E-08
      1924   1 -4.105218E-04  1.353974E-04  1.353183E-04  8.878181E-06 -7.882317E-07  2.824430E-09
      1925   1 -4.106618E-04  1.354125E-04  1.357846E-04  9.958981E-06 -2.732090E-07  4.162257E-08
      1926   1 -5.134988E-04  1.695896E-04  1.695328E-04  3.608362E-06  6.769469E-07  3.822941E-08
      1927   1 -5.132991E-04  1.694762E-04  1.690962E-04  3.116809E-06  1.494498E-06  2.770055E-08
      1928   1 -5.136137E-04  1.695462E-04  1.697004E-04  2.917026E-06  1.525557E-06 -1.458244E-08
      1929   1 -5.135271E-04  1.695273E-04  1.692513E-04  2.807657E-06  1.230273E-06 -7.209608E-09
      1930   1 -5.137939E-04  1.695776E-04  1.698220E-04  2.745118E-06  6.543450E-07 -1.066490E-08
      1931   1 -5.136385E-04  1.695557E-04  1.693116E-04  2.733938E-06  2.888366E-14 -4.165369E-17
      1932   1 -5.137939E-04  1.695776E-04  1.698220E-04  2.745118E-06 -6.543449E-07  1.066491E-08
      1933   1 -5.135271E-04  1.695273E-04  1.692513E-04  2.807657E-06 -1.230273E-06  7.209607E-09
      1934   1 -5.136137E-04  1.695462E-04  1.697004E-04  2.917026E-06 -1.525557E-06  1.458244E-08
      1935   1 -5.132991E-04  1.694762E-04  1.690962E-04  3.116809E-06 -1.494497E-06 -2.770054E-08
      1936   1 -5.134988E-04  1.695896E-04  1.695328E-04  3.608362E-06 -6.769469E-07 -3.822941E-08
      1937   1  5.086993E-04 -1.679504E-04 -1.675306E-04  3.664688E-06 -6.547129E-07  5.857444E-08
      1938   1  5.089320E-04 -1.678691E-04 -1.681007E-04  3.137698E-06 -1.422699E-06  2.164069E-08
      1939   1  5.088129E-04 -1.679228E-04 -1.676943E-04  2.955324E-06 -1.485753E-06  3.311735E-11
      1940   1  5.090318E-04 -1.678890E-04 -1.681976E-04  2.823980E-06 -1.151680E-06 -3.941033E-09
      1941   1  5.089270E-04 -1.679247E-04 -1.677821E-04  2.774015E-06 -6.358722E-07 -3.958691E-09
      1942   1  5.090918E-04 -1.679018E-04 -1.682404E-04  2.746632E-06 -2.882426E-14 -4.044582E-17
      1943   1  5.089270E-04 -1.679247E-04 -1.677821E-04  2.774015E-06  6.358721E-07  3.958691E-09
      1944   1  5.090318E-04 -1.678890E-04 -1.681976E-04  2.823980E-06  1.151680E-06  3.941032E-09
      1945   1  5.088129E-04 -1.679228E-04 -1.676943E-04  2.955324E-06  1.485753E-06 -3.311697E-11
      1946   1  5.089320E-04 -1.678691E-04 -1.681007E-04  3.137698E-06  1.422698E-06 -2.164069E-08
      1947   1  5.086993E-04 -1.679504E-04 -1.675306E-04  3.664688E-06  6.547129E-07 -5.857444E-08
      1948   1  4.070083E-04 -1.344096E-04 -1.341893E-04  9.869754E-06 -2.708367E-07 -4.250284E-08
      1949   1  4.071926E-04 -1.343646E-04 -1.345340E-04  8.808529E-06 -7.029857E-07  1.422888E-08
      1950   1  4.070990E-04 -1.343989E-04 -1.341754E-04  8.227851E-06 -8.906326E-07 -4.695735E-09
      1951   1  4.073001E-04 -1.344228E-04 -1.345822E-04  7.903241E-06 -7.220227E-07 -2.045089E-08
      1952   1  4.072146E-04 -1.344229E-04 -1.342457E-04  7.726329E-06 -4.176441E-07 -1.109261E-08
      1953   1  4.073631E-04 -1.344401E-04 -1.346219E-04  7.674681E-06 -2.130395E-14  1.487940E-16
      1954   1  4.072146E-04 -1.344229E-04 -1.342457E-04  7.726329E-06  4.176441E-07  1.109261E-08
      1955   1  4.073001E-04 -1.344228E-04 -1.345822E-04  7.903241E-06  7.220227E-07  2.045089E-08
      1956   1  4.070990E-04 -1.343989E-04 -1.341754E-04  8.227851E-06  8.906326E-07  4.695735E-09
      1957   1  4.071926E-04 -1.343646E-04 -1.345340E-04  8.808529E-06  7.029857E-07 -1.422888E-08
      1958   1  4.070083E-04 -1.344096E-04 -1.341893E-04  9.869754E-06  2.708367E-07  4.250284E-08
      1959   1  3.051717E-04 -1.007253E-04 -1.005432E-04  1.455452E-05 -1.545720E-07 -8.279466E-09
      1960   1  3.053213E-04 -1.006816E-04 -1.009185E-04  1.335121E-05 -3.839980E-07 -6.884283E-08
      1961   1  3.052590E-04 -1.006695E-04 -1.006662E-04  1.254359E-05 -5.059370E-07 -3.307325E-08
      1962   1  3.054144E-04 -1.007001E-04 -1.009513E-04  1.206344E-05 -4.347281E-07 -3.901629E-08
      1963   1  3.053537E-04 -1.007067E-04 -1.007047E-04  1.180123E-05 -2.584455E-07 -2.330661E-08
      1964   1  3.054682E-04 -1.007107E-04 -1.009848E-04  1.172113E-05 -1.491808E-14 -3.137393E-16
      1965   1  3.053537E-04 -1.007067E-04 -1.007047E-04  1.180123E-05  2.584455E-07  2.330662E-08
      1966   1  3.054144E-04 -1.007001E-04 -1.009513E-04  1.206344E-05  4.347281E-07  3.901629E-08
      1967   1  3.052590E-04 -1.006695E-04 -1.006662E-04  1.254359E-05  5.059370E-07  3.307325E-08
      1968   1  3.053213E-04 -1.006816E-04 -1.009185E-04  1.335121E-05  3.839980E-07  6.884283E-08
      1969   1  3.051717E-04 -1.007253E-04 -1.005432E-04  1.455452E-05  1.545720E-07  8.279466E-09
      1970   1  2.034940E-04 -6.721386E-05 -6.707467E-05  1.759676E-05 -8.342582E-08 -3.222243E-08
      1971   1  2.035918E-04 -6.720199E-05 -6.725825E-05  1.633890E-05 -2.099388E-07 -4.641806E-08
      1972   1  2.035504E-04 -6.719659E-05 -6.710881E-05  1.544684E-05 -2.804009E-07 -8.876653E-08
      1973   1  2.036610E-04 -6.719544E-05 -6.732401E-05  1.486470E-05 -2.414810E-07 -5.191876E-08
      1974   1  2.036241E-04 -6.721637E-05 -6.713943E-05  1.454161E-05 -1.479870E-07 -3.775227E-08
      1975   1  2.037015E-04 -6.721396E-05 -6.734157E-05  1.444095E-05 -9.405734E-15  3.988886E-16
      1976   1  2.036241E-04 -6.721637E-05 -6.713943E-05  1.454161E-05  1.479870E-07  3.775227E-08
      1977   1  2.036610E-04 -6.719544E-05 -6.732401E-05  1.486470E-05  2.414810E-07  5.191876E-08
      1978   1  2.035504E-04 -6.719659E-05 -6.710881E-05  1.544684E-05  2.804009E-07  8.876653E-08
      1979   1  2.035918E-04 -6.720199E-05 -6.725825E-05  1.633890E-05  2.099388E-07  4.641806E-08
      1980   1  2.034940E-04 -6.721386E-05 -6.707467E-05  1.759676E-05  8.342582E-08  3.222243E-08
      1981   1  1.017140E-04 -3.356689E-05 -3.351511E-05  1.966150E-05 -3.703037E-08 -2.362483E-08
      1982   1  1.017651E-04 -3.355316E-05 -3.364011E-05  1.836133E-05 -9.277389E-08 -8.174974E-08
      1983   1  1.017463E-04 -3.355150E-05 -3.355429E-05  1.741973E-05 -1.261922E-07 -7.476930E-08
      1984   1  1.018016E-04 -3.355679E-05 -3.365972E-05  1.680480E-05 -1.082297E-07 -8.646562E-08
      1985   1  1.017828E-04 -3.355464E-05 -3.357929E-05  1.645199E-05 -6.669165E-08 -3.841006E-08
      1986   1  1.018224E-04 -3.356223E-05 -3.366974E-05  1.634203E-05 -4.547702E-15 -1.729601E-16
      1987   1  1.017828E-04 -3.355464E-05 -3.357929E-05  1.645199E-05  6.669164E-08  3.841006E-08
      1988   1  1.018016E-04 -3.355679E-05 -3.365972E-05  1.680480E-05  1.082297E-07  8.646562E-08
      1989   1  1.017463E-04 -3.355150E-05 -3.355429E-05  1.741973E-05  1.261922E-07  7.476930E-08
      1990   1  1.017651E-04 -3.355316E-05 -3.364011E-05  1.836133E-05  9.277388E-08  8.174974E-08
      1991   1  1.017140E-04 -3.356689E-05 -3.351511E-05  1.966150E-05  3.703037E-08  2.362483E-08
      1992   1  1.113001E-13 -3.682341E-14 -3.670388E-14  2.009609E-05 -3.375765E-17 -3.274715E-08
      1993   1  1.113989E-13 -3.663129E-14 -3.708235E-14  1.880158E-05 -9.624412E-17 -6.353230E-08
      1994   1  1.113028E-13 -3.677874E-14 -3.660553E-14  1.785322E-05 -1.451798E-16 -1.049704E-07
      1995   1  1.114020E-13 -3.683555E-14 -3.685406E-14  1.721607E-05 -1.169075E-16 -6.964562E-08
      1996   1  1.113158E-13 -3.676443E-14 -3.666185E-14  1.685215E-05 -7.887931E-17 -5.266505E-08
      1997   1  1.113931E-13 -3.684770E-14 -3.682700E-14  1.673663E-05 -4.352902E-18  3.171717E-16
      1998   1  1.112836E-13 -3.674535E-14 -3.665446E-14  1.685215E-05  7.106268E-17  5.266505E-08
      1999   1  1.113399E-13 -3.681517E-14 -3.682930E-14  1.721607E-05  1.115788E-16  6.964562E-08
      2000   1  1.112071E-13 -3.674101E-14 -3.657450E-14  1.785322E-05  1.399146E-16  1.049704E-07
      2001   1  1.112675E-13 -3.658879E-14 -3.703819E-14  1.880158E-05  9.512519E-17  6.353230E-08
      2002   1  1.111394E-13 -3.677050E-14 -3.664991E-14  2.009609E-05  3.468600E-17  3.274715E-08
      2003   1 -1.017140E-04  3.356689E-05  3.351511E-05  1.966150E-05  3.703037E-08 -2.362483E-08
      2004   1 -1.017651E-04  3.355316E-05  3.364011E-05  1.836133E-05  9.277389E-08 -8.174974E-08
      2005   1 -1.017463E-04  3.355150E-05  3.355429E-05  1.741973E-05  1.261922E-07 -7.476930E-08
      2006   1 -1.018016E-04  3.355679E-05  3.365972E-05  1.680480E-05  1.082297E-07 -8.646562E-08
      2007   1 -1.017828E-04  3.355464E-05  3.357929E-05  1.645199E-05  6.669165E-08 -3.841006E-08
      2008   1 -1.018224E-04  3.356223E-05  3.366974E-05  1.634203E-05  4.541997E-15 -1.719625E-16
      2009   1 -1.017828E-04  3.355464E-05  3.357929E-05  1.645199E-05 -6.669164E-08  3.841006E-08
      2010   1 -1.018016E-04  3.355679E-05  3.365972E-05  1.680480E-05 -1.082297E-07  8.646562E-08
      2011   1 -1.017463E-04  3.355150E-05  3.355429E-05  1.741973E-05 -1.261922E-07  7.476930E-08
      2012   1 -1.017651E-04  3.355316E-05  3.364011E-05  1.836133E-05 -9.277388E-08  8.174974E-08
      2013   1 -1.017140E-04  3.356689E-05  3.351511E-05  1.966150E-05 -3.703037E-08  2.362483E-08
      2014   1 -2.034940E-04  6.721386E-05  6.707467E-05  1.759676E-05  8.342582E-08 -3.222243E-08
      2015   1 -2.035918E-04  6.720199E-05  6.725825E-05  1.633890E-05  2.099388E-07 -4.641806E-08
      2016   1 -2.035504E-04  6.719659E-05  6.710881E-05  1.544684E-05  2.804009E-07 -8.876653E-08
      2017   1 -2.036610E-04  6.719544E-05  6.732401E-05  1.486470E-05  2.414810E-07 -5.191876E-08
      2018   1 -2.036241E-04  6.721637E-05  6.713943E-05  1.454161E-05  1.479870E-07 -3.775227E-08
      2019   1 -2.037015E-04  6.721396E-05  6.734157E-05  1.444095E-05  9.397939E-15  4.053798E-16
      2020   1 -2.036241E-04  6.721637E-05  6.713943E-05  1.454161E-05 -1.479870E-07  3.775227E-08
      2021   1 -2.036610E-04  6.719544E-05  6.732401E-05  1.486470E-05 -2.414810E-07  5.191876E-08
      2022   1 -2.035504E-04  6.719659E-05  6.710881E-05  1.544684E-05 -2.804009E-07  8.876653E-08
      2023   1 -2.035918E-04  6.720199E-05  6.725825E-05  1.633890E-05 -2.099388E-07  4.641806E-08
      2024   1 -2.034940E-04  6.721386E-05  6.707467E-05  1.759676E-05 -8.342582E-08  3.222243E-08
      2025   1 -3.051717E-04  1.007253E-04  1.005432E-04  1.455452E-05  1.545720E-07 -8.279465E-09
      2026   1 -3.053213E-04  1.006816E-04  1.009185E-04  1.335121E-05  3.839980E-07 -6.884283E-08
      2027   1 -3.052590E-04  1.006695E-04  1.006662E-04  1.254359E-05  5.059370E-07 -3.307325E-08
      2028   1 -3.054144E-04  1.007001E-04  1.009513E-04  1.206344E-05  4.347281E-07 -3.901629E-08
      2029   1 -3.053537E-04  1.007067E-04  1.007047E-04  1.180123E-05  2.584455E-07 -2.330662E-08
      2030   1 -3.054682E-04  1.007107E-04  1.009848E-04  1.172113E-05  1.490693E-14 -3.051453E-16
      2031   1 -3.053537E-04  1.007067E-04  1.007047E-04  1.180123E-05 -2.584455E-07  2.330662E-08
      2032   1 -3.054144E-04  1.007001E-04  1.009513E-04  1.206344E-05 -4.347281E-07  3.901629E-08
      2033   1 -3.052590E-04  1.006695E-04  1.006662E-04  1.254359E-05 -5.059370E-07  3.307325E-08
      2034   1 -3.053213E-04  1.006816E-04  1.009185E-04  1.335121E-05 -3.839980E-07  6.884283E-08
      2035   1 -3.051717E-04  1.007253E-04  1.005432E-04  1.455452E-05 -1.545720E-07  8.279465E-09
      2036   1 -4.070083E-04  1.344096E-04  1.341893E-04  9.869754E-06  2.708367E-07 -4.250284E-08
      2037   1 -4.071926E-04  1.343646E-04  1.345340E-04  8.808529E-06  7.029857E-07  1.422888E-08
      2038   1 -4.070990E-04  1.343989E-04  1.341754E-04  8.227851E-06  8.906326E-07 -4.695735E-09
      2039   1 -4.073001E-04  1.344228E-04  1.345822E-04  7.903241E-06  7.220227E-07 -2.045089E-08
      2040   1 -4.072146E-04  1.344229E-04  1.342457E-04  7.726329E-06  4.176441E-07 -1.109261E-08
      2041   1 -4.073631E-04  1.344401E-04  1.346219E-04  7.674681E-06  2.129458E-14  1.499316E-16
      2042   1 -4.072146E-04  1.344229E-04  1.342457E-04  7.726329E-06 -4.176441E-07  1.109261E-08
      2043   1 -4.073001E-04  1.344228E-04  1.345822E-04  7.903241E-06 -7.220227E-07  2.045089E-08
      2044   1 -4.070990E-04  1.343989E-04  1.341754E-04  8.227851E-06 -8.906326E-07  4.695735E-09
      2045   1 -4.071926E-04  1.343646E-04  1.345340E-04  8.808529E-06 -7.029857E-07 -1.422888E-08
      2046   1 -4.070083E-04  1.344096E-04  1.341893E-04  9.869754E-06 -2.708367E-07  4.250284E-08
      2047   1 -5.086993E-04  1.679504E-04  1.675306E-04  3.664688E-06  6.547129E-07  5.857444E-08
      2048   1 -5.089320E-04  1.678691E-04  1.681007E-04  3.137698E-06  1.422699E-06  2.164069E-08
      2049   1 -5.088129E-04  1.679228E-04  1.676943E-04  2.955324E-06  1.485753E-06  3.311736E-11
      2050   1 -5.090318E-04  1.678890E-04  1.681976E-04  2.823980E-06  1.151680E-06 -3.941033E-09
      2051   1 -5.089270E-04  1.679247E-04  1.677821E-04  2.774015E-06  6.358722E-07 -3.958691E-09
      2052   1 -5.090918E-04  1.679018E-04  1.682404E-04  2.746632E-06  2.882184E-14 -4.259220E-17
      2053   1 -5.089270E-04  1.679247E-04  1.677821E-04  2.774015E-06 -6.358721E-07  3.958691E-09
      2054   1 -5.090318E-04  1.678890E-04  1.681976E-04  2.823980E-06 -1.151680E-06  3.941032E-09
      2055   1 -5.088129E-04  1.679228E-04  1.676943E-04  2.955324E-06 -1.485753E-06 -3.311697E-11
      2056   1 -5.089320E-04  1.678691E-04  1.681007E-04  3.137698E-06 -1.422698E-06 -2.164069E-08
      2057   1 -5.086993E-04  1.679504E-04  1.675306E-04  3.664688E-06 -6.547129E-07 -5.857444E-08
      2058   1  5.044573E-04 -1.665768E-04 -1.664785E-04  3.629915E-06 -6.417350E-07  4.386708E-08
      2059   1  5.042921E-04 -1.664651E-04 -1.661940E-04  3.128728E-06 -1.400549E-06  3.233991E-08
      2060   1  5.044624E-04 -1.665160E-04 -1.665788E-04  2.926302E-06 -1.426172E-06 -9.590457E-10
      2061   1  5.043691E-04 -1.664782E-04 -1.662756E-04  2.805609E-06 -1.131613E-06  3.758554E-09
      2062   1  5.045174E-04 -1.665127E-04 -1.666371E-04  2.740468E-06 -6.056613E-07 -2.857529E-09
      2063   1  5.044092E-04 -1.664865E-04 -1.663054E-04  2.723695E-06 -2.894126E-14 -4.957684E-17
      2064   1  5.045174E-04 -1.665127E-04 -1.666371E-04  2.740468E-06  6.056612E-07  2.857529E-09
      2065   1  5.043691E-04 -1.664782E-04 -1.662756E-04  2.805609E-06  1.131613E-06 -3.758555E-09
      2066   1  5.044624E-04 -1.665160E-04 -1.665788E-04  2.926302E-06  1.426172E-06  9.590461E-10
      2067   1  5.042921E-04 -1.664651E-04 -1.661940E-04  3.128728E-06  1.400549E-06 -3.233991E-08
      2068   1  5.044573E-04 -1.665768E-04 -1.664785E-04  3.629915E-06  6.417350E-07 -4.386708E-08
      2069   1  4.035107E-04 -1.331056E-04 -1.333521E-04  9.959601E-06 -2.433931E-07 -3.401382E-08
      2070   1  4.033842E-04 -1.330801E-04 -1.330013E-04  8.872745E-06 -6.889881E-07  2.249677E-08
      2071   1  4.035338E-04 -1.331103E-04 -1.332949E-04  8.291513E-06 -8.257481E-07  8.470983E-09
      2072   1  4.034554E-04 -1.331221E-04 -1.330237E-04  7.957235E-06 -7.027341E-07 -7.972857E-09
      2073   1  4.035879E-04 -1.331167E-04 -1.333388E-04  7.777428E-06 -3.859241E-07 -3.462593E-09
      2074   1  4.034935E-04 -1.331308E-04 -1.330465E-04  7.722162E-06 -2.140820E-14  1.400205E-16
      2075   1  4.035879E-04 -1.331167E-04 -1.333388E-04  7.777428E-06  3.859240E-07  3.462592E-09
      2076   1  4.034554E-04 -1.331221E-04 -1.330237E-04  7.957235E-06  7.027341E-07  7.972858E-09
      2077   1  4.035338E-04 -1.331103E-04 -1.332949E-04  8.291513E-06  8.257481E-07 -8.470983E-09
      2078   1  4.033842E-04 -1.330801E-04 -1.330013E-04  8.872745E-06  6.889881E-07 -2.249677E-08
      2079   1  4.035107E-04 -1.331056E-04 -1.333521E-04  9.959601E-06  2.433931E-07  3.401382E-08
      2080   1  3.026756E-04 -9.994495E-05 -9.992704E-05  1.446100E-05 -1.420175E-07 -3.253205E-09
      2081   1  3.025751E-04 -9.988807E-05 -9.976562E-05  1.326439E-05 -3.647398E-07 -5.398027E-08
      2082   1  3.026896E-04 -9.986995E-05 -1.000062E-04  1.244982E-05 -4.528290E-07 -1.000244E-08
      2083   1  3.026368E-04 -9.990027E-05 -9.977684E-05  1.194886E-05 -4.157697E-07 -2.016763E-08
      2084   1  3.027410E-04 -9.990437E-05 -1.000216E-04  1.167956E-05 -2.317091E-07 -1.099319E-08
      2085   1  3.026705E-04 -9.990761E-05 -9.979548E-05  1.159022E-05 -1.500927E-14 -3.262237E-16
      2086   1  3.027410E-04 -9.990437E-05 -1.000216E-04  1.167956E-05  2.317091E-07  1.099319E-08
      2087   1  3.026368E-04 -9.990027E-05 -9.977684E-05  1.194886E-05  4.157697E-07  2.016763E-08
      2088   1  3.026896E-04 -9.986995E-05 -1.000062E-04  1.244982E-05  4.528290E-07  1.000244E-08
      2089   1  3.025751E-04 -9.988807E-05 -9.976562E-05  1.326439E-05  3.647398E-07  5.398027E-08
      2090   1  3.026756E-04 -9.994495E-05 -9.992704E-05  1.446100E-05  1.420175E-07  3.253205E-09
      2091   1  2.017419E-04 -6.654422E-05 -6.666478E-05  1.776729E-05 -6.755004E-08 -2.288413E-08
      2092   1  2.016772E-04 -6.654268E-05 -6.648743E-05  1.648541E-05 -1.963132E-07 -2.349384E-08
      2093   1  2.017577E-04 -6.653641E-05 -6.667075E-05  1.558039E-05 -2.420286E-07 -6.020518E-08
      2094   1  2.017221E-04 -6.652779E-05 -6.653632E-05  1.498394E-05 -2.255687E-07 -2.716403E-08
      2095   1  2.017926E-04 -6.654427E-05 -6.668373E-05  1.465448E-05 -1.290471E-07 -2.254030E-08
      2096   1  2.017461E-04 -6.654041E-05 -6.654356E-05  1.454647E-05 -9.464126E-15  3.727593E-16
      2097   1  2.017926E-04 -6.654427E-05 -6.668373E-05  1.465448E-05  1.290471E-07  2.254030E-08
      2098   1  2.017221E-04 -6.652779E-05 -6.653632E-05  1.498394E-05  2.255687E-07  2.716403E-08
      2099   1  2.017577E-04 -6.653641E-05 -6.667075E-05  1.558039E-05  2.420286E-07  6.020518E-08
      2100   1  2.016772E-04 -6.654268E-05 -6.648743E-05  1.648541E-05  1.963132E-07  2.349384E-08
      2101   1  2.017419E-04 -6.654422E-05 -6.666478E-05  1.776729E-05  6.755004E-08  2.288413E-08
      2102   1  1.008911E-04 -3.331510E-05 -3.331199E-05  1.953326E-05 -3.204177E-08 -1.223472E-08
      2103   1  1.008574E-04 -3.329773E-05 -3.325465E-05  1.823679E-05 -8.470154E-08 -5.781193E-08
      2104   1  1.008974E-04 -3.329399E-05 -3.333493E-05  1.728590E-05 -1.059167E-07 -4.038344E-08
      2105   1  1.008810E-04 -3.329925E-05 -3.326511E-05  1.664269E-05 -1.000567E-07 -5.733453E-08
      2106   1  1.009175E-04 -3.329628E-05 -3.335088E-05  1.627672E-05 -5.659461E-08 -2.087056E-08
      2107   1  1.008940E-04 -3.330335E-05 -3.326949E-05  1.615679E-05 -4.580668E-15 -1.947227E-16
      2108   1  1.009175E-04 -3.329628E-05 -3.335088E-05  1.627672E-05  5.659460E-08  2.087056E-08
      2109   1  1.008810E-04 -3.329925E-05 -3.326511E-05  1.664269E-05  1.000567E-07  5.733453E-08
      2110   1  1.008974E-04 -3.329399E-05 -3.333493E-05  1.728590E-05  1.059167E-07  4.038344E-08
      2111   1  1.008574E-04 -3.329773E-05 -3.325465E-05  1.823679E-05  8.470153E-08  5.781193E-08
      2112   1  1.008911E-04 -3.331510E-05 -3.331199E-05  1.953326E-05  3.204177E-08  1.223472E-08
      2113   1  1.104142E-13 -3.638929E-14 -3.659745E-14  2.029862E-05 -2.666290E-17 -2.265802E-08
      2114   1  1.103126E-13 -3.620108E-14 -3.654849E-14  1.898028E-05 -9.386904E-17 -3.546539E-08
      2115   1  1.103900E-13 -3.635547E-14 -3.647895E-14  1.801575E-05 -1.202168E-16 -7.021921E-08
      2116   1  1.103084E-13 -3.640924E-14 -3.631023E-14  1.736206E-05 -1.138793E-16 -3.998122E-08
      2117   1  1.103745E-13 -3.631210E-14 -3.652579E-14  1.699061E-05 -6.493672E-17 -3.440002E-08
      2118   1  1.102933E-13 -3.641965E-14 -3.627777E-14  1.686644E-05 -2.516323E-18  2.946042E-16
      2119   1  1.103439E-13 -3.630603E-14 -3.651641E-14  1.699061E-05  5.789851E-17  3.440002E-08
      2120   1  1.102426E-13 -3.637628E-14 -3.628612E-14  1.736206E-05  1.075664E-16  3.998122E-08
      2121   1  1.102908E-13 -3.631644E-14 -3.644605E-14  1.801575E-05  1.122564E-16  7.021921E-08
      2122   1  1.101853E-13 -3.616985E-14 -3.650122E-14  1.898028E-05  9.142365E-17  3.546539E-08
      2123   1  1.102559E-13 -3.634679E-14 -3.654320E-14  2.029862E-05  2.537372E-17  2.265802E-08
      2124   1 -1.008911E-04  3.331510E-05  3.331199E-05  1.953326E-05  3.204177E-08 -1.223472E-08
      2125   1 -1.008574E-04  3.329773E-05  3.325465E-05  1.823679E-05  8.470154E-08 -5.781193E-08
      2126   1 -1.008974E-04  3.329399E-05  3.333493E-05  1.728590E-05  1.059167E-07 -4.038344E-08
      2127   1 -1.008810E-04  3.329925E-05  3.326511E-05  1.664269E-05  1.000567E-07 -5.733453E-08
      2128   1 -1.009175E-04  3.329628E-05  3.335088E-05  1.627672E-05  5.659461E-08 -2.087056E-08
      2129   1 -1.008940E-04  3.330335E-05  3.326948E-05  1.615679E-05  4.572232E-15 -1.911660E-16
      2130   1 -1.009175E-04  3.329628E-05  3.335088E-05  1.627672E-05 -5.659460E-08  2.087056E-08
      2131   1 -1.008810E-04  3.329925E-05  3.326511E-05  1.664269E-05 -1.000567E-07  5.733453E-08
      2132   1 -1.008974E-04  3.329399E-05  3.333493E-05  1.728590E-05 -1.059167E-07  4.038344E-08
      2133   1 -1.008574E-04  3.329773E-05  3.325465E-05  1.823679E-05 -8.470153E-08  5.781193E-08
      2134   1 -1.008911E-04  3.331510E-05  3.331199E-05  1.953326E-05 -3.204177E-08  1.223472E-08
      2135   1 -2.017419E-04  6.654422E-05  6.666478E-05  1.776729E-05  6.755004E-08 -2.288413E-08
      2136   1 -2.016772E-04  6.654268E-05  6.648743E-05  1.648541E-05  1.963132E-07 -2.349384E-08
      2137   1 -2.017577E-04  6.653641E-05  6.667075E-05  1.558039E-05  2.420286E-07 -6.020518E-08
      2138   1 -2.017221E-04  6.652779E-05  6.653632E-05  1.498394E-05  2.255687E-07 -2.716403E-08
      2139   1 -2.017926E-04  6.654427E-05  6.668373E-05  1.465448E-05  1.290471E-07 -2.254030E-08
      2140   1 -2.017461E-04  6.654041E-05  6.654356E-05  1.454647E-05  9.456214E-15  3.763334E-16
      2141   1 -2.017926E-04  6.654427E-05  6.668373E-05  1.465448E-05 -1.290471E-07  2.254030E-08
      2142   1 -2.017221E-04  6.652779E-05  6.653632E-05  1.498394E-05 -2.255687E-07  2.716403E-08
      2143   1 -2.017577E-04  6.653641E-05  6.667075E-05  1.558039E-05 -2.420286E-07  6.020518E-08
      2144   1 -2.016772E-04  6.654268E-05  6.648743E-05  1.648541E-05 -1.963132E-07  2.349384E-08
      2145   1 -2.017419E-04  6.654422E-05  6.666478E-05  1.776729E-05 -6.755004E-08  2.288413E-08
      2146   1 -3.026756E-04  9.994495E-05  9.992704E-05  1.446100E-05  1.420175E-07 -3.253205E-09
      2147   1 -3.025751E-04  9.988807E-05  9.976562E-05  1.326439E-05  3.647398E-07 -5.398027E-08
      2148   1 -3.026896E-04  9.986995E-05  1.000062E-04  1.244982E-05  4.528290E-07 -1.000244E-08
      2149   1 -3.026368E-04  9.990027E-05  9.977684E-05  1.194886E-05  4.157697E-07 -2.016763E-08
      2150   1 -3.027410E-04  9.990437E-05  1.000216E-04  1.167956E-05  2.317091E-07 -1.099319E-08
      2151   1 -3.026705E-04  9.990761E-05  9.979548E-05  1.159022E-05  1.500326E-14 -3.235911E-16
      2152   1 -3.027410E-04  9.990437E-05  1.000216E-04  1.167956E-05 -2.317091E-07  1.099319E-08
      2153   1 -3.026368E-04  9.990027E-05  9.977684E-05  1.194886E-05 -4.157697E-07  2.016763E-08
      2154   1 -3.026896E-04  9.986995E-05  1.000062E-04  1.244982E-05 -4.528290E-07  1.000244E-08
      2155   1 -3.025751E-04  9.988807E-05  9.976562E-05  1.326439E-05 -3.647398E-07  5.398027E-08
      2156   1 -3.026756E-04  9.994495E-05  9.992704E-05  1.446100E-05 -1.420175E-07  3.253205E-09
      2157   1 -4.035107E-04  1.331056E-04  1.333521E-04  9.959601E-06  2.433931E-07 -3.401382E-08
      2158   1 -4.033842E-04  1.330801E-04  1.330013E-04  8.872745E-06  6.889881E-07  2.249677E-08
      2159   1 -4.035338E-04  1.331103E-04  1.332949E-04  8.291513E-06  8.257481E-07  8.470983E-09
      2160   1 -4.034554E-04  1.331221E-04  1.330237E-04  7.957235E-06  7.027341E-07 -7.972857E-09
      2161   1 -4.035879E-04  1.331167E-04  1.333388E-04  7.777428E-06  3.859241E-07 -3.462593E-09
      2162   1 -4.034935E-04  1.331308E-04  1.330465E-04  7.722162E-06  2.140340E-14  1.338448E-16
      2163   1 -4.035879E-04  1.331167E-04  1.333388E-04  7.777428E-06 -3.859240E-07  3.462592E-09
      2164   1 -4.034554E-04  1.331221E-04  1.330237E-04  7.957235E-06 -7.027341E-07  7.972858E-09
      2165   1 -4.035338E-04  1.331103E-04  1.332949E-04  8.291513E-06 -8.257481E-07 -8.470983E-09
      2166   1 -4.033842E-04  1.330801E-04  1.330013E-04  8.872745E-06 -6.889881E-07 -2.249677E-08
      2167   1 -4.035107E-04  1.331056E-04  1.333521E-04  9.959601E-06 -2.433931E-07  3.401382E-08
      2168   1 -5.044573E-04  1.665768E-04  1.664785E-04  3.629915E-06  6.417350E-07  4.386708E-08
      2169   1 -5.042921E-04  1.664651E-04  1.661940E-04  3.128728E-06  1.400549E-06  3.233991E-08
      2170   1 -5.044624E-04  1.665160E-04  1.665788E-04  2.926302E-06  1.426172E-06 -9.590457E-10
      2171   1 -5.043691E-04  1.664782E-04  1.662756E-04  2.805609E-06  1.131613E-06  3.758554E-09
      2172   1 -5.045174E-04  1.665127E-04  1.666371E-04  2.740468E-06  6.056613E-07 -2.857529E-09
      2173   1 -5.044092E-04  1.664865E-04  1.663054E-04  2.723695E-06  2.893638E-14 -4.686972E-17
      2174   1 -5.045174E-04  1.665127E-04  1.666371E-04  2.740468E-06 -6.056612E-07  2.857529E-09
      2175   1 -5.043691E-04  1.664782E-04  1.662756E-04  2.805609E-06 -1.131613E-06 -3.758555E-09
      2176   1 -5.044624E-04  1.665160E-04  1.665788E-04  2.926302E-06 -1.426172E-06  9.590461E-10
      2177   1 -5.042921E-04  1.664651E-04  1.661940E-04  3.128728E-06 -1.400549E-06 -3.233991E-08
      2178   1 -5.044573E-04  1.665768E-04  1.664785E-04  3.629915E-06 -6.417350E-07 -4.386708E-08
      2179   1  4.997295E-04 -1.650074E-04 -1.646302E-04  3.660103E-06 -6.331056E-07  5.544882E-08
      2180   1  4.998696E-04 -1.649191E-04 -1.650302E-04  3.136296E-06 -1.370997E-06  2.719156E-08
      2181   1  4.997664E-04 -1.649648E-04 -1.647455E-04  2.947041E-06 -1.412121E-06  5.664375E-09
      2182   1  4.998876E-04 -1.649230E-04 -1.650761E-04  2.813894E-06 -1.097151E-06  3.669940E-09
      2183   1  4.998045E-04 -1.649517E-04 -1.647932E-04  2.757553E-06 -5.989048E-07 -3.548038E-11
      2184   1  4.999046E-04 -1.649262E-04 -1.650946E-04  2.731325E-06 -2.888508E-14 -6.432876E-17
      2185   1  4.998045E-04 -1.649517E-04 -1.647932E-04  2.757553E-06  5.989047E-07  3.548051E-11
      2186   1  4.998876E-04 -1.649230E-04 -1.650761E-04  2.813894E-06  1.097151E-06 -3.669941E-09
      2187   1  4.997664E-04 -1.649648E-04 -1.647455E-04  2.947041E-06  1.412121E-06 -5.664375E-09
      2188   1  4.998696E-04 -1.649191E-04 -1.650302E-04  3.136296E-06  1.370997E-06 -2.719155E-08
      2189   1  4.997295E-04 -1.650074E-04 -1.646302E-04  3.660103E-06  6.331056E-07 -5.544882E-08
      2190   1  3.998116E-04 -1.319954E-04 -1.318698E-04  9.906796E-06 -2.448175E-07 -3.578823E-08
      2191   1  3.999218E-04 -1.319549E-04 -1.320793E-04  8.836663E-06 -6.534724E-07  2.778898E-08
      2192   1  3.998356E-04 -1.319811E-04 -1.318158E-04  8.246721E-06 -8.147676E-07  1.570230E-08
      2193   1  3.999444E-04 -1.319938E-04 -1.320741E-04  7.909297E-06 -6.669495E-07 -6.708703E-10
      2194   1  3.998741E-04 -1.319868E-04 -1.318444E-04  7.723232E-06 -3.795172E-07  9.466223E-10
      2195   1  3.999629E-04 -1.320008E-04 -1.320867E-04  7.667506E-06 -2.136285E-14  1.301144E-16
      2196   1  3.998741E-04 -1.319868E-04 -1.318444E-04  7.723232E-06  3.795172E-07 -9.466230E-10
      2197   1  3.999444E-04 -1.319938E-04 -1.320741E-04  7.909297E-06  6.669495E-07  6.708712E-10
      2198   1  3.998356E-04 -1.319811E-04 -1.318158E-04  8.246721E-06  8.147676E-07 -1.570230E-08
      2199   1  3.999218E-04 -1.319549E-04 -1.320793E-04  8.836663E-06  6.534724E-07 -2.778898E-08
      2200   1  3.998116E-04 -1.319954E-04 -1.318698E-04  9.906796E-06  2.448175E-07  3.578823E-08
      2201   1  2.998216E-04 -9.897767E-05 -9.881097E-05  1.455020E-05 -1.347756E-07  1.059759E-09
      2202   1  2.999095E-04 -9.893304E-05 -9.907723E-05  1.334254E-05 -3.381479E-07 -4.307228E-08
      2203   1  2.998475E-04 -9.891505E-05 -9.889369E-05  1.251860E-05 -4.401810E-07  9.620461E-10
      2204   1  2.999301E-04 -9.893879E-05 -9.906401E-05  1.201670E-05 -3.857425E-07 -8.182962E-09
      2205   1  2.998779E-04 -9.893975E-05 -9.889579E-05  1.173962E-05 -2.252340E-07 -4.608160E-09
      2206   1  2.999459E-04 -9.894165E-05 -9.907375E-05  1.165246E-05 -1.496098E-14 -3.376273E-16
      2207   1  2.998779E-04 -9.893975E-05 -9.889579E-05  1.173962E-05  2.252339E-07  4.608161E-09
      2208   1  2.999301E-04 -9.893879E-05 -9.906401E-05  1.201670E-05  3.857425E-07  8.182962E-09
      2209   1  2.998475E-04 -9.891505E-05 -9.889369E-05  1.251860E-05  4.401810E-07 -9.620464E-10
      2210   1  2.999095E-04 -9.893304E-05 -9.907723E-05  1.334254E-05  3.381479E-07  4.307228E-08
      2211   1  2.998216E-04 -9.897767E-05 -9.881097E-05  1.455020E-05  1.347756E-07 -1.059759E-09
      2212   1  1.999059E-04 -6.600548E-05 -6.592065E-05  1.767642E-05 -6.682036E-08 -1.854105E-08
      2213   1  1.999632E-04 -6.599819E-05 -6.603085E-05  1.640671E-05 -1.759254E-07 -1.144640E-08
      2214   1  1.999208E-04 -6.598939E-05 -6.592621E-05  1.549347E-05 -2.318880E-07 -4.360701E-08
      2215   1  1.999787E-04 -6.598152E-05 -6.606178E-05  1.488702E-05 -2.046189E-07 -1.187461E-08
      2216   1  1.999451E-04 -6.599714E-05 -6.592975E-05  1.454604E-05 -1.236871E-07 -1.387209E-08
      2217   1  1.999908E-04 -6.599295E-05 -6.606232E-05  1.443754E-05 -9.439926E-15  3.559453E-16
      2218   1  1.999451E-04 -6.599714E-05 -6.592975E-05  1.454604E-05  1.236870E-07  1.387209E-08
      2219   1  1.999787E-04 -6.598152E-05 -6.606178E-05  1.488702E-05  2.046189E-07  1.187461E-08
      2220   1  1.999208E-04 -6.598939E-05 -6.592621E-05  1.549347E-05  2.318880E-07  4.360701E-08
      2221   1  1.999632E-04 -6.599819E-05 -6.603085E-05  1.640671E-05  1.759254E-07  1.144640E-08
      2222   1  1.999059E-04 -6.600548E-05 -6.592065E-05  1.767642E-05  6.682036E-08  1.854105E-08
      2223   1  9.993730E-05 -3.298826E-05 -3.293932E-05  1.966257E-05 -2.918785E-08 -7.459256E-09
      2224   1  9.996700E-05 -3.297512E-05 -3.302639E-05  1.835669E-05 -7.444025E-08 -4.108546E-08
      2225   1  9.994662E-05 -3.297168E-05 -3.296240E-05  1.739184E-05 -1.004406E-07 -2.245705E-08
      2226   1  9.997546E-05 -3.297453E-05 -3.302766E-05  1.674573E-05 -8.871779E-08 -3.981721E-08
      2227   1  9.995831E-05 -3.297019E-05 -3.297300E-05  1.637089E-05 -5.378293E-08 -1.112689E-08
      2228   1  9.998162E-05 -3.297677E-05 -3.302867E-05  1.625159E-05 -4.565496E-15 -2.032614E-16
      2229   1  9.995831E-05 -3.297019E-05 -3.297300E-05  1.637089E-05  5.378292E-08  1.112690E-08
      2230   1  9.997546E-05 -3.297453E-05 -3.302766E-05  1.674573E-05  8.871778E-08  3.981720E-08
      2231   1  9.994662E-05 -3.297168E-05 -3.296240E-05  1.739184E-05  1.004406E-07  2.245705E-08
      2232   1  9.996700E-05 -3.297512E-05 -3.302639E-05  1.835669E-05  7.444024E-08  4.108546E-08
      2233   1  9.993730E-05 -3.298826E-05 -3.293932E-05  1.966257E-05  2.918785E-08  7.459256E-09
      2234   1  1.093593E-13 -3.616552E-14 -3.608858E-14  2.019372E-05 -2.190766E-17 -1.634973E-08
      2235   1  1.094180E-13 -3.597209E-14 -3.639746E-14  1.888703E-05 -8.146255E-17 -2.052291E-08
      2236   1  1.093400E-13 -3.611781E-14 -3.597570E-14  1.791370E-05 -1.141572E-16 -5.013137E-08
      2237   1  1.093958E-13 -3.618460E-14 -3.614496E-14  1.724793E-05 -1.002197E-16 -2.138281E-08
      2238   1  1.093234E-13 -3.608659E-14 -3.601893E-14  1.686286E-05 -6.181286E-17 -2.399072E-08
      2239   1  1.093645E-13 -3.618893E-14 -3.610868E-14  1.673809E-05 -4.862816E-18  2.759873E-16
      2240   1  1.092863E-13 -3.606837E-14 -3.600864E-14  1.686286E-05  5.693798E-17  2.399072E-08
      2241   1  1.093275E-13 -3.616465E-14 -3.612165E-14  1.724793E-05  9.198270E-17  2.138281E-08
      2242   1  1.092434E-13 -3.609005E-14 -3.594071E-14  1.791370E-05  1.127469E-16  5.013137E-08
      2243   1  1.092869E-13 -3.592612E-14 -3.635169E-14  1.888703E-05  7.578404E-17  2.052291E-08
      2244   1  1.091930E-13 -3.611174E-14 -3.603091E-14  2.019372E-05  2.475369E-17  1.634973E-08
      2245   1 -9.993730E-05  3.298826E-05  3.293932E-05  1.966257E-05  2.918785E-08 -7.459256E-09
      2246   1 -9.996700E-05  3.297512E-05  3.302639E-05  1.835669E-05  7.444025E-08 -4.108546E-08
      2247   1 -9.994662E-05  3.297168E-05  3.296240E-05  1.739184E-05  1.004406E-07 -2.245705E-08
      2248   1 -9.997546E-05  3.297453E-05  3.302766E-05  1.674573E-05  8.871779E-08 -3.981721E-08
      2249   1 -9.995831E-05  3.297019E-05  3.297300E-05  1.637089E-05  5.378293E-08 -1.112689E-08
      2250   1 -9.998162E-05  3.297677E-05  3.302867E-05  1.625159E-05  4.559457E-15 -1.935415E-16
      2251   1 -9.995831E-05  3.297019E-05  3.297300E-05  1.637089E-05 -5.378292E-08  1.112690E-08
      2252   1 -9.997546E-05  3.297453E-05  3.302766E-05  1.674573E-05 -8.871778E-08  3.981721E-08
      2253   1 -9.994662E-05  3.297168E-05  3.296240E-05  1.739184E-05 -1.004406E-07  2.245705E-08
      2254   1 -9.996700E-05  3.297512E-05  3.302639E-05  1.835669E-05 -7.444024E-08  4.108546E-08
      2255   1 -9.993730E-05  3.298826E-05  3.293932E-05  1.966257E-05 -2.918785E-08  7.459256E-09
      2256   1 -1.999059E-04  6.600548E-05  6.592065E-05  1.767642E-05  6.682036E-08 -1.854105E-08
      2257   1 -1.999632E-04  6.599819E-05  6.603085E-05  1.640671E-05  1.759254E-07 -1.144640E-08
      2258   1 -1.999208E-04  6.598939E-05  6.592621E-05  1.549347E-05  2.318880E-07 -4.360701E-08
      2259   1 -1.999787E-04  6.598152E-05  6.606178E-05  1.488702E-05  2.046189E-07 -1.187461E-08
      2260   1 -1.999451E-04  6.599714E-05  6.592974E-05  1.454604E-05  1.236871E-07 -1.387209E-08
      2261   1 -1.999908E-04  6.599295E-05  6.606232E-05  1.443754E-05  9.430354E-15  3.572311E-16
      2262   1 -1.999451E-04  6.599714E-05  6.592974E-05  1.454604E-05 -1.236870E-07  1.387209E-08
      2263   1 -1.999787E-04  6.598152E-05  6.606178E-05  1.488702E-05 -2.046189E-07  1.187461E-08
      2264   1 -1.999208E-04  6.598939E-05  6.592621E-05  1.549347E-05 -2.318880E-07  4.360701E-08
      2265   1 -1.999632E-04  6.599819E-05  6.603085E-05  1.640671E-05 -1.759254E-07  1.144640E-08
      2266   1 -1.999059E-04  6.600548E-05  6.592065E-05  1.767642E-05 -6.682036E-08  1.854105E-08
      2267   1 -2.998216E-04  9.897767E-05  9.881097E-05  1.455020E-05  1.347756E-07  1.059760E-09
      2268   1 -2.999095E-04  9.893304E-05  9.907723E-05  1.334254E-05  3.381479E-07 -4.307228E-08
      2269   1 -2.998475E-04  9.891505E-05  9.889369E-05  1.251860E-05  4.401810E-07  9.620460E-10
      2270   1 -2.999301E-04  9.893879E-05  9.906401E-05  1.201670E-05  3.857425E-07 -8.182962E-09
      2271   1 -2.998779E-04  9.893975E-05  9.889579E-05  1.173962E-05  2.252340E-07 -4.608160E-09
      2272   1 -2.999459E-04  9.894165E-05  9.907375E-05  1.165246E-05  1.495930E-14 -3.389665E-16
      2273   1 -2.998779E-04  9.893975E-05  9.889579E-05  1.173962E-05 -2.252339E-07  4.608161E-09
      2274   1 -2.999301E-04  9.893879E-05  9.906401E-05  1.201670E-05 -3.857425E-07  8.182962E-09
      2275   1 -2.998475E-04  9.891505E-05  9.889369E-05  1.251860E-05 -4.401810E-07 -9.620464E-10
      2276   1 -2.999095E-04  9.893304E-05  9.907723E-05  1.334254E-05 -3.381479E-07  4.307228E-08
      2277   1 -2.998216E-04  9.897767E-05  9.881097E-05  1.455020E-05 -1.347756E-07 -1.059760E-09
      2278   1 -3.998116E-04  1.319954E-04  1.318698E-04  9.906796E-06  2.448175E-07 -3.578823E-08
      2279   1 -3.999218E-04  1.319549E-04  1.320793E-04  8.836663E-06  6.534724E-07  2.778898E-08
      2280   1 -3.998356E-04  1.319811E-04  1.318158E-04  8.246721E-06  8.147676E-07  1.570230E-08
      2281   1 -3.999444E-04  1.319938E-04  1.320741E-04  7.909297E-06  6.669495E-07 -6.708703E-10
      2282   1 -3.998741E-04  1.319868E-04  1.318444E-04  7.723232E-06  3.795172E-07  9.466223E-10
      2283   1 -3.999629E-04  1.320008E-04  1.320867E-04  7.667506E-06  2.134951E-14  1.266772E-16
      2284   1 -3.998741E-04  1.319868E-04  1.318444E-04  7.723232E-06 -3.795172E-07 -9.466230E-10
      2285   1 -3.999444E-04  1.319938E-04  1.320741E-04  7.909297E-06 -6.669495E-07  6.708712E-10
      2286   1 -3.998356E-04  1.319811E-04  1.318158E-04  8.246721E-06 -8.147676E-07 -1.570230E-08
      2287   1 -3.999218E-04  1.319549E-04  1.320793E-04  8.836663E-06 -6.534724E-07 -2.778898E-08
      2288   1 -3.998116E-04  1.319954E-04  1.318698E-04  9.906796E-06 -2.448175E-07  3.578823E-08
      2289   1 -4.997295E-04  1.650074E-04  1.646302E-04  3.660103E-06  6.331056E-07  5.544882E-08
      2290   1 -4.998696E-04  1.649191E-04  1.650302E-04  3.136296E-06  1.370997E-06  2.719156E-08
      2291   1 -4.997664E-04  1.649648E-04  1.647455E-04  2.947041E-06  1.412121E-06  5.664375E-09
      2292   1 -4.998876E-04  1.649230E-04  1.650761E-04  2.813894E-06  1.097151E-06  3.669940E-09
      2293   1 -4.998045E-04  1.649517E-04  1.647932E-04  2.757553E-06  5.989048E-07 -3.548038E-11
      2294   1 -4.999046E-04  1.649262E-04  1.650946E-04  2.731325E-06  2.887624E-14 -6.276514E-17
      2295   1 -4.998045E-04  1.649517E-04  1.647932E-04  2.757553E-06 -5.989047E-07  3.548051E-11
      2296   1 -4.998876E-04  1.649230E-04  1.650761E-04  2.813894E-06 -1.097151E-06 -3.669941E-09
      2297   1 -4.997664E-04  1.649648E-04  1.647455E-04  2.947041E-06 -1.412121E-06 -5.664375E-09
      2298   1 -4.998696E-04  1.649191E-04  1.650302E-04  3.136296E-06 -1.370997E-06 -2.719155E-08
      2299   1 -4.997295E-04  1.650074E-04  1.646302E-04  3.660103E-06 -6.331056E-07 -5.544882E-08
      2300   1  4.953594E-04 -1.635628E-04 -1.634269E-04  3.638957E-06 -6.285533E-07  4.613171E-08
      2301   1  4.952407E-04 -1.634577E-04 -1.632565E-04  3.133417E-06 -1.364225E-06  3.263334E-08
      2302   1  4.953403E-04 -1.635039E-04 -1.635042E-04  2.931960E-06 -1.387751E-06  3.693217E-09
      2303   1  4.952651E-04 -1.634616E-04 -1.633043E-04  2.806780E-06 -1.090935E-06  6.975865E-09
      2304   1  4.953512E-04 -1.634909E-04 -1.635340E-04  2.741803E-06 -5.861250E-07 -1.448935E-10
      2305   1  4.952783E-04 -1.634640E-04 -1.633191E-04  2.722331E-06 -2.895522E-14 -5.014266E-17
      2306   1  4.953512E-04 -1.634909E-04 -1.635340E-04  2.741803E-06  5.861249E-07  1.448936E-10
      2307   1  4.952651E-04 -1.634616E-04 -1.633043E-04  2.806780E-06  1.090935E-06 -6.975865E-09
      2308   1  4.953403E-04 -1.635039E-04 -1.635042E-04  2.931960E-06  1.387751E-06 -3.693217E-09
      2309   1  4.952407E-04 -1.634577E-04 -1.632565E-04  3.133417E-06  1.364225E-06 -3.263334E-08
      2310   1  4.953594E-04 -1.635628E-04 -1.634269E-04  3.638957E-06  6.285533E-07 -4.613171E-08
      2311   1  3.962658E-04 -1.307434E-04 -1.309116E-04  9.950921E-06 -2.333357E-07 -3.178135E-08
      2312   1  3.961719E-04 -1.307159E-04 -1.306522E-04  8.866028E-06 -6.510451E-07  2.992788E-08
      2313   1  3.962583E-04 -1.307422E-04 -1.308319E-04  8.278554E-06 -7.883197E-07  1.954726E-08
      2314   1  3.961935E-04 -1.307506E-04 -1.306436E-04  7.937581E-06 -6.614182E-07  3.252777E-09
      2315   1  3.962693E-04 -1.307420E-04 -1.308456E-04  7.751504E-06 -3.663207E-07  3.338594E-09
      2316   1  3.962056E-04 -1.307547E-04 -1.306509E-04  7.694329E-06 -2.142844E-14  1.252101E-16
      2317   1  3.962693E-04 -1.307420E-04 -1.308456E-04  7.751504E-06  3.663206E-07 -3.338595E-09
      2318   1  3.961935E-04 -1.307506E-04 -1.306436E-04  7.937581E-06  6.614181E-07 -3.252776E-09
      2319   1  3.962583E-04 -1.307422E-04 -1.308319E-04  8.278554E-06  7.883196E-07 -1.954726E-08
      2320   1  3.961719E-04 -1.307159E-04 -1.306522E-04  8.866028E-06  6.510450E-07 -2.992788E-08
      2321   1  3.962658E-04 -1.307434E-04 -1.309116E-04  9.950921E-06  2.333357E-07  3.178135E-08
      2322   1  2.972225E-04 -9.813216E-05 -9.809861E-05  1.449718E-05 -1.305934E-07  1.980651E-09
      2323   1  2.971480E-04 -9.808071E-05 -9.800441E-05  1.329641E-05 -3.325035E-07 -3.880481E-08
      2324   1  2.972129E-04 -9.806065E-05 -9.815637E-05  1.247278E-05 -4.190935E-07  8.414231E-09
      2325   1  2.971662E-04 -9.808546E-05 -9.798833E-05  1.196269E-05 -3.799465E-07 -2.250748E-09
      2326   1  2.972249E-04 -9.808598E-05 -9.814605E-05  1.168447E-05 -2.143237E-07 -4.975755E-10
      2327   1  2.971769E-04 -9.808783E-05 -9.799332E-05  1.159288E-05 -1.501988E-14 -3.335641E-16
      2328   1  2.972249E-04 -9.808598E-05 -9.814605E-05  1.168447E-05  2.143236E-07  4.975763E-10
      2329   1  2.971662E-04 -9.808546E-05 -9.798833E-05  1.196269E-05  3.799464E-07  2.250748E-09
      2330   1  2.972129E-04 -9.806065E-05 -9.815637E-05  1.247278E-05  4.190935E-07 -8.414232E-09
      2331   1  2.971480E-04 -9.808071E-05 -9.800441E-05  1.329641E-05  3.325035E-07  3.880481E-08
      2332   1  2.972225E-04 -9.813216E-05 -9.809861E-05  1.449718E-05  1.305933E-07 -1.980652E-09
      2333   1  1.981293E-04 -6.536961E-05 -6.544601E-05  1.775652E-05 -6.035418E-08 -1.543439E-08
      2334   1  1.980806E-04 -6.536858E-05 -6.531421E-05  1.647536E-05 -1.721855E-07 -4.118796E-09
      2335   1  1.981258E-04 -6.536071E-05 -6.543607E-05  1.555917E-05 -2.167653E-07 -3.438637E-08
      2336   1  1.980940E-04 -6.535015E-05 -6.534213E-05  1.494854E-05 -1.994639E-07 -3.906175E-09
      2337   1  1.981334E-04 -6.536418E-05 -6.543040E-05  1.460707E-05 -1.160387E-07 -8.793330E-09
      2338   1  1.981015E-04 -6.535955E-05 -6.533942E-05  1.449543E-05 -9.473020E-15  3.445645E-16
      2339   1  1.981334E-04 -6.536418E-05 -6.543040E-05  1.460707E-05  1.160386E-07  8.793329E-09
      2340   1  1.980940E-04 -6.535015E-05 -6.534213E-05  1.494854E-05  1.994639E-07  3.906176E-09
      2341   1  1.981258E-04 -6.536071E-05 -6.543607E-05  1.555916E-05  2.167653E-07  3.438637E-08
      2342   1  1.980806E-04 -6.536858E-05 -6.531421E-05  1.647536E-05  1.721855E-07  4.118796E-09
      2343   1  1.981293E-04 -6.536961E-05 -6.544601E-05  1.775652E-05  6.035417E-08  1.543439E-08
      2344   1  9.907501E-05 -3.271045E-05 -3.270308E-05  1.958905E-05 -2.750429E-08 -3.917548E-09
      2345   1  9.904980E-05 -3.269544E-05 -3.266783E-05  1.828858E-05 -7.202484E-08 -3.395490E-08
      2346   1  9.907209E-05 -3.269121E-05 -3.271731E-05  1.732443E-05 -9.244337E-08 -1.116861E-08
      2347   1  9.905665E-05 -3.269450E-05 -3.266743E-05  1.666758E-05 -8.614178E-08 -3.011252E-08
      2348   1  9.907697E-05 -3.269013E-05 -3.272321E-05  1.628921E-05 -4.970296E-08 -5.219670E-09
      2349   1  9.906081E-05 -3.269654E-05 -3.266660E-05  1.616550E-05 -4.584558E-15 -2.117705E-16
      2350   1  9.907697E-05 -3.269013E-05 -3.272321E-05  1.628921E-05  4.970296E-08  5.219671E-09
      2351   1  9.905665E-05 -3.269450E-05 -3.266743E-05  1.666758E-05  8.614177E-08  3.011252E-08
      2352   1  9.907209E-05 -3.269121E-05 -3.271731E-05  1.732443E-05  9.244337E-08  1.116861E-08
      2353   1  9.904980E-05 -3.269544E-05 -3.266783E-05  1.828858E-05  7.202483E-08  3.395490E-08
      2354   1  9.907501E-05 -3.271045E-05 -3.270308E-05  1.958905E-05  2.750429E-08  3.917548E-09
      2355   1  1.084326E-13 -3.575265E-14 -3.592370E-14  2.028823E-05 -2.178230E-17 -1.324926E-08
      2356   1  1.083490E-13 -3.556010E-14 -3.591276E-14  1.897078E-05 -7.916285E-17 -1.141529E-08
      2357   1  1.083926E-13 -3.569454E-14 -3.579441E-14  1.799332E-05 -9.904356E-17 -3.875589E-08
      2358   1  1.083256E-13 -3.575872E-14 -3.567086E-14  1.732273E-05 -1.004014E-16 -1.173082E-08
      2359   1  1.083610E-13 -3.568673E-14 -3.582325E-14  1.693708E-05 -5.484665E-17 -1.778623E-08
      2360   1  1.082989E-13 -3.576913E-14 -3.563569E-14  1.680862E-05 -2.487736E-18  2.694594E-16
      2361   1  1.083301E-13 -3.567459E-14 -3.581692E-14  1.693708E-05  5.122432E-17  1.778623E-08
      2362   1  1.082609E-13 -3.574918E-14 -3.564424E-14  1.732273E-05  9.337861E-17  1.173082E-08
      2363   1  1.082925E-13 -3.568066E-14 -3.575737E-14  1.799332E-05  9.946454E-17  3.875589E-08
      2364   1  1.082206E-13 -3.552627E-14 -3.587240E-14  1.897078E-05  7.518095E-17  1.141529E-08
      2365   1  1.082658E-13 -3.570755E-14 -3.586260E-14  2.028823E-05  1.885326E-17  1.324926E-08
      2366   1 -9.907501E-05  3.271045E-05  3.270308E-05  1.958905E-05  2.750429E-08 -3.917548E-09
      2367   1 -9.904980E-05  3.269544E-05  3.266783E-05  1.828858E-05  7.202484E-08 -3.395490E-08
      2368   1 -9.907209E-05  3.269121E-05  3.271731E-05  1.732443E-05  9.244337E-08 -1.116861E-08
      2369   1 -9.905665E-05  3.269450E-05  3.266743E-05  1.666758E-05  8.614178E-08 -3.011252E-08
      2370   1 -9.907697E-05  3.269013E-05  3.272321E-05  1.628921E-05  4.970296E-08 -5.219670E-09
      2371   1 -9.906081E-05  3.269654E-05  3.266660E-05  1.616550E-05  4.582380E-15 -2.026437E-16
      2372   1 -9.907697E-05  3.269013E-05  3.272321E-05  1.628921E-05 -4.970296E-08  5.219671E-09
      2373   1 -9.905665E-05  3.269450E-05  3.266743E-05  1.666758E-05 -8.614177E-08  3.011252E-08
      2374   1 -9.907209E-05  3.269121E-05  3.271731E-05  1.732443E-05 -9.244337E-08  1.116861E-08
      2375   1 -9.904980E-05  3.269544E-05  3.266783E-05  1.828858E-05 -7.202483E-08  3.395490E-08
      2376   1 -9.907501E-05  3.271045E-05  3.270308E-05  1.958905E-05 -2.750429E-08  3.917549E-09
      2377   1 -1.981293E-04  6.536961E-05  6.544601E-05  1.775652E-05  6.035418E-08 -1.543439E-08
      2378   1 -1.980806E-04  6.536858E-05  6.531421E-05  1.647536E-05  1.721855E-07 -4.118796E-09
      2379   1 -1.981258E-04  6.536071E-05  6.543607E-05  1.555917E-05  2.167653E-07 -3.438637E-08
      2380   1 -1.980940E-04  6.535015E-05  6.534213E-05  1.494854E-05  1.994639E-07 -3.906175E-09
      2381   1 -1.981334E-04  6.536418E-05  6.543040E-05  1.460707E-05  1.160387E-07 -8.793330E-09
      2382   1 -1.981015E-04  6.535955E-05  6.533942E-05  1.449543E-05  9.468098E-15  3.538565E-16
      2383   1 -1.981334E-04  6.536418E-05  6.543040E-05  1.460707E-05 -1.160386E-07  8.793329E-09
      2384   1 -1.980940E-04  6.535015E-05  6.534213E-05  1.494854E-05 -1.994639E-07  3.906176E-09
      2385   1 -1.981258E-04  6.536071E-05  6.543607E-05  1.555916E-05 -2.167653E-07  3.438637E-08
      2386   1 -1.980806E-04  6.536858E-05  6.531421E-05  1.647536E-05 -1.721855E-07  4.118796E-09
      2387   1 -1.981293E-04  6.536961E-05  6.544601E-05  1.775652E-05 -6.035417E-08  1.543439E-08
      2388   1 -2.972225E-04  9.813216E-05  9.809861E-05  1.449718E-05  1.305934E-07  1.980652E-09
      2389   1 -2.971480E-04  9.808071E-05  9.800441E-05  1.329641E-05  3.325035E-07 -3.880481E-08
      2390   1 -2.972129E-04  9.806065E-05  9.815637E-05  1.247278E-05  4.190935E-07  8.414231E-09
      2391   1 -2.971662E-04  9.808546E-05  9.798833E-05  1.196269E-05  3.799465E-07 -2.250748E-09
      2392   1 -2.972249E-04  9.808598E-05  9.814605E-05  1.168447E-05  2.143237E-07 -4.975756E-10
      2393   1 -2.971769E-04  9.808783E-05  9.799332E-05  1.159288E-05  1.501490E-14 -3.384303E-16
      2394   1 -2.972249E-04  9.808598E-05  9.814605E-05  1.168447E-05 -2.143236E-07  4.975763E-10
      2395   1 -2.971662E-04  9.808546E-05  9.798833E-05  1.196269E-05 -3.799464E-07  2.250748E-09
      2396   1 -2.972129E-04  9.806065E-05  9.815637E-05  1.247278E-05 -4.190935E-07 -8.414232E-09
      2397   1 -2.971480E-04  9.808071E-05  9.800441E-05  1.329641E-05 -3.325035E-07  3.880481E-08
      2398   1 -2.972225E-04  9.813216E-05  9.809861E-05  1.449718E-05 -1.305933E-07 -1.980652E-09
      2399   1 -3.962658E-04  1.307434E-04  1.309116E-04  9.950921E-06  2.333357E-07 -3.178135E-08
      2400   1 -3.961719E-04  1.307159E-04  1.306522E-04  8.866028E-06  6.510451E-07  2.992788E-08
      2401   1 -3.962583E-04  1.307422E-04  1.308319E-04  8.278554E-06  7.883197E-07  1.954726E-08
      2402   1 -3.961935E-04  1.307506E-04  1.306436E-04  7.937581E-06  6.614182E-07  3.252777E-09
      2403   1 -3.962693E-04  1.307420E-04  1.308456E-04  7.751504E-06  3.663207E-07  3.338594E-09
      2404   1 -3.962056E-04  1.307547E-04  1.306509E-04  7.694329E-06  2.141929E-14  1.257454E-16
      2405   1 -3.962693E-04  1.307420E-04  1.308456E-04  7.751504E-06 -3.663206E-07 -3.338595E-09
      2406   1 -3.961935E-04  1.307506E-04  1.306436E-04  7.937581E-06 -6.614181E-07 -3.252776E-09
      2407   1 -3.962583E-04  1.307422E-04  1.308319E-04  8.278554E-06 -7.883196E-07 -1.954726E-08
      2408   1 -3.961719E-04  1.307159E-04  1.306522E-04  8.866028E-06 -6.510450E-07 -2.992788E-08
      2409   1 -3.962658E-04  1.307434E-04  1.309116E-04  9.950921E-06 -2.333357E-07  3.178135E-08
      2410   1 -4.953594E-04  1.635628E-04  1.634269E-04  3.638957E-06  6.285533E-07  4.613171E-08
      2411   1 -4.952407E-04  1.634577E-04  1.632565E-04  3.133417E-06  1.364225E-06  3.263334E-08
      2412   1 -4.953403E-04  1.635039E-04  1.635042E-04  2.931960E-06  1.387751E-06  3.693217E-09
      2413   1 -4.952651E-04  1.634616E-04  1.633043E-04  2.806780E-06  1.090935E-06  6.975865E-09
      2414   1 -4.953512E-04  1.634909E-04  1.635340E-04  2.741803E-06  5.861250E-07 -1.448934E-10
      2415   1 -4.952783E-04  1.634640E-04  1.633191E-04  2.722331E-06  2.894935E-14 -5.463532E-17
      2416   1 -4.953512E-04  1.634909E-04  1.635340E-04  2.741803E-06 -5.861249E-07  1.448936E-10
      2417   1 -4.952651E-04  1.634616E-04  1.633043E-04  2.806780E-06 -1.090935E-06 -6.975865E-09
      2418   1 -4.953403E-04  1.635039E-04  1.635042E-04  2.931960E-06 -1.387751E-06 -3.693217E-09
      2419   1 -4.952407E-04  1.634577E-04  1.632565E-04  3.133417E-06 -1.364225E-06 -3.263334E-08
      2420   1 -4.953594E-04  1.635628E-04  1.634269E-04  3.638957E-06 -6.285533E-07 -4.613171E-08
      2421   1  4.906906E-04 -1.620292E-04 -1.616911E-04  3.655666E-06 -6.257687E-07  5.281731E-08
      2422   1  4.907806E-04 -1.619401E-04 -1.619810E-04  3.135235E-06 -1.352941E-06  2.885181E-08
      2423   1  4.907043E-04 -1.619843E-04 -1.617853E-04  2.943063E-06 -1.384449E-06  6.833602E-09
      2424   1  4.907760E-04 -1.619416E-04 -1.620078E-04  2.810410E-06 -1.077028E-06  6.084060E-09
      2425   1  4.907161E-04 -1.619687E-04 -1.618148E-04  2.751353E-06 -5.844140E-07  1.049749E-09
      2426   1  4.907785E-04 -1.619426E-04 -1.620160E-04  2.726205E-06 -2.890678E-14 -4.476908E-17
      2427   1  4.907161E-04 -1.619687E-04 -1.618148E-04  2.751353E-06  5.844139E-07 -1.049749E-09
      2428   1  4.907760E-04 -1.619416E-04 -1.620078E-04  2.810410E-06  1.077028E-06 -6.084061E-09
      2429   1  4.907043E-04 -1.619843E-04 -1.617853E-04  2.943063E-06  1.384449E-06 -6.833602E-09
      2430   1  4.907806E-04 -1.619401E-04 -1.619810E-04  3.135235E-06  1.352941E-06 -2.885181E-08
      2431   1  4.906906E-04 -1.620292E-04 -1.616911E-04  3.655666E-06  6.257687E-07 -5.281731E-08
      2432   1  3.925667E-04 -1.295836E-04 -1.295165E-04  9.921195E-06 -2.354591E-07 -3.324578E-08
      2433   1  3.926377E-04 -1.295477E-04 -1.296389E-04  8.848383E-06 -6.369502E-07  3.112015E-08
      2434   1  3.925726E-04 -1.295726E-04 -1.294476E-04  8.256957E-06 -7.866249E-07  2.145362E-08
      2435   1  3.926359E-04 -1.295823E-04 -1.296146E-04  7.915943E-06 -6.471262E-07  5.288895E-09
      2436   1  3.925844E-04 -1.295735E-04 -1.294586E-04  7.727425E-06 -3.648641E-07  4.639543E-09
      2437   1  3.926393E-04 -1.295864E-04 -1.296162E-04  7.670374E-06 -2.138035E-14  1.309394E-16
      2438   1  3.925844E-04 -1.295735E-04 -1.294586E-04  7.727425E-06  3.648641E-07 -4.639543E-09
      2439   1  3.926359E-04 -1.295823E-04 -1.296146E-04  7.915943E-06  6.471261E-07 -5.288894E-09
      2440   1  3.925726E-04 -1.295726E-04 -1.294476E-04  8.256957E-06  7.866248E-07 -2.145362E-08
      2441   1  3.926377E-04 -1.295477E-04 -1.296389E-04  8.848383E-06  6.369502E-07 -3.112016E-08
      2442   1  3.925667E-04 -1.295836E-04 -1.295165E-04  9.921195E-06  2.354591E-07  3.324578E-08
      2443   1  2.944086E-04 -9.719838E-05 -9.704963E-05  1.453918E-05 -1.281750E-07  3.507807E-09
      2444   1  2.944647E-04 -9.715465E-05 -9.724624E-05  1.333310E-05 -3.225927E-07 -3.526518E-08
      2445   1  2.944167E-04 -9.713598E-05 -9.711609E-05  1.250587E-05 -4.161166E-07  1.123616E-08
      2446   1  2.944642E-04 -9.715824E-05 -9.721685E-05  1.199744E-05 -3.681836E-07  1.392005E-09
      2447   1  2.944253E-04 -9.715785E-05 -9.710341E-05  1.171612E-05 -2.126276E-07  1.336526E-09
      2448   1  2.944671E-04 -9.715921E-05 -9.721715E-05  1.162646E-05 -1.498412E-14 -3.378493E-16
      2449   1  2.944253E-04 -9.715785E-05 -9.710341E-05  1.171612E-05  2.126276E-07 -1.336525E-09
      2450   1  2.944642E-04 -9.715824E-05 -9.721685E-05  1.199744E-05  3.681835E-07 -1.392005E-09
      2451   1  2.944167E-04 -9.713598E-05 -9.711609E-05  1.250587E-05  4.161166E-07 -1.123616E-08
      2452   1  2.944647E-04 -9.715465E-05 -9.724624E-05  1.333310E-05  3.225927E-07  3.526518E-08
      2453   1  2.944086E-04 -9.719838E-05 -9.704963E-05  1.453918E-05  1.281749E-07 -3.507807E-09
      2454   1  1.962851E-04 -6.479757E-05 -6.474601E-05  1.770586E-05 -6.093701E-08 -1.440609E-08
      2455   1  1.963217E-04 -6.479328E-05 -6.481023E-05  1.643414E-05 -1.644410E-07 -1.010788E-09
      2456   1  1.962886E-04 -6.478442E-05 -6.474094E-05  1.551610E-05 -2.141994E-07 -2.929994E-08
      2457   1  1.963215E-04 -6.477486E-05 -6.482847E-05  1.490298E-05 -1.913910E-07  7.621245E-10
      2458   1  1.962959E-04 -6.478881E-05 -6.473355E-05  1.455705E-05 -1.145180E-07 -6.109625E-09
      2459   1  1.963239E-04 -6.478418E-05 -6.482236E-05  1.444596E-05 -9.455261E-15  3.421763E-16
      2460   1  1.962959E-04 -6.478881E-05 -6.473355E-05  1.455705E-05  1.145180E-07  6.109625E-09
      2461   1  1.963215E-04 -6.477486E-05 -6.482847E-05  1.490298E-05  1.913909E-07 -7.621242E-10
      2462   1  1.962886E-04 -6.478442E-05 -6.474094E-05  1.551610E-05  2.141994E-07  2.929994E-08
      2463   1  1.963217E-04 -6.479328E-05 -6.481023E-05  1.643414E-05  1.644410E-07  1.010788E-09
      2464   1  1.962851E-04 -6.479757E-05 -6.474601E-05  1.770586E-05  6.093701E-08  1.440609E-08
      2465   1  9.813517E-05 -3.239673E-05 -3.235269E-05  1.964895E-05 -2.655359E-08 -2.652437E-09
      2466   1  9.815402E-05 -3.238425E-05 -3.241590E-05  1.834498E-05 -6.820407E-08 -2.862676E-08
      2467   1  9.813787E-05 -3.238061E-05 -3.236955E-05  1.737529E-05 -9.105707E-08 -6.004460E-09
      2468   1  9.815422E-05 -3.238301E-05 -3.241068E-05  1.671978E-05 -8.173756E-08 -2.462569E-08
      2469   1  9.814115E-05 -3.237821E-05 -3.237427E-05  1.633839E-05 -4.891883E-08 -2.244076E-09
      2470   1  9.815542E-05 -3.238444E-05 -3.240815E-05  1.621591E-05 -4.574966E-15 -2.099363E-16
      2471   1  9.814115E-05 -3.237821E-05 -3.237427E-05  1.633839E-05  4.891882E-08  2.244077E-09
      2472   1  9.815422E-05 -3.238301E-05 -3.241068E-05  1.671978E-05  8.173755E-08  2.462569E-08
      2473   1  9.813787E-05 -3.238061E-05 -3.236955E-05  1.737529E-05  9.105707E-08  6.004460E-09
      2474   1  9.815402E-05 -3.238425E-05 -3.241590E-05  1.834498E-05  6.820406E-08  2.862676E-08
      2475   1  9.813517E-05 -3.239673E-05 -3.235269E-05  1.964895E-05  2.655359E-08  2.652437E-09
      2476   1  1.073907E-13 -3.549504E-14 -3.545964E-14  2.022948E-05 -2.150447E-17 -1.143969E-08
      2477   1  1.074271E-13 -3.531463E-14 -3.570992E-14  1.892120E-05 -7.362919E-17 -7.383204E-09
      2478   1  1.073603E-13 -3.544127E-14 -3.534246E-14  1.794206E-05 -1.041571E-16 -3.257361E-08
      2479   1  1.073905E-13 -3.549157E-14 -3.546449E-14  1.726838E-05 -9.130634E-17 -5.911580E-09
      2480   1  1.073375E-13 -3.542566E-14 -3.536723E-14  1.687740E-05 -5.760883E-17 -1.449309E-08
      2481   1  1.073592E-13 -3.551066E-14 -3.542774E-14  1.674958E-05 -5.069069E-18  2.663252E-16
      2482   1  1.073029E-13 -3.541698E-14 -3.536084E-14  1.687740E-05  5.287222E-17  1.449309E-08
      2483   1  1.073254E-13 -3.549244E-14 -3.543699E-14  1.726838E-05  8.740448E-17  5.911581E-09
      2484   1  1.072625E-13 -3.542132E-14 -3.530543E-14  1.794206E-05  1.005657E-16  3.257361E-08
      2485   1  1.072931E-13 -3.526953E-14 -3.566919E-14  1.892120E-05  7.335814E-17  7.383204E-09
      2486   1  1.072278E-13 -3.545428E-14 -3.539853E-14  2.022948E-05  1.926831E-17  1.143969E-08
      2487   1 -9.813517E-05  3.239673E-05  3.235269E-05  1.964895E-05  2.655359E-08 -2.652437E-09
      2488   1 -9.815402E-05  3.238425E-05  3.241590E-05  1.834498E-05  6.820406E-08 -2.862676E-08
      2489   1 -9.813787E-05  3.238061E-05  3.236955E-05  1.737529E-05  9.105707E-08 -6.004460E-09
      2490   1 -9.815422E-05  3.238301E-05  3.241068E-05  1.671978E-05  8.173756E-08 -2.462569E-08
      2491   1 -9.814115E-05  3.237821E-05  3.237427E-05  1.633839E-05  4.891883E-08 -2.244076E-09
      2492   1 -9.815542E-05  3.238444E-05  3.240815E-05  1.621591E-05  4.566354E-15 -2.061945E-16
      2493   1 -9.814115E-05  3.237821E-05  3.237427E-05  1.633839E-05 -4.891882E-08  2.244077E-09
      2494   1 -9.815422E-05  3.238301E-05  3.241068E-05  1.671978E-05 -8.173755E-08  2.462569E-08
      2495   1 -9.813787E-05  3.238061E-05  3.236955E-05  1.737529E-05 -9.105707E-08  6.004460E-09
      2496   1 -9.815402E-05  3.238425E-05  3.241590E-05  1.834498E-05 -6.820406E-08  2.862676E-08
      2497   1 -9.813517E-05  3.239673E-05  3.235269E-05  1.964895E-05 -2.655359E-08  2.652437E-09
      2498   1 -1.962851E-04  6.479757E-05  6.474601E-05  1.770586E-05  6.093701E-08 -1.440609E-08
      2499   1 -1.963217E-04  6.479328E-05  6.481023E-05  1.643414E-05  1.644410E-07 -1.010788E-09
      2500   1 -1.962886E-04  6.478442E-05  6.474094E-05  1.551610E-05  2.141994E-07 -2.929994E-08
      2501   1 -1.963215E-04  6.477486E-05  6.482847E-05  1.490298E-05  1.913910E-07  7.621245E-10
      2502   1 -1.962959E-04  6.478881E-05  6.473355E-05  1.455705E-05  1.145180E-07 -6.109625E-09
      2503   1 -1.963239E-04  6.478418E-05  6.482236E-05  1.444596E-05  9.452650E-15  3.433617E-16
      2504   1 -1.962959E-04  6.478881E-05  6.473355E-05  1.455705E-05 -1.145180E-07  6.109625E-09
      2505   1 -1.963215E-04  6.477486E-05  6.482847E-05  1.490298E-05 -1.913909E-07 -7.621241E-10
      2506   1 -1.962886E-04  6.478442E-05  6.474094E-05  1.551610E-05 -2.141994E-07  2.929994E-08
      2507   1 -1.963217E-04  6.479328E-05  6.481023E-05  1.643414E-05 -1.644410E-07  1.010788E-09
      2508   1 -1.962851E-04  6.479757E-05  6.474601E-05  1.770586E-05 -6.093701E-08  1.440609E-08
      2509   1 -2.944086E-04  9.719838E-05  9.704963E-05  1.453918E-05  1.281750E-07  3.507807E-09
      2510   1 -2.944647E-04  9.715465E-05  9.724624E-05  1.333310E-05  3.225927E-07 -3.526518E-08
      2511   1 -2.944167E-04  9.713598E-05  9.711609E-05  1.250587E-05  4.161166E-07  1.123616E-08
      2512   1 -2.944642E-04  9.715824E-05  9.721685E-05  1.199744E-05  3.681836E-07  1.392005E-09
      2513   1 -2.944253E-04  9.715785E-05  9.710341E-05  1.171612E-05  2.126276E-07  1.336526E-09
      2514   1 -2.944671E-04  9.715921E-05  9.721715E-05  1.162646E-05  1.497711E-14 -3.316812E-16
      2515   1 -2.944253E-04  9.715785E-05  9.710341E-05  1.171612E-05 -2.126276E-07 -1.336525E-09
      2516   1 -2.944642E-04  9.715824E-05  9.721685E-05  1.199744E-05 -3.681835E-07 -1.392005E-09
      2517   1 -2.944167E-04  9.713598E-05  9.711609E-05  1.250587E-05 -4.161166E-07 -1.123616E-08
      2518   1 -2.944647E-04  9.715465E-05  9.724624E-05  1.333310E-05 -3.225927E-07  3.526518E-08
      2519   1 -2.944086E-04  9.719838E-05  9.704963E-05  1.453918E-05 -1.281749E-07 -3.507808E-09
      2520   1 -3.925667E-04  1.295836E-04  1.295165E-04  9.921195E-06  2.354591E-07 -3.324578E-08
      2521   1 -3.926377E-04  1.295477E-04  1.296389E-04  8.848383E-06  6.369502E-07  3.112015E-08
      2522   1 -3.925726E-04  1.295726E-04  1.294476E-04  8.256957E-06  7.866249E-07  2.145362E-08
      2523   1 -3.926359E-04  1.295823E-04  1.296146E-04  7.915943E-06  6.471262E-07  5.288895E-09
      2524   1 -3.925844E-04  1.295735E-04  1.294586E-04  7.727425E-06  3.648641E-07  4.639543E-09
      2525   1 -3.926393E-04  1.295864E-04  1.296162E-04  7.670374E-06  2.137638E-14  1.215780E-16
      2526   1 -3.925844E-04  1.295735E-04  1.294586E-04  7.727425E-06 -3.648641E-07 -4.639543E-09
      2527   1 -3.926359E-04  1.295823E-04  1.296146E-04  7.915943E-06 -6.471261E-07 -5.288894E-09
      2528   1 -3.925726E-04  1.295726E-04  1.294476E-04  8.256957E-06 -7.866248E-07 -2.145362E-08
      2529   1 -3.926377E-04  1.295477E-04  1.296389E-04  8.848383E-06 -6.369502E-07 -3.112016E-08
      2530   1 -3.925667E-04  1.295836E-04  1.295165E-04  9.921195E-06 -2.354591E-07  3.324578E-08
      2531   1 -4.906906E-04  1.620292E-04  1.616911E-04  3.655666E-06  6.257687E-07  5.281731E-08
      2532   1 -4.907806E-04  1.619401E-04  1.619810E-04  3.135235E-06  1.352941E-06  2.885181E-08
      2533   1 -4.907043E-04  1.619843E-04  1.617853E-04  2.943063E-06  1.384449E-06  6.833602E-09
      2534   1 -4.907760E-04  1.619416E-04  1.620078E-04  2.810410E-06  1.077028E-06  6.084060E-09
      2535   1 -4.907161E-04  1.619687E-04  1.618148E-04  2.751353E-06  5.844140E-07  1.049749E-09
      2536   1 -4.907785E-04  1.619426E-04  1.620160E-04  2.726205E-06  2.889879E-14 -4.801830E-17
      2537   1 -4.907161E-04  1.619687E-04  1.618148E-04  2.751353E-06 -5.844139E-07 -1.049749E-09
      2538   1 -4.907760E-04  1.619416E-04  1.620078E-04  2.810410E-06 -1.077028E-06 -6.084061E-09
      2539   1 -4.907043E-04  1.619843E-04  1.617853E-04  2.943063E-06 -1.384449E-06 -6.833602E-09
      2540   1 -4.907806E-04  1.619401E-04  1.619810E-04  3.135235E-06 -1.352941E-06 -2.885181E-08
      2541   1 -4.906906E-04  1.620292E-04  1.616911E-04  3.655666E-06 -6.257687E-07 -5.281731E-08
      2542   1  4.862512E-04 -1.605528E-04 -1.603882E-04  3.643071E-06 -6.242870E-07  4.686035E-08
      2543   1  4.861708E-04 -1.604536E-04 -1.602984E-04  3.135065E-06 -1.352039E-06  3.174883E-08
      2544   1  4.862332E-04 -1.604989E-04 -1.604595E-04  2.935142E-06 -1.374986E-06  5.099245E-09
      2545   1  4.861787E-04 -1.604565E-04 -1.603318E-04  2.808068E-06 -1.076231E-06  7.561079E-09
      2546   1  4.862315E-04 -1.604841E-04 -1.604786E-04  2.743867E-06 -5.793351E-07  6.834760E-10
      2547   1  4.861828E-04 -1.604576E-04 -1.603401E-04  2.723037E-06 -2.895550E-14 -5.626670E-17
      2548   1  4.862315E-04 -1.604841E-04 -1.604786E-04  2.743867E-06  5.793351E-07 -6.834759E-10
      2549   1  4.861787E-04 -1.604565E-04 -1.603318E-04  2.808068E-06  1.076231E-06 -7.561079E-09
      2550   1  4.862332E-04 -1.604989E-04 -1.604595E-04  2.935142E-06  1.374986E-06 -5.099244E-09
      2551   1  4.861708E-04 -1.604536E-04 -1.602984E-04  3.135065E-06  1.352039E-06 -3.174883E-08
      2552   1  4.862512E-04 -1.605528E-04 -1.603882E-04  3.643071E-06  6.242870E-07 -4.686035E-08
      2553   1  3.889927E-04 -1.283586E-04 -1.284780E-04  9.943318E-06 -2.306747E-07 -3.113281E-08
      2554   1  3.889282E-04 -1.283311E-04 -1.282857E-04  8.861261E-06 -6.382091E-07  3.131522E-08
      2555   1  3.889819E-04 -1.283568E-04 -1.283938E-04  8.272355E-06 -7.762808E-07  2.217158E-08
      2556   1  3.889346E-04 -1.283648E-04 -1.282652E-04  7.929930E-06 -6.466952E-07  6.281795E-09
      2557   1  3.889806E-04 -1.283558E-04 -1.283966E-04  7.742021E-06 -3.596724E-07  5.200936E-09
      2558   1  3.889381E-04 -1.283682E-04 -1.282662E-04  7.684389E-06 -2.142999E-14  1.225614E-16
      2559   1  3.889806E-04 -1.283558E-04 -1.283966E-04  7.742021E-06  3.596723E-07 -5.200937E-09
      2560   1  3.889346E-04 -1.283648E-04 -1.282652E-04  7.929930E-06  6.466952E-07 -6.281794E-09
      2561   1  3.889819E-04 -1.283568E-04 -1.283938E-04  8.272355E-06  7.762808E-07 -2.217158E-08
      2562   1  3.889282E-04 -1.283311E-04 -1.282857E-04  8.861261E-06  6.382091E-07 -3.131522E-08
      2563   1  3.889927E-04 -1.283586E-04 -1.284780E-04  9.943318E-06  2.306747E-07  3.113281E-08
      2564   1  2.917563E-04 -9.632276E-05 -9.627458E-05  1.451072E-05 -1.269742E-07  3.266422E-09
      2565   1  2.917052E-04 -9.627512E-05 -9.622957E-05  1.330965E-05 -3.218562E-07 -3.432896E-08
      2566   1  2.917452E-04 -9.625567E-05 -9.632641E-05  1.248418E-05 -4.081594E-07  1.322989E-08
      2567   1  2.917102E-04 -9.627887E-05 -9.620329E-05  1.197236E-05 -3.673105E-07  2.856927E-09
      2568   1  2.917455E-04 -9.627854E-05 -9.630716E-05  1.169163E-05 -2.084329E-07  2.503767E-09
      2569   1  2.917133E-04 -9.628001E-05 -9.620287E-05  1.159971E-05 -1.501487E-14 -3.319708E-16
      2570   1  2.917455E-04 -9.627854E-05 -9.630716E-05  1.169163E-05  2.084328E-07 -2.503767E-09
      2571   1  2.917102E-04 -9.627887E-05 -9.620329E-05  1.197236E-05  3.673105E-07 -2.856928E-09
      2572   1  2.917452E-04 -9.625567E-05 -9.632641E-05  1.248418E-05  4.081594E-07 -1.322989E-08
      2573   1  2.917052E-04 -9.627512E-05 -9.622957E-05  1.330965E-05  3.218561E-07  3.432896E-08
      2574   1  2.917563E-04 -9.632276E-05 -9.627458E-05  1.451072E-05  1.269742E-07 -3.266422E-09
      2575   1  1.944956E-04 -6.417978E-05 -6.422933E-05  1.774386E-05 -5.832779E-08 -1.339317E-08
      2576   1  1.944620E-04 -6.417920E-05 -6.413161E-05  1.646575E-05 -1.641581E-07  9.834228E-10
      2577   1  1.944897E-04 -6.417140E-05 -6.421545E-05  1.554755E-05 -2.085562E-07 -2.675540E-08
      2578   1  1.944658E-04 -6.416091E-05 -6.415134E-05  1.493340E-05 -1.903175E-07  2.857195E-09
      2579   1  1.944893E-04 -6.417430E-05 -6.420330E-05  1.458840E-05 -1.116221E-07 -4.661722E-09
      2580   1  1.944679E-04 -6.416957E-05 -6.414480E-05  1.447589E-05 -9.475010E-15  3.380233E-16
      2581   1  1.944893E-04 -6.417430E-05 -6.420330E-05  1.458840E-05  1.116221E-07  4.661722E-09
      2582   1  1.944658E-04 -6.416091E-05 -6.415134E-05  1.493340E-05  1.903175E-07 -2.857195E-09
      2583   1  1.944897E-04 -6.417140E-05 -6.421545E-05  1.554755E-05  2.085562E-07  2.675540E-08
      2584   1  1.944620E-04 -6.417920E-05 -6.413161E-05  1.646575E-05  1.641581E-07 -9.834228E-10
      2585   1  1.944956E-04 -6.417978E-05 -6.422933E-05  1.774386E-05  5.832779E-08  1.339317E-08
      2586   1  9.725295E-05 -3.210678E-05 -3.209505E-05  1.960934E-05 -2.606098E-08 -1.786331E-09
      2587   1  9.723562E-05 -3.209323E-05 -3.207632E-05  1.830943E-05 -6.782701E-08 -2.699983E-08
      2588   1  9.724920E-05 -3.208924E-05 -3.210689E-05  1.734241E-05 -8.806221E-08 -2.856171E-09
      2589   1  9.723741E-05 -3.209202E-05 -3.207188E-05  1.668274E-05 -8.125669E-08 -2.180880E-08
      2590   1  9.724949E-05 -3.208736E-05 -3.210918E-05  1.630097E-05 -4.736697E-08 -5.421050E-10
      2591   1  9.723859E-05 -3.209352E-05 -3.206905E-05  1.617644E-05 -4.590105E-15 -2.107346E-16
      2592   1  9.724949E-05 -3.208736E-05 -3.210918E-05  1.630097E-05  4.736696E-08  5.421055E-10
      2593   1  9.723741E-05 -3.209202E-05 -3.207188E-05  1.668274E-05  8.125668E-08  2.180880E-08
      2594   1  9.724920E-05 -3.208924E-05 -3.210689E-05  1.734241E-05  8.806220E-08  2.856171E-09
      2595   1  9.723562E-05 -3.209323E-05 -3.207632E-05  1.830943E-05  6.782701E-08  2.699983E-08
      2596   1  9.725295E-05 -3.210678E-05 -3.209505E-05  1.960934E-05  2.606098E-08  1.786331E-09
      2597   1  1.064358E-13 -3.510820E-14 -3.524365E-14  2.027393E-05 -1.630369E-17 -1.061214E-08
      2598   1  1.063767E-13 -3.493126E-14 -3.527521E-14  1.895987E-05 -7.457363E-17 -4.830721E-09
      2599   1  1.064033E-13 -3.506483E-14 -3.511928E-14  1.798012E-05 -9.759514E-17 -2.935386E-08
      2600   1  1.063479E-13 -3.511254E-14 -3.502973E-14  1.730528E-05 -9.321089E-17 -3.307340E-09
      2601   1  1.063592E-13 -3.503101E-14 -3.514663E-14  1.691540E-05 -5.615617E-17 -1.264037E-08
      2602   1  1.063132E-13 -3.513162E-14 -3.498860E-14  1.678590E-05 -3.339851E-18  2.487806E-16
      2603   1  1.063311E-13 -3.503534E-14 -3.513215E-14  1.691540E-05  5.025743E-17  1.264037E-08
      2604   1  1.062792E-13 -3.510733E-14 -3.500446E-14  1.730528E-05  8.701993E-17  3.307340E-09
      2605   1  1.063003E-13 -3.504402E-14 -3.508240E-14  1.798012E-05  9.690311E-17  2.935386E-08
      2606   1  1.062448E-13 -3.488876E-14 -3.522927E-14  1.895987E-05  7.432206E-17  4.830721E-09
      2607   1  1.062718E-13 -3.505963E-14 -3.518698E-14  2.027393E-05  1.636806E-17  1.061214E-08
      2608   1 -9.725295E-05  3.210678E-05  3.209505E-05  1.960934E-05  2.606098E-08 -1.786331E-09
      2609   1 -9.723562E-05  3.209323E-05  3.207632E-05  1.830943E-05  6.782701E-08 -2.699983E-08
      2610   1 -9.724920E-05  3.208924E-05  3.210689E-05  1.734241E-05  8.806221E-08 -2.856171E-09
      2611   1 -9.723741E-05  3.209202E-05  3.207188E-05  1.668275E-05  8.125669E-08 -2.180880E-08
      2612   1 -9.724949E-05  3.208736E-05  3.210918E-05  1.630097E-05  4.736697E-08 -5.421050E-10
      2613   1 -9.723859E-05  3.209352E-05  3.206905E-05  1.617644E-05  4.581019E-15 -2.008044E-16
      2614   1 -9.724949E-05  3.208736E-05  3.210918E-05  1.630097E-05 -4.736696E-08  5.421055E-10
      2615   1 -9.723741E-05  3.209202E-05  3.207188E-05  1.668274E-05 -8.125668E-08  2.180880E-08
      2616   1 -9.724920E-05  3.208924E-05  3.210689E-05  1.734241E-05 -8.806220E-08  2.856171E-09
      2617   1 -9.723562E-05  3.209323E-05  3.207632E-05  1.830943E-05 -6.782701E-08  2.699983E-08
      2618   1 -9.725295E-05  3.210678E-05  3.209505E-05  1.960934E-05 -2.606098E-08  1.786331E-09
      2619   1 -1.944956E-04  6.417978E-05  6.422933E-05  1.774386E-05  5.832779E-08 -1.339317E-08
      2620   1 -1.944620E-04  6.417920E-05  6.413161E-05  1.646575E-05  1.641581E-07  9.834229E-10
      2621   1 -1.944897E-04  6.417140E-05  6.421545E-05  1.554755E-05  2.085562E-07 -2.675540E-08
      2622   1 -1.944658E-04  6.416091E-05  6.415134E-05  1.493340E-05  1.903175E-07  2.857195E-09
      2623   1 -1.944893E-04  6.417430E-05  6.420330E-05  1.458840E-05  1.116221E-07 -4.661722E-09
      2624   1 -1.944679E-04  6.416957E-05  6.414480E-05  1.447589E-05  9.469170E-15  3.363314E-16
      2625   1 -1.944893E-04  6.417430E-05  6.420330E-05  1.458840E-05 -1.116221E-07  4.661722E-09
      2626   1 -1.944658E-04  6.416091E-05  6.415134E-05  1.493340E-05 -1.903175E-07 -2.857195E-09
      2627   1 -1.944897E-04  6.417140E-05  6.421545E-05  1.554755E-05 -2.085562E-07  2.675540E-08
      2628   1 -1.944620E-04  6.417920E-05  6.413161E-05  1.646575E-05 -1.641581E-07 -9.834230E-10
      2629   1 -1.944956E-04  6.417978E-05  6.422933E-05  1.774386E-05 -5.832779E-08  1.339317E-08
      2630   1 -2.917563E-04  9.632275E-05  9.627458E-05  1.451072E-05  1.269742E-07  3.266422E-09
      2631   1 -2.917052E-04  9.627512E-05  9.622957E-05  1.330965E-05  3.218562E-07 -3.432896E-08
      2632   1 -2.917452E-04  9.625567E-05  9.632641E-05  1.248418E-05  4.081594E-07  1.322989E-08
      2633   1 -2.917102E-04  9.627887E-05  9.620329E-05  1.197236E-05  3.673105E-07  2.856927E-09
      2634   1 -2.917455E-04  9.627854E-05  9.630716E-05  1.169163E-05  2.084329E-07  2.503767E-09
      2635   1 -2.917133E-04  9.628001E-05  9.620287E-05  1.159971E-05  1.501696E-14 -3.385853E-16
      2636   1 -2.917455E-04  9.627854E-05  9.630716E-05  1.169163E-05 -2.084328E-07 -2.503767E-09
      2637   1 -2.917102E-04  9.627887E-05  9.620329E-05  1.197236E-05 -3.673105E-07 -2.856928E-09
      2638   1 -2.917452E-04  9.625567E-05  9.632641E-05  1.248418E-05 -4.081594E-07 -1.322989E-08
      2639   1 -2.917052E-04  9.627512E-05  9.622957E-05  1.330965E-05 -3.218561E-07  3.432896E-08
      2640   1 -2.917563E-04  9.632275E-05  9.627458E-05  1.451072E-05 -1.269742E-07 -3.266423E-09
      2641   1 -3.889927E-04  1.283586E-04  1.284780E-04  9.943318E-06  2.306747E-07 -3.113281E-08
      2642   1 -3.889282E-04  1.283311E-04  1.282857E-04  8.861261E-06  6.382091E-07  3.131522E-08
      2643   1 -3.889819E-04  1.283568E-04  1.283938E-04  8.272355E-06  7.762808E-07  2.217158E-08
      2644   1 -3.889346E-04  1.283648E-04  1.282652E-04  7.929930E-06  6.466952E-07  6.281795E-09
      2645   1 -3.889806E-04  1.283558E-04  1.283966E-04  7.742021E-06  3.596724E-07  5.200936E-09
      2646   1 -3.889381E-04  1.283682E-04  1.282662E-04  7.684389E-06  2.141913E-14  1.151812E-16
      2647   1 -3.889806E-04  1.283558E-04  1.283966E-04  7.742021E-06 -3.596723E-07 -5.200937E-09
      2648   1 -3.889346E-04  1.283648E-04  1.282652E-04  7.929930E-06 -6.466952E-07 -6.281794E-09
      2649   1 -3.889819E-04  1.283568E-04  1.283938E-04  8.272355E-06 -7.762808E-07 -2.217158E-08
      2650   1 -3.889282E-04  1.283311E-04  1.282857E-04  8.861261E-06 -6.382091E-07 -3.131522E-08
      2651   1 -3.889927E-04  1.283586E-04  1.284780E-04  9.943318E-06 -2.306747E-07  3.113281E-08
      2652   1 -4.862512E-04  1.605528E-04  1.603882E-04  3.643071E-06  6.242870E-07  4.686035E-08
      2653   1 -4.861708E-04  1.604536E-04  1.602984E-04  3.135065E-06  1.352039E-06  3.174883E-08
      2654   1 -4.862332E-04  1.604989E-04  1.604595E-04  2.935142E-06  1.374986E-06  5.099245E-09
      2655   1 -4.861787E-04  1.604565E-04  1.603318E-04  2.808068E-06  1.076231E-06  7.561079E-09
      2656   1 -4.862315E-04  1.604841E-04  1.604786E-04  2.743867E-06  5.793351E-07  6.834760E-10
      2657   1 -4.861828E-04  1.604576E-04  1.603401E-04  2.723037E-06  2.894996E-14 -6.421696E-17
      2658   1 -4.862315E-04  1.604841E-04  1.604786E-04  2.743867E-06 -5.793351E-07 -6.834758E-10
      2659   1 -4.861787E-04  1.604565E-04  1.603318E-04  2.808068E-06 -1.076231E-06 -7.561080E-09
      2660   1 -4.862332E-04  1.604989E-04  1.604595E-04  2.935142E-06 -1.374986E-06 -5.099244E-09
      2661   1 -4.861708E-04  1.604536E-04  1.602984E-04  3.135065E-06 -1.352039E-06 -3.174883E-08
      2662   1 -4.862512E-04  1.605528E-04  1.603882E-04  3.643071E-06 -6.242870E-07 -4.686035E-08
      2663   1  4.816251E-04 -1.590370E-04 -1.587308E-04  3.652587E-06 -6.237461E-07  5.073706E-08
      2664   1  4.816848E-04 -1.589485E-04 -1.589484E-04  3.134686E-06 -1.347768E-06  2.912075E-08
      2665   1  4.816320E-04 -1.589927E-04 -1.588156E-04  2.941061E-06 -1.375430E-06  6.710403E-09
      2666   1  4.816771E-04 -1.589508E-04 -1.589695E-04  2.809295E-06 -1.070777E-06  6.694674E-09
      2667   1  4.816357E-04 -1.589775E-04 -1.588374E-04  2.748999E-06 -5.794461E-07  1.221502E-09
      2668   1  4.816758E-04 -1.589516E-04 -1.589740E-04  2.724650E-06 -2.891885E-14 -5.126752E-17
      2669   1  4.816357E-04 -1.589775E-04 -1.588374E-04  2.748999E-06  5.794461E-07 -1.221501E-09
      2670   1  4.816771E-04 -1.589508E-04 -1.589695E-04  2.809295E-06  1.070777E-06 -6.694675E-09
      2671   1  4.816320E-04 -1.589927E-04 -1.588156E-04  2.941061E-06  1.375430E-06 -6.710403E-09
      2672   1  4.816848E-04 -1.589485E-04 -1.589484E-04  3.134686E-06  1.347768E-06 -2.912075E-08
      2673   1  4.816251E-04 -1.590370E-04 -1.587308E-04  3.652587E-06  6.237461E-07 -5.073706E-08
      2674   1  3.853065E-04 -1.271763E-04 -1.271456E-04  9.927087E-06 -2.324567E-07 -3.207227E-08
      2675   1  3.853541E-04 -1.271438E-04 -1.272112E-04  8.853176E-06 -6.325796E-07  3.127243E-08
      2676   1  3.853087E-04 -1.271687E-04 -1.270720E-04  8.262171E-06 -7.774649E-07  2.240887E-08
      2677   1  3.853480E-04 -1.271778E-04 -1.271816E-04  7.920413E-06 -6.411300E-07  6.625354E-09
      2678   1  3.853122E-04 -1.271688E-04 -1.270762E-04  7.731515E-06 -3.599014E-07  5.481148E-09
      2679   1  3.853473E-04 -1.271813E-04 -1.271795E-04  7.674101E-06 -2.139915E-14  1.250890E-16
      2680   1  3.853122E-04 -1.271688E-04 -1.270762E-04  7.731515E-06  3.599014E-07 -5.481148E-09
      2681   1  3.853480E-04 -1.271778E-04 -1.271816E-04  7.920413E-06  6.411300E-07 -6.625353E-09
      2682   1  3.853087E-04 -1.271687E-04 -1.270720E-04  8.262171E-06  7.774649E-07 -2.240887E-08
      2683   1  3.853541E-04 -1.271438E-04 -1.272112E-04  8.853176E-06  6.325795E-07 -3.127243E-08
      2684   1  3.853065E-04 -1.271763E-04 -1.271456E-04  9.927087E-06  2.324567E-07  3.207227E-08
      2685   1  2.889726E-04 -9.540640E-05 -9.527383E-05  1.453067E-05 -1.263695E-07  3.843157E-09
      2686   1  2.890099E-04 -9.536361E-05 -9.542479E-05  1.332658E-05 -3.182432E-07 -3.317551E-08
      2687   1  2.889761E-04 -9.534545E-05 -9.533355E-05  1.249946E-05 -4.084064E-07  1.354761E-08
      2688   1  2.890056E-04 -9.536754E-05 -9.539116E-05  1.198940E-05 -3.628500E-07  3.730579E-09
      2689   1  2.889784E-04 -9.536703E-05 -9.531555E-05  1.170728E-05 -2.084063E-07  2.857744E-09
      2690   1  2.890050E-04 -9.536832E-05 -9.538829E-05  1.161677E-05 -1.499318E-14 -3.343188E-16
      2691   1  2.889784E-04 -9.536703E-05 -9.531555E-05  1.170728E-05  2.084063E-07 -2.857744E-09
      2692   1  2.890056E-04 -9.536754E-05 -9.539116E-05  1.198940E-05  3.628500E-07 -3.730579E-09
      2693   1  2.889761E-04 -9.534545E-05 -9.533355E-05  1.249946E-05  4.084064E-07 -1.354761E-08
      2694   1  2.890099E-04 -9.536361E-05 -9.542479E-05  1.332658E-05  3.182432E-07  3.317551E-08
      2695   1  2.889726E-04 -9.540640E-05 -9.527383E-05  1.453067E-05  1.263695E-07 -3.843157E-09
      2696   1  1.926545E-04 -6.359240E-05 -6.356140E-05  1.771696E-05 -5.908655E-08 -1.331454E-08
      2697   1  1.926790E-04 -6.358979E-05 -6.359606E-05  1.644521E-05 -1.612536E-07  1.386618E-09
      2698   1  1.926556E-04 -6.358151E-05 -6.355264E-05  1.552685E-05 -2.085471E-07 -2.541051E-08
      2699   1  1.926758E-04 -6.357178E-05 -6.361040E-05  1.491250E-05 -1.873323E-07  3.966697E-09
      2700   1  1.926577E-04 -6.358519E-05 -6.354131E-05  1.456570E-05 -1.114652E-07 -3.983025E-09
      2701   1  1.926756E-04 -6.358054E-05 -6.360214E-05  1.445386E-05 -9.460140E-15  3.409668E-16
      2702   1  1.926577E-04 -6.358519E-05 -6.354131E-05  1.456570E-05  1.114652E-07  3.983025E-09
      2703   1  1.926758E-04 -6.357178E-05 -6.361040E-05  1.491250E-05  1.873322E-07 -3.966697E-09
      2704   1  1.926556E-04 -6.358151E-05 -6.355264E-05  1.552685E-05  2.085471E-07  2.541051E-08
      2705   1  1.926790E-04 -6.358979E-05 -6.359606E-05  1.644521E-05  1.612536E-07 -1.386618E-09
      2706   1  1.926545E-04 -6.359240E-05 -6.356140E-05  1.771696E-05  5.908655E-08  1.331454E-08
      2707   1  9.632383E-05 -3.180003E-05 -3.176088E-05  1.963723E-05 -2.581919E-08 -1.541003E-09
      2708   1  9.633638E-05 -3.178799E-05 -3.180859E-05  1.833565E-05 -6.644005E-08 -2.542749E-08
      2709   1  9.632492E-05 -3.178451E-05 -3.177534E-05  1.736606E-05 -8.805325E-08 -1.787309E-09
      2710   1  9.633495E-05 -3.178694E-05 -3.180156E-05  1.670824E-05 -7.960556E-08 -2.034134E-08
      2711   1  9.632572E-05 -3.178218E-05 -3.177787E-05  1.632539E-05 -4.729737E-08  1.652073E-10
      2712   1  9.633479E-05 -3.178826E-05 -3.179788E-05  1.620192E-05 -4.575252E-15 -2.064742E-16
      2713   1  9.632572E-05 -3.178218E-05 -3.177787E-05  1.632539E-05  4.729736E-08 -1.652068E-10
      2714   1  9.633495E-05 -3.178694E-05 -3.180156E-05  1.670824E-05  7.960556E-08  2.034134E-08
      2715   1  9.632492E-05 -3.178451E-05 -3.177534E-05  1.736606E-05  8.805324E-08  1.787309E-09
      2716   1  9.633638E-05 -3.178799E-05 -3.180859E-05  1.833565E-05  6.644005E-08  2.542749E-08
      2717   1  9.632383E-05 -3.180003E-05 -3.176088E-05  1.963723E-05  2.581919E-08  1.541003E-09
      2718   1  1.054111E-13 -3.483758E-14 -3.481292E-14  2.024272E-05 -1.984259E-17 -1.022725E-08
      2719   1  1.054302E-13 -3.464763E-14 -3.503802E-14  1.893482E-05 -7.168694E-17 -4.165737E-09
      2720   1  1.053762E-13 -3.476993E-14 -3.470472E-14  1.795519E-05 -1.001896E-16 -2.773036E-08
      2721   1  1.053938E-13 -3.484019E-14 -3.478904E-14  1.728001E-05 -9.089976E-17 -1.816413E-09
      2722   1  1.053586E-13 -3.476646E-14 -3.472953E-14  1.688798E-05 -5.530871E-17 -1.174907E-08
      2723   1  1.053667E-13 -3.486274E-14 -3.474179E-14  1.675926E-05  5.421011E-19  2.477654E-16
      2724   1  1.053197E-13 -3.475952E-14 -3.472137E-14  1.688798E-05  4.941590E-17  1.174907E-08
      2725   1  1.053310E-13 -3.483672E-14 -3.475665E-14  1.728001E-05  8.553762E-17  1.816413E-09
      2726   1  1.052830E-13 -3.474044E-14 -3.467136E-14  1.795519E-05  9.773574E-17  2.773036E-08
      2727   1  1.052975E-13 -3.461467E-14 -3.498733E-14  1.893482E-05  6.952446E-17  4.165737E-09
      2728   1  1.052453E-13 -3.477253E-14 -3.476157E-14  2.024272E-05  2.093696E-17  1.022725E-08
      2729   1 -9.632383E-05  3.180003E-05  3.176088E-05  1.963723E-05  2.581919E-08 -1.541003E-09
      2730   1 -9.633638E-05  3.178799E-05  3.180859E-05  1.833565E-05  6.644005E-08 -2.542749E-08
      2731   1 -9.632492E-05  3.178451E-05  3.177534E-05  1.736606E-05  8.805325E-08 -1.787309E-09
      2732   1 -9.633495E-05  3.178694E-05  3.180156E-05  1.670824E-05  7.960556E-08 -2.034134E-08
      2733   1 -9.632572E-05  3.178218E-05  3.177787E-05  1.632539E-05  4.729737E-08  1.652073E-10
      2734   1 -9.633479E-05  3.178826E-05  3.179788E-05  1.620192E-05  4.570537E-15 -2.051332E-16
      2735   1 -9.632572E-05  3.178218E-05  3.177787E-05  1.632539E-05 -4.729736E-08 -1.652068E-10
      2736   1 -9.633495E-05  3.178694E-05  3.180156E-05  1.670824E-05 -7.960555E-08  2.034134E-08
      2737   1 -9.632492E-05  3.178451E-05  3.177534E-05  1.736606E-05 -8.805324E-08  1.787309E-09
      2738   1 -9.633638E-05  3.178799E-05  3.180859E-05  1.833565E-05 -6.644005E-08  2.542749E-08
      2739   1 -9.632383E-05  3.180003E-05  3.176088E-05  1.963723E-05 -2.581919E-08  1.541003E-09
      2740   1 -1.926545E-04  6.359240E-05  6.356140E-05  1.771696E-05  5.908655E-08 -1.331454E-08
      2741   1 -1.926790E-04  6.358979E-05  6.359606E-05  1.644521E-05  1.612536E-07  1.386618E-09
      2742   1 -1.926556E-04  6.358151E-05  6.355264E-05  1.552685E-05  2.085471E-07 -2.541051E-08
      2743   1 -1.926758E-04  6.357178E-05  6.361040E-05  1.491250E-05  1.873323E-07  3.966697E-09
      2744   1 -1.926577E-04  6.358519E-05  6.354131E-05  1.456570E-05  1.114652E-07 -3.983025E-09
      2745   1 -1.926756E-04  6.358054E-05  6.360214E-05  1.445386E-05  9.453585E-15  3.394061E-16
      2746   1 -1.926577E-04  6.358519E-05  6.354131E-05  1.456570E-05 -1.114652E-07  3.983025E-09
      2747   1 -1.926758E-04  6.357178E-05  6.361040E-05  1.491250E-05 -1.873322E-07 -3.966697E-09
      2748   1 -1.926556E-04  6.358151E-05  6.355264E-05  1.552685E-05 -2.085471E-07  2.541051E-08
      2749   1 -1.926790E-04  6.358979E-05  6.359606E-05  1.644521E-05 -1.612536E-07 -1.386618E-09
      2750   1 -1.926545E-04  6.359240E-05  6.356140E-05  1.771696E-05 -5.908655E-08  1.331454E-08
      2751   1 -2.889726E-04  9.540640E-05  9.527383E-05  1.453067E-05  1.263695E-07  3.843157E-09
      2752   1 -2.890099E-04  9.536361E-05  9.542479E-05  1.332658E-05  3.182432E-07 -3.317551E-08
      2753   1 -2.889761E-04  9.534545E-05  9.533355E-05  1.249946E-05  4.084064E-07  1.354761E-08
      2754   1 -2.890056E-04  9.536754E-05  9.539116E-05  1.198940E-05  3.628500E-07  3.730579E-09
      2755   1 -2.889784E-04  9.536703E-05  9.531555E-05  1.170728E-05  2.084063E-07  2.857744E-09
      2756   1 -2.890050E-04  9.536832E-05  9.538829E-05  1.161677E-05  1.498881E-14 -3.279127E-16
      2757   1 -2.889784E-04  9.536703E-05  9.531555E-05  1.170728E-05 -2.084063E-07 -2.857744E-09
      2758   1 -2.890056E-04  9.536754E-05  9.539116E-05  1.198940E-05 -3.628500E-07 -3.730579E-09
      2759   1 -2.889761E-04  9.534545E-05  9.533355E-05  1.249946E-05 -4.084064E-07 -1.354761E-08
      2760   1 -2.890099E-04  9.536361E-05  9.542479E-05  1.332658E-05 -3.182432E-07  3.317551E-08
      2761   1 -2.889726E-04  9.540640E-05  9.527383E-05  1.453067E-05 -1.263695E-07 -3.843158E-09
      2762   1 -3.853065E-04  1.271763E-04  1.271456E-04  9.927087E-06  2.324567E-07 -3.207227E-08
      2763   1 -3.853541E-04  1.271438E-04  1.272112E-04  8.853176E-06  6.325796E-07  3.127243E-08
      2764   1 -3.853087E-04  1.271687E-04  1.270720E-04  8.262171E-06  7.774649E-07  2.240887E-08
      2765   1 -3.853480E-04  1.271778E-04  1.271816E-04  7.920413E-06  6.411300E-07  6.625354E-09
      2766   1 -3.853122E-04  1.271688E-04  1.270762E-04  7.731515E-06  3.599014E-07  5.481148E-09
      2767   1 -3.853473E-04  1.271813E-04  1.271795E-04  7.674101E-06  2.139207E-14  1.050795E-16
      2768   1 -3.853122E-04  1.271688E-04  1.270762E-04  7.731515E-06 -3.599014E-07 -5.481148E-09
      2769   1 -3.853480E-04  1.271778E-04  1.271816E-04  7.920413E-06 -6.411300E-07 -6.625353E-09
      2770   1 -3.853087E-04  1.271687E-04  1.270720E-04  8.262171E-06 -7.774649E-07 -2.240887E-08
      2771   1 -3.853541E-04  1.271438E-04  1.272112E-04  8.853176E-06 -6.325795E-07 -3.127243E-08
      2772   1 -3.853065E-04  1.271763E-04  1.271456E-04  9.927087E-06 -2.324567E-07  3.207227E-08
      2773   1 -4.816251E-04  1.590370E-04  1.587308E-04  3.652587E-06  6.237461E-07  5.073706E-08
      2774   1 -4.816848E-04  1.589485E-04  1.589484E-04  3.134686E-06  1.347768E-06  2.912075E-08
      2775   1 -4.816320E-04  1.589927E-04  1.588156E-04  2.941061E-06  1.375430E-06  6.710403E-09
      2776   1 -4.816771E-04  1.589508E-04  1.589695E-04  2.809295E-06  1.070777E-06  6.694674E-09
      2777   1 -4.816357E-04  1.589775E-04  1.588374E-04  2.748999E-06  5.794461E-07  1.221502E-09
      2778   1 -4.816758E-04  1.589516E-04  1.589740E-04  2.724650E-06  2.891059E-14 -5.631075E-17
      2779   1 -4.816357E-04  1.589775E-04  1.588374E-04  2.748999E-06 -5.794461E-07 -1.221501E-09
      2780   1 -4.816771E-04  1.589508E-04  1.589695E-04  2.809295E-06 -1.070777E-06 -6.694675E-09
      2781   1 -4.816320E-04  1.589927E-04  1.588156E-04  2.941061E-06 -1.375430E-06 -6.710403E-09
      2782   1 -4.816848E-04  1.589485E-04  1.589484E-04  3.134686E-06 -1.347768E-06 -2.912075E-08
      2783   1 -4.816251E-04  1.590370E-04  1.587308E-04  3.652587E-06 -6.237461E-07 -5.073706E-08
      2784   1  4.771463E-04 -1.575467E-04 -1.573621E-04  3.645132E-06 -6.232056E-07  4.685499E-08
      2785   1  4.770932E-04 -1.574521E-04 -1.573273E-04  3.135513E-06 -1.348650E-06  3.071643E-08
      2786   1  4.771338E-04 -1.574969E-04 -1.574326E-04  2.936846E-06 -1.371672E-06  5.444975E-09
      2787   1  4.770964E-04 -1.574554E-04 -1.573548E-04  2.808853E-06 -1.071653E-06  7.409184E-09
      2788   1  4.771301E-04 -1.574824E-04 -1.574485E-04  2.745368E-06 -5.774242E-07  8.904491E-10
      2789   1  4.770978E-04 -1.574564E-04 -1.573604E-04  2.723801E-06 -2.895084E-14 -5.675798E-17
      2790   1  4.771301E-04 -1.574824E-04 -1.574485E-04  2.745368E-06  5.774241E-07 -8.904490E-10
      2791   1  4.770964E-04 -1.574554E-04 -1.573548E-04  2.808853E-06  1.071653E-06 -7.409184E-09
      2792   1  4.771338E-04 -1.574969E-04 -1.574326E-04  2.936846E-06  1.371672E-06 -5.444975E-09
      2793   1  4.770932E-04 -1.574521E-04 -1.573273E-04  3.135513E-06  1.348650E-06 -3.071643E-08
      2794   1  4.771463E-04 -1.575467E-04 -1.573621E-04  3.645132E-06  6.232056E-07 -4.685499E-08
      2795   1  3.817142E-04 -1.259648E-04 -1.260537E-04  9.938425E-06 -2.303635E-07 -3.079926E-08
      2796   1  3.816711E-04 -1.259377E-04 -1.259085E-04  8.858478E-06 -6.344840E-07  3.096795E-08
      2797   1  3.817061E-04 -1.259632E-04 -1.259708E-04  8.269355E-06 -7.733282E-07  2.225283E-08
      2798   1  3.816735E-04 -1.259715E-04 -1.258840E-04  7.926912E-06 -6.421451E-07  6.750367E-09
      2799   1  3.817028E-04 -1.259628E-04 -1.259704E-04  7.738575E-06 -3.578582E-07  5.498992E-09
      2800   1  3.816745E-04 -1.259749E-04 -1.258826E-04  7.680905E-06 -2.142302E-14  1.222209E-16
      2801   1  3.817028E-04 -1.259628E-04 -1.259704E-04  7.738575E-06  3.578582E-07 -5.498992E-09
      2802   1  3.816735E-04 -1.259715E-04 -1.258840E-04  7.926912E-06  6.421450E-07 -6.750366E-09
      2803   1  3.817061E-04 -1.259632E-04 -1.259708E-04  8.269355E-06  7.733282E-07 -2.225283E-08
      2804   1  3.816711E-04 -1.259377E-04 -1.259085E-04  8.858478E-06  6.344840E-07 -3.096795E-08
      2805   1  3.817142E-04 -1.259648E-04 -1.260537E-04  9.938425E-06  2.303635E-07  3.079926E-08
      2806   1  2.862913E-04 -9.451708E-05 -9.445744E-05  1.451600E-05 -1.260602E-07  3.417701E-09
      2807   1  2.862573E-04 -9.447194E-05 -9.444652E-05  1.331516E-05 -3.189091E-07 -3.305206E-08
      2808   1  2.862833E-04 -9.445342E-05 -9.450817E-05  1.248961E-05 -4.053774E-07  1.386822E-08
      2809   1  2.862589E-04 -9.447606E-05 -9.441692E-05  1.197800E-05 -3.634492E-07  3.875321E-09
      2810   1  2.862813E-04 -9.447566E-05 -9.448664E-05  1.169671E-05 -2.068065E-07  3.094316E-09
      2811   1  2.862598E-04 -9.447705E-05 -9.441459E-05  1.160495E-05 -1.501833E-14 -3.328077E-16
      2812   1  2.862813E-04 -9.447566E-05 -9.448664E-05  1.169671E-05  2.068065E-07 -3.094315E-09
      2813   1  2.862589E-04 -9.447606E-05 -9.441692E-05  1.197800E-05  3.634492E-07 -3.875322E-09
      2814   1  2.862833E-04 -9.445342E-05 -9.450817E-05  1.248961E-05  4.053774E-07 -1.386822E-08
      2815   1  2.862573E-04 -9.447194E-05 -9.444652E-05  1.331516E-05  3.189091E-07  3.305206E-08
      2816   1  2.862913E-04 -9.451708E-05 -9.445744E-05  1.451600E-05  1.260602E-07 -3.417701E-09
      2817   1  1.908570E-04 -6.298396E-05 -6.301701E-05  1.773518E-05 -5.798620E-08 -1.292263E-08
      2818   1  1.908346E-04 -6.298355E-05 -6.294343E-05  1.645943E-05 -1.618914E-07  1.786562E-09
      2819   1  1.908526E-04 -6.297607E-05 -6.300302E-05  1.554143E-05 -2.064384E-07 -2.484292E-08
      2820   1  1.908359E-04 -6.296603E-05 -6.296006E-05  1.492685E-05 -1.875494E-07  4.282492E-09
      2821   1  1.908508E-04 -6.297921E-05 -6.298920E-05  1.458101E-05 -1.103874E-07 -3.672365E-09
      2822   1  1.908364E-04 -6.297457E-05 -6.295223E-05  1.446844E-05 -9.473463E-15  3.285247E-16
      2823   1  1.908508E-04 -6.297921E-05 -6.298920E-05  1.458101E-05  1.103874E-07  3.672364E-09
      2824   1  1.908359E-04 -6.296603E-05 -6.296006E-05  1.492685E-05  1.875494E-07 -4.282492E-09
      2825   1  1.908526E-04 -6.297607E-05 -6.300302E-05  1.554143E-05  2.064383E-07  2.484292E-08
      2826   1  1.908346E-04 -6.298355E-05 -6.294343E-05  1.645943E-05  1.618914E-07 -1.786562E-09
      2827   1  1.908570E-04 -6.298396E-05 -6.301701E-05  1.773518E-05  5.798619E-08  1.292263E-08
      2828   1  9.543098E-05 -3.150452E-05 -3.148919E-05  1.961694E-05 -2.569113E-08 -1.461886E-09
      2829   1  9.541945E-05 -3.149182E-05 -3.148203E-05  1.831791E-05 -6.665408E-08 -2.526759E-08
      2830   1  9.542824E-05 -3.148814E-05 -3.150064E-05  1.735067E-05 -8.692829E-08 -1.150751E-09
      2831   1  9.541996E-05 -3.149081E-05 -3.147625E-05  1.669109E-05 -7.976750E-08 -1.966034E-08
      2832   1  9.542757E-05 -3.148619E-05 -3.150186E-05  1.630866E-05 -4.671492E-08  5.270188E-10
      2833   1  9.542027E-05 -3.149222E-05 -3.147275E-05  1.618415E-05 -4.587357E-15 -2.060920E-16
      2834   1  9.542757E-05 -3.148619E-05 -3.150186E-05  1.630866E-05  4.671491E-08 -5.270183E-10
      2835   1  9.541996E-05 -3.149081E-05 -3.147625E-05  1.669109E-05  7.976750E-08  1.966034E-08
      2836   1  9.542824E-05 -3.148814E-05 -3.150064E-05  1.735067E-05  8.692829E-08  1.150751E-09
      2837   1  9.541945E-05 -3.149182E-05 -3.148203E-05  1.831791E-05  6.665408E-08  2.526759E-08
      2838   1  9.543098E-05 -3.150452E-05 -3.148919E-05  1.961694E-05  2.569113E-08  1.461886E-09
      2839   1  1.044480E-13 -3.446982E-14 -3.456611E-14  2.026382E-05 -1.807907E-17 -1.001200E-08
      2840   1  1.043972E-13 -3.427467E-14 -3.463368E-14  1.895234E-05 -7.457363E-17 -3.600735E-09
      2841   1  1.044137E-13 -3.442212E-14 -3.444818E-14  1.797286E-05 -1.006478E-16 -2.697455E-08
      2842   1  1.043686E-13 -3.447589E-14 -3.438630E-14  1.729745E-05 -8.645411E-17 -1.365624E-09
      2843   1  1.043723E-13 -3.440217E-14 -3.447112E-14  1.690655E-05 -5.060027E-17 -1.127707E-08
      2844   1  1.043340E-13 -3.448544E-14 -3.434571E-14  1.677697E-05 -5.942995E-18  2.537620E-16
      2845   1  1.043385E-13 -3.439089E-14 -3.446010E-14  1.690655E-05  4.913088E-17  1.127707E-08
      2846   1  1.042988E-13 -3.445681E-14 -3.436102E-14  1.729745E-05  8.524455E-17  1.365624E-09
      2847   1  1.043087E-13 -3.439003E-14 -3.441569E-14  1.797286E-05  9.295678E-17  2.697455E-08
      2848   1  1.042609E-13 -3.423650E-14 -3.458111E-14  1.895234E-05  6.816244E-17  3.600735E-09
      2849   1  1.042728E-13 -3.440043E-14 -3.452076E-14  2.026382E-05  1.141292E-17  1.001200E-08
      2850   1 -9.543098E-05  3.150452E-05  3.148919E-05  1.961694E-05  2.569113E-08 -1.461887E-09
      2851   1 -9.541945E-05  3.149182E-05  3.148203E-05  1.831791E-05  6.665408E-08 -2.526759E-08
      2852   1 -9.542824E-05  3.148814E-05  3.150064E-05  1.735067E-05  8.692829E-08 -1.150751E-09
      2853   1 -9.541996E-05  3.149081E-05  3.147625E-05  1.669109E-05  7.976750E-08 -1.966034E-08
      2854   1 -9.542757E-05  3.148619E-05  3.150186E-05  1.630866E-05  4.671492E-08  5.270188E-10
      2855   1 -9.542027E-05  3.149222E-05  3.147275E-05  1.618415E-05  4.584811E-15 -2.121902E-16
      2856   1 -9.542757E-05  3.148619E-05  3.150186E-05  1.630866E-05 -4.671491E-08 -5.270183E-10
      2857   1 -9.541996E-05  3.149081E-05  3.147625E-05  1.669109E-05 -7.976750E-08  1.966034E-08
      2858   1 -9.542824E-05  3.148814E-05  3.150064E-05  1.735067E-05 -8.692829E-08  1.150751E-09
      2859   1 -9.541945E-05  3.149182E-05  3.148203E-05  1.831791E-05 -6.665408E-08  2.526759E-08
      2860   1 -9.543098E-05  3.150452E-05  3.148919E-05  1.961694E-05 -2.569113E-08  1.461887E-09
      2861   1 -1.908570E-04  6.298396E-05  6.301701E-05  1.773518E-05  5.798620E-08 -1.292263E-08
      2862   1 -1.908346E-04  6.298355E-05  6.294343E-05  1.645943E-05  1.618914E-07  1.786562E-09
      2863   1 -1.908525E-04  6.297607E-05  6.300302E-05  1.554143E-05  2.064384E-07 -2.484292E-08
      2864   1 -1.908359E-04  6.296603E-05  6.296006E-05  1.492685E-05  1.875494E-07  4.282492E-09
      2865   1 -1.908508E-04  6.297921E-05  6.298920E-05  1.458101E-05  1.103874E-07 -3.672365E-09
      2866   1 -1.908364E-04  6.297457E-05  6.295223E-05  1.446844E-05  9.470252E-15  3.153394E-16
      2867   1 -1.908508E-04  6.297921E-05  6.298920E-05  1.458101E-05 -1.103874E-07  3.672364E-09
      2868   1 -1.908359E-04  6.296603E-05  6.296006E-05  1.492685E-05 -1.875494E-07 -4.282492E-09
      2869   1 -1.908525E-04  6.297607E-05  6.300302E-05  1.554143E-05 -2.064383E-07  2.484292E-08
      2870   1 -1.908346E-04  6.298355E-05  6.294343E-05  1.645943E-05 -1.618914E-07 -1.786562E-09
      2871   1 -1.908570E-04  6.298396E-05  6.301701E-05  1.773518E-05 -5.798619E-08  1.292263E-08
      2872   1 -2.862913E-04  9.451708E-05  9.445744E-05  1.451600E-05  1.260602E-07  3.417702E-09
      2873   1 -2.862573E-04  9.447194E-05  9.444652E-05  1.331516E-05  3.189091E-07 -3.305206E-08
      2874   1 -2.862833E-04  9.445342E-05  9.450817E-05  1.248962E-05  4.053774E-07  1.386822E-08
      2875   1 -2.862589E-04  9.447606E-05  9.441692E-05  1.197800E-05  3.634492E-07  3.875321E-09
      2876   1 -2.862813E-04  9.447566E-05  9.448664E-05  1.169671E-05  2.068065E-07  3.094316E-09
      2877   1 -2.862598E-04  9.447705E-05  9.441459E-05  1.160495E-05  1.501657E-14 -3.311357E-16
      2878   1 -2.862813E-04  9.447566E-05  9.448664E-05  1.169671E-05 -2.068065E-07 -3.094315E-09
      2879   1 -2.862589E-04  9.447606E-05  9.441692E-05  1.197800E-05 -3.634492E-07 -3.875322E-09
      2880   1 -2.862833E-04  9.445342E-05  9.450817E-05  1.248961E-05 -4.053774E-07 -1.386822E-08
      2881   1 -2.862573E-04  9.447194E-05  9.444652E-05  1.331516E-05 -3.189091E-07  3.305206E-08
      2882   1 -2.862913E-04  9.451708E-05  9.445744E-05  1.451600E-05 -1.260602E-07 -3.417702E-09
      2883   1 -3.817142E-04  1.259648E-04  1.260537E-04  9.938425E-06  2.303635E-07 -3.079926E-08
      2884   1 -3.816711E-04  1.259377E-04  1.259085E-04  8.858478E-06  6.344840E-07  3.096795E-08
      2885   1 -3.817061E-04  1.259632E-04  1.259708E-04  8.269355E-06  7.733282E-07  2.225283E-08
      2886   1 -3.816735E-04  1.259715E-04  1.258840E-04  7.926912E-06  6.421451E-07  6.750367E-09
      2887   1 -3.817028E-04  1.259628E-04  1.259704E-04  7.738575E-06  3.578582E-07  5.498992E-09
      2888   1 -3.816745E-04  1.259749E-04  1.258826E-04  7.680905E-06  2.142046E-14  1.066753E-16
      2889   1 -3.817028E-04  1.259628E-04  1.259704E-04  7.738575E-06 -3.578582E-07 -5.498992E-09
      2890   1 -3.816735E-04  1.259715E-04  1.258840E-04  7.926912E-06 -6.421450E-07 -6.750366E-09
      2891   1 -3.817061E-04  1.259632E-04  1.259708E-04  8.269355E-06 -7.733282E-07 -2.225283E-08
      2892   1 -3.816711E-04  1.259377E-04  1.259085E-04  8.858478E-06 -6.344840E-07 -3.096795E-08
      2893   1 -3.817142E-04  1.259648E-04  1.260537E-04  9.938425E-06 -2.303635E-07  3.079926E-08
      2894   1 -4.771463E-04  1.575467E-04  1.573621E-04  3.645132E-06  6.232056E-07  4.685499E-08
      2895   1 -4.770932E-04  1.574521E-04  1.573273E-04  3.135513E-06  1.348650E-06  3.071643E-08
      2896   1 -4.771338E-04  1.574969E-04  1.574326E-04  2.936846E-06  1.371672E-06  5.444975E-09
      2897   1 -4.770964E-04  1.574554E-04  1.573548E-04  2.808853E-06  1.071653E-06  7.409184E-09
      2898   1 -4.771301E-04  1.574824E-04  1.574485E-04  2.745368E-06  5.774242E-07  8.904491E-10
      2899   1 -4.770978E-04  1.574564E-04  1.573604E-04  2.723801E-06  2.894514E-14 -4.759478E-17
      2900   1 -4.771301E-04  1.574824E-04  1.574485E-04  2.745368E-06 -5.774241E-07 -8.904490E-10
      2901   1 -4.770964E-04  1.574554E-04  1.573548E-04  2.808853E-06 -1.071653E-06 -7.409184E-09
      2902   1 -4.771338E-04  1.574969E-04  1.574326E-04  2.936846E-06 -1.371672E-06 -5.444975E-09
      2903   1 -4.770932E-04  1.574521E-04  1.573273E-04  3.135513E-06 -1.348650E-06 -3.071643E-08
      2904   1 -4.771463E-04  1.575467E-04  1.573621E-04  3.645132E-06 -6.232056E-07 -4.685499E-08
      2905   1  4.725489E-04 -1.560393E-04 -1.557580E-04  3.650695E-06 -6.233906E-07  4.907706E-08
      2906   1  4.725890E-04 -1.559519E-04 -1.559275E-04  3.134493E-06 -1.346852E-06  2.891117E-08
      2907   1  4.725537E-04 -1.559958E-04 -1.558379E-04  2.940015E-06 -1.373011E-06  6.344259E-09
      2908   1  4.725830E-04 -1.559551E-04 -1.559476E-04  2.808990E-06 -1.069391E-06  6.752510E-09
      2909   1  4.725552E-04 -1.559815E-04 -1.558567E-04  2.748059E-06 -5.780032E-07  1.160824E-09
      2910   1  4.725814E-04 -1.559561E-04 -1.559510E-04  2.724254E-06 -2.892284E-14 -5.666989E-17
      2911   1  4.725552E-04 -1.559815E-04 -1.558567E-04  2.748059E-06  5.780031E-07 -1.160824E-09
      2912   1  4.725830E-04 -1.559551E-04 -1.559476E-04  2.808990E-06  1.069391E-06 -6.752510E-09
      2913   1  4.725537E-04 -1.559958E-04 -1.558379E-04  2.940015E-06  1.373011E-06 -6.344259E-09
      2914   1  4.725890E-04 -1.559519E-04 -1.559275E-04  3.134493E-06  1.346852E-06 -2.891117E-08
      2915   1  4.725489E-04 -1.560393E-04 -1.557580E-04  3.650695E-06  6.233906E-07 -4.907706E-08
      2916   1  3.780417E-04 -1.247726E-04 -1.247646E-04  9.929710E-06 -2.316177E-07 -3.130225E-08
      2917   1  3.780740E-04 -1.247422E-04 -1.247927E-04  8.855097E-06 -6.320294E-07  3.063755E-08
      2918   1  3.780434E-04 -1.247672E-04 -1.246900E-04  8.264696E-06 -7.749654E-07  2.206298E-08
      2919   1  3.780689E-04 -1.247762E-04 -1.247628E-04  7.922900E-06 -6.398658E-07  6.656757E-09
      2920   1  3.780447E-04 -1.247675E-04 -1.246919E-04  7.734116E-06 -3.584696E-07  5.494795E-09
      2921   1  3.780676E-04 -1.247797E-04 -1.247598E-04  7.676629E-06 -2.139892E-14  1.082313E-16
      2922   1  3.780447E-04 -1.247675E-04 -1.246919E-04  7.734116E-06  3.584696E-07 -5.494796E-09
      2923   1  3.780689E-04 -1.247762E-04 -1.247628E-04  7.922900E-06  6.398658E-07 -6.656756E-09
      2924   1  3.780434E-04 -1.247672E-04 -1.246900E-04  8.264696E-06  7.749653E-07 -2.206298E-08
      2925   1  3.780740E-04 -1.247422E-04 -1.247927E-04  8.855097E-06  6.320294E-07 -3.063755E-08
      2926   1  3.780417E-04 -1.247726E-04 -1.247646E-04  9.929710E-06  2.316177E-07  3.130226E-08
      2927   1  2.835280E-04 -9.360944E-05 -9.349002E-05  1.452556E-05 -1.260537E-07  3.676328E-09
      2928   1  2.835533E-04 -9.356742E-05 -9.361046E-05  1.332279E-05 -3.174910E-07 -3.256375E-08
      2929   1  2.835305E-04 -9.354983E-05 -9.354652E-05  1.249630E-05 -4.063642E-07  1.359576E-08
      2930   1  2.835496E-04 -9.357187E-05 -9.357668E-05  1.198597E-05 -3.616883E-07  3.968676E-09
      2931   1  2.835311E-04 -9.357149E-05 -9.352691E-05  1.170394E-05 -2.072082E-07  3.055763E-09
      2932   1  2.835486E-04 -9.357280E-05 -9.357302E-05  1.161314E-05 -1.499586E-14 -3.266591E-16
      2933   1  2.835311E-04 -9.357149E-05 -9.352691E-05  1.170394E-05  2.072081E-07 -3.055762E-09
      2934   1  2.835496E-04 -9.357187E-05 -9.357668E-05  1.198597E-05  3.616883E-07 -3.968676E-09
      2935   1  2.835305E-04 -9.354983E-05 -9.354652E-05  1.249630E-05  4.063642E-07 -1.359576E-08
      2936   1  2.835533E-04 -9.356742E-05 -9.361046E-05  1.332279E-05  3.174910E-07  3.256375E-08
      2937   1  2.835280E-04 -9.360944E-05 -9.349002E-05  1.452556E-05  1.260537E-07 -3.676328E-09
      2938   1  1.890215E-04 -6.238959E-05 -6.237136E-05  1.772141E-05 -5.858974E-08 -1.301949E-08
      2939   1  1.890381E-04 -6.238785E-05 -6.238673E-05  1.644974E-05 -1.607177E-07  1.576360E-09
      2940   1  1.890223E-04 -6.238010E-05 -6.236141E-05  1.553186E-05 -2.070555E-07 -2.451406E-08
      2941   1  1.890354E-04 -6.237056E-05 -6.240019E-05  1.491759E-05 -1.864112E-07  4.379917E-09
      2942   1  1.890230E-04 -6.238372E-05 -6.234888E-05  1.457094E-05 -1.106068E-07 -3.563660E-09
      2943   1  1.890347E-04 -6.237915E-05 -6.239148E-05  1.445892E-05 -9.467992E-15  3.226420E-16
      2944   1  1.890230E-04 -6.238372E-05 -6.234888E-05  1.457094E-05  1.106068E-07  3.563659E-09
      2945   1  1.890354E-04 -6.237056E-05 -6.240019E-05  1.491759E-05  1.864112E-07 -4.379917E-09
      2946   1  1.890223E-04 -6.238010E-05 -6.236141E-05  1.553186E-05  2.070555E-07  2.451406E-08
      2947   1  1.890381E-04 -6.238785E-05 -6.238673E-05  1.644974E-05  1.607177E-07 -1.576360E-09
      2948   1  1.890215E-04 -6.238959E-05 -6.237136E-05  1.772141E-05  5.858974E-08  1.301949E-08
      2949   1  9.450919E-05 -3.120132E-05 -3.116629E-05  1.962996E-05 -2.568169E-08 -1.435663E-09
      2950   1  9.451770E-05 -3.118956E-05 -3.120370E-05  1.832991E-05 -6.611777E-08 -2.476418E-08
      2951   1  9.450993E-05 -3.118623E-05 -3.117973E-05  1.736121E-05 -8.725552E-08 -1.152493E-09
      2952   1  9.451642E-05 -3.118875E-05 -3.119646E-05  1.670304E-05 -7.912751E-08 -1.932795E-08
      2953   1  9.451013E-05 -3.118414E-05 -3.118148E-05  1.632013E-05 -4.683877E-08  5.922171E-10
      2954   1  9.451606E-05 -3.119011E-05 -3.119252E-05  1.619637E-05 -4.580230E-15 -1.956799E-16
      2955   1  9.451013E-05 -3.118414E-05 -3.118148E-05  1.632013E-05  4.683876E-08 -5.922166E-10
      2956   1  9.451642E-05 -3.118875E-05 -3.119646E-05  1.670304E-05  7.912751E-08  1.932795E-08
      2957   1  9.450993E-05 -3.118623E-05 -3.117973E-05  1.736121E-05  8.725552E-08  1.152493E-09
      2958   1  9.451770E-05 -3.118956E-05 -3.120370E-05  1.832991E-05  6.611777E-08  2.476418E-08
      2959   1  9.450919E-05 -3.120132E-05 -3.116629E-05  1.962996E-05  2.568169E-08  1.435663E-09
      2960   1  1.034352E-13 -3.417926E-14 -3.417422E-14  2.024791E-05 -2.040841E-17 -9.991650E-09
      2961   1  1.034434E-13 -3.398323E-14 -3.436984E-14  1.894033E-05 -7.117957E-17 -3.737337E-09
      2962   1  1.034013E-13 -3.413762E-14 -3.405068E-14  1.796120E-05 -9.354293E-17 -2.660351E-08
      2963   1  1.034051E-13 -3.418099E-14 -3.412362E-14  1.728611E-05 -9.203987E-17 -1.132522E-09
      2964   1  1.033658E-13 -3.411854E-14 -3.408019E-14  1.689424E-05 -5.124316E-17 -1.107614E-08
      2965   1  1.033737E-13 -3.417579E-14 -3.408240E-14  1.676529E-05 -1.152388E-18  2.568333E-16
      2966   1  1.033377E-13 -3.410293E-14 -3.406536E-14  1.689424E-05  4.693494E-17  1.107614E-08
      2967   1  1.033324E-13 -3.412201E-14 -3.410223E-14  1.728611E-05  8.318033E-17  1.132523E-09
      2968   1  1.032878E-13 -3.408211E-14 -3.401883E-14  1.796120E-05  9.587058E-17  2.660351E-08
      2969   1  1.032980E-13 -3.393032E-14 -3.432330E-14  1.894033E-05  6.613972E-17  3.737337E-09
      2970   1  1.032556E-13 -3.411420E-14 -3.411569E-14  2.024791E-05  2.371353E-17  9.991650E-09
      2971   1 -9.450919E-05  3.120132E-05  3.116629E-05  1.962996E-05  2.568169E-08 -1.435663E-09
      2972   1 -9.451770E-05  3.118956E-05  3.120370E-05  1.832991E-05  6.611777E-08 -2.476418E-08
      2973   1 -9.450993E-05  3.118623E-05  3.117973E-05  1.736121E-05  8.725552E-08 -1.152493E-09
      2974   1 -9.451642E-05  3.118875E-05  3.119646E-05  1.670304E-05  7.912751E-08 -1.932795E-08
      2975   1 -9.451013E-05  3.118414E-05  3.118148E-05  1.632013E-05  4.683877E-08  5.922171E-10
      2976   1 -9.451606E-05  3.119011E-05  3.119252E-05  1.619637E-05  4.579222E-15 -2.120416E-16
      2977   1 -9.451013E-05  3.118414E-05  3.118148E-05  1.632013E-05 -4.683876E-08 -5.922166E-10
      2978   1 -9.451642E-05  3.118875E-05  3.119646E-05  1.670304E-05 -7.912751E-08  1.932795E-08
      2979   1 -9.450993E-05  3.118623E-05  3.117973E-05  1.736121E-05 -8.725552E-08  1.152493E-09
      2980   1 -9.451770E-05  3.118956E-05  3.120370E-05  1.832991E-05 -6.611777E-08  2.476418E-08
      2981   1 -9.450919E-05  3.120132E-05  3.116629E-05  1.962996E-05 -2.568169E-08  1.435663E-09
      2982   1 -1.890215E-04  6.238959E-05  6.237136E-05  1.772141E-05  5.858974E-08 -1.301949E-08
      2983   1 -1.890381E-04  6.238785E-05  6.238673E-05  1.644974E-05  1.607177E-07  1.576360E-09
      2984   1 -1.890223E-04  6.238010E-05  6.236141E-05  1.553186E-05  2.070555E-07 -2.451406E-08
      2985   1 -1.890354E-04  6.237056E-05  6.240019E-05  1.491759E-05  1.864112E-07  4.379917E-09
      2986   1 -1.890230E-04  6.238372E-05  6.234888E-05  1.457094E-05  1.106068E-07 -3.563660E-09
      2987   1 -1.890347E-04  6.237915E-05  6.239148E-05  1.445892E-05  9.463076E-15  3.241756E-16
      2988   1 -1.890230E-04  6.238372E-05  6.234888E-05  1.457094E-05 -1.106068E-07  3.563659E-09
      2989   1 -1.890354E-04  6.237056E-05  6.240019E-05  1.491759E-05 -1.864112E-07 -4.379917E-09
      2990   1 -1.890223E-04  6.238010E-05  6.236141E-05  1.553186E-05 -2.070555E-07  2.451406E-08
      2991   1 -1.890381E-04  6.238785E-05  6.238673E-05  1.644974E-05 -1.607177E-07 -1.576360E-09
      2992   1 -1.890215E-04  6.238959E-05  6.237136E-05  1.772141E-05 -5.858974E-08  1.301949E-08
      2993   1 -2.835280E-04  9.360944E-05  9.349002E-05  1.452556E-05  1.260537E-07  3.676329E-09
      2994   1 -2.835533E-04  9.356742E-05  9.361046E-05  1.332279E-05  3.174910E-07 -3.256375E-08
      2995   1 -2.835305E-04  9.354983E-05  9.354652E-05  1.249630E-05  4.063642E-07  1.359576E-08
      2996   1 -2.835496E-04  9.357187E-05  9.357668E-05  1.198597E-05  3.616883E-07  3.968676E-09
      2997   1 -2.835311E-04  9.357149E-05  9.352691E-05  1.170394E-05  2.072082E-07  3.055763E-09
      2998   1 -2.835486E-04  9.357280E-05  9.357301E-05  1.161314E-05  1.500230E-14 -3.257587E-16
      2999   1 -2.835311E-04  9.357149E-05  9.352691E-05  1.170394E-05 -2.072081E-07 -3.055762E-09
      3000   1 -2.835496E-04  9.357187E-05  9.357668E-05  1.198597E-05 -3.616883E-07 -3.968676E-09
      3001   1 -2.835305E-04  9.354983E-05  9.354652E-05  1.249630E-05 -4.063642E-07 -1.359576E-08
      3002   1 -2.835533E-04  9.356742E-05  9.361046E-05  1.332279E-05 -3.174910E-07  3.256375E-08
      3003   1 -2.835280E-04  9.360944E-05  9.349002E-05  1.452556E-05 -1.260537E-07 -3.676329E-09
      3004   1 -3.780417E-04  1.247726E-04  1.247646E-04  9.929710E-06  2.316177E-07 -3.130225E-08
      3005   1 -3.780740E-04  1.247422E-04  1.247927E-04  8.855097E-06  6.320294E-07  3.063755E-08
      3006   1 -3.780434E-04  1.247672E-04  1.246900E-04  8.264696E-06  7.749654E-07  2.206298E-08
      3007   1 -3.780689E-04  1.247762E-04  1.247628E-04  7.922900E-06  6.398658E-07  6.656757E-09
      3008   1 -3.780447E-04  1.247675E-04  1.246919E-04  7.734116E-06  3.584696E-07  5.494795E-09
      3009   1 -3.780676E-04  1.247797E-04  1.247598E-04  7.676629E-06  2.139544E-14  1.045069E-16
      3010   1 -3.780447E-04  1.247675E-04  1.246919E-04  7.734116E-06 -3.584696E-07 -5.494796E-09
      3011   1 -3.780689E-04  1.247762E-04  1.247628E-04  7.922900E-06 -6.398658E-07 -6.656756E-09
      3012   1 -3.780434E-04  1.247672E-04  1.246900E-04  8.264696E-06 -7.749653E-07 -2.206298E-08
      3013   1 -3.780740E-04  1.247422E-04  1.247927E-04  8.855097E-06 -6.320294E-07 -3.063755E-08
      3014   1 -3.780417E-04  1.247726E-04  1.247646E-04  9.929710E-06 -2.316177E-07  3.130226E-08
      3015   1 -4.725489E-04  1.560393E-04  1.557580E-04  3.650695E-06  6.233906E-07  4.907706E-08
      3016   1 -4.725890E-04  1.559519E-04  1.559275E-04  3.134493E-06  1.346852E-06  2.891117E-08
      3017   1 -4.725537E-04  1.559958E-04  1.558379E-04  2.940015E-06  1.373011E-06  6.344259E-09
      3018   1 -4.725830E-04  1.559551E-04  1.559476E-04  2.808990E-06  1.069391E-06  6.752510E-09
      3019   1 -4.725552E-04  1.559815E-04  1.558567E-04  2.748059E-06  5.780032E-07  1.160824E-09
      3020   1 -4.725814E-04  1.559561E-04  1.559510E-04  2.724254E-06  2.891656E-14 -4.356799E-17
      3021   1 -4.725552E-04  1.559815E-04  1.558567E-04  2.748059E-06 -5.780031E-07 -1.160824E-09
      3022   1 -4.725830E-04  1.559551E-04  1.559476E-04  2.808990E-06 -1.069391E-06 -6.752510E-09
      3023   1 -4.725537E-04  1.559958E-04  1.558379E-04  2.940015E-06 -1.373011E-06 -6.344259E-09
      3024   1 -4.725890E-04  1.559519E-04  1.559275E-04  3.134493E-06 -1.346852E-06 -2.891117E-08
      3025   1 -4.725489E-04  1.560393E-04  1.557580E-04  3.650695E-06 -6.233906E-07 -4.907706E-08
      3026   1  4.680467E-04 -1.545431E-04 -1.543458E-04  3.646261E-06 -6.230935E-07  4.647309E-08
      3027   1  4.680118E-04 -1.544519E-04 -1.543474E-04  3.135531E-06 -1.347993E-06  2.979139E-08
      3028   1  4.680389E-04 -1.544962E-04 -1.544165E-04  2.937736E-06 -1.371309E-06  5.481557E-09
      3029   1  4.680138E-04 -1.544558E-04 -1.543723E-04  2.809220E-06 -1.070506E-06  7.129124E-09
      3030   1  4.680359E-04 -1.544823E-04 -1.544316E-04  2.746253E-06 -5.771157E-07  9.207954E-10
      3031   1  4.680144E-04 -1.544569E-04 -1.543769E-04  2.724253E-06 -2.894659E-14 -3.487743E-17
      3032   1  4.680359E-04 -1.544823E-04 -1.544316E-04  2.746253E-06  5.771156E-07 -9.207953E-10
      3033   1  4.680138E-04 -1.544558E-04 -1.543723E-04  2.809220E-06  1.070506E-06 -7.129125E-09
      3034   1  4.680389E-04 -1.544962E-04 -1.544165E-04  2.937736E-06  1.371309E-06 -5.481556E-09
      3035   1  4.680118E-04 -1.544519E-04 -1.543474E-04  3.135531E-06  1.347993E-06 -2.979139E-08
      3036   1  4.680467E-04 -1.545431E-04 -1.543458E-04  3.646261E-06  6.230935E-07 -4.647309E-08
      3037   1  3.744366E-04 -1.235676E-04 -1.236369E-04  9.935657E-06 -2.306038E-07 -3.043574E-08
      3038   1  3.744081E-04 -1.235407E-04 -1.235243E-04  8.857044E-06 -6.336357E-07  3.026179E-08
      3039   1  3.744315E-04 -1.235660E-04 -1.235566E-04  8.267910E-06 -7.731115E-07  2.174506E-08
      3040   1  3.744096E-04 -1.235746E-04 -1.234985E-04  7.925696E-06 -6.410051E-07  6.582934E-09
      3041   1  3.744288E-04 -1.235661E-04 -1.235557E-04  7.737304E-06 -3.575915E-07  5.395426E-09
      3042   1  3.744100E-04 -1.235781E-04 -1.234964E-04  7.679681E-06 -2.142447E-14  1.151846E-16
      3043   1  3.744288E-04 -1.235661E-04 -1.235557E-04  7.737304E-06  3.575914E-07 -5.395427E-09
      3044   1  3.744096E-04 -1.235746E-04 -1.234985E-04  7.925696E-06  6.410051E-07 -6.582933E-09
      3045   1  3.744315E-04 -1.235660E-04 -1.235566E-04  8.267910E-06  7.731115E-07 -2.174506E-08
      3046   1  3.744081E-04 -1.235407E-04 -1.235243E-04  8.857044E-06  6.336357E-07 -3.026179E-08
      3047   1  3.744366E-04 -1.235676E-04 -1.236369E-04  9.935657E-06  2.306038E-07  3.043574E-08
      3048   1  2.808301E-04 -9.271399E-05 -9.264617E-05  1.451823E-05 -1.259494E-07  3.324603E-09
      3049   1  2.808076E-04 -9.267056E-05 -9.265812E-05  1.331749E-05 -3.183302E-07 -3.251313E-08
      3050   1  2.808250E-04 -9.265280E-05 -9.269685E-05  1.249211E-05 -4.050756E-07  1.350006E-08
      3051   1  2.808085E-04 -9.267507E-05 -9.262773E-05  1.198094E-05 -3.625034E-07  3.826987E-09
      3052   1  2.808232E-04 -9.267474E-05 -9.267529E-05  1.169960E-05 -2.065458E-07  3.049649E-09
      3053   1  2.808088E-04 -9.267611E-05 -9.262481E-05  1.160804E-05 -1.501766E-14 -3.231905E-16
      3054   1  2.808232E-04 -9.267474E-05 -9.267529E-05  1.169960E-05  2.065458E-07 -3.049648E-09
      3055   1  2.808085E-04 -9.267507E-05 -9.262773E-05  1.198094E-05  3.625034E-07 -3.826987E-09
      3056   1  2.808250E-04 -9.265280E-05 -9.269685E-05  1.249211E-05  4.050756E-07 -1.350006E-08
      3057   1  2.808076E-04 -9.267056E-05 -9.265812E-05  1.331749E-05  3.183302E-07  3.251313E-08
      3058   1  2.808301E-04 -9.271399E-05 -9.264617E-05  1.451823E-05  1.259494E-07 -3.324603E-09
      3059   1  1.872184E-04 -6.178579E-05 -6.180858E-05  1.773024E-05 -5.807436E-08 -1.278622E-08
      3060   1  1.872036E-04 -6.178538E-05 -6.175164E-05  1.645590E-05 -1.614148E-07  1.593869E-09
      3061   1  1.872155E-04 -6.177817E-05 -6.179538E-05  1.553834E-05 -2.061810E-07 -2.438425E-08
      3062   1  1.872043E-04 -6.176854E-05 -6.176701E-05  1.492398E-05 -1.868870E-07  4.278896E-09
      3063   1  1.872141E-04 -6.178156E-05 -6.178149E-05  1.457802E-05 -1.101750E-07 -3.538382E-09
      3064   1  1.872045E-04 -6.177704E-05 -6.175887E-05  1.446557E-05 -9.473551E-15  3.185776E-16
      3065   1  1.872141E-04 -6.178156E-05 -6.178149E-05  1.457802E-05  1.101750E-07  3.538382E-09
      3066   1  1.872043E-04 -6.176854E-05 -6.176701E-05  1.492398E-05  1.868870E-07 -4.278895E-09
      3067   1  1.872155E-04 -6.177817E-05 -6.179538E-05  1.553834E-05  2.061810E-07  2.438425E-08
      3068   1  1.872036E-04 -6.178538E-05 -6.175164E-05  1.645590E-05  1.614147E-07 -1.593869E-09
      3069   1  1.872184E-04 -6.178579E-05 -6.180858E-05  1.773024E-05  5.807435E-08  1.278622E-08
      3070   1  9.361032E-05 -3.090328E-05 -3.088528E-05  1.961999E-05 -2.564173E-08 -1.526540E-09
      3071   1  9.360272E-05 -3.089112E-05 -3.088595E-05  1.832145E-05 -6.641662E-08 -2.482575E-08
      3072   1  9.360860E-05 -3.088767E-05 -3.089681E-05  1.735440E-05 -8.678734E-08 -1.138841E-09
      3073   1  9.360298E-05 -3.089032E-05 -3.087979E-05  1.669535E-05 -7.940331E-08 -1.917514E-08
      3074   1  9.360796E-05 -3.088579E-05 -3.089782E-05  1.631293E-05 -4.660324E-08  6.031952E-10
      3075   1  9.360308E-05 -3.089171E-05 -3.087612E-05  1.618860E-05 -4.584197E-15 -1.963090E-16
      3076   1  9.360796E-05 -3.088579E-05 -3.089782E-05  1.631293E-05  4.660323E-08 -6.031948E-10
      3077   1  9.360298E-05 -3.089032E-05 -3.087979E-05  1.669535E-05  7.940330E-08  1.917514E-08
      3078   1  9.360860E-05 -3.088767E-05 -3.089681E-05  1.735440E-05  8.678733E-08  1.138841E-09
      3079   1  9.360272E-05 -3.089112E-05 -3.088595E-05  1.832145E-05  6.641662E-08  2.482575E-08
      3080   1  9.361032E-05 -3.090328E-05 -3.088528E-05  1.961999E-05  2.564173E-08  1.526540E-09
      3081   1  1.024618E-13 -3.381670E-14 -3.390627E-14  2.025801E-05 -2.030507E-17 -9.887880E-09
      3082   1  1.024223E-13 -3.365017E-14 -3.397654E-14  1.894804E-05 -6.991410E-17 -3.660076E-09
      3083   1  1.024244E-13 -3.378374E-14 -3.378492E-14  1.796910E-05 -9.780351E-17 -2.642322E-08
      3084   1  1.023886E-13 -3.384099E-14 -3.373620E-14  1.729392E-05 -8.970545E-17 -1.193318E-09
      3085   1  1.023878E-13 -3.376292E-14 -3.380883E-14  1.690287E-05 -5.003614E-17 -1.096111E-08
      3086   1  1.023458E-13 -3.382884E-14 -3.369884E-14  1.677341E-05 -4.838676E-19  2.519957E-16
      3087   1  1.023502E-13 -3.374384E-14 -3.379574E-14  1.690287E-05  4.789124E-17  1.096111E-08
      3088   1  1.023237E-13 -3.382537E-14 -3.371503E-14  1.729392E-05  8.339548E-17  1.193318E-09
      3089   1  1.023262E-13 -3.376466E-14 -3.374799E-14  1.796910E-05  9.471861E-17  2.642322E-08
      3090   1  1.022833E-13 -3.359119E-14 -3.393413E-14  1.894804E-05  7.287024E-17  3.660076E-09
      3091   1  1.022871E-13 -3.377160E-14 -3.384065E-14  2.025801E-05  1.744380E-17  9.887880E-09
      3092   1 -9.361032E-05  3.090328E-05  3.088528E-05  1.961999E-05  2.564173E-08 -1.526540E-09
      3093   1 -9.360272E-05  3.089112E-05  3.088595E-05  1.832145E-05  6.641662E-08 -2.482575E-08
      3094   1 -9.360860E-05  3.088767E-05  3.089681E-05  1.735440E-05  8.678734E-08 -1.138841E-09
      3095   1 -9.360298E-05  3.089032E-05  3.087979E-05  1.669535E-05  7.940331E-08 -1.917514E-08
      3096   1 -9.360796E-05  3.088579E-05  3.089782E-05  1.631293E-05  4.660324E-08  6.031952E-10
      3097   1 -9.360308E-05  3.089171E-05  3.087612E-05  1.618860E-05  4.586580E-15 -1.863146E-16
      3098   1 -9.360796E-05  3.088579E-05  3.089782E-05  1.631293E-05 -4.660323E-08 -6.031948E-10
      3099   1 -9.360298E-05  3.089032E-05  3.087979E-05  1.669535E-05 -7.940330E-08  1.917514E-08
      3100   1 -9.360860E-05  3.088767E-05  3.089681E-05  1.735440E-05 -8.678733E-08  1.138841E-09
      3101   1 -9.360272E-05  3.089112E-05  3.088595E-05  1.832145E-05 -6.641662E-08  2.482575E-08
      3102   1 -9.361032E-05  3.090328E-05  3.088528E-05  1.961999E-05 -2.564173E-08  1.526541E-09
      3103   1 -1.872184E-04  6.178579E-05  6.180858E-05  1.773024E-05  5.807435E-08 -1.278622E-08
      3104   1 -1.872036E-04  6.178538E-05  6.175164E-05  1.645590E-05  1.614147E-07  1.593869E-09
      3105   1 -1.872155E-04  6.177817E-05  6.179538E-05  1.553834E-05  2.061810E-07 -2.438425E-08
      3106   1 -1.872043E-04  6.176854E-05  6.176701E-05  1.492398E-05  1.868870E-07  4.278896E-09
      3107   1 -1.872141E-04  6.178156E-05  6.178149E-05  1.457802E-05  1.101750E-07 -3.538382E-09
      3108   1 -1.872045E-04  6.177704E-05  6.175887E-05  1.446557E-05  9.466508E-15  3.452896E-16
      3109   1 -1.872141E-04  6.178156E-05  6.178149E-05  1.457802E-05 -1.101750E-07  3.538382E-09
      3110   1 -1.872043E-04  6.176854E-05  6.176701E-05  1.492398E-05 -1.868870E-07 -4.278895E-09
      3111   1 -1.872155E-04  6.177817E-05  6.179538E-05  1.553834E-05 -2.061810E-07  2.438425E-08
      3112   1 -1.872036E-04  6.178538E-05  6.175164E-05  1.645590E-05 -1.614147E-07 -1.593869E-09
      3113   1 -1.872184E-04  6.178579E-05  6.180858E-05  1.773024E-05 -5.807435E-08  1.278622E-08
      3114   1 -2.808301E-04  9.271399E-05  9.264617E-05  1.451823E-05  1.259494E-07  3.324603E-09
      3115   1 -2.808076E-04  9.267056E-05  9.265812E-05  1.331749E-05  3.183302E-07 -3.251313E-08
      3116   1 -2.808250E-04  9.265280E-05  9.269685E-05  1.249211E-05  4.050756E-07  1.350006E-08
      3117   1 -2.808085E-04  9.267507E-05  9.262773E-05  1.198094E-05  3.625034E-07  3.826987E-09
      3118   1 -2.808232E-04  9.267474E-05  9.267529E-05  1.169960E-05  2.065458E-07  3.049649E-09
      3119   1 -2.808088E-04  9.267611E-05  9.262481E-05  1.160804E-05  1.501329E-14 -3.263457E-16
      3120   1 -2.808232E-04  9.267474E-05  9.267529E-05  1.169960E-05 -2.065458E-07 -3.049648E-09
      3121   1 -2.808085E-04  9.267507E-05  9.262773E-05  1.198094E-05 -3.625034E-07 -3.826987E-09
      3122   1 -2.808250E-04  9.265280E-05  9.269685E-05  1.249211E-05 -4.050756E-07 -1.350006E-08
      3123   1 -2.808076E-04  9.267056E-05  9.265812E-05  1.331749E-05 -3.183302E-07  3.251313E-08
      3124   1 -2.808301E-04  9.271399E-05  9.264617E-05  1.451823E-05 -1.259494E-07 -3.324603E-09
      3125   1 -3.744366E-04  1.235676E-04  1.236369E-04  9.935657E-06  2.306038E-07 -3.043574E-08
      3126   1 -3.744081E-04  1.235407E-04  1.235243E-04  8.857044E-06  6.336357E-07  3.026179E-08
      3127   1 -3.744315E-04  1.235660E-04  1.235566E-04  8.267910E-06  7.731115E-07  2.174506E-08
      3128   1 -3.744096E-04  1.235746E-04  1.234985E-04  7.925696E-06  6.410051E-07  6.582934E-09
      3129   1 -3.744288E-04  1.235661E-04  1.235557E-04  7.737304E-06  3.575915E-07  5.395426E-09
      3130   1 -3.744100E-04  1.235781E-04  1.234964E-04  7.679681E-06  2.141121E-14  1.179595E-16
      3131   1 -3.744288E-04  1.235661E-04  1.235557E-04  7.737304E-06 -3.575914E-07 -5.395427E-09
      3132   1 -3.744096E-04  1.235746E-04  1.234985E-04  7.925696E-06 -6.410051E-07 -6.582933E-09
      3133   1 -3.744315E-04  1.235660E-04  1.235566E-04  8.267910E-06 -7.731115E-07 -2.174506E-08
      3134   1 -3.744081E-04  1.235407E-04  1.235243E-04  8.857044E-06 -6.336357E-07 -3.026179E-08
      3135   1 -3.744366E-04  1.235676E-04  1.236369E-04  9.935657E-06 -2.306038E-07  3.043574E-08
      3136   1 -4.680467E-04  1.545431E-04  1.543458E-04  3.646261E-06  6.230935E-07  4.647309E-08
      3137   1 -4.680118E-04  1.544519E-04  1.543474E-04  3.135531E-06  1.347993E-06  2.979139E-08
      3138   1 -4.680389E-04  1.544962E-04  1.544165E-04  2.937736E-06  1.371309E-06  5.481557E-09
      3139   1 -4.680138E-04  1.544558E-04  1.543723E-04  2.809220E-06  1.070506E-06  7.129124E-09
      3140   1 -4.680359E-04  1.544823E-04  1.544316E-04  2.746253E-06  5.771157E-07  9.207954E-10
      3141   1 -4.680144E-04  1.544569E-04  1.543769E-04  2.724253E-06  2.893841E-14 -4.181802E-17
      3142   1 -4.680359E-04  1.544823E-04  1.544316E-04  2.746253E-06 -5.771156E-07 -9.207953E-10
      3143   1 -4.680138E-04  1.544558E-04  1.543723E-04  2.809220E-06 -1.070506E-06 -7.129125E-09
      3144   1 -4.680389E-04  1.544962E-04  1.544165E-04  2.937736E-06 -1.371309E-06 -5.481556E-09
      3145   1 -4.680118E-04  1.544519E-04  1.543474E-04  3.135531E-06 -1.347993E-06 -2.979139E-08
      3146   1 -4.680467E-04  1.545431E-04  1.543458E-04  3.646261E-06 -6.230935E-07 -4.647309E-08
      3147   1  4.634681E-04 -1.530397E-04 -1.527772E-04  3.649592E-06 -6.234291E-07  4.769727E-08
      3148   1  4.634951E-04 -1.529534E-04 -1.529145E-04  3.134489E-06 -1.347047E-06  2.853211E-08
      3149   1  4.634717E-04 -1.529969E-04 -1.528541E-04  2.939456E-06 -1.372569E-06  6.014681E-09
      3150   1  4.634912E-04 -1.529571E-04 -1.529348E-04  2.808950E-06 -1.069409E-06  6.667420E-09
      3151   1  4.634726E-04 -1.529832E-04 -1.528715E-04  2.747649E-06 -5.776837E-07  1.073290E-09
      3152   1  4.634900E-04 -1.529583E-04 -1.529380E-04  2.724201E-06 -2.892330E-14 -4.021543E-17
      3153   1  4.634726E-04 -1.529832E-04 -1.528715E-04  2.747649E-06  5.776837E-07 -1.073290E-09
      3154   1  4.634912E-04 -1.529571E-04 -1.529348E-04  2.808950E-06  1.069409E-06 -6.667420E-09
      3155   1  4.634717E-04 -1.529969E-04 -1.528541E-04  2.939456E-06  1.372569E-06 -6.014681E-09
      3156   1  4.634951E-04 -1.529534E-04 -1.529145E-04  3.134489E-06  1.347047E-06 -2.853211E-08
      3157   1  4.634681E-04 -1.530397E-04 -1.527772E-04  3.649592E-06  6.234291E-07 -4.769727E-08
      3158   1  3.707753E-04 -1.223711E-04 -1.223774E-04  9.930996E-06 -2.314199E-07 -3.063821E-08
      3159   1  3.707972E-04 -1.223421E-04 -1.223808E-04  8.855841E-06 -6.323776E-07  2.990637E-08
      3160   1  3.707769E-04 -1.223670E-04 -1.223031E-04  8.265867E-06 -7.744692E-07  2.149026E-08
      3161   1  3.707939E-04 -1.223759E-04 -1.223518E-04  7.924130E-06 -6.399245E-07  6.429516E-09
      3162   1  3.707777E-04 -1.223674E-04 -1.223042E-04  7.735502E-06 -3.581526E-07  5.333964E-09
      3163   1  3.707929E-04 -1.223795E-04 -1.223487E-04  7.678010E-06 -2.140425E-14  1.216331E-16
      3164   1  3.707777E-04 -1.223674E-04 -1.223042E-04  7.735502E-06  3.581526E-07 -5.333965E-09
      3165   1  3.707939E-04 -1.223759E-04 -1.223518E-04  7.924130E-06  6.399244E-07 -6.429516E-09
      3166   1  3.707769E-04 -1.223670E-04 -1.223031E-04  8.265867E-06  7.744692E-07 -2.149026E-08
      3167   1  3.707972E-04 -1.223421E-04 -1.223808E-04  8.855841E-06  6.323776E-07 -2.990637E-08
      3168   1  3.707753E-04 -1.223711E-04 -1.223774E-04  9.930996E-06  2.314199E-07  3.063821E-08
      3169   1  2.780800E-04 -9.181053E-05 -9.170132E-05  1.452284E-05 -1.260924E-07  3.466054E-09
      3170   1  2.780972E-04 -9.176918E-05 -9.180105E-05  1.332081E-05 -3.176487E-07 -3.216837E-08
      3171   1  2.780820E-04 -9.175207E-05 -9.175582E-05  1.249481E-05 -4.059986E-07  1.318372E-08
      3172   1  2.780947E-04 -9.177392E-05 -9.176821E-05  1.198448E-05 -3.616996E-07  3.761062E-09
      3173   1  2.780824E-04 -9.177366E-05 -9.173594E-05  1.170266E-05 -2.069540E-07  2.950796E-09
      3174   1  2.780939E-04 -9.177498E-05 -9.176452E-05  1.161174E-05 -1.500048E-14 -3.202344E-16
      3175   1  2.780824E-04 -9.177366E-05 -9.173594E-05  1.170266E-05  2.069540E-07 -2.950795E-09
      3176   1  2.780947E-04 -9.177392E-05 -9.176821E-05  1.198448E-05  3.616996E-07 -3.761062E-09
      3177   1  2.780820E-04 -9.175207E-05 -9.175582E-05  1.249481E-05  4.059986E-07 -1.318372E-08
      3178   1  2.780972E-04 -9.176918E-05 -9.180105E-05  1.332081E-05  3.176487E-07  3.216837E-08
      3179   1  2.780800E-04 -9.181053E-05 -9.170132E-05  1.452284E-05  1.260924E-07 -3.466054E-09
      3180   1  1.853879E-04 -6.118830E-05 -6.117804E-05  1.772337E-05 -5.848554E-08 -1.285228E-08
      3181   1  1.853992E-04 -6.118700E-05 -6.118076E-05  1.645161E-05 -1.608465E-07  1.355319E-09
      3182   1  1.853887E-04 -6.117962E-05 -6.116773E-05  1.553414E-05 -2.067926E-07 -2.423928E-08
      3183   1  1.853974E-04 -6.117031E-05 -6.119414E-05  1.492010E-05 -1.863842E-07  4.170076E-09
      3184   1  1.853891E-04 -6.118326E-05 -6.115498E-05  1.457372E-05 -1.104299E-07 -3.545368E-09
      3185   1  1.853968E-04 -6.117880E-05 -6.118552E-05  1.446166E-05 -9.462224E-15  3.144678E-16
      3186   1  1.853891E-04 -6.118326E-05 -6.115498E-05  1.457372E-05  1.104299E-07  3.545368E-09
      3187   1  1.853974E-04 -6.117031E-05 -6.119414E-05  1.492010E-05  1.863842E-07 -4.170075E-09
      3188   1  1.853887E-04 -6.117962E-05 -6.116773E-05  1.553414E-05  2.067926E-07  2.423928E-08
      3189   1  1.853992E-04 -6.118700E-05 -6.118076E-05  1.645161E-05  1.608465E-07 -1.355319E-09
      3190   1  1.853879E-04 -6.118830E-05 -6.117804E-05  1.772337E-05  5.848554E-08  1.285228E-08
      3191   1  9.269325E-05 -3.060183E-05 -3.057004E-05  1.962606E-05 -2.569070E-08 -1.512784E-09
      3192   1  9.269904E-05 -3.059028E-05 -3.060050E-05  1.832682E-05 -6.616584E-08 -2.455890E-08
      3193   1  9.269387E-05 -3.058706E-05 -3.058291E-05  1.735881E-05 -8.711134E-08 -1.301578E-09
      3194   1  9.269819E-05 -3.058961E-05 -3.059348E-05  1.670068E-05 -7.911814E-08 -1.906893E-08
      3195   1  9.269398E-05 -3.058513E-05 -3.058440E-05  1.631797E-05 -4.674225E-08  5.413928E-10
      3196   1  9.269791E-05 -3.059100E-05 -3.058957E-05  1.619413E-05 -4.580134E-15 -2.004495E-16
      3197   1  9.269398E-05 -3.058513E-05 -3.058440E-05  1.631797E-05  4.674224E-08 -5.413923E-10
      3198   1  9.269819E-05 -3.058961E-05 -3.059348E-05  1.670068E-05  7.911813E-08  1.906893E-08
      3199   1  9.269387E-05 -3.058706E-05 -3.058291E-05  1.735881E-05  8.711133E-08  1.301578E-09
      3200   1  9.269904E-05 -3.059028E-05 -3.060050E-05  1.832682E-05  6.616584E-08  2.455890E-08
      3201   1  9.269325E-05 -3.060183E-05 -3.057004E-05  1.962606E-05  2.569070E-08  1.512784E-09
      3202   1  1.014485E-13 -3.350098E-14 -3.352555E-14  2.025014E-05 -1.522118E-17 -9.913682E-09
      3203   1  1.014496E-13 -3.332057E-14 -3.369647E-14  1.894261E-05 -7.345046E-17 -3.862637E-09
      3204   1  1.014136E-13 -3.345414E-14 -3.340975E-14  1.796391E-05 -9.317024E-17 -2.628424E-08
      3205   1  1.014162E-13 -3.353741E-14 -3.345383E-14  1.728909E-05 -8.932852E-17 -1.233595E-09
      3206   1  1.013817E-13 -3.344720E-14 -3.343618E-14  1.689753E-05 -5.599968E-17 -1.090365E-08
      3207   1  1.013826E-13 -3.354435E-14 -3.342111E-14  1.676853E-05 -2.242731E-18  2.462321E-16
      3208   1  1.013459E-13 -3.344026E-14 -3.341400E-14  1.689753E-05  4.837236E-17  1.090365E-08
      3209   1  1.013379E-13 -3.346802E-14 -3.344037E-14  1.728909E-05  8.424336E-17  1.233595E-09
      3210   1  1.013082E-13 -3.342639E-14 -3.336890E-14  1.796391E-05  9.352684E-17  2.628424E-08
      3211   1  1.013103E-13 -3.327547E-14 -3.364979E-14  1.894261E-05  6.402044E-17  3.862638E-09
      3212   1  1.012760E-13 -3.345935E-14 -3.346865E-14  2.025014E-05  2.170607E-17  9.913682E-09
      3213   1 -9.269325E-05  3.060183E-05  3.057004E-05  1.962606E-05  2.569070E-08 -1.512784E-09
      3214   1 -9.269904E-05  3.059028E-05  3.060050E-05  1.832682E-05  6.616584E-08 -2.455890E-08
      3215   1 -9.269387E-05  3.058706E-05  3.058291E-05  1.735881E-05  8.711134E-08 -1.301578E-09
      3216   1 -9.269819E-05  3.058961E-05  3.059348E-05  1.670068E-05  7.911814E-08 -1.906893E-08
      3217   1 -9.269398E-05  3.058513E-05  3.058440E-05  1.631797E-05  4.674225E-08  5.413928E-10
      3218   1 -9.269791E-05  3.059100E-05  3.058957E-05  1.619413E-05  4.573884E-15 -1.967103E-16
      3219   1 -9.269398E-05  3.058513E-05  3.058440E-05  1.631797E-05 -4.674224E-08 -5.413923E-10
      3220   1 -9.269819E-05  3.058961E-05  3.059348E-05  1.670068E-05 -7.911813E-08  1.906893E-08
      3221   1 -9.269387E-05  3.058706E-05  3.058291E-05  1.735881E-05 -8.711133E-08  1.301578E-09
      3222   1 -9.269904E-05  3.059028E-05  3.060050E-05  1.832682E-05 -6.616584E-08  2.455890E-08
      3223   1 -9.269325E-05  3.060183E-05  3.057004E-05  1.962606E-05 -2.569070E-08  1.512784E-09
      3224   1 -1.853879E-04  6.118829E-05  6.117804E-05  1.772337E-05  5.848554E-08 -1.285228E-08
      3225   1 -1.853992E-04  6.118700E-05  6.118075E-05  1.645161E-05  1.608465E-07  1.355319E-09
      3226   1 -1.853887E-04  6.117962E-05  6.116773E-05  1.553414E-05  2.067926E-07 -2.423928E-08
      3227   1 -1.853974E-04  6.117031E-05  6.119414E-05  1.492010E-05  1.863842E-07  4.170076E-09
      3228   1 -1.853891E-04  6.118326E-05  6.115498E-05  1.457372E-05  1.104299E-07 -3.545368E-09
      3229   1 -1.853968E-04  6.117880E-05  6.118552E-05  1.446166E-05  9.466557E-15  3.141984E-16
      3230   1 -1.853891E-04  6.118326E-05  6.115498E-05  1.457372E-05 -1.104299E-07  3.545368E-09
      3231   1 -1.853974E-04  6.117031E-05  6.119414E-05  1.492010E-05 -1.863842E-07 -4.170075E-09
      3232   1 -1.853887E-04  6.117962E-05  6.116773E-05  1.553414E-05 -2.067926E-07  2.423928E-08
      3233   1 -1.853992E-04  6.118700E-05  6.118075E-05  1.645161E-05 -1.608465E-07 -1.355319E-09
      3234   1 -1.853879E-04  6.118829E-05  6.117804E-05  1.772337E-05 -5.848554E-08  1.285228E-08
      3235   1 -2.780800E-04  9.181053E-05  9.170132E-05  1.452284E-05  1.260924E-07  3.466055E-09
      3236   1 -2.780972E-04  9.176918E-05  9.180105E-05  1.332081E-05  3.176487E-07 -3.216837E-08
      3237   1 -2.780820E-04  9.175207E-05  9.175582E-05  1.249481E-05  4.059986E-07  1.318372E-08
      3238   1 -2.780947E-04  9.177392E-05  9.176821E-05  1.198448E-05  3.616996E-07  3.761062E-09
      3239   1 -2.780824E-04  9.177366E-05  9.173594E-05  1.170266E-05  2.069540E-07  2.950796E-09
      3240   1 -2.780939E-04  9.177498E-05  9.176452E-05  1.161174E-05  1.499761E-14 -3.301701E-16
      3241   1 -2.780824E-04  9.177366E-05  9.173594E-05  1.170266E-05 -2.069540E-07 -2.950795E-09
      3242   1 -2.780947E-04  9.177392E-05  9.176821E-05  1.198448E-05 -3.616996E-07 -3.761062E-09
      3243   1 -2.780820E-04  9.175207E-05  9.175582E-05  1.249481E-05 -4.059986E-07 -1.318372E-08
      3244   1 -2.780972E-04  9.176918E-05  9.180105E-05  1.332081E-05 -3.176487E-07  3.216837E-08
      3245   1 -2.780800E-04  9.181053E-05  9.170132E-05  1.452284E-05 -1.260924E-07 -3.466055E-09
      3246   1 -3.707753E-04  1.223711E-04  1.223774E-04  9.930996E-06  2.314199E-07 -3.063821E-08
      3247   1 -3.707972E-04  1.223421E-04  1.223808E-04  8.855841E-06  6.323776E-07  2.990637E-08
      3248   1 -3.707769E-04  1.223670E-04  1.223031E-04  8.265867E-06  7.744692E-07  2.149026E-08
      3249   1 -3.707939E-04  1.223759E-04  1.223518E-04  7.924130E-06  6.399245E-07  6.429516E-09
      3250   1 -3.707777E-04  1.223674E-04  1.223042E-04  7.735502E-06  3.581526E-07  5.333964E-09
      3251   1 -3.707929E-04  1.223795E-04  1.223487E-04  7.678010E-06  2.139809E-14  1.224776E-16
      3252   1 -3.707777E-04  1.223674E-04  1.223042E-04  7.735502E-06 -3.581526E-07 -5.333965E-09
      3253   1 -3.707939E-04  1.223759E-04  1.223518E-04  7.924130E-06 -6.399244E-07 -6.429516E-09
      3254   1 -3.707769E-04  1.223670E-04  1.223031E-04  8.265867E-06 -7.744692E-07 -2.149026E-08
      3255   1 -3.707972E-04  1.223421E-04  1.223808E-04  8.855841E-06 -6.323776E-07 -2.990637E-08
      3256   1 -3.707753E-04  1.223711E-04  1.223774E-04  9.930996E-06 -2.314199E-07  3.063821E-08
      3257   1 -4.634681E-04  1.530397E-04  1.527772E-04  3.649592E-06  6.234291E-07  4.769727E-08
      3258   1 -4.634951E-04  1.529534E-04  1.529145E-04  3.134489E-06  1.347047E-06  2.853211E-08
      3259   1 -4.634717E-04  1.529969E-04  1.528541E-04  2.939456E-06  1.372569E-06  6.014681E-09
      3260   1 -4.634912E-04  1.529571E-04  1.529348E-04  2.808950E-06  1.069409E-06  6.667420E-09
      3261   1 -4.634726E-04  1.529832E-04  1.528715E-04  2.747649E-06  5.776837E-07  1.073290E-09
      3262   1 -4.634900E-04  1.529583E-04  1.529380E-04  2.724201E-06  2.892265E-14 -4.720853E-17
      3263   1 -4.634726E-04  1.529832E-04  1.528715E-04  2.747649E-06 -5.776837E-07 -1.073290E-09
      3264   1 -4.634912E-04  1.529571E-04  1.529348E-04  2.808950E-06 -1.069409E-06 -6.667420E-09
      3265   1 -4.634717E-04  1.529969E-04  1.528541E-04  2.939456E-06 -1.372569E-06 -6.014681E-09
      3266   1 -4.634951E-04  1.529534E-04  1.529145E-04  3.134489E-06 -1.347047E-06 -2.853211E-08
      3267   1 -4.634681E-04  1.530397E-04  1.527772E-04  3.649592E-06 -6.234291E-07 -4.769727E-08
      3268   1  4.589513E-04 -1.515410E-04 -1.513362E-04  3.646922E-06 -6.231980E-07  4.588292E-08
      3269   1  4.589284E-04 -1.514525E-04 -1.513617E-04  3.135425E-06 -1.347991E-06  2.899110E-08
      3270   1  4.589466E-04 -1.514961E-04 -1.514069E-04  2.938197E-06 -1.371622E-06  5.437207E-09
      3271   1  4.589299E-04 -1.514566E-04 -1.513853E-04  2.809347E-06 -1.070329E-06  6.875637E-09
      3272   1  4.589446E-04 -1.514827E-04 -1.514220E-04  2.746724E-06 -5.772163E-07  9.117030E-10
      3273   1  4.589303E-04 -1.514579E-04 -1.513894E-04  2.724455E-06 -2.894199E-14 -5.369681E-17
      3274   1  4.589446E-04 -1.514827E-04 -1.514220E-04  2.746724E-06  5.772162E-07 -9.117029E-10
      3275   1  4.589299E-04 -1.514566E-04 -1.513853E-04  2.809347E-06  1.070329E-06 -6.875638E-09
      3276   1  4.589466E-04 -1.514961E-04 -1.514069E-04  2.938197E-06  1.371622E-06 -5.437207E-09
      3277   1  4.589284E-04 -1.514525E-04 -1.513617E-04  3.135425E-06  1.347991E-06 -2.899110E-08
      3278   1  4.589513E-04 -1.515410E-04 -1.513362E-04  3.646922E-06  6.231980E-07 -4.588293E-08
      3279   1  3.671610E-04 -1.211691E-04 -1.212257E-04  9.934193E-06 -2.308640E-07 -2.998970E-08
      3280   1  3.671422E-04 -1.211425E-04 -1.211352E-04  8.856383E-06 -6.335276E-07  2.955455E-08
      3281   1  3.671579E-04 -1.211674E-04 -1.211480E-04  8.267228E-06 -7.734733E-07  2.118915E-08
      3282   1  3.671434E-04 -1.211760E-04 -1.211093E-04  7.925203E-06 -6.408233E-07  6.337750E-09
      3283   1  3.671562E-04 -1.211678E-04 -1.211473E-04  7.736823E-06 -3.577039E-07  5.233408E-09
      3284   1  3.671437E-04 -1.211796E-04 -1.211070E-04  7.679245E-06 -2.141537E-14  1.168694E-16
      3285   1  3.671562E-04 -1.211678E-04 -1.211473E-04  7.736823E-06  3.577039E-07 -5.233408E-09
      3286   1  3.671434E-04 -1.211760E-04 -1.211093E-04  7.925203E-06  6.408233E-07 -6.337749E-09
      3287   1  3.671579E-04 -1.211674E-04 -1.211480E-04  8.267228E-06  7.734733E-07 -2.118915E-08
      3288   1  3.671422E-04 -1.211425E-04 -1.211352E-04  8.856383E-06  6.335276E-07 -2.955455E-08
      3289   1  3.671610E-04 -1.211691E-04 -1.212257E-04  9.934193E-06  2.308640E-07  2.998970E-08
      3290   1  2.753719E-04 -9.091238E-05 -9.083915E-05  1.451926E-05 -1.260154E-07  3.218043E-09
      3291   1  2.753571E-04 -9.087024E-05 -9.086610E-05  1.331849E-05 -3.183234E-07 -3.203628E-08
      3292   1  2.753689E-04 -9.085305E-05 -9.088971E-05  1.249320E-05 -4.053253E-07  1.302720E-08
      3293   1  2.753579E-04 -9.087494E-05 -9.083579E-05  1.198236E-05 -3.623675E-07  3.613397E-09
      3294   1  2.753677E-04 -9.087469E-05 -9.086872E-05  1.170103E-05 -2.066249E-07  2.904457E-09
      3295   1  2.753581E-04 -9.087604E-05 -9.083272E-05  1.160964E-05 -1.501186E-14 -3.285505E-16
      3296   1  2.753677E-04 -9.087469E-05 -9.086872E-05  1.170103E-05  2.066249E-07 -2.904456E-09
      3297   1  2.753579E-04 -9.087494E-05 -9.083579E-05  1.198236E-05  3.623675E-07 -3.613398E-09
      3298   1  2.753689E-04 -9.085305E-05 -9.088971E-05  1.249320E-05  4.053253E-07 -1.302720E-08
      3299   1  2.753571E-04 -9.087024E-05 -9.086610E-05  1.331849E-05  3.183234E-07  3.203628E-08
      3300   1  2.753719E-04 -9.091238E-05 -9.083915E-05  1.451926E-05  1.260154E-07 -3.218043E-09
      3301   1  1.835806E-04 -6.058670E-05 -6.060299E-05  1.772769E-05 -5.820881E-08 -1.265592E-08
      3302   1  1.835708E-04 -6.058622E-05 -6.055740E-05  1.645414E-05 -1.613839E-07  1.322060E-09
      3303   1  1.835789E-04 -6.057920E-05 -6.059060E-05  1.553685E-05 -2.063454E-07 -2.412985E-08
      3304   1  1.835714E-04 -6.056988E-05 -6.057214E-05  1.492272E-05 -1.868032E-07  4.032935E-09
      3305   1  1.835780E-04 -6.058272E-05 -6.057708E-05  1.457679E-05 -1.102213E-07 -3.557406E-09
      3306   1  1.835715E-04 -6.057830E-05 -6.056400E-05  1.446444E-05 -9.466961E-15  3.183459E-16
      3307   1  1.835780E-04 -6.058272E-05 -6.057708E-05  1.457679E-05  1.102213E-07  3.557406E-09
      3308   1  1.835714E-04 -6.056988E-05 -6.057214E-05  1.492272E-05  1.868032E-07 -4.032935E-09
      3309   1  1.835789E-04 -6.057920E-05 -6.059060E-05  1.553685E-05  2.063453E-07  2.412985E-08
      3310   1  1.835708E-04 -6.058622E-05 -6.055740E-05  1.645414E-05  1.613839E-07 -1.322060E-09
      3311   1  1.835806E-04 -6.058670E-05 -6.060299E-05  1.772769E-05  5.820881E-08  1.265592E-08
      3312   1  9.179080E-05 -3.030265E-05 -3.028282E-05  1.962134E-05 -2.566429E-08 -1.603800E-09
      3313   1  9.178580E-05 -3.029088E-05 -3.028864E-05  1.832297E-05 -6.640912E-08 -2.454731E-08
      3314   1  9.178976E-05 -3.028758E-05 -3.029442E-05  1.735604E-05 -8.687249E-08 -1.370910E-09
      3315   1  9.178602E-05 -3.029019E-05 -3.028244E-05  1.669740E-05 -7.935154E-08 -1.898074E-08
      3316   1  9.178933E-05 -3.028578E-05 -3.029546E-05  1.631507E-05 -4.662801E-08  4.960950E-10
      3317   1  9.178608E-05 -3.029159E-05 -3.027876E-05  1.619087E-05 -4.582889E-15 -2.100524E-16
      3318   1  9.178933E-05 -3.028578E-05 -3.029546E-05  1.631507E-05  4.662800E-08 -4.960945E-10
      3319   1  9.178602E-05 -3.029019E-05 -3.028244E-05  1.669740E-05  7.935153E-08  1.898074E-08
      3320   1  9.178976E-05 -3.028758E-05 -3.029442E-05  1.735604E-05  8.687248E-08  1.370910E-09
      3321   1  9.178580E-05 -3.029088E-05 -3.028864E-05  1.832297E-05  6.640911E-08  2.454731E-08
      3322   1  9.179080E-05 -3.030265E-05 -3.028282E-05  1.962134E-05  2.566429E-08  1.603800E-09
      3323   1  1.004729E-13 -3.318179E-14 -3.323082E-14  2.025500E-05 -2.017463E-17 -9.806367E-09
      3324   1  1.004395E-13 -3.299618E-14 -3.332471E-14  1.894585E-05 -6.972521E-17 -3.854657E-09
      3325   1  1.004335E-13 -3.312454E-14 -3.312357E-14  1.796726E-05 -9.661088E-17 -2.615391E-08
      3326   1  1.003990E-13 -3.317659E-14 -3.308902E-14  1.729234E-05 -8.574049E-17 -1.341845E-09
      3327   1  1.004030E-13 -3.311240E-14 -3.315063E-14  1.690130E-05 -5.520929E-17 -1.084255E-08
      3328   1  1.003619E-13 -3.318526E-14 -3.304901E-14  1.677197E-05 -2.619026E-18  2.344642E-16
      3329   1  1.003596E-13 -3.309679E-14 -3.313371E-14  1.690130E-05  4.777266E-17  1.084255E-08
      3330   1  1.003346E-13 -3.317138E-14 -3.306085E-14  1.729234E-05  8.167769E-17  1.341845E-09
      3331   1  1.003229E-13 -3.306556E-14 -3.309334E-14  1.796726E-05  9.606201E-17  2.615391E-08
      3332   1  1.002991E-13 -3.295975E-14 -3.327397E-14  1.894585E-05  6.849955E-17  3.854657E-09
      3333   1  1.003026E-13 -3.313322E-14 -3.317572E-14  2.025500E-05  1.993407E-17  9.806367E-09
      3334   1 -9.179080E-05  3.030265E-05  3.028282E-05  1.962134E-05  2.566429E-08 -1.603800E-09
      3335   1 -9.178580E-05  3.029088E-05  3.028864E-05  1.832297E-05  6.640912E-08 -2.454731E-08
      3336   1 -9.178976E-05  3.028758E-05  3.029442E-05  1.735604E-05  8.687249E-08 -1.370910E-09
      3337   1 -9.178602E-05  3.029019E-05  3.028244E-05  1.669740E-05  7.935154E-08 -1.898074E-08
      3338   1 -9.178933E-05  3.028578E-05  3.029546E-05  1.631507E-05  4.662801E-08  4.960950E-10
      3339   1 -9.178608E-05  3.029159E-05  3.027876E-05  1.619087E-05  4.582693E-15 -1.923874E-16
      3340   1 -9.178933E-05  3.028578E-05  3.029546E-05  1.631507E-05 -4.662800E-08 -4.960945E-10
      3341   1 -9.178602E-05  3.029019E-05  3.028244E-05  1.669740E-05 -7.935153E-08  1.898074E-08
      3342   1 -9.178976E-05  3.028758E-05  3.029442E-05  1.735604E-05 -8.687248E-08  1.370910E-09
      3343   1 -9.178580E-05  3.029088E-05  3.028864E-05  1.832297E-05 -6.640911E-08  2.454731E-08
      3344   1 -9.179080E-05  3.030265E-05  3.028282E-05  1.962134E-05 -2.566429E-08  1.603800E-09
      3345   1 -1.835806E-04  6.058670E-05  6.060299E-05  1.772769E-05  5.820881E-08 -1.265592E-08
      3346   1 -1.835708E-04  6.058622E-05  6.055740E-05  1.645414E-05  1.613839E-07  1.322060E-09
      3347   1 -1.835789E-04  6.057920E-05  6.059060E-05  1.553685E-05  2.063454E-07 -2.412985E-08
      3348   1 -1.835714E-04  6.056988E-05  6.057214E-05  1.492272E-05  1.868032E-07  4.032935E-09
      3349   1 -1.835780E-04  6.058272E-05  6.057708E-05  1.457679E-05  1.102213E-07 -3.557406E-09
      3350   1 -1.835715E-04  6.057830E-05  6.056400E-05  1.446444E-05  9.465940E-15  3.112855E-16
      3351   1 -1.835780E-04  6.058272E-05  6.057708E-05  1.457679E-05 -1.102213E-07  3.557406E-09
      3352   1 -1.835714E-04  6.056988E-05  6.057214E-05  1.492272E-05 -1.868032E-07 -4.032935E-09
      3353   1 -1.835789E-04  6.057920E-05  6.059060E-05  1.553685E-05 -2.063453E-07  2.412985E-08
      3354   1 -1.835708E-04  6.058622E-05  6.055740E-05  1.645414E-05 -1.613839E-07 -1.322060E-09
      3355   1 -1.835806E-04  6.058670E-05  6.060299E-05  1.772769E-05 -5.820880E-08  1.265592E-08
      3356   1 -2.753719E-04  9.091238E-05  9.083915E-05  1.451926E-05  1.260154E-07  3.218043E-09
      3357   1 -2.753571E-04  9.087024E-05  9.086610E-05  1.331849E-05  3.183234E-07 -3.203628E-08
      3358   1 -2.753689E-04  9.085305E-05  9.088971E-05  1.249320E-05  4.053253E-07  1.302720E-08
      3359   1 -2.753579E-04  9.087494E-05  9.083579E-05  1.198236E-05  3.623675E-07  3.613397E-09
      3360   1 -2.753677E-04  9.087469E-05  9.086872E-05  1.170103E-05  2.066249E-07  2.904457E-09
      3361   1 -2.753581E-04  9.087604E-05  9.083272E-05  1.160964E-05  1.501113E-14 -3.022967E-16
      3362   1 -2.753677E-04  9.087469E-05  9.086872E-05  1.170103E-05 -2.066249E-07 -2.904456E-09
      3363   1 -2.753579E-04  9.087494E-05  9.083579E-05  1.198236E-05 -3.623675E-07 -3.613398E-09
      3364   1 -2.753689E-04  9.085305E-05  9.088971E-05  1.249320E-05 -4.053252E-07 -1.302720E-08
      3365   1 -2.753571E-04  9.087024E-05  9.086610E-05  1.331849E-05 -3.183234E-07  3.203628E-08
      3366   1 -2.753719E-04  9.091238E-05  9.083915E-05  1.451926E-05 -1.260154E-07 -3.218044E-09
      3367   1 -3.671610E-04  1.211691E-04  1.212257E-04  9.934193E-06  2.308640E-07 -2.998970E-08
      3368   1 -3.671422E-04  1.211425E-04  1.211352E-04  8.856383E-06  6.335276E-07  2.955455E-08
      3369   1 -3.671579E-04  1.211674E-04  1.211480E-04  8.267228E-06  7.734733E-07  2.118915E-08
      3370   1 -3.671434E-04  1.211760E-04  1.211093E-04  7.925203E-06  6.408233E-07  6.337750E-09
      3371   1 -3.671562E-04  1.211678E-04  1.211473E-04  7.736823E-06  3.577039E-07  5.233408E-09
      3372   1 -3.671437E-04  1.211796E-04  1.211070E-04  7.679245E-06  2.141375E-14  1.140886E-16
      3373   1 -3.671562E-04  1.211678E-04  1.211473E-04  7.736823E-06 -3.577039E-07 -5.233408E-09
      3374   1 -3.671434E-04  1.211760E-04  1.211093E-04  7.925203E-06 -6.408233E-07 -6.337749E-09
      3375   1 -3.671579E-04  1.211674E-04  1.211480E-04  8.267228E-06 -7.734733E-07 -2.118915E-08
      3376   1 -3.671422E-04  1.211425E-04  1.211352E-04  8.856383E-06 -6.335276E-07 -2.955455E-08
      3377   1 -3.671610E-04  1.211691E-04  1.212257E-04  9.934193E-06 -2.308640E-07  2.998970E-08
      3378   1 -4.589513E-04  1.515410E-04  1.513362E-04  3.646922E-06  6.231980E-07  4.588292E-08
      3379   1 -4.589284E-04  1.514525E-04  1.513617E-04  3.135425E-06  1.347991E-06  2.899110E-08
      3380   1 -4.589466E-04  1.514961E-04  1.514069E-04  2.938197E-06  1.371622E-06  5.437207E-09
      3381   1 -4.589299E-04  1.514566E-04  1.513853E-04  2.809347E-06  1.070329E-06  6.875637E-09
      3382   1 -4.589446E-04  1.514827E-04  1.514220E-04  2.746724E-06  5.772163E-07  9.117029E-10
      3383   1 -4.589303E-04  1.514579E-04  1.513894E-04  2.724455E-06  2.894084E-14 -4.195693E-17
      3384   1 -4.589446E-04  1.514827E-04  1.514220E-04  2.746724E-06 -5.772162E-07 -9.117029E-10
      3385   1 -4.589299E-04  1.514566E-04  1.513853E-04  2.809347E-06 -1.070329E-06 -6.875638E-09
      3386   1 -4.589466E-04  1.514961E-04  1.514069E-04  2.938197E-06 -1.371622E-06 -5.437207E-09
      3387   1 -4.589284E-04  1.514525E-04  1.513617E-04  3.135425E-06 -1.347991E-06 -2.899110E-08
      3388   1 -4.589513E-04  1.515410E-04  1.513362E-04  3.646922E-06 -6.231980E-07 -4.588293E-08
      3389   1  4.543848E-04 -1.500393E-04 -1.497914E-04  3.648961E-06 -6.234989E-07  4.649344E-08
      3390   1  4.544029E-04 -1.499543E-04 -1.499067E-04  3.134563E-06 -1.347378E-06  2.808264E-08
      3391   1  4.543875E-04 -1.499971E-04 -1.498659E-04  2.939152E-06 -1.372573E-06  5.760713E-09
      3392   1  4.544005E-04 -1.499582E-04 -1.499272E-04  2.808986E-06 -1.069683E-06  6.554223E-09
      3393   1  4.543882E-04 -1.499839E-04 -1.498825E-04  2.747452E-06 -5.776515E-07  1.004595E-09
      3394   1  4.543998E-04 -1.499595E-04 -1.499306E-04  2.724235E-06 -2.892836E-14 -5.058481E-17
      3395   1  4.543882E-04 -1.499839E-04 -1.498825E-04  2.747452E-06  5.776514E-07 -1.004595E-09
      3396   1  4.544005E-04 -1.499582E-04 -1.499272E-04  2.808986E-06  1.069683E-06 -6.554223E-09
      3397   1  4.543875E-04 -1.499971E-04 -1.498659E-04  2.939152E-06  1.372573E-06 -5.760713E-09
      3398   1  4.544029E-04 -1.499543E-04 -1.499067E-04  3.134563E-06  1.347378E-06 -2.808264E-08
      3399   1  4.543848E-04 -1.500393E-04 -1.497914E-04  3.648961E-06  6.234989E-07 -4.649344E-08
      3400   1  3.635079E-04 -1.199707E-04 -1.199859E-04  9.931678E-06 -2.313772E-07 -3.000105E-08
      3401   1  3.635228E-04 -1.199428E-04 -1.199731E-04  8.856109E-06 -6.327696E-07  2.922360E-08
      3402   1  3.635093E-04 -1.199674E-04 -1.199125E-04  8.266387E-06 -7.744414E-07  2.094876E-08
      3403   1  3.635207E-04 -1.199761E-04 -1.199453E-04  7.924683E-06 -6.402048E-07  6.209319E-09
      3404   1  3.635099E-04 -1.199679E-04 -1.199133E-04  7.736160E-06 -3.581197E-07  5.171079E-09
      3405   1  3.635201E-04 -1.199797E-04 -1.199423E-04  7.678670E-06 -2.140872E-14  1.141123E-16
      3406   1  3.635099E-04 -1.199679E-04 -1.199133E-04  7.736160E-06  3.581197E-07 -5.171080E-09
      3407   1  3.635207E-04 -1.199761E-04 -1.199453E-04  7.924683E-06  6.402048E-07 -6.209318E-09
      3408   1  3.635093E-04 -1.199674E-04 -1.199125E-04  8.266387E-06  7.744414E-07 -2.094876E-08
      3409   1  3.635228E-04 -1.199428E-04 -1.199731E-04  8.856109E-06  6.327696E-07 -2.922360E-08
      3410   1  3.635079E-04 -1.199707E-04 -1.199859E-04  9.931678E-06  2.313772E-07  3.000105E-08
      3411   1  2.726303E-04 -9.001084E-05 -8.990944E-05  1.452150E-05 -1.261626E-07  3.303524E-09
      3412   1  2.726419E-04 -8.997016E-05 -8.999493E-05  1.331986E-05 -3.179092E-07 -3.170646E-08
      3413   1  2.726318E-04 -8.995343E-05 -8.996238E-05  1.249414E-05 -4.060095E-07  1.277395E-08
      3414   1  2.726404E-04 -8.997498E-05 -8.996316E-05  1.198383E-05 -3.619170E-07  3.544752E-09
      3415   1  2.726322E-04 -8.997478E-05 -8.994267E-05  1.170217E-05 -2.069359E-07  2.822959E-09
      3416   1  2.726399E-04 -8.997610E-05 -8.995963E-05  1.161118E-05 -1.500844E-14 -3.246914E-16
      3417   1  2.726322E-04 -8.997478E-05 -8.994267E-05  1.170217E-05  2.069359E-07 -2.822958E-09
      3418   1  2.726404E-04 -8.997498E-05 -8.996316E-05  1.198383E-05  3.619169E-07 -3.544752E-09
      3419   1  2.726318E-04 -8.995343E-05 -8.996238E-05  1.249414E-05  4.060095E-07 -1.277395E-08
      3420   1  2.726419E-04 -8.997016E-05 -8.999493E-05  1.331986E-05  3.179092E-07  3.170646E-08
      3421   1  2.726303E-04 -9.001084E-05 -8.990944E-05  1.452150E-05  1.261626E-07 -3.303525E-09
      3422   1  1.817540E-04 -5.998782E-05 -5.998261E-05  1.772432E-05 -5.847129E-08 -1.266134E-08
      3423   1  1.817617E-04 -5.998676E-05 -5.997701E-05  1.645240E-05 -1.610459E-07  1.162878E-09
      3424   1  1.817548E-04 -5.997965E-05 -5.997220E-05  1.553514E-05 -2.068049E-07 -2.396854E-08
      3425   1  1.817606E-04 -5.997054E-05 -5.999042E-05  1.492125E-05 -1.865244E-07  3.924768E-09
      3426   1  1.817551E-04 -5.998327E-05 -5.995955E-05  1.457506E-05 -1.104216E-07 -3.563341E-09
      3427   1  1.817602E-04 -5.997890E-05 -5.998203E-05  1.446298E-05 -9.462438E-15  3.188795E-16
      3428   1  1.817551E-04 -5.998327E-05 -5.995955E-05  1.457506E-05  1.104216E-07  3.563341E-09
      3429   1  1.817606E-04 -5.997054E-05 -5.999042E-05  1.492125E-05  1.865244E-07 -3.924767E-09
      3430   1  1.817548E-04 -5.997965E-05 -5.997220E-05  1.553514E-05  2.068048E-07  2.396854E-08
      3431   1  1.817617E-04 -5.998676E-05 -5.997701E-05  1.645240E-05  1.610459E-07 -1.162878E-09
      3432   1  1.817540E-04 -5.998782E-05 -5.998261E-05  1.772432E-05  5.847128E-08  1.266134E-08
      3433   1  9.087672E-05 -3.000201E-05 -2.997272E-05  1.962415E-05 -2.571592E-08 -1.572505E-09
      3434   1  9.088064E-05 -2.999066E-05 -2.999841E-05  1.832529E-05 -6.626057E-08 -2.430474E-08
      3435   1  9.087721E-05 -2.998751E-05 -2.998518E-05  1.735769E-05 -8.711519E-08 -1.486911E-09
      3436   1  9.088013E-05 -2.999006E-05 -2.999168E-05  1.669962E-05 -7.919482E-08 -1.886995E-08
      3437   1  9.087732E-05 -2.998569E-05 -2.998656E-05  1.631707E-05 -4.673608E-08  4.389127E-10
      3438   1  9.087995E-05 -2.999145E-05 -2.998788E-05  1.619320E-05 -4.577156E-15 -2.068836E-16
      3439   1  9.087732E-05 -2.998569E-05 -2.998656E-05  1.631707E-05  4.673607E-08 -4.389122E-10
      3440   1  9.088013E-05 -2.999006E-05 -2.999168E-05  1.669962E-05  7.919482E-08  1.886995E-08
      3441   1  9.087721E-05 -2.998751E-05 -2.998518E-05  1.735769E-05  8.711518E-08  1.486911E-09
      3442   1  9.088064E-05 -2.999066E-05 -2.999841E-05  1.832529E-05  6.626057E-08  2.430474E-08
      3443   1  9.087672E-05 -3.000201E-05 -2.997272E-05  1.962415E-05  2.571592E-08  1.572506E-09
      3444   1  9.946942E-14 -3.286781E-14 -3.286312E-14  2.025120E-05 -2.500272E-17 -9.804767E-09
      3445   1  9.945983E-14 -3.267872E-14 -3.302728E-14  1.894357E-05 -7.147179E-17 -3.976871E-09
      3446   1  9.943207E-14 -3.277413E-14 -3.276502E-14  1.796511E-05 -1.056911E-16 -2.599700E-08
      3447   1  9.941950E-14 -3.283832E-14 -3.279515E-14  1.729046E-05 -8.862252E-17 -1.395272E-09
      3448   1  9.938480E-14 -3.273423E-14 -3.278474E-14  1.689912E-05 -5.444675E-17 -1.078578E-08
      3449   1  9.938632E-14 -3.285740E-14 -3.276075E-14  1.677010E-05 -7.728117E-18  2.256389E-16
      3450   1  9.936019E-14 -3.278280E-14 -3.276428E-14  1.689912E-05  5.662458E-17  1.078578E-08
      3451   1  9.935531E-14 -3.282791E-14 -3.277470E-14  1.729046E-05  8.217321E-17  1.395272E-09
      3452   1  9.933173E-14 -3.277587E-14 -3.272555E-14  1.796511E-05  9.192256E-17  2.599700E-08
      3453   1  9.931877E-14 -3.263535E-14 -3.297901E-14  1.894357E-05  7.591787E-17  3.976871E-09
      3454   1  9.928207E-14 -3.279148E-14 -3.280516E-14  2.025120E-05  2.175350E-17  9.804766E-09
      3455   1 -9.087672E-05  3.000201E-05  2.997272E-05  1.962415E-05  2.571592E-08 -1.572506E-09
      3456   1 -9.088064E-05  2.999066E-05  2.999841E-05  1.832529E-05  6.626057E-08 -2.430474E-08
      3457   1 -9.087721E-05  2.998751E-05  2.998518E-05  1.735769E-05  8.711519E-08 -1.486911E-09
      3458   1 -9.088013E-05  2.999006E-05  2.999168E-05  1.669962E-05  7.919482E-08 -1.886995E-08
      3459   1 -9.087732E-05  2.998569E-05  2.998656E-05  1.631707E-05  4.673608E-08  4.389126E-10
      3460   1 -9.087995E-05  2.999145E-05  2.998788E-05  1.619320E-05  4.575578E-15 -1.954833E-16
      3461   1 -9.087732E-05  2.998569E-05  2.998656E-05  1.631707E-05 -4.673607E-08 -4.389122E-10
      3462   1 -9.088013E-05  2.999006E-05  2.999168E-05  1.669962E-05 -7.919482E-08  1.886995E-08
      3463   1 -9.087721E-05  2.998751E-05  2.998518E-05  1.735769E-05 -8.711518E-08  1.486911E-09
      3464   1 -9.088064E-05  2.999066E-05  2.999841E-05  1.832529E-05 -6.626057E-08  2.430474E-08
      3465   1 -9.087672E-05  3.000201E-05  2.997272E-05  1.962415E-05 -2.571592E-08  1.572506E-09
      3466   1 -1.817540E-04  5.998782E-05  5.998261E-05  1.772432E-05  5.847128E-08 -1.266134E-08
      3467   1 -1.817617E-04  5.998676E-05  5.997701E-05  1.645240E-05  1.610459E-07  1.162878E-09
      3468   1 -1.817548E-04  5.997965E-05  5.997220E-05  1.553514E-05  2.068049E-07 -2.396854E-08
      3469   1 -1.817606E-04  5.997054E-05  5.999042E-05  1.492125E-05  1.865244E-07  3.924768E-09
      3470   1 -1.817551E-04  5.998327E-05  5.995955E-05  1.457506E-05  1.104216E-07 -3.563341E-09
      3471   1 -1.817602E-04  5.997890E-05  5.998203E-05  1.446298E-05  9.459888E-15  3.208705E-16
      3472   1 -1.817551E-04  5.998327E-05  5.995955E-05  1.457506E-05 -1.104216E-07  3.563341E-09
      3473   1 -1.817606E-04  5.997054E-05  5.999042E-05  1.492125E-05 -1.865244E-07 -3.924767E-09
      3474   1 -1.817548E-04  5.997965E-05  5.997220E-05  1.553514E-05 -2.068048E-07  2.396854E-08
      3475   1 -1.817617E-04  5.998676E-05  5.997701E-05  1.645240E-05 -1.610459E-07 -1.162879E-09
      3476   1 -1.817540E-04  5.998782E-05  5.998261E-05  1.772432E-05 -5.847128E-08  1.266134E-08
      3477   1 -2.726303E-04  9.001084E-05  8.990944E-05  1.452150E-05  1.261626E-07  3.303525E-09
      3478   1 -2.726419E-04  8.997016E-05  8.999492E-05  1.331986E-05  3.179092E-07 -3.170646E-08
      3479   1 -2.726318E-04  8.995343E-05  8.996238E-05  1.249414E-05  4.060095E-07  1.277395E-08
      3480   1 -2.726404E-04  8.997498E-05  8.996316E-05  1.198383E-05  3.619170E-07  3.544752E-09
      3481   1 -2.726322E-04  8.997478E-05  8.994267E-05  1.170217E-05  2.069359E-07  2.822959E-09
      3482   1 -2.726399E-04  8.997610E-05  8.995963E-05  1.161118E-05  1.500589E-14 -3.086181E-16
      3483   1 -2.726322E-04  8.997478E-05  8.994267E-05  1.170217E-05 -2.069359E-07 -2.822958E-09
      3484   1 -2.726404E-04  8.997498E-05  8.996316E-05  1.198383E-05 -3.619169E-07 -3.544752E-09
      3485   1 -2.726318E-04  8.995343E-05  8.996238E-05  1.249414E-05 -4.060095E-07 -1.277395E-08
      3486   1 -2.726419E-04  8.997016E-05  8.999492E-05  1.331986E-05 -3.179092E-07  3.170646E-08
      3487   1 -2.726303E-04  9.001084E-05  8.990944E-05  1.452150E-05 -1.261626E-07 -3.303525E-09
      3488   1 -3.635079E-04  1.199707E-04  1.199859E-04  9.931678E-06  2.313772E-07 -3.000105E-08
      3489   1 -3.635228E-04  1.199428E-04  1.199731E-04  8.856109E-06  6.327696E-07  2.922360E-08
      3490   1 -3.635093E-04  1.199674E-04  1.199125E-04  8.266387E-06  7.744414E-07  2.094876E-08
      3491   1 -3.635207E-04  1.199761E-04  1.199453E-04  7.924683E-06  6.402048E-07  6.209319E-09
      3492   1 -3.635099E-04  1.199679E-04  1.199133E-04  7.736160E-06  3.581197E-07  5.171079E-09
      3493   1 -3.635201E-04  1.199797E-04  1.199423E-04  7.678670E-06  2.140252E-14  1.158792E-16
      3494   1 -3.635099E-04  1.199679E-04  1.199133E-04  7.736160E-06 -3.581197E-07 -5.171080E-09
      3495   1 -3.635207E-04  1.199761E-04  1.199453E-04  7.924683E-06 -6.402048E-07 -6.209318E-09
      3496   1 -3.635093E-04  1.199674E-04  1.199125E-04  8.266387E-06 -7.744414E-07 -2.094876E-08
      3497   1 -3.635228E-04  1.199428E-04  1.199731E-04  8.856109E-06 -6.327696E-07 -2.922360E-08
      3498   1 -3.635079E-04  1.199707E-04  1.199859E-04  9.931678E-06 -2.313772E-07  3.000105E-08
      3499   1 -4.543848E-04  1.500393E-04  1.497914E-04  3.648961E-06  6.234989E-07  4.649344E-08
      3500   1 -4.544029E-04  1.499543E-04  1.499067E-04  3.134563E-06  1.347378E-06  2.808264E-08
      3501   1 -4.543875E-04  1.499971E-04  1.498659E-04  2.939152E-06  1.372573E-06  5.760713E-09
      3502   1 -4.544005E-04  1.499582E-04  1.499272E-04  2.808986E-06  1.069683E-06  6.554223E-09
      3503   1 -4.543882E-04  1.499839E-04  1.498825E-04  2.747452E-06  5.776515E-07  1.004595E-09
      3504   1 -4.543998E-04  1.499595E-04  1.499306E-04  2.724235E-06  2.892891E-14 -3.574310E-17
      3505   1 -4.543882E-04  1.499839E-04  1.498825E-04  2.747452E-06 -5.776514E-07 -1.004595E-09
      3506   1 -4.544005E-04  1.499582E-04  1.499272E-04  2.808986E-06 -1.069683E-06 -6.554223E-09
      3507   1 -4.543875E-04  1.499971E-04  1.498659E-04  2.939152E-06 -1.372573E-06 -5.760713E-09
      3508   1 -4.544029E-04  1.499543E-04  1.499067E-04  3.134563E-06 -1.347378E-06 -2.808264E-08
      3509   1 -4.543848E-04  1.500393E-04  1.497914E-04  3.648961E-06 -6.234989E-07 -4.649344E-08
      3510   1  4.498587E-04 -1.485397E-04 -1.483312E-04  3.647324E-06 -6.233071E-07  4.517024E-08
      3511   1  4.498437E-04 -1.484535E-04 -1.483720E-04  3.135304E-06 -1.348059E-06  2.828086E-08
      3512   1  4.498558E-04 -1.484962E-04 -1.484014E-04  2.938439E-06 -1.371953E-06  5.370693E-09
      3513   1  4.498448E-04 -1.484576E-04 -1.483947E-04  2.809364E-06 -1.070344E-06  6.666661E-09
      3514   1  4.498546E-04 -1.484832E-04 -1.484165E-04  2.746962E-06 -5.773589E-07  8.977564E-10
      3515   1  4.498451E-04 -1.484589E-04 -1.483986E-04  2.724518E-06 -2.893526E-14 -5.654961E-17
      3516   1  4.498546E-04 -1.484832E-04 -1.484165E-04  2.746962E-06  5.773588E-07 -8.977563E-10
      3517   1  4.498448E-04 -1.484576E-04 -1.483947E-04  2.809364E-06  1.070344E-06 -6.666662E-09
      3518   1  4.498558E-04 -1.484962E-04 -1.484014E-04  2.938439E-06  1.371953E-06 -5.370692E-09
      3519   1  4.498437E-04 -1.484535E-04 -1.483720E-04  3.135304E-06  1.348059E-06 -2.828086E-08
      3520   1  4.498587E-04 -1.485397E-04 -1.483312E-04  3.647324E-06  6.233070E-07 -4.517024E-08
      3521   1  3.598872E-04 -1.187701E-04 -1.188182E-04  9.933445E-06 -2.310397E-07 -2.948008E-08
      3522   1  3.598747E-04 -1.187437E-04 -1.187429E-04  8.856116E-06 -6.335398E-07  2.890033E-08
      3523   1  3.598853E-04 -1.187682E-04 -1.187428E-04  8.266919E-06 -7.738155E-07  2.068619E-08
      3524   1  3.598757E-04 -1.187767E-04 -1.187172E-04  7.925010E-06 -6.408342E-07  6.132160E-09
      3525   1  3.598843E-04 -1.187687E-04 -1.187424E-04  7.736638E-06 -3.578466E-07  5.088780E-09
      3526   1  3.598759E-04 -1.187803E-04 -1.187148E-04  7.679090E-06 -2.140816E-14  1.048440E-16
      3527   1  3.598843E-04 -1.187687E-04 -1.187424E-04  7.736638E-06  3.578466E-07 -5.088780E-09
      3528   1  3.598757E-04 -1.187767E-04 -1.187172E-04  7.925010E-06  6.408341E-07 -6.132159E-09
      3529   1  3.598853E-04 -1.187682E-04 -1.187428E-04  8.266919E-06  7.738155E-07 -2.068619E-08
      3530   1  3.598747E-04 -1.187437E-04 -1.187429E-04  8.856116E-06  6.335397E-07 -2.890033E-08
      3531   1  3.598872E-04 -1.187701E-04 -1.188182E-04  9.933445E-06  2.310396E-07  2.948008E-08
      3532   1  2.699159E-04 -8.911153E-05 -8.903501E-05  1.451978E-05 -1.260870E-07  3.134664E-09
      3533   1  2.699061E-04 -8.907047E-05 -8.907161E-05  1.331891E-05 -3.183837E-07 -3.149642E-08
      3534   1  2.699141E-04 -8.905374E-05 -8.908519E-05  1.249365E-05 -4.055843E-07  1.263039E-08
      3535   1  2.699067E-04 -8.907521E-05 -8.904166E-05  1.198300E-05 -3.623895E-07  3.438743E-09
      3536   1  2.699133E-04 -8.907500E-05 -8.906484E-05  1.170167E-05 -2.067368E-07  2.781886E-09
      3537   1  2.699069E-04 -8.907633E-05 -8.903858E-05  1.161038E-05 -1.501297E-14 -3.281804E-16
      3538   1  2.699133E-04 -8.907500E-05 -8.906484E-05  1.170167E-05  2.067368E-07 -2.781886E-09
      3539   1  2.699067E-04 -8.907521E-05 -8.904166E-05  1.198300E-05  3.623894E-07 -3.438743E-09
      3540   1  2.699141E-04 -8.905374E-05 -8.908519E-05  1.249365E-05  4.055843E-07 -1.263039E-08
      3541   1  2.699061E-04 -8.907047E-05 -8.907161E-05  1.331891E-05  3.183837E-07  3.149642E-08
      3542   1  2.699159E-04 -8.911153E-05 -8.903501E-05  1.451977E-05  1.260870E-07 -3.134664E-09
      3543   1  1.799437E-04 -5.938722E-05 -5.939934E-05  1.772645E-05 -5.830456E-08 -1.247838E-08
      3544   1  1.799372E-04 -5.938668E-05 -5.936151E-05  1.645332E-05 -1.614155E-07  1.143181E-09
      3545   1  1.799427E-04 -5.937981E-05 -5.938759E-05  1.553617E-05 -2.065247E-07 -2.380724E-08
      3546   1  1.799377E-04 -5.937074E-05 -5.937579E-05  1.492219E-05 -1.868281E-07  3.824227E-09
      3547   1  1.799421E-04 -5.938335E-05 -5.937450E-05  1.457627E-05 -1.102964E-07 -3.559801E-09
      3548   1  1.799378E-04 -5.937903E-05 -5.936777E-05  1.446399E-05 -9.474167E-15  3.014794E-16
      3549   1  1.799421E-04 -5.938335E-05 -5.937450E-05  1.457627E-05  1.102964E-07  3.559801E-09
      3550   1  1.799377E-04 -5.937074E-05 -5.937579E-05  1.492219E-05  1.868281E-07 -3.824226E-09
      3551   1  1.799427E-04 -5.937981E-05 -5.938759E-05  1.553617E-05  2.065247E-07  2.380724E-08
      3552   1  1.799372E-04 -5.938668E-05 -5.936151E-05  1.645332E-05  1.614155E-07 -1.143181E-09
      3553   1  1.799437E-04 -5.938722E-05 -5.939934E-05  1.772645E-05  5.830456E-08  1.247838E-08
      3554   1  8.997204E-05 -2.970234E-05 -2.968135E-05  1.962198E-05 -2.569044E-08 -1.632645E-09
      3555   1  8.996873E-05 -2.969088E-05 -2.969051E-05  1.832364E-05 -6.643129E-08 -2.419789E-08
      3556   1  8.997142E-05 -2.968768E-05 -2.969293E-05  1.735672E-05 -8.696661E-08 -1.526609E-09
      3557   1  8.996893E-05 -2.969026E-05 -2.968435E-05  1.669833E-05 -7.936090E-08 -1.874928E-08
      3558   1  8.997115E-05 -2.968594E-05 -2.969402E-05  1.631604E-05 -4.666793E-08  4.043722E-10
      3559   1  8.996898E-05 -2.969164E-05 -2.968072E-05  1.619193E-05 -4.578960E-15 -1.786025E-16
      3560   1  8.997115E-05 -2.968594E-05 -2.969402E-05  1.631604E-05  4.666792E-08 -4.043718E-10
      3561   1  8.996893E-05 -2.969026E-05 -2.968435E-05  1.669833E-05  7.936089E-08  1.874928E-08
      3562   1  8.997142E-05 -2.968768E-05 -2.969293E-05  1.735672E-05  8.696661E-08  1.526609E-09
      3563   1  8.996873E-05 -2.969088E-05 -2.969051E-05  1.832364E-05  6.643128E-08  2.419789E-08
      3564   1  8.997204E-05 -2.970234E-05 -2.968135E-05  1.962198E-05  2.569043E-08  1.632645E-09
      3565   1  9.848399E-14 -3.252086E-14 -3.257634E-14  2.025355E-05 -1.499248E-17 -9.684472E-09
      3566   1  9.845445E-14 -3.234392E-14 -3.267347E-14  1.894482E-05 -7.258988E-17 -3.953380E-09
      3567   1  9.844621E-14 -3.245321E-14 -3.246905E-14  1.796641E-05 -1.016660E-16 -2.581703E-08
      3568   1  9.842431E-14 -3.252260E-14 -3.243689E-14  1.729166E-05 -9.598366E-17 -1.459937E-09
      3569   1  9.841612E-14 -3.247576E-14 -3.247888E-14  1.690064E-05 -5.326757E-17 -1.071102E-08
      3570   1  9.839530E-14 -3.255382E-14 -3.239964E-14  1.677139E-05  3.317405E-18  2.418191E-16
      3571   1  9.838641E-14 -3.248790E-14 -3.247145E-14  1.690064E-05  5.142422E-17  1.071102E-08
      3572   1  9.834988E-14 -3.249311E-14 -3.241588E-14  1.729166E-05  8.035717E-17  1.459937E-09
      3573   1  9.834348E-14 -3.245147E-14 -3.242680E-14  1.796641E-05  1.025139E-16  2.581703E-08
      3574   1  9.831827E-14 -3.231790E-14 -3.261354E-14  1.894482E-05  6.435079E-17  3.953380E-09
      3575   1  9.831735E-14 -3.245494E-14 -3.253456E-14  2.025355E-05  1.491117E-17  9.684472E-09
      3576   1 -8.997204E-05  2.970234E-05  2.968135E-05  1.962198E-05  2.569044E-08 -1.632646E-09
      3577   1 -8.996873E-05  2.969087E-05  2.969051E-05  1.832364E-05  6.643129E-08 -2.419789E-08
      3578   1 -8.997142E-05  2.968768E-05  2.969293E-05  1.735672E-05  8.696661E-08 -1.526609E-09
      3579   1 -8.996893E-05  2.969026E-05  2.968435E-05  1.669833E-05  7.936090E-08 -1.874928E-08
      3580   1 -8.997115E-05  2.968594E-05  2.969402E-05  1.631604E-05  4.666793E-08  4.043722E-10
      3581   1 -8.996898E-05  2.969164E-05  2.968072E-05  1.619193E-05  4.572096E-15 -1.842009E-16
      3582   1 -8.997115E-05  2.968594E-05  2.969402E-05  1.631604E-05 -4.666792E-08 -4.043718E-10
      3583   1 -8.996893E-05  2.969026E-05  2.968435E-05  1.669833E-05 -7.936089E-08  1.874928E-08
      3584   1 -8.997142E-05  2.968768E-05  2.969293E-05  1.735672E-05 -8.696661E-08  1.526609E-09
      3585   1 -8.996873E-05  2.969087E-05  2.969051E-05  1.832364E-05 -6.643128E-08  2.419789E-08
      3586   1 -8.997204E-05  2.970234E-05  2.968135E-05  1.962198E-05 -2.569043E-08  1.632646E-09
      3587   1 -1.799437E-04  5.938722E-05  5.939934E-05  1.772645E-05  5.830456E-08 -1.247838E-08
      3588   1 -1.799372E-04  5.938668E-05  5.936151E-05  1.645332E-05  1.614155E-07  1.143181E-09
      3589   1 -1.799427E-04  5.937981E-05  5.938759E-05  1.553617E-05  2.065247E-07 -2.380724E-08
      3590   1 -1.799377E-04  5.937074E-05  5.937579E-05  1.492219E-05  1.868281E-07  3.824227E-09
      3591   1 -1.799421E-04  5.938335E-05  5.937450E-05  1.457627E-05  1.102964E-07 -3.559801E-09
      3592   1 -1.799378E-04  5.937903E-05  5.936777E-05  1.446399E-05  9.469262E-15  3.212135E-16
      3593   1 -1.799421E-04  5.938335E-05  5.937450E-05  1.457627E-05 -1.102964E-07  3.559801E-09
      3594   1 -1.799377E-04  5.937074E-05  5.937579E-05  1.492219E-05 -1.868281E-07 -3.824226E-09
      3595   1 -1.799427E-04  5.937981E-05  5.938759E-05  1.553617E-05 -2.065247E-07  2.380724E-08
      3596   1 -1.799372E-04  5.938668E-05  5.936151E-05  1.645332E-05 -1.614155E-07 -1.143181E-09
      3597   1 -1.799437E-04  5.938722E-05  5.939934E-05  1.772645E-05 -5.830456E-08  1.247838E-08
      3598   1 -2.699159E-04  8.911153E-05  8.903501E-05  1.451978E-05  1.260870E-07  3.134664E-09
      3599   1 -2.699061E-04  8.907047E-05  8.907161E-05  1.331891E-05  3.183837E-07 -3.149642E-08
      3600   1 -2.699141E-04  8.905374E-05  8.908519E-05  1.249365E-05  4.055843E-07  1.263039E-08
      3601   1 -2.699067E-04  8.907521E-05  8.904166E-05  1.198300E-05  3.623895E-07  3.438743E-09
      3602   1 -2.699133E-04  8.907500E-05  8.906484E-05  1.170167E-05  2.067368E-07  2.781886E-09
      3603   1 -2.699069E-04  8.907633E-05  8.903858E-05  1.161038E-05  1.500784E-14 -3.194568E-16
      3604   1 -2.699133E-04  8.907500E-05  8.906484E-05  1.170167E-05 -2.067368E-07 -2.781886E-09
      3605   1 -2.699067E-04  8.907521E-05  8.904166E-05  1.198300E-05 -3.623894E-07 -3.438743E-09
      3606   1 -2.699141E-04  8.905374E-05  8.908519E-05  1.249365E-05 -4.055843E-07 -1.263039E-08
      3607   1 -2.699061E-04  8.907047E-05  8.907161E-05  1.331891E-05 -3.183837E-07  3.149642E-08
      3608   1 -2.699159E-04  8.911153E-05  8.903501E-05  1.451977E-05 -1.260870E-07 -3.134665E-09
      3609   1 -3.598872E-04  1.187701E-04  1.188182E-04  9.933445E-06  2.310397E-07 -2.948008E-08
      3610   1 -3.598747E-04  1.187437E-04  1.187429E-04  8.856116E-06  6.335398E-07  2.890033E-08
      3611   1 -3.598853E-04  1.187682E-04  1.187428E-04  8.266919E-06  7.738155E-07  2.068619E-08
      3612   1 -3.598757E-04  1.187767E-04  1.187172E-04  7.925010E-06  6.408342E-07  6.132160E-09
      3613   1 -3.598843E-04  1.187687E-04  1.187424E-04  7.736638E-06  3.578466E-07  5.088780E-09
      3614   1 -3.598759E-04  1.187803E-04  1.187148E-04  7.679090E-06  2.141537E-14  1.173479E-16
      3615   1 -3.598843E-04  1.187687E-04  1.187424E-04  7.736638E-06 -3.578466E-07 -5.088780E-09
      3616   1 -3.598757E-04  1.187767E-04  1.187172E-04  7.925010E-06 -6.408341E-07 -6.132159E-09
      3617   1 -3.598853E-04  1.187682E-04  1.187428E-04  8.266919E-06 -7.738155E-07 -2.068619E-08
      3618   1 -3.598747E-04  1.187437E-04  1.187429E-04  8.856116E-06 -6.335397E-07 -2.890033E-08
      3619   1 -3.598872E-04  1.187701E-04  1.188182E-04  9.933445E-06 -2.310396E-07  2.948008E-08
      3620   1 -4.498587E-04  1.485397E-04  1.483312E-04  3.647324E-06  6.233071E-07  4.517024E-08
      3621   1 -4.498437E-04  1.484535E-04  1.483720E-04  3.135304E-06  1.348059E-06  2.828086E-08
      3622   1 -4.498558E-04  1.484962E-04  1.484014E-04  2.938439E-06  1.371953E-06  5.370693E-09
      3623   1 -4.498448E-04  1.484576E-04  1.483947E-04  2.809364E-06  1.070344E-06  6.666661E-09
      3624   1 -4.498546E-04  1.484832E-04  1.484165E-04  2.746962E-06  5.773589E-07  8.977564E-10
      3625   1 -4.498451E-04  1.484589E-04  1.483986E-04  2.724518E-06  2.894867E-14 -4.620057E-17
      3626   1 -4.498546E-04  1.484832E-04  1.484165E-04  2.746962E-06 -5.773588E-07 -8.977563E-10
      3627   1 -4.498448E-04  1.484576E-04  1.483947E-04  2.809364E-06 -1.070344E-06 -6.666662E-09
      3628   1 -4.498558E-04  1.484962E-04  1.484014E-04  2.938439E-06 -1.371953E-06 -5.370692E-09
      3629   1 -4.498437E-04  1.484535E-04  1.483720E-04  3.135304E-06 -1.348059E-06 -2.828086E-08
      3630   1 -4.498587E-04  1.485397E-04  1.483312E-04  3.647324E-06 -6.233070E-07 -4.517024E-08
      3631   1  4.453000E-04 -1.470387E-04 -1.468020E-04  3.648597E-06 -6.235333E-07  4.539739E-08
      3632   1  4.453121E-04 -1.469550E-04 -1.469023E-04  3.134653E-06 -1.347623E-06  2.759535E-08
      3633   1  4.453019E-04 -1.469971E-04 -1.468745E-04  2.938985E-06 -1.372613E-06  5.564212E-09
      3634   1  4.453107E-04 -1.469590E-04 -1.469229E-04  2.809037E-06 -1.069912E-06  6.437420E-09
      3635   1  4.453025E-04 -1.469843E-04 -1.468906E-04  2.747349E-06 -5.776624E-07  9.558657E-10
      3636   1  4.453102E-04 -1.469603E-04 -1.469263E-04  2.724281E-06 -2.892921E-14 -6.072887E-17
      3637   1  4.453025E-04 -1.469843E-04 -1.468906E-04  2.747349E-06  5.776623E-07 -9.558656E-10
      3638   1  4.453107E-04 -1.469590E-04 -1.469229E-04  2.809037E-06  1.069912E-06 -6.437421E-09
      3639   1  4.453019E-04 -1.469971E-04 -1.468745E-04  2.938985E-06  1.372613E-06 -5.564212E-09
      3640   1  4.453121E-04 -1.469550E-04 -1.469023E-04  3.134653E-06  1.347623E-06 -2.759535E-08
      3641   1  4.453000E-04 -1.470387E-04 -1.468020E-04  3.648597E-06  6.235333E-07 -4.539739E-08
      3642   1  3.562399E-04 -1.175709E-04 -1.175917E-04  9.932058E-06 -2.313596E-07 -2.937384E-08
      3643   1  3.562499E-04 -1.175438E-04 -1.175684E-04  8.856187E-06 -6.330368E-07  2.859059E-08
      3644   1  3.562410E-04 -1.175680E-04 -1.175194E-04  8.266606E-06 -7.744648E-07  2.046449E-08
      3645   1  3.562486E-04 -1.175765E-04 -1.175415E-04  7.924905E-06 -6.404293E-07  6.032668E-09
      3646   1  3.562415E-04 -1.175685E-04 -1.175199E-04  7.736441E-06 -3.581303E-07  5.033249E-09
      3647   1  3.562482E-04 -1.175801E-04 -1.175387E-04  7.678951E-06 -2.140846E-14  9.622040E-17
      3648   1  3.562415E-04 -1.175685E-04 -1.175199E-04  7.736441E-06  3.581302E-07 -5.033250E-09
      3649   1  3.562486E-04 -1.175765E-04 -1.175415E-04  7.924905E-06  6.404293E-07 -6.032667E-09
      3650   1  3.562410E-04 -1.175680E-04 -1.175194E-04  8.266606E-06  7.744648E-07 -2.046449E-08
      3651   1  3.562499E-04 -1.175438E-04 -1.175684E-04  8.856187E-06  6.330368E-07 -2.859060E-08
      3652   1  3.562399E-04 -1.175709E-04 -1.175917E-04  9.932058E-06  2.313596E-07  2.937384E-08
      3653   1  2.671796E-04 -8.821084E-05 -8.811542E-05  1.452087E-05 -1.262025E-07  3.184913E-09
      3654   1  2.671875E-04 -8.817085E-05 -8.819098E-05  1.331943E-05 -3.180957E-07 -3.116230E-08
      3655   1  2.671808E-04 -8.815446E-05 -8.816699E-05  1.249386E-05 -4.060502E-07  1.243354E-08
      3656   1  2.671866E-04 -8.817565E-05 -8.816017E-05  1.198355E-05 -3.620948E-07  3.389457E-09
      3657   1  2.671811E-04 -8.817547E-05 -8.814757E-05  1.170198E-05 -2.069510E-07  2.723484E-09
      3658   1  2.671863E-04 -8.817677E-05 -8.815681E-05  1.161095E-05 -1.501231E-14 -3.097523E-16
      3659   1  2.671811E-04 -8.817547E-05 -8.814757E-05  1.170198E-05  2.069509E-07 -2.723483E-09
      3660   1  2.671866E-04 -8.817565E-05 -8.816017E-05  1.198355E-05  3.620948E-07 -3.389458E-09
      3661   1  2.671808E-04 -8.815446E-05 -8.816699E-05  1.249386E-05  4.060502E-07 -1.243354E-08
      3662   1  2.671875E-04 -8.817085E-05 -8.819098E-05  1.331943E-05  3.180957E-07  3.116230E-08
      3663   1  2.671796E-04 -8.821084E-05 -8.811542E-05  1.452087E-05  1.262025E-07 -3.184913E-09
      3664   1  1.781199E-04 -5.878776E-05 -5.878575E-05  1.772480E-05 -5.846820E-08 -1.243595E-08
      3665   1  1.781251E-04 -5.878683E-05 -5.877474E-05  1.645272E-05 -1.611875E-07  1.050838E-09
      3666   1  1.781205E-04 -5.877992E-05 -5.877536E-05  1.553556E-05 -2.068383E-07 -2.360764E-08
      3667   1  1.781244E-04 -5.877101E-05 -5.878811E-05  1.492174E-05 -1.866441E-07  3.746922E-09
      3668   1  1.781207E-04 -5.878349E-05 -5.876289E-05  1.457565E-05 -1.104357E-07 -3.547663E-09
      3669   1  1.781242E-04 -5.877922E-05 -5.877995E-05  1.446355E-05 -9.472491E-15  3.170084E-16
      3670   1  1.781207E-04 -5.878349E-05 -5.876289E-05  1.457565E-05  1.104356E-07  3.547663E-09
      3671   1  1.781244E-04 -5.877101E-05 -5.878811E-05  1.492174E-05  1.866441E-07 -3.746921E-09
      3672   1  1.781205E-04 -5.877992E-05 -5.877536E-05  1.553556E-05  2.068383E-07  2.360764E-08
      3673   1  1.781251E-04 -5.878683E-05 -5.877474E-05  1.645272E-05  1.611875E-07 -1.050838E-09
      3674   1  1.781199E-04 -5.878776E-05 -5.878575E-05  1.772480E-05  5.846820E-08  1.243595E-08
      3675   1  8.905984E-05 -2.940207E-05 -2.937467E-05  1.962327E-05 -2.573104E-08 -1.592039E-09
      3676   1  8.906249E-05 -2.939090E-05 -2.939707E-05  1.832459E-05 -6.632949E-08 -2.394505E-08
      3677   1  8.906022E-05 -2.938782E-05 -2.938678E-05  1.735721E-05 -8.713168E-08 -1.582483E-09
      3678   1  8.906218E-05 -2.939034E-05 -2.939058E-05  1.669916E-05 -7.925935E-08 -1.860203E-08
      3679   1  8.906031E-05 -2.938607E-05 -2.938811E-05  1.631671E-05 -4.674258E-08  3.700620E-10
      3680   1  8.906208E-05 -2.939172E-05 -2.938689E-05  1.619281E-05 -4.586282E-15 -1.963375E-16
      3681   1  8.906031E-05 -2.938607E-05 -2.938811E-05  1.631671E-05  4.674257E-08 -3.700615E-10
      3682   1  8.906218E-05 -2.939034E-05 -2.939058E-05  1.669916E-05  7.925934E-08  1.860203E-08
      3683   1  8.906022E-05 -2.938782E-05 -2.938678E-05  1.735721E-05  8.713168E-08  1.582483E-09
      3684   1  8.906249E-05 -2.939090E-05 -2.939707E-05  1.832459E-05  6.632949E-08  2.394505E-08
      3685   1  8.905984E-05 -2.940207E-05 -2.937467E-05  1.962327E-05  2.573104E-08  1.592039E-09
      3686   1  9.748094E-14 -3.219820E-14 -3.222060E-14  2.025174E-05 -1.647310E-17 -9.650704E-09
      3687   1  9.747688E-14 -3.201085E-14 -3.238453E-14  1.894398E-05 -7.434154E-17 -4.002346E-09
      3688   1  9.743926E-14 -3.213922E-14 -3.210344E-14  1.796562E-05 -9.834476E-17 -2.561263E-08
      3689   1  9.742559E-14 -3.215657E-14 -3.214120E-14  1.729105E-05 -7.922469E-17 -1.483484E-09
      3690   1  9.740548E-14 -3.212187E-14 -3.212097E-14  1.689983E-05 -4.932739E-17 -1.063296E-08
      3691   1  9.739399E-14 -3.219300E-14 -3.209846E-14  1.677079E-05  2.566086E-18  2.367802E-16
      3692   1  9.736195E-14 -3.207677E-14 -3.211892E-14  1.689983E-05  4.523029E-17  1.063296E-08
      3693   1  9.735816E-14 -3.215657E-14 -3.211516E-14  1.729105E-05  9.032929E-17  1.483485E-09
      3694   1  9.733517E-14 -3.212014E-14 -3.206689E-14  1.796562E-05  9.415534E-17  2.561263E-08
      3695   1  9.733008E-14 -3.196055E-14 -3.232741E-14  1.894398E-05  7.136253E-17  4.002346E-09
      3696   1  9.729175E-14 -3.211320E-14 -3.215670E-14  2.025174E-05  2.501627E-17  9.650704E-09
      3697   1 -8.905984E-05  2.940207E-05  2.937467E-05  1.962327E-05  2.573104E-08 -1.592039E-09
      3698   1 -8.906249E-05  2.939090E-05  2.939707E-05  1.832459E-05  6.632949E-08 -2.394505E-08
      3699   1 -8.906021E-05  2.938782E-05  2.938678E-05  1.735721E-05  8.713168E-08 -1.582483E-09
      3700   1 -8.906218E-05  2.939034E-05  2.939058E-05  1.669916E-05  7.925935E-08 -1.860203E-08
      3701   1 -8.906031E-05  2.938607E-05  2.938811E-05  1.631671E-05  4.674258E-08  3.700620E-10
      3702   1 -8.906208E-05  2.939172E-05  2.938689E-05  1.619281E-05  4.584986E-15 -1.945995E-16
      3703   1 -8.906031E-05  2.938607E-05  2.938811E-05  1.631671E-05 -4.674257E-08 -3.700615E-10
      3704   1 -8.906218E-05  2.939034E-05  2.939058E-05  1.669916E-05 -7.925934E-08  1.860203E-08
      3705   1 -8.906021E-05  2.938782E-05  2.938678E-05  1.735721E-05 -8.713168E-08  1.582483E-09
      3706   1 -8.906249E-05  2.939090E-05  2.939707E-05  1.832459E-05 -6.632949E-08  2.394505E-08
      3707   1 -8.905984E-05  2.940207E-05  2.937467E-05  1.962327E-05 -2.573104E-08  1.592039E-09
      3708   1 -1.781199E-04  5.878776E-05  5.878575E-05  1.772480E-05  5.846820E-08 -1.243595E-08
      3709   1 -1.781251E-04  5.878683E-05  5.877474E-05  1.645272E-05  1.611875E-07  1.050838E-09
      3710   1 -1.781205E-04  5.877992E-05  5.877536E-05  1.553556E-05  2.068383E-07 -2.360764E-08
      3711   1 -1.781244E-04  5.877101E-05  5.878811E-05  1.492174E-05  1.866441E-07  3.746922E-09
      3712   1 -1.781207E-04  5.878349E-05  5.876289E-05  1.457565E-05  1.104357E-07 -3.547663E-09
      3713   1 -1.781242E-04  5.877922E-05  5.877995E-05  1.446355E-05  9.464981E-15  2.981556E-16
      3714   1 -1.781207E-04  5.878349E-05  5.876289E-05  1.457565E-05 -1.104356E-07  3.547663E-09
      3715   1 -1.781244E-04  5.877101E-05  5.878811E-05  1.492174E-05 -1.866441E-07 -3.746921E-09
      3716   1 -1.781205E-04  5.877992E-05  5.877536E-05  1.553556E-05 -2.068383E-07  2.360764E-08
      3717   1 -1.781251E-04  5.878683E-05  5.877474E-05  1.645272E-05 -1.611875E-07 -1.050838E-09
      3718   1 -1.781199E-04  5.878776E-05  5.878575E-05  1.772480E-05 -5.846820E-08  1.243595E-08
      3719   1 -2.671796E-04  8.821084E-05  8.811542E-05  1.452087E-05  1.262025E-07  3.184913E-09
      3720   1 -2.671875E-04  8.817085E-05  8.819098E-05  1.331943E-05  3.180957E-07 -3.116230E-08
      3721   1 -2.671808E-04  8.815446E-05  8.816699E-05  1.249386E-05  4.060502E-07  1.243354E-08
      3722   1 -2.671866E-04  8.817565E-05  8.816017E-05  1.198355E-05  3.620948E-07  3.389457E-09
      3723   1 -2.671811E-04  8.817547E-05  8.814757E-05  1.170198E-05  2.069510E-07  2.723484E-09
      3724   1 -2.671863E-04  8.817677E-05  8.815681E-05  1.161095E-05  1.501628E-14 -3.047421E-16
      3725   1 -2.671811E-04  8.817547E-05  8.814757E-05  1.170198E-05 -2.069509E-07 -2.723483E-09
      3726   1 -2.671866E-04  8.817565E-05  8.816017E-05  1.198355E-05 -3.620948E-07 -3.389458E-09
      3727   1 -2.671808E-04  8.815446E-05  8.816699E-05  1.249386E-05 -4.060502E-07 -1.243354E-08
      3728   1 -2.671875E-04  8.817085E-05  8.819098E-05  1.331943E-05 -3.180957E-07  3.116230E-08
      3729   1 -2.671796E-04  8.821084E-05  8.811542E-05  1.452087E-05 -1.262025E-07 -3.184913E-09
      3730   1 -3.562399E-04  1.175709E-04  1.175917E-04  9.932058E-06  2.313596E-07 -2.937384E-08
      3731   1 -3.562499E-04  1.175438E-04  1.175684E-04  8.856187E-06  6.330368E-07  2.859059E-08
      3732   1 -3.562410E-04  1.175680E-04  1.175194E-04  8.266606E-06  7.744648E-07  2.046449E-08
      3733   1 -3.562486E-04  1.175765E-04  1.175415E-04  7.924905E-06  6.404293E-07  6.032668E-09
      3734   1 -3.562415E-04  1.175685E-04  1.175199E-04  7.736441E-06  3.581303E-07  5.033249E-09
      3735   1 -3.562482E-04  1.175801E-04  1.175387E-04  7.678951E-06  2.140242E-14  1.100973E-16
      3736   1 -3.562415E-04  1.175685E-04  1.175199E-04  7.736441E-06 -3.581302E-07 -5.033250E-09
      3737   1 -3.562486E-04  1.175765E-04  1.175415E-04  7.924905E-06 -6.404293E-07 -6.032667E-09
      3738   1 -3.562410E-04  1.175680E-04  1.175194E-04  8.266606E-06 -7.744648E-07 -2.046449E-08
      3739   1 -3.562499E-04  1.175438E-04  1.175684E-04  8.856187E-06 -6.330368E-07 -2.859060E-08
      3740   1 -3.562399E-04  1.175709E-04  1.175917E-04  9.932058E-06 -2.313596E-07  2.937384E-08
      3741   1 -4.453000E-04  1.470387E-04  1.468020E-04  3.648597E-06  6.235333E-07  4.539739E-08
      3742   1 -4.453121E-04  1.469550E-04  1.469023E-04  3.134653E-06  1.347623E-06  2.759535E-08
      3743   1 -4.453019E-04  1.469971E-04  1.468745E-04  2.938985E-06  1.372613E-06  5.564212E-09
      3744   1 -4.453107E-04  1.469590E-04  1.469229E-04  2.809037E-06  1.069912E-06  6.437420E-09
      3745   1 -4.453025E-04  1.469843E-04  1.468906E-04  2.747349E-06  5.776624E-07  9.558657E-10
      3746   1 -4.453102E-04  1.469603E-04  1.469263E-04  2.724281E-06  2.892735E-14 -5.201121E-17
      3747   1 -4.453025E-04  1.469843E-04  1.468906E-04  2.747349E-06 -5.776623E-07 -9.558656E-10
      3748   1 -4.453107E-04  1.469590E-04  1.469229E-04  2.809037E-06 -1.069912E-06 -6.437421E-09
      3749   1 -4.453019E-04  1.469971E-04  1.468745E-04  2.938985E-06 -1.372613E-06 -5.564212E-09
      3750   1 -4.453121E-04  1.469550E-04  1.469023E-04  3.134653E-06 -1.347623E-06 -2.759535E-08
      3751   1 -4.453000E-04  1.470387E-04  1.468020E-04  3.648597E-06 -6.235333E-07 -4.539739E-08
      3752   1  4.407679E-04 -1.455387E-04 -1.453291E-04  3.647574E-06 -6.233815E-07  4.438242E-08
      3753   1  4.407579E-04 -1.454545E-04 -1.453796E-04  3.135201E-06 -1.348086E-06  2.762711E-08
      3754   1  4.407661E-04 -1.454964E-04 -1.453986E-04  2.938568E-06 -1.372178E-06  5.293906E-09
      3755   1  4.407588E-04 -1.454586E-04 -1.454016E-04  2.809340E-06 -1.070360E-06  6.489836E-09
      3756   1  4.407654E-04 -1.454837E-04 -1.454136E-04  2.747079E-06 -5.774619E-07  8.844398E-10
      3757   1  4.407590E-04 -1.454599E-04 -1.454054E-04  2.724521E-06 -2.893687E-14 -3.369328E-17
      3758   1  4.407654E-04 -1.454837E-04 -1.454136E-04  2.747079E-06  5.774618E-07 -8.844398E-10
      3759   1  4.407588E-04 -1.454586E-04 -1.454016E-04  2.809340E-06  1.070360E-06 -6.489837E-09
      3760   1  4.407661E-04 -1.454964E-04 -1.453986E-04  2.938568E-06  1.372178E-06 -5.293906E-09
      3761   1  4.407579E-04 -1.454545E-04 -1.453796E-04  3.135201E-06  1.348086E-06 -2.762711E-08
      3762   1  4.407679E-04 -1.455387E-04 -1.453291E-04  3.647574E-06  6.233815E-07 -4.438242E-08
      3763   1  3.526145E-04 -1.163708E-04 -1.164133E-04  9.933065E-06 -2.311419E-07 -2.893174E-08
      3764   1  3.526063E-04 -1.163448E-04 -1.163483E-04  8.856030E-06 -6.335394E-07  2.828470E-08
      3765   1  3.526134E-04 -1.163688E-04 -1.163398E-04  8.266787E-06 -7.740390E-07  2.022859E-08
      3766   1  3.526070E-04 -1.163772E-04 -1.163230E-04  7.924942E-06 -6.408489E-07  5.967361E-09
      3767   1  3.526127E-04 -1.163694E-04 -1.163397E-04  7.736569E-06 -3.579463E-07  4.965314E-09
      3768   1  3.526072E-04 -1.163808E-04 -1.163206E-04  7.679038E-06 -2.142063E-14  9.972288E-17
      3769   1  3.526127E-04 -1.163694E-04 -1.163397E-04  7.736569E-06  3.579463E-07 -4.965315E-09
      3770   1  3.526070E-04 -1.163772E-04 -1.163230E-04  7.924942E-06  6.408489E-07 -5.967361E-09
      3771   1  3.526134E-04 -1.163688E-04 -1.163398E-04  8.266787E-06  7.740389E-07 -2.022859E-08
      3772   1  3.526063E-04 -1.163448E-04 -1.163483E-04  8.856030E-06  6.335394E-07 -2.828470E-08
      3773   1  3.526145E-04 -1.163708E-04 -1.164133E-04  9.933065E-06  2.311419E-07  2.893174E-08
      3774   1  2.644611E-04 -8.731105E-05 -8.723280E-05  1.452004E-05 -1.261342E-07  3.067697E-09
      3775   1  2.644546E-04 -8.727095E-05 -8.727544E-05  1.331909E-05 -3.184129E-07 -3.090302E-08
      3776   1  2.644600E-04 -8.725461E-05 -8.728235E-05  1.249381E-05 -4.057554E-07  1.230521E-08
      3777   1  2.644551E-04 -8.727566E-05 -8.724595E-05  1.198327E-05 -3.624105E-07  3.316568E-09
      3778   1  2.644595E-04 -8.727547E-05 -8.726258E-05  1.170193E-05 -2.068158E-07  2.691093E-09
      3779   1  2.644552E-04 -8.727677E-05 -8.724290E-05  1.161069E-05 -1.501524E-14 -3.048539E-16
      3780   1  2.644595E-04 -8.727547E-05 -8.726258E-05  1.170193E-05  2.068158E-07 -2.691093E-09
      3781   1  2.644551E-04 -8.727566E-05 -8.724595E-05  1.198327E-05  3.624105E-07 -3.316568E-09
      3782   1  2.644600E-04 -8.725461E-05 -8.728235E-05  1.249381E-05  4.057554E-07 -1.230521E-08
      3783   1  2.644546E-04 -8.727095E-05 -8.727544E-05  1.331909E-05  3.184129E-07  3.090302E-08
      3784   1  2.644611E-04 -8.731105E-05 -8.723280E-05  1.452004E-05  1.261342E-07 -3.067697E-09
      3785   1  1.763073E-04 -5.818759E-05 -5.819698E-05  1.772587E-05 -5.836077E-08 -1.226434E-08
      3786   1  1.763030E-04 -5.818699E-05 -5.816448E-05  1.645298E-05 -1.614307E-07  1.044370E-09
      3787   1  1.763067E-04 -5.818026E-05 -5.818573E-05  1.553589E-05 -2.066438E-07 -2.340508E-08
      3788   1  1.763034E-04 -5.817140E-05 -5.817838E-05  1.492198E-05 -1.868489E-07  3.678541E-09
      3789   1  1.763064E-04 -5.818377E-05 -5.817301E-05  1.457606E-05 -1.103502E-07 -3.527328E-09
      3790   1  1.763035E-04 -5.817954E-05 -5.817050E-05  1.446382E-05 -9.467233E-15  3.021506E-16
      3791   1  1.763064E-04 -5.818377E-05 -5.817301E-05  1.457606E-05  1.103502E-07  3.527328E-09
      3792   1  1.763034E-04 -5.817140E-05 -5.817838E-05  1.492198E-05  1.868488E-07 -3.678540E-09
      3793   1  1.763067E-04 -5.818026E-05 -5.818573E-05  1.553589E-05  2.066438E-07  2.340508E-08
      3794   1  1.763030E-04 -5.818699E-05 -5.816448E-05  1.645298E-05  1.614307E-07 -1.044370E-09
      3795   1  1.763073E-04 -5.818759E-05 -5.819698E-05  1.772587E-05  5.836077E-08  1.226434E-08
      3796   1  8.815375E-05 -2.910219E-05 -2.908052E-05  1.962230E-05 -2.570776E-08 -1.625285E-09
      3797   1  8.815155E-05 -2.909099E-05 -2.909180E-05  1.832393E-05 -6.644287E-08 -2.377453E-08
      3798   1  8.815336E-05 -2.908789E-05 -2.909201E-05  1.735699E-05 -8.702927E-08 -1.590248E-09
      3799   1  8.815171E-05 -2.909041E-05 -2.908572E-05  1.669872E-05 -7.937004E-08 -1.844773E-08
      3800   1  8.815320E-05 -2.908618E-05 -2.909314E-05  1.631644E-05 -4.669647E-08  3.512419E-10
      3801   1  8.815175E-05 -2.909177E-05 -2.908216E-05  1.619239E-05 -4.581716E-15 -1.855987E-16
      3802   1  8.815320E-05 -2.908618E-05 -2.909314E-05  1.631644E-05  4.669646E-08 -3.512415E-10
      3803   1  8.815171E-05 -2.909041E-05 -2.908572E-05  1.669872E-05  7.937003E-08  1.844773E-08
      3804   1  8.815336E-05 -2.908789E-05 -2.909201E-05  1.735699E-05  8.702926E-08  1.590248E-09
      3805   1  8.815155E-05 -2.909099E-05 -2.909180E-05  1.832393E-05  6.644286E-08  2.377453E-08
      3806   1  8.815375E-05 -2.910219E-05 -2.908052E-05  1.962230E-05  2.570776E-08  1.625285E-09
      3807   1  9.648830E-14 -3.184258E-14 -3.192520E-14  2.025288E-05 -3.562959E-17 -9.526447E-09
      3808   1  9.645691E-14 -3.168299E-14 -3.201366E-14  1.894438E-05 -6.414157E-17 -3.961607E-09
      3809   1  9.647166E-14 -3.185646E-14 -3.180928E-14  1.796605E-05 -1.070040E-16 -2.538942E-08
      3810   1  9.644428E-14 -3.190677E-14 -3.177488E-14  1.729138E-05 -8.621101E-17 -1.508572E-09
      3811   1  9.643843E-14 -3.182350E-14 -3.183413E-14  1.690036E-05 -4.813932E-17 -1.054063E-08
      3812   1  9.640476E-14 -3.189810E-14 -3.173677E-14  1.677116E-05 -3.746956E-18  2.228400E-16
      3813   1  9.639891E-14 -3.180095E-14 -3.182493E-14  1.690036E-05  5.133486E-17  1.054062E-08
      3814   1  9.637652E-14 -3.189463E-14 -3.175465E-14  1.729138E-05  8.114491E-17  1.508573E-09
      3815   1  9.636877E-14 -3.182350E-14 -3.177065E-14  1.796605E-05  1.044874E-16  2.538942E-08
      3816   1  9.633646E-14 -3.166738E-14 -3.196883E-14  1.894438E-05  6.326828E-17  3.961607E-09
      3817   1  9.633640E-14 -3.184779E-14 -3.185162E-14  2.025288E-05  1.651037E-17  9.526447E-09
      3818   1 -8.815375E-05  2.910219E-05  2.908052E-05  1.962230E-05  2.570776E-08 -1.625285E-09
      3819   1 -8.815155E-05  2.909099E-05  2.909180E-05  1.832393E-05  6.644287E-08 -2.377453E-08
      3820   1 -8.815336E-05  2.908789E-05  2.909201E-05  1.735699E-05  8.702927E-08 -1.590248E-09
      3821   1 -8.815171E-05  2.909041E-05  2.908572E-05  1.669872E-05  7.937004E-08 -1.844773E-08
      3822   1 -8.815320E-05  2.908618E-05  2.909313E-05  1.631644E-05  4.669647E-08  3.512419E-10
      3823   1 -8.815175E-05  2.909177E-05  2.908216E-05  1.619239E-05  4.580382E-15 -2.142468E-16
      3824   1 -8.815320E-05  2.908618E-05  2.909313E-05  1.631644E-05 -4.669646E-08 -3.512415E-10
      3825   1 -8.815171E-05  2.909041E-05  2.908572E-05  1.669872E-05 -7.937003E-08  1.844773E-08
      3826   1 -8.815336E-05  2.908789E-05  2.909201E-05  1.735699E-05 -8.702926E-08  1.590248E-09
      3827   1 -8.815155E-05  2.909099E-05  2.909180E-05  1.832393E-05 -6.644286E-08  2.377453E-08
      3828   1 -8.815375E-05  2.910219E-05  2.908052E-05  1.962230E-05 -2.570776E-08  1.625285E-09
      3829   1 -1.763073E-04  5.818759E-05  5.819698E-05  1.772587E-05  5.836077E-08 -1.226434E-08
      3830   1 -1.763030E-04  5.818699E-05  5.816448E-05  1.645298E-05  1.614307E-07  1.044370E-09
      3831   1 -1.763067E-04  5.818026E-05  5.818573E-05  1.553589E-05  2.066438E-07 -2.340508E-08
      3832   1 -1.763034E-04  5.817140E-05  5.817838E-05  1.492198E-05  1.868489E-07  3.678540E-09
      3833   1 -1.763064E-04  5.818377E-05  5.817301E-05  1.457606E-05  1.103502E-07 -3.527328E-09
      3834   1 -1.763035E-04  5.817954E-05  5.817050E-05  1.446382E-05  9.471710E-15  3.000809E-16
      3835   1 -1.763064E-04  5.818377E-05  5.817301E-05  1.457606E-05 -1.103502E-07  3.527328E-09
      3836   1 -1.763034E-04  5.817140E-05  5.817838E-05  1.492198E-05 -1.868488E-07 -3.678540E-09
      3837   1 -1.763067E-04  5.818026E-05  5.818573E-05  1.553589E-05 -2.066438E-07  2.340508E-08
      3838   1 -1.763030E-04  5.818699E-05  5.816448E-05  1.645298E-05 -1.614307E-07 -1.044370E-09
      3839   1 -1.763073E-04  5.818759E-05  5.819698E-05  1.772587E-05 -5.836077E-08  1.226434E-08
      3840   1 -2.644611E-04  8.731105E-05  8.723280E-05  1.452004E-05  1.261342E-07  3.067697E-09
      3841   1 -2.644546E-04  8.727095E-05  8.727544E-05  1.331909E-05  3.184129E-07 -3.090302E-08
      3842   1 -2.644600E-04  8.725461E-05  8.728235E-05  1.249381E-05  4.057554E-07  1.230521E-08
      3843   1 -2.644551E-04  8.727566E-05  8.724595E-05  1.198327E-05  3.624105E-07  3.316568E-09
      3844   1 -2.644595E-04  8.727547E-05  8.726258E-05  1.170193E-05  2.068158E-07  2.691093E-09
      3845   1 -2.644552E-04  8.727677E-05  8.724290E-05  1.161069E-05  1.500935E-14 -3.230016E-16
      3846   1 -2.644595E-04  8.727547E-05  8.726258E-05  1.170193E-05 -2.068158E-07 -2.691093E-09
      3847   1 -2.644551E-04  8.727566E-05  8.724595E-05  1.198327E-05 -3.624105E-07 -3.316568E-09
      3848   1 -2.644600E-04  8.725461E-05  8.728235E-05  1.249381E-05 -4.057554E-07 -1.230521E-08
      3849   1 -2.644546E-04  8.727095E-05  8.727544E-05  1.331909E-05 -3.184129E-07  3.090302E-08
      3850   1 -2.644611E-04  8.731105E-05  8.723280E-05  1.452004E-05 -1.261342E-07 -3.067697E-09
      3851   1 -3.526145E-04  1.163708E-04  1.164133E-04  9.933065E-06  2.311419E-07 -2.893174E-08
      3852   1 -3.526063E-04  1.163448E-04  1.163483E-04  8.856030E-06  6.335394E-07  2.828470E-08
      3853   1 -3.526134E-04  1.163688E-04  1.163398E-04  8.266787E-06  7.740390E-07  2.022859E-08
      3854   1 -3.526070E-04  1.163772E-04  1.163230E-04  7.924942E-06  6.408489E-07  5.967361E-09
      3855   1 -3.526127E-04  1.163694E-04  1.163397E-04  7.736569E-06  3.579463E-07  4.965314E-09
      3856   1 -3.526072E-04  1.163808E-04  1.163206E-04  7.679038E-06  2.141458E-14  1.213764E-16
      3857   1 -3.526127E-04  1.163694E-04  1.163397E-04  7.736569E-06 -3.579463E-07 -4.965315E-09
      3858   1 -3.526070E-04  1.163772E-04  1.163230E-04  7.924942E-06 -6.408489E-07 -5.967361E-09
      3859   1 -3.526134E-04  1.163688E-04  1.163398E-04  8.266787E-06 -7.740389E-07 -2.022859E-08
      3860   1 -3.526063E-04  1.163448E-04  1.163483E-04  8.856030E-06 -6.335394E-07 -2.828470E-08
      3861   1 -3.526145E-04  1.163708E-04  1.164133E-04  9.933065E-06 -2.311419E-07  2.893174E-08
      3862   1 -4.407679E-04  1.455387E-04  1.453291E-04  3.647574E-06  6.233815E-07  4.438242E-08
      3863   1 -4.407579E-04  1.454545E-04  1.453796E-04  3.135201E-06  1.348086E-06  2.762711E-08
      3864   1 -4.407661E-04  1.454964E-04  1.453986E-04  2.938568E-06  1.372178E-06  5.293906E-09
      3865   1 -4.407588E-04  1.454586E-04  1.454016E-04  2.809340E-06  1.070360E-06  6.489836E-09
      3866   1 -4.407654E-04  1.454837E-04  1.454136E-04  2.747079E-06  5.774619E-07  8.844399E-10
      3867   1 -4.407590E-04  1.454599E-04  1.454054E-04  2.724521E-06  2.893155E-14 -4.953279E-17
      3868   1 -4.407654E-04  1.454837E-04  1.454136E-04  2.747079E-06 -5.774618E-07 -8.844397E-10
      3869   1 -4.407588E-04  1.454586E-04  1.454016E-04  2.809340E-06 -1.070360E-06 -6.489837E-09
      3870   1 -4.407661E-04  1.454964E-04  1.453986E-04  2.938568E-06 -1.372178E-06 -5.293906E-09
      3871   1 -4.407579E-04  1.454545E-04  1.453796E-04  3.135201E-06 -1.348086E-06 -2.762711E-08
      3872   1 -4.407679E-04  1.455387E-04  1.453291E-04  3.647574E-06 -6.233815E-07 -4.438242E-08
      3873   1  4.362142E-04 -1.440380E-04 -1.438104E-04  3.648382E-06 -6.235396E-07  4.436703E-08
      3874   1  4.362223E-04 -1.439558E-04 -1.439002E-04  3.134733E-06 -1.347772E-06  2.708333E-08
      3875   1  4.362156E-04 -1.439970E-04 -1.438811E-04  2.938892E-06 -1.372619E-06  5.403201E-09
      3876   1  4.362214E-04 -1.439598E-04 -1.439207E-04  2.809084E-06 -1.070057E-06  6.319181E-09
      3877   1  4.362160E-04 -1.439845E-04 -1.438967E-04  2.747293E-06 -5.776651E-07  9.202425E-10
      3878   1  4.362211E-04 -1.439611E-04 -1.439241E-04  2.724321E-06 -2.892835E-14 -2.659514E-17
      3879   1  4.362160E-04 -1.439845E-04 -1.438967E-04  2.747293E-06  5.776651E-07 -9.202424E-10
      3880   1  4.362214E-04 -1.439598E-04 -1.439207E-04  2.809084E-06  1.070057E-06 -6.319182E-09
      3881   1  4.362156E-04 -1.439970E-04 -1.438811E-04  2.938892E-06  1.372619E-06 -5.403200E-09
      3882   1  4.362223E-04 -1.439558E-04 -1.439002E-04  3.134733E-06  1.347772E-06 -2.708333E-08
      3883   1  4.362142E-04 -1.440380E-04 -1.438104E-04  3.648382E-06  6.235396E-07 -4.436703E-08
      3884   1  3.489712E-04 -1.151713E-04 -1.151955E-04  9.932277E-06 -2.313428E-07 -2.875371E-08
      3885   1  3.489779E-04 -1.151450E-04 -1.151655E-04  8.856193E-06 -6.331941E-07  2.798646E-08
      3886   1  3.489720E-04 -1.151686E-04 -1.151244E-04  8.266692E-06 -7.744643E-07  2.001730E-08
      3887   1  3.489771E-04 -1.151770E-04 -1.151394E-04  7.924981E-06 -6.405690E-07  5.886276E-09
      3888   1  3.489724E-04 -1.151692E-04 -1.151249E-04  7.736548E-06 -3.581335E-07  4.914104E-09
      3889   1  3.489769E-04 -1.151805E-04 -1.151368E-04  7.679055E-06 -2.140982E-14  1.200940E-16
      3890   1  3.489724E-04 -1.151692E-04 -1.151249E-04  7.736548E-06  3.581335E-07 -4.914104E-09
      3891   1  3.489771E-04 -1.151770E-04 -1.151394E-04  7.924981E-06  6.405689E-07 -5.886276E-09
      3892   1  3.489720E-04 -1.151686E-04 -1.151244E-04  8.266692E-06  7.744643E-07 -2.001730E-08
      3893   1  3.489779E-04 -1.151450E-04 -1.151655E-04  8.856193E-06  6.331941E-07 -2.798646E-08
      3894   1  3.489712E-04 -1.151713E-04 -1.151955E-04  9.932276E-06  2.313428E-07  2.875371E-08
      3895   1  2.617283E-04 -8.641070E-05 -8.631995E-05  1.452058E-05 -1.262168E-07  3.092813E-09
      3896   1  2.617335E-04 -8.637144E-05 -8.638847E-05  1.331926E-05 -3.182056E-07 -3.056757E-08
      3897   1  2.617291E-04 -8.635538E-05 -8.637025E-05  1.249377E-05 -4.060627E-07  1.214230E-08
      3898   1  2.617330E-04 -8.637616E-05 -8.635851E-05  1.198343E-05 -3.622052E-07  3.280047E-09
      3899   1  2.617293E-04 -8.637599E-05 -8.635117E-05  1.170193E-05 -2.069576E-07  2.647734E-09
      3900   1  2.617328E-04 -8.637728E-05 -8.635528E-05  1.161086E-05 -1.500197E-14 -3.060017E-16
      3901   1  2.617293E-04 -8.637599E-05 -8.635117E-05  1.170193E-05  2.069575E-07 -2.647733E-09
      3902   1  2.617330E-04 -8.637616E-05 -8.635851E-05  1.198343E-05  3.622051E-07 -3.280047E-09
      3903   1  2.617291E-04 -8.635538E-05 -8.637025E-05  1.249377E-05  4.060627E-07 -1.214230E-08
      3904   1  2.617335E-04 -8.637144E-05 -8.638847E-05  1.331926E-05  3.182056E-07  3.056757E-08
      3905   1  2.617283E-04 -8.641070E-05 -8.631995E-05  1.452058E-05  1.262168E-07 -3.092813E-09
      3906   1  1.744856E-04 -5.758788E-05 -5.758792E-05  1.772506E-05 -5.846274E-08 -1.219048E-08
      3907   1  1.744891E-04 -5.758704E-05 -5.757344E-05  1.645284E-05 -1.612707E-07  9.916800E-10
      3908   1  1.744860E-04 -5.758029E-05 -5.757761E-05  1.553573E-05 -2.068503E-07 -2.318082E-08
      3909   1  1.744886E-04 -5.757157E-05 -5.758668E-05  1.492192E-05 -1.867188E-07  3.623239E-09
      3910   1  1.744862E-04 -5.758381E-05 -5.756535E-05  1.457589E-05 -1.104426E-07 -3.502214E-09
      3911   1  1.744885E-04 -5.757962E-05 -5.757874E-05  1.446378E-05 -9.469884E-15  2.870247E-16
      3912   1  1.744862E-04 -5.758381E-05 -5.756535E-05  1.457589E-05  1.104425E-07  3.502213E-09
      3913   1  1.744886E-04 -5.757157E-05 -5.758668E-05  1.492192E-05  1.867187E-07 -3.623238E-09
      3914   1  1.744860E-04 -5.758029E-05 -5.757761E-05  1.553573E-05  2.068503E-07  2.318082E-08
      3915   1  1.744891E-04 -5.758704E-05 -5.757344E-05  1.645284E-05  1.612707E-07 -9.916801E-10
      3916   1  1.744856E-04 -5.758788E-05 -5.758792E-05  1.772506E-05  5.846273E-08  1.219048E-08
      3917   1  8.724274E-05 -2.880207E-05 -2.877614E-05  1.962288E-05 -2.573677E-08 -1.584580E-09
      3918   1  8.724452E-05 -2.879110E-05 -2.879621E-05  1.832429E-05 -6.637006E-08 -2.351525E-08
      3919   1  8.724301E-05 -2.878808E-05 -2.878793E-05  1.735703E-05 -8.713758E-08 -1.608267E-09
      3920   1  8.724433E-05 -2.879056E-05 -2.878994E-05  1.669897E-05 -7.929942E-08 -1.827528E-08
      3921   1  8.724309E-05 -2.878638E-05 -2.878921E-05  1.631657E-05 -4.674575E-08  3.331136E-10
      3922   1  8.724427E-05 -2.879192E-05 -2.878634E-05  1.619265E-05 -4.571847E-15 -1.897297E-16
      3923   1  8.724309E-05 -2.878638E-05 -2.878921E-05  1.631657E-05  4.674574E-08 -3.331132E-10
      3924   1  8.724433E-05 -2.879056E-05 -2.878994E-05  1.669897E-05  7.929941E-08  1.827528E-08
      3925   1  8.724301E-05 -2.878808E-05 -2.878793E-05  1.735703E-05  8.713757E-08  1.608267E-09
      3926   1  8.724452E-05 -2.879110E-05 -2.879621E-05  1.832429E-05  6.637006E-08  2.351525E-08
      3927   1  8.724274E-05 -2.880207E-05 -2.877614E-05  1.962288E-05  2.573677E-08  1.584580E-09
      3928   1  9.548617E-14 -3.151472E-14 -3.155844E-14  2.025202E-05 -1.537026E-17 -9.469369E-09
      3929   1  9.548194E-14 -3.136207E-14 -3.170887E-14  1.894414E-05 -7.141674E-17 -3.966393E-09
      3930   1  9.543749E-14 -3.146788E-14 -3.145222E-14  1.796582E-05 -8.783478E-17 -2.515336E-08
      3931   1  9.544389E-14 -3.153380E-14 -3.148663E-14  1.729127E-05 -8.974272E-17 -1.509362E-09
      3932   1  9.540676E-14 -3.144533E-14 -3.147016E-14  1.690012E-05 -5.031842E-17 -1.044679E-08
      3933   1  9.540410E-14 -3.153033E-14 -3.144493E-14  1.677106E-05 -1.094377E-17  2.147711E-16
      3934   1  9.537830E-14 -3.143319E-14 -3.146502E-14  1.690012E-05  5.138610E-17  1.044679E-08
      3935   1  9.537103E-14 -3.152340E-14 -3.145704E-14  1.729127E-05  8.373344E-17  1.509362E-09
      3936   1  9.533298E-14 -3.145227E-14 -3.140841E-14  1.796582E-05  9.302963E-17  2.515336E-08
      3937   1  9.532842E-14 -3.130655E-14 -3.167285E-14  1.894414E-05  6.851480E-17  3.966393E-09
      3938   1  9.530647E-14 -3.147829E-14 -3.148502E-14  2.025202E-05  3.237191E-17  9.469369E-09
      3939   1 -8.724274E-05  2.880207E-05  2.877614E-05  1.962288E-05  2.573677E-08 -1.584580E-09
      3940   1 -8.724452E-05  2.879110E-05  2.879621E-05  1.832429E-05  6.637006E-08 -2.351525E-08
      3941   1 -8.724301E-05  2.878808E-05  2.878793E-05  1.735703E-05  8.713758E-08 -1.608267E-09
      3942   1 -8.724433E-05  2.879056E-05  2.878994E-05  1.669897E-05  7.929942E-08 -1.827528E-08
      3943   1 -8.724309E-05  2.878638E-05  2.878921E-05  1.631657E-05  4.674575E-08  3.331136E-10
      3944   1 -8.724427E-05  2.879192E-05  2.878634E-05  1.619265E-05  4.577143E-15 -2.015752E-16
      3945   1 -8.724309E-05  2.878638E-05  2.878921E-05  1.631657E-05 -4.674574E-08 -3.331132E-10
      3946   1 -8.724433E-05  2.879056E-05  2.878994E-05  1.669897E-05 -7.929941E-08  1.827528E-08
      3947   1 -8.724301E-05  2.878808E-05  2.878793E-05  1.735703E-05 -8.713757E-08  1.608267E-09
      3948   1 -8.724452E-05  2.879110E-05  2.879621E-05  1.832429E-05 -6.637006E-08  2.351525E-08
      3949   1 -8.724274E-05  2.880207E-05  2.877614E-05  1.962288E-05 -2.573677E-08  1.584580E-09
      3950   1 -1.744856E-04  5.758788E-05  5.758792E-05  1.772506E-05  5.846274E-08 -1.219048E-08
      3951   1 -1.744891E-04  5.758703E-05  5.757344E-05  1.645284E-05  1.612707E-07  9.916801E-10
      3952   1 -1.744860E-04  5.758029E-05  5.757761E-05  1.553573E-05  2.068503E-07 -2.318082E-08
      3953   1 -1.744886E-04  5.757157E-05  5.758668E-05  1.492192E-05  1.867188E-07  3.623239E-09
      3954   1 -1.744862E-04  5.758381E-05  5.756535E-05  1.457589E-05  1.104426E-07 -3.502214E-09
      3955   1 -1.744885E-04  5.757962E-05  5.757874E-05  1.446378E-05  9.467247E-15  3.332473E-16
      3956   1 -1.744862E-04  5.758381E-05  5.756535E-05  1.457589E-05 -1.104425E-07  3.502213E-09
      3957   1 -1.744886E-04  5.757157E-05  5.758668E-05  1.492192E-05 -1.867187E-07 -3.623238E-09
      3958   1 -1.744860E-04  5.758029E-05  5.757761E-05  1.553573E-05 -2.068503E-07  2.318082E-08
      3959   1 -1.744891E-04  5.758703E-05  5.757344E-05  1.645284E-05 -1.612707E-07 -9.916801E-10
      3960   1 -1.744856E-04  5.758788E-05  5.758792E-05  1.772506E-05 -5.846273E-08  1.219048E-08
      3961   1 -2.617283E-04  8.641070E-05  8.631995E-05  1.452058E-05  1.262168E-07  3.092814E-09
      3962   1 -2.617335E-04  8.637144E-05  8.638847E-05  1.331926E-05  3.182056E-07 -3.056757E-08
      3963   1 -2.617291E-04  8.635538E-05  8.637025E-05  1.249377E-05  4.060627E-07  1.214230E-08
      3964   1 -2.617330E-04  8.637616E-05  8.635851E-05  1.198343E-05  3.622052E-07  3.280047E-09
      3965   1 -2.617293E-04  8.637599E-05  8.635117E-05  1.170193E-05  2.069576E-07  2.647734E-09
      3966   1 -2.617328E-04  8.637728E-05  8.635528E-05  1.161086E-05  1.500562E-14 -3.054121E-16
      3967   1 -2.617293E-04  8.637599E-05  8.635117E-05  1.170193E-05 -2.069575E-07 -2.647733E-09
      3968   1 -2.617330E-04  8.637616E-05  8.635851E-05  1.198343E-05 -3.622051E-07 -3.280047E-09
      3969   1 -2.617291E-04  8.635538E-05  8.637025E-05  1.249377E-05 -4.060627E-07 -1.214230E-08
      3970   1 -2.617335E-04  8.637144E-05  8.638847E-05  1.331926E-05 -3.182056E-07  3.056757E-08
      3971   1 -2.617283E-04  8.641070E-05  8.631995E-05  1.452058E-05 -1.262168E-07 -3.092814E-09
      3972   1 -3.489712E-04  1.151713E-04  1.151955E-04  9.932277E-06  2.313428E-07 -2.875371E-08
      3973   1 -3.489779E-04  1.151450E-04  1.151655E-04  8.856193E-06  6.331941E-07  2.798646E-08
      3974   1 -3.489720E-04  1.151686E-04  1.151244E-04  8.266692E-06  7.744643E-07  2.001730E-08
      3975   1 -3.489771E-04  1.151770E-04  1.151394E-04  7.924981E-06  6.405690E-07  5.886276E-09
      3976   1 -3.489724E-04  1.151692E-04  1.151249E-04  7.736548E-06  3.581335E-07  4.914104E-09
      3977   1 -3.489769E-04  1.151805E-04  1.151368E-04  7.679055E-06  2.141250E-14  1.151558E-16
      3978   1 -3.489724E-04  1.151692E-04  1.151249E-04  7.736548E-06 -3.581335E-07 -4.914104E-09
      3979   1 -3.489771E-04  1.151770E-04  1.151394E-04  7.924981E-06 -6.405689E-07 -5.886276E-09
      3980   1 -3.489720E-04  1.151686E-04  1.151244E-04  8.266692E-06 -7.744643E-07 -2.001730E-08
      3981   1 -3.489779E-04  1.151450E-04  1.151655E-04  8.856193E-06 -6.331941E-07 -2.798646E-08
      3982   1 -3.489712E-04  1.151713E-04  1.151955E-04  9.932276E-06 -2.313428E-07  2.875371E-08
      3983   1 -4.362142E-04  1.440380E-04  1.438104E-04  3.648382E-06  6.235396E-07  4.436703E-08
      3984   1 -4.362223E-04  1.439558E-04  1.439002E-04  3.134733E-06  1.347772E-06  2.708333E-08
      3985   1 -4.362156E-04  1.439970E-04  1.438811E-04  2.938892E-06  1.372619E-06  5.403201E-09
      3986   1 -4.362214E-04  1.439598E-04  1.439207E-04  2.809084E-06  1.070057E-06  6.319181E-09
      3987   1 -4.362160E-04  1.439845E-04  1.438967E-04  2.747293E-06  5.776651E-07  9.202425E-10
      3988   1 -4.362211E-04  1.439611E-04  1.439241E-04  2.724321E-06  2.892961E-14 -4.540435E-17
      3989   1 -4.362160E-04  1.439845E-04  1.438967E-04  2.747293E-06 -5.776651E-07 -9.202424E-10
      3990   1 -4.362214E-04  1.439598E-04  1.439207E-04  2.809084E-06 -1.070057E-06 -6.319182E-09
      3991   1 -4.362156E-04  1.439970E-04  1.438811E-04  2.938892E-06 -1.372619E-06 -5.403200E-09
      3992   1 -4.362223E-04  1.439558E-04  1.439002E-04  3.134733E-06 -1.347772E-06 -2.708333E-08
      3993   1 -4.362142E-04  1.440380E-04  1.438104E-04  3.648382E-06 -6.235396E-07 -4.436703E-08
      3994   1  4.316781E-04 -1.425378E-04 -1.423291E-04  3.647732E-06 -6.234265E-07  4.354741E-08
      3995   1  4.316715E-04 -1.424556E-04 -1.423855E-04  3.135122E-06 -1.348080E-06  2.700713E-08
      3996   1  4.316770E-04 -1.424965E-04 -1.423975E-04  2.938640E-06 -1.372311E-06  5.208875E-09
      3997   1  4.316722E-04 -1.424596E-04 -1.424068E-04  2.809307E-06 -1.070354E-06  6.332106E-09
      3998   1  4.316765E-04 -1.424841E-04 -1.424124E-04  2.747137E-06 -5.775245E-07  8.711507E-10
      3999   1  4.316723E-04 -1.424609E-04 -1.424105E-04  2.724502E-06 -2.893580E-14 -4.758123E-17
      4000   1  4.316765E-04 -1.424841E-04 -1.424124E-04  2.747137E-06  5.775244E-07 -8.711506E-10
      4001   1  4.316722E-04 -1.424596E-04 -1.424068E-04  2.809307E-06  1.070354E-06 -6.332107E-09
      4002   1  4.316770E-04 -1.424965E-04 -1.423975E-04  2.938640E-06  1.372311E-06 -5.208875E-09
      4003   1  4.316715E-04 -1.424556E-04 -1.423855E-04  3.135122E-06  1.348080E-06 -2.700712E-08
      4004   1  4.316781E-04 -1.425378E-04 -1.423291E-04  3.647732E-06  6.234265E-07 -4.354741E-08
      4005   1  3.453427E-04 -1.139714E-04 -1.140099E-04  9.932869E-06 -2.311984E-07 -2.836180E-08
      4006   1  3.453372E-04 -1.139459E-04 -1.139522E-04  8.856018E-06 -6.335201E-07  2.768901E-08
      4007   1  3.453420E-04 -1.139694E-04 -1.139383E-04  8.266735E-06 -7.741685E-07  1.979571E-08
      4008   1  3.453377E-04 -1.139776E-04 -1.139273E-04  7.924925E-06 -6.408438E-07  5.826408E-09
      4009   1  3.453416E-04 -1.139700E-04 -1.139383E-04  7.736548E-06 -3.580056E-07  4.854426E-09
      4010   1  3.453379E-04 -1.139811E-04 -1.139249E-04  7.679027E-06 -2.141537E-14  1.178672E-16
      4011   1  3.453416E-04 -1.139700E-04 -1.139383E-04  7.736548E-06  3.580056E-07 -4.854427E-09
      4012   1  3.453377E-04 -1.139776E-04 -1.139273E-04  7.924925E-06  6.408438E-07 -5.826407E-09
      4013   1  3.453420E-04 -1.139694E-04 -1.139383E-04  8.266735E-06  7.741685E-07 -1.979571E-08
      4014   1  3.453372E-04 -1.139459E-04 -1.139522E-04  8.856018E-06  6.335201E-07 -2.768901E-08
      4015   1  3.453427E-04 -1.139714E-04 -1.140099E-04  9.932869E-06  2.311984E-07  2.836180E-08
      4016   1  2.590071E-04 -8.551072E-05 -8.543184E-05  1.452017E-05 -1.261613E-07  3.007558E-09
      4017   1  2.590028E-04 -8.547154E-05 -8.547813E-05  1.331916E-05 -3.184141E-07 -3.028120E-08
      4018   1  2.590064E-04 -8.545556E-05 -8.548062E-05  1.249386E-05 -4.058540E-07  1.202099E-08
      4019   1  2.590032E-04 -8.547617E-05 -8.544915E-05  1.198337E-05 -3.624119E-07  3.226217E-09
      4020   1  2.590061E-04 -8.547599E-05 -8.546136E-05  1.170201E-05 -2.068625E-07  2.620105E-09
      4021   1  2.590033E-04 -8.547727E-05 -8.544614E-05  1.161081E-05 -1.501089E-14 -2.889543E-16
      4022   1  2.590061E-04 -8.547599E-05 -8.546136E-05  1.170201E-05  2.068625E-07 -2.620105E-09
      4023   1  2.590032E-04 -8.547617E-05 -8.544915E-05  1.198337E-05  3.624118E-07 -3.226217E-09
      4024   1  2.590064E-04 -8.545556E-05 -8.548062E-05  1.249386E-05  4.058540E-07 -1.202099E-08
      4025   1  2.590028E-04 -8.547154E-05 -8.547813E-05  1.331916E-05  3.184141E-07  3.028120E-08
      4026   1  2.590071E-04 -8.551072E-05 -8.543184E-05  1.452017E-05  1.261613E-07 -3.007559E-09
      4027   1  1.726714E-04 -5.698789E-05 -5.699547E-05  1.772561E-05 -5.839147E-08 -1.202999E-08
      4028   1  1.726685E-04 -5.698726E-05 -5.696668E-05  1.645286E-05 -1.614287E-07  9.901461E-10
      4029   1  1.726710E-04 -5.698066E-05 -5.698461E-05  1.553578E-05 -2.067122E-07 -2.295581E-08
      4030   1  1.726688E-04 -5.697200E-05 -5.698023E-05  1.492190E-05 -1.868533E-07  3.572765E-09
      4031   1  1.726708E-04 -5.698412E-05 -5.697223E-05  1.457598E-05 -1.103820E-07 -3.472139E-09
      4032   1  1.726689E-04 -5.697998E-05 -5.697249E-05  1.446377E-05 -9.472357E-15  2.814127E-16
      4033   1  1.726708E-04 -5.698412E-05 -5.697223E-05  1.457598E-05  1.103819E-07  3.472139E-09
      4034   1  1.726688E-04 -5.697200E-05 -5.698023E-05  1.492190E-05  1.868533E-07 -3.572765E-09
      4035   1  1.726710E-04 -5.698066E-05 -5.698461E-05  1.553578E-05  2.067122E-07  2.295581E-08
      4036   1  1.726685E-04 -5.698726E-05 -5.696668E-05  1.645286E-05  1.614287E-07 -9.901462E-10
      4037   1  1.726714E-04 -5.698789E-05 -5.699547E-05  1.772561E-05  5.839147E-08  1.202999E-08
      4038   1  8.633573E-05 -2.850210E-05 -2.848013E-05  1.962246E-05 -2.571764E-08 -1.599639E-09
      4039   1  8.633426E-05 -2.849116E-05 -2.849271E-05  1.832406E-05 -6.644407E-08 -2.330943E-08
      4040   1  8.633548E-05 -2.848813E-05 -2.849146E-05  1.735707E-05 -8.706520E-08 -1.598544E-09
      4041   1  8.633438E-05 -2.849060E-05 -2.848672E-05  1.669887E-05 -7.937154E-08 -1.810118E-08
      4042   1  8.633539E-05 -2.848646E-05 -2.849260E-05  1.631659E-05 -4.671330E-08  3.237706E-10
      4043   1  8.633442E-05 -2.849194E-05 -2.848323E-05  1.619256E-05 -4.591185E-15 -2.099762E-16
      4044   1  8.633539E-05 -2.848646E-05 -2.849260E-05  1.631659E-05  4.671329E-08 -3.237702E-10
      4045   1  8.633438E-05 -2.849060E-05 -2.848672E-05  1.669887E-05  7.937153E-08  1.810118E-08
      4046   1  8.633548E-05 -2.848813E-05 -2.849146E-05  1.735707E-05  8.706519E-08  1.598544E-09
      4047   1  8.633426E-05 -2.849116E-05 -2.849271E-05  1.832406E-05  6.644407E-08  2.330943E-08
      4048   1  8.633573E-05 -2.850210E-05 -2.848013E-05  1.962246E-05  2.571763E-08  1.599639E-09
      4049   1  9.451581E-14 -3.119206E-14 -3.128843E-14  2.025258E-05 -1.274446E-17 -9.347794E-09
      4050   1  9.448529E-14 -3.105155E-14 -3.134492E-14  1.894421E-05 -7.254160E-17 -3.918173E-09
      4051   1  9.449223E-14 -3.118512E-14 -3.115169E-14  1.796590E-05 -1.007436E-16 -2.490647E-08
      4052   1  9.445282E-14 -3.124584E-14 -3.113535E-14  1.729128E-05 -8.317864E-17 -1.511803E-09
      4053   1  9.444989E-14 -3.118165E-14 -3.117263E-14  1.690025E-05 -5.474469E-17 -1.034407E-08
      4054   1  9.441476E-14 -3.128053E-14 -3.108443E-14  1.677108E-05  3.286488E-18  2.141384E-16
      4055   1  9.441037E-14 -3.117472E-14 -3.117227E-14  1.690025E-05  5.231445E-17  1.034407E-08
      4056   1  9.437991E-14 -3.124064E-14 -3.109129E-14  1.729128E-05  8.730369E-17  1.511803E-09
      4057   1  9.438126E-14 -3.116951E-14 -3.112585E-14  1.796590E-05  9.237826E-17  2.490647E-08
      4058   1  9.435671E-14 -3.104114E-14 -3.129747E-14  1.894421E-05  7.109825E-17  3.918174E-09
      4059   1  9.434044E-14 -3.117298E-14 -3.119268E-14  2.025258E-05  1.026604E-17  9.347794E-09
      4060   1 -8.633573E-05  2.850210E-05  2.848013E-05  1.962246E-05  2.571764E-08 -1.599639E-09
      4061   1 -8.633426E-05  2.849116E-05  2.849271E-05  1.832406E-05  6.644407E-08 -2.330943E-08
      4062   1 -8.633548E-05  2.848813E-05  2.849146E-05  1.735707E-05  8.706520E-08 -1.598544E-09
      4063   1 -8.633438E-05  2.849060E-05  2.848672E-05  1.669887E-05  7.937154E-08 -1.810118E-08
      4064   1 -8.633539E-05  2.848646E-05  2.849260E-05  1.631659E-05  4.671330E-08  3.237706E-10
      4065   1 -8.633442E-05  2.849194E-05  2.848323E-05  1.619256E-05  4.575803E-15 -1.787824E-16
      4066   1 -8.633539E-05  2.848646E-05  2.849260E-05  1.631659E-05 -4.671329E-08 -3.237702E-10
      4067   1 -8.633438E-05  2.849060E-05  2.848672E-05  1.669887E-05 -7.937153E-08  1.810118E-08
      4068   1 -8.633548E-05  2.848813E-05  2.849146E-05  1.735707E-05 -8.706519E-08  1.598544E-09
      4069   1 -8.633426E-05  2.849116E-05  2.849271E-05  1.832406E-05 -6.644406E-08  2.330943E-08
      4070   1 -8.633573E-05  2.850210E-05  2.848013E-05  1.962246E-05 -2.571763E-08  1.599639E-09
      4071   1 -1.726714E-04  5.698789E-05  5.699547E-05  1.772561E-05  5.839147E-08 -1.202999E-08
      4072   1 -1.726685E-04  5.698726E-05  5.696668E-05  1.645286E-05  1.614287E-07  9.901462E-10
      4073   1 -1.726710E-04  5.698066E-05  5.698461E-05  1.553578E-05  2.067122E-07 -2.295581E-08
      4074   1 -1.726688E-04  5.697200E-05  5.698023E-05  1.492190E-05  1.868533E-07  3.572765E-09
      4075   1 -1.726708E-04  5.698412E-05  5.697223E-05  1.457598E-05  1.103820E-07 -3.472139E-09
      4076   1 -1.726689E-04  5.697998E-05  5.697249E-05  1.446377E-05  9.466583E-15  3.072892E-16
      4077   1 -1.726708E-04  5.698412E-05  5.697223E-05  1.457598E-05 -1.103819E-07  3.472139E-09
      4078   1 -1.726688E-04  5.697200E-05  5.698023E-05  1.492190E-05 -1.868533E-07 -3.572765E-09
      4079   1 -1.726710E-04  5.698066E-05  5.698461E-05  1.553578E-05 -2.067122E-07  2.295581E-08
      4080   1 -1.726685E-04  5.698726E-05  5.696668E-05  1.645286E-05 -1.614287E-07 -9.901462E-10
      4081   1 -1.726714E-04  5.698789E-05  5.699547E-05  1.772561E-05 -5.839147E-08  1.202999E-08
      4082   1 -2.590071E-04  8.551072E-05  8.543184E-05  1.452017E-05  1.261613E-07  3.007559E-09
      4083   1 -2.590028E-04  8.547154E-05  8.547813E-05  1.331916E-05  3.184141E-07 -3.028120E-08
      4084   1 -2.590064E-04  8.545556E-05  8.548062E-05  1.249386E-05  4.058540E-07  1.202099E-08
      4085   1 -2.590032E-04  8.547617E-05  8.544915E-05  1.198337E-05  3.624119E-07  3.226217E-09
      4086   1 -2.590061E-04  8.547599E-05  8.546136E-05  1.170201E-05  2.068625E-07  2.620105E-09
      4087   1 -2.590033E-04  8.547727E-05  8.544614E-05  1.161081E-05  1.500080E-14 -2.648503E-16
      4088   1 -2.590061E-04  8.547599E-05  8.546136E-05  1.170201E-05 -2.068625E-07 -2.620105E-09
      4089   1 -2.590032E-04  8.547617E-05  8.544915E-05  1.198337E-05 -3.624118E-07 -3.226217E-09
      4090   1 -2.590064E-04  8.545556E-05  8.548062E-05  1.249386E-05 -4.058540E-07 -1.202099E-08
      4091   1 -2.590028E-04  8.547154E-05  8.547813E-05  1.331916E-05 -3.184141E-07  3.028120E-08
      4092   1 -2.590071E-04  8.551072E-05  8.543184E-05  1.452017E-05 -1.261613E-07 -3.007559E-09
      4093   1 -3.453427E-04  1.139714E-04  1.140099E-04  9.932869E-06  2.311984E-07 -2.836180E-08
      4094   1 -3.453372E-04  1.139459E-04  1.139522E-04  8.856018E-06  6.335201E-07  2.768901E-08
      4095   1 -3.453420E-04  1.139694E-04  1.139383E-04  8.266735E-06  7.741685E-07  1.979571E-08
      4096   1 -3.453377E-04  1.139776E-04  1.139273E-04  7.924925E-06  6.408438E-07  5.826408E-09
      4097   1 -3.453416E-04  1.139700E-04  1.139383E-04  7.736548E-06  3.580056E-07  4.854426E-09
      4098   1 -3.453379E-04  1.139811E-04  1.139249E-04  7.679027E-06  2.140768E-14  1.450849E-16
      4099   1 -3.453416E-04  1.139700E-04  1.139383E-04  7.736548E-06 -3.580056E-07 -4.854427E-09
      4100   1 -3.453377E-04  1.139776E-04  1.139273E-04  7.924925E-06 -6.408438E-07 -5.826407E-09
      4101   1 -3.453420E-04  1.139694E-04  1.139383E-04  8.266735E-06 -7.741685E-07 -1.979571E-08
      4102   1 -3.453372E-04  1.139459E-04  1.139522E-04  8.856018E-06 -6.335201E-07 -2.768901E-08
      4103   1 -3.453427E-04  1.139714E-04  1.140099E-04  9.932869E-06 -2.311984E-07  2.836180E-08
      4104   1 -4.316781E-04  1.425378E-04  1.423291E-04  3.647732E-06  6.234265E-07  4.354741E-08
      4105   1 -4.316715E-04  1.424556E-04  1.423855E-04  3.135122E-06  1.348080E-06  2.700713E-08
      4106   1 -4.316770E-04  1.424965E-04  1.423975E-04  2.938640E-06  1.372311E-06  5.208875E-09
      4107   1 -4.316722E-04  1.424596E-04  1.424068E-04  2.809307E-06  1.070354E-06  6.332106E-09
      4108   1 -4.316765E-04  1.424841E-04  1.424124E-04  2.747137E-06  5.775245E-07  8.711506E-10
      4109   1 -4.316723E-04  1.424609E-04  1.424105E-04  2.724502E-06  2.893888E-14 -2.608523E-17
      4110   1 -4.316765E-04  1.424841E-04  1.424124E-04  2.747137E-06 -5.775244E-07 -8.711506E-10
      4111   1 -4.316722E-04  1.424596E-04  1.424068E-04  2.809307E-06 -1.070354E-06 -6.332107E-09
      4112   1 -4.316770E-04  1.424965E-04  1.423975E-04  2.938640E-06 -1.372311E-06 -5.208875E-09
      4113   1 -4.316715E-04  1.424556E-04  1.423855E-04  3.135122E-06 -1.348080E-06 -2.700712E-08
      4114   1 -4.316781E-04  1.425378E-04  1.423291E-04  3.647732E-06 -6.234265E-07 -4.354741E-08
      4115   1  4.271278E-04 -1.410372E-04 -1.408173E-04  3.648253E-06 -6.235332E-07  4.337699E-08
      4116   1  4.271331E-04 -1.409566E-04 -1.408995E-04  3.134797E-06 -1.347857E-06  2.655399E-08
      4117   1  4.271287E-04 -1.409970E-04 -1.408862E-04  2.938838E-06 -1.372602E-06  5.262604E-09
      4118   1  4.271326E-04 -1.409605E-04 -1.409198E-04  2.809120E-06 -1.070142E-06  6.198455E-09
      4119   1  4.271290E-04 -1.409847E-04 -1.409014E-04  2.747260E-06 -5.776585E-07  8.920541E-10
      4120   1  4.271324E-04 -1.409618E-04 -1.409232E-04  2.724352E-06 -2.894357E-14 -4.904829E-17
      4121   1  4.271290E-04 -1.409847E-04 -1.409014E-04  2.747260E-06  5.776584E-07 -8.920539E-10
      4122   1  4.271326E-04 -1.409605E-04 -1.409198E-04  2.809120E-06  1.070142E-06 -6.198455E-09
      4123   1  4.271287E-04 -1.409970E-04 -1.408862E-04  2.938838E-06  1.372602E-06 -5.262603E-09
      4124   1  4.271331E-04 -1.409566E-04 -1.408995E-04  3.134797E-06  1.347857E-06 -2.655399E-08
      4125   1  4.271278E-04 -1.410372E-04 -1.408173E-04  3.648253E-06  6.235332E-07 -4.337699E-08
      4126   1  3.417021E-04 -1.127719E-04 -1.127981E-04  9.932404E-06 -2.313263E-07 -2.813969E-08
      4127   1  3.417065E-04 -1.127461E-04 -1.127638E-04  8.856177E-06 -6.332824E-07  2.739576E-08
      4128   1  3.417026E-04 -1.127694E-04 -1.127283E-04  8.266721E-06 -7.744457E-07  1.958852E-08
      4129   1  3.417061E-04 -1.127776E-04 -1.127385E-04  7.924998E-06 -6.406487E-07  5.755074E-09
      4130   1  3.417029E-04 -1.127699E-04 -1.127287E-04  7.736580E-06 -3.581279E-07  4.804845E-09
      4131   1  3.417059E-04 -1.127810E-04 -1.127360E-04  7.679084E-06 -2.140297E-14  1.116932E-16
      4132   1  3.417029E-04 -1.127699E-04 -1.127287E-04  7.736580E-06  3.581279E-07 -4.804846E-09
      4133   1  3.417061E-04 -1.127776E-04 -1.127385E-04  7.924998E-06  6.406487E-07 -5.755074E-09
      4134   1  3.417026E-04 -1.127694E-04 -1.127283E-04  8.266721E-06  7.744457E-07 -1.958852E-08
      4135   1  3.417065E-04 -1.127461E-04 -1.127638E-04  8.856177E-06  6.332824E-07 -2.739576E-08
      4136   1  3.417021E-04 -1.127719E-04 -1.127981E-04  9.932404E-06  2.313263E-07  2.813969E-08
      4137   1  2.562765E-04 -8.461051E-05 -8.452351E-05  1.452045E-05 -1.262182E-07  3.014523E-09
      4138   1  2.562800E-04 -8.457201E-05 -8.458691E-05  1.331919E-05 -3.182663E-07 -2.994799E-08
      4139   1  2.562770E-04 -8.455627E-05 -8.457260E-05  1.249374E-05 -4.060550E-07  1.187578E-08
      4140   1  2.562797E-04 -8.457663E-05 -8.455771E-05  1.198339E-05 -3.622675E-07  3.194923E-09
      4141   1  2.562772E-04 -8.457647E-05 -8.455387E-05  1.170192E-05 -2.069552E-07  2.584739E-09
      4142   1  2.562796E-04 -8.457773E-05 -8.455460E-05  1.161083E-05 -1.500412E-14 -2.864792E-16
      4143   1  2.562772E-04 -8.457647E-05 -8.455387E-05  1.170192E-05  2.069552E-07 -2.584738E-09
      4144   1  2.562797E-04 -8.457663E-05 -8.455771E-05  1.198339E-05  3.622674E-07 -3.194923E-09
      4145   1  2.562770E-04 -8.455627E-05 -8.457260E-05  1.249374E-05  4.060550E-07 -1.187578E-08
      4146   1  2.562800E-04 -8.457201E-05 -8.458691E-05  1.331919E-05  3.182663E-07  2.994799E-08
      4147   1  2.562765E-04 -8.461051E-05 -8.452351E-05  1.452045E-05  1.262182E-07 -3.014523E-09
      4148   1  1.708510E-04 -5.638808E-05 -5.638944E-05  1.772519E-05 -5.845576E-08 -1.193659E-08
      4149   1  1.708533E-04 -5.638730E-05 -5.637279E-05  1.645288E-05 -1.613165E-07  9.580868E-10
      4150   1  1.708513E-04 -5.638071E-05 -5.637924E-05  1.553578E-05 -2.068469E-07 -2.271979E-08
      4151   1  1.708531E-04 -5.637216E-05 -5.638584E-05  1.492198E-05 -1.867607E-07  3.528617E-09
      4152   1  1.708514E-04 -5.638415E-05 -5.636721E-05  1.457597E-05 -1.104423E-07 -3.440295E-09
      4153   1  1.708530E-04 -5.638005E-05 -5.637810E-05  1.446385E-05 -9.469780E-15  2.886189E-16
      4154   1  1.708514E-04 -5.638415E-05 -5.636721E-05  1.457597E-05  1.104423E-07  3.440295E-09
      4155   1  1.708531E-04 -5.637216E-05 -5.638584E-05  1.492198E-05  1.867607E-07 -3.528616E-09
      4156   1  1.708513E-04 -5.638071E-05 -5.637924E-05  1.553578E-05  2.068469E-07  2.271979E-08
      4157   1  1.708533E-04 -5.638730E-05 -5.637279E-05  1.645288E-05  1.613165E-07 -9.580869E-10
      4158   1  1.708510E-04 -5.638808E-05 -5.638944E-05  1.772519E-05  5.845576E-08  1.193659E-08
      4159   1  8.542548E-05 -2.820204E-05 -2.817727E-05  1.962272E-05 -2.573759E-08 -1.563152E-09
      4160   1  8.542667E-05 -2.819129E-05 -2.819568E-05  1.832417E-05 -6.639228E-08 -2.304994E-08
      4161   1  8.542567E-05 -2.818832E-05 -2.818877E-05  1.735697E-05 -8.713563E-08 -1.597379E-09
      4162   1  8.542656E-05 -2.819076E-05 -2.818958E-05  1.669890E-05 -7.932188E-08 -1.791634E-08
      4163   1  8.542573E-05 -2.818667E-05 -2.819001E-05  1.631653E-05 -4.674539E-08  3.141045E-10
      4164   1  8.542652E-05 -2.819208E-05 -2.818608E-05  1.619260E-05 -4.584433E-15 -2.166695E-16
      4165   1  8.542573E-05 -2.818667E-05 -2.819001E-05  1.631653E-05  4.674538E-08 -3.141041E-10
      4166   1  8.542656E-05 -2.819076E-05 -2.818958E-05  1.669890E-05  7.932188E-08  1.791634E-08
      4167   1  8.542567E-05 -2.818832E-05 -2.818877E-05  1.735697E-05  8.713563E-08  1.597379E-09
      4168   1  8.542667E-05 -2.819129E-05 -2.819568E-05  1.832417E-05  6.639228E-08  2.304994E-08
      4169   1  8.542548E-05 -2.820204E-05 -2.817727E-05  1.962272E-05  2.573759E-08  1.563152E-09
      4170   1  9.349791E-14 -3.087114E-14 -3.090917E-14  2.025216E-05 -2.543301E-17 -9.275699E-09
      4171   1  9.349113E-14 -3.068032E-14 -3.106108E-14  1.894420E-05 -6.900947E-17 -3.900004E-09
      4172   1  9.344565E-14 -3.078093E-14 -3.078970E-14  1.796589E-05 -9.548264E-17 -2.465459E-08
      4173   1  9.344939E-14 -3.080695E-14 -3.084346E-14  1.729134E-05 -9.157654E-17 -1.501109E-09
      4174   1  9.341361E-14 -3.075838E-14 -3.081174E-14  1.690022E-05 -5.998317E-17 -1.024181E-08
      4175   1  9.340451E-14 -3.083818E-14 -3.078909E-14  1.677115E-05 -1.319582E-17  2.168475E-16
      4176   1  9.337339E-14 -3.073583E-14 -3.080875E-14  1.690022E-05  5.155424E-17  1.024181E-08
      4177   1  9.337209E-14 -3.082257E-14 -3.079568E-14  1.729134E-05  8.312781E-17  1.501109E-09
      4178   1  9.334715E-14 -3.075491E-14 -3.076501E-14  1.796589E-05  1.019667E-16  2.465459E-08
      4179   1  9.334813E-14 -3.064389E-14 -3.100701E-14  1.894420E-05  7.180298E-17  3.900004E-09
      4180   1  9.331457E-14 -3.082083E-14 -3.082550E-14  2.025216E-05  1.579547E-17  9.275699E-09
      4181   1 -8.542548E-05  2.820204E-05  2.817727E-05  1.962272E-05  2.573759E-08 -1.563153E-09
      4182   1 -8.542667E-05  2.819129E-05  2.819568E-05  1.832417E-05  6.639228E-08 -2.304994E-08
      4183   1 -8.542567E-05  2.818832E-05  2.818877E-05  1.735697E-05  8.713563E-08 -1.597379E-09
      4184   1 -8.542656E-05  2.819076E-05  2.818958E-05  1.669890E-05  7.932188E-08 -1.791634E-08
      4185   1 -8.542573E-05  2.818667E-05  2.819001E-05  1.631653E-05  4.674539E-08  3.141045E-10
      4186   1 -8.542652E-05  2.819208E-05  2.818608E-05  1.619260E-05  4.578992E-15 -1.809021E-16
      4187   1 -8.542573E-05  2.818667E-05  2.819001E-05  1.631653E-05 -4.674538E-08 -3.141041E-10
      4188   1 -8.542656E-05  2.819076E-05  2.818958E-05  1.669890E-05 -7.932188E-08  1.791634E-08
      4189   1 -8.542567E-05  2.818832E-05  2.818877E-05  1.735697E-05 -8.713563E-08  1.597379E-09
      4190   1 -8.542667E-05  2.819129E-05  2.819568E-05  1.832417E-05 -6.639228E-08  2.304994E-08
      4191   1 -8.542548E-05  2.820204E-05  2.817727E-05  1.962272E-05 -2.573759E-08  1.563153E-09
      4192   1 -1.708510E-04  5.638808E-05  5.638944E-05  1.772519E-05  5.845576E-08 -1.193659E-08
      4193   1 -1.708533E-04  5.638730E-05  5.637279E-05  1.645288E-05  1.613165E-07  9.580869E-10
      4194   1 -1.708513E-04  5.638071E-05  5.637924E-05  1.553578E-05  2.068469E-07 -2.271979E-08
      4195   1 -1.708531E-04  5.637216E-05  5.638584E-05  1.492198E-05  1.867607E-07  3.528617E-09
      4196   1 -1.708514E-04  5.638415E-05  5.636721E-05  1.457597E-05  1.104423E-07 -3.440295E-09
      4197   1 -1.708530E-04  5.638005E-05  5.637810E-05  1.446385E-05  9.455093E-15  3.083878E-16
      4198   1 -1.708514E-04  5.638415E-05  5.636721E-05  1.457597E-05 -1.104423E-07  3.440295E-09
      4199   1 -1.708531E-04  5.637216E-05  5.638584E-05  1.492198E-05 -1.867607E-07 -3.528616E-09
      4200   1 -1.708513E-04  5.638071E-05  5.637924E-05  1.553578E-05 -2.068469E-07  2.271979E-08
      4201   1 -1.708533E-04  5.638730E-05  5.637279E-05  1.645288E-05 -1.613165E-07 -9.580870E-10
      4202   1 -1.708510E-04  5.638808E-05  5.638944E-05  1.772519E-05 -5.845576E-08  1.193659E-08
      4203   1 -2.562765E-04  8.461051E-05  8.452351E-05  1.452045E-05  1.262182E-07  3.014524E-09
      4204   1 -2.562800E-04  8.457201E-05  8.458691E-05  1.331919E-05  3.182663E-07 -2.994799E-08
      4205   1 -2.562770E-04  8.455627E-05  8.457260E-05  1.249374E-05  4.060550E-07  1.187578E-08
      4206   1 -2.562797E-04  8.457663E-05  8.455771E-05  1.198339E-05  3.622675E-07  3.194923E-09
      4207   1 -2.562772E-04  8.457647E-05  8.455387E-05  1.170192E-05  2.069552E-07  2.584739E-09
      4208   1 -2.562796E-04  8.457773E-05  8.455460E-05  1.161083E-05  1.500913E-14 -2.775405E-16
      4209   1 -2.562772E-04  8.457647E-05  8.455387E-05  1.170192E-05 -2.069552E-07 -2.584738E-09
      4210   1 -2.562797E-04  8.457663E-05  8.455771E-05  1.198339E-05 -3.622674E-07 -3.194923E-09
      4211   1 -2.562770E-04  8.455627E-05  8.457260E-05  1.249374E-05 -4.060550E-07 -1.187578E-08
      4212   1 -2.562800E-04  8.457201E-05  8.458691E-05  1.331919E-05 -3.182663E-07  2.994799E-08
      4213   1 -2.562765E-04  8.461051E-05  8.452351E-05  1.452045E-05 -1.262182E-07 -3.014524E-09
      4214   1 -3.417021E-04  1.127719E-04  1.127981E-04  9.932404E-06  2.313263E-07 -2.813969E-08
      4215   1 -3.417065E-04  1.127461E-04  1.127638E-04  8.856177E-06  6.332824E-07  2.739576E-08
      4216   1 -3.417026E-04  1.127694E-04  1.127283E-04  8.266721E-06  7.744457E-07  1.958852E-08
      4217   1 -3.417061E-04  1.127776E-04  1.127385E-04  7.924998E-06  6.406487E-07  5.755074E-09
      4218   1 -3.417029E-04  1.127699E-04  1.127287E-04  7.736580E-06  3.581279E-07  4.804846E-09
      4219   1 -3.417059E-04  1.127810E-04  1.127360E-04  7.679084E-06  2.140140E-14  1.175749E-16
      4220   1 -3.417029E-04  1.127699E-04  1.127287E-04  7.736580E-06 -3.581279E-07 -4.804846E-09
      4221   1 -3.417061E-04  1.127776E-04  1.127385E-04  7.924998E-06 -6.406487E-07 -5.755074E-09
      4222   1 -3.417026E-04  1.127694E-04  1.127283E-04  8.266721E-06 -7.744457E-07 -1.958852E-08
      4223   1 -3.417065E-04  1.127461E-04  1.127638E-04  8.856177E-06 -6.332824E-07 -2.739576E-08
      4224   1 -3.417021E-04  1.127719E-04  1.127981E-04  9.932404E-06 -2.313263E-07  2.813969E-08
      4225   1 -4.271278E-04  1.410372E-04  1.408173E-04  3.648253E-06  6.235332E-07  4.337699E-08
      4226   1 -4.271331E-04  1.409566E-04  1.408995E-04  3.134797E-06  1.347857E-06  2.655399E-08
      4227   1 -4.271287E-04  1.409970E-04  1.408862E-04  2.938838E-06  1.372602E-06  5.262604E-09
      4228   1 -4.271326E-04  1.409605E-04  1.409198E-04  2.809120E-06  1.070142E-06  6.198455E-09
      4229   1 -4.271290E-04  1.409847E-04  1.409014E-04  2.747260E-06  5.776585E-07  8.920540E-10
      4230   1 -4.271324E-04  1.409618E-04  1.409232E-04  2.724352E-06  2.894627E-14 -2.890585E-17
      4231   1 -4.271290E-04  1.409847E-04  1.409014E-04  2.747260E-06 -5.776584E-07 -8.920540E-10
      4232   1 -4.271326E-04  1.409605E-04  1.409198E-04  2.809120E-06 -1.070142E-06 -6.198455E-09
      4233   1 -4.271287E-04  1.409970E-04  1.408862E-04  2.938838E-06 -1.372602E-06 -5.262603E-09
      4234   1 -4.271331E-04  1.409566E-04  1.408995E-04  3.134797E-06 -1.347857E-06 -2.655399E-08
      4235   1 -4.271278E-04  1.410372E-04  1.408173E-04  3.648253E-06 -6.235332E-07 -4.337699E-08
      4236   1  4.225891E-04 -1.395369E-04 -1.393303E-04  3.647832E-06 -6.234529E-07  4.268238E-08
      4237   1  4.225847E-04 -1.394566E-04 -1.393901E-04  3.135065E-06 -1.348060E-06  2.640720E-08
      4238   1  4.225883E-04 -1.394967E-04 -1.393975E-04  2.938681E-06 -1.372387E-06  5.116722E-09
      4239   1  4.225851E-04 -1.394605E-04 -1.394108E-04  2.809277E-06 -1.070337E-06  6.184975E-09
      4240   1  4.225880E-04 -1.394845E-04 -1.394122E-04  2.747166E-06 -5.775604E-07  8.570278E-10
      4241   1  4.225852E-04 -1.394618E-04 -1.394144E-04  2.724481E-06 -2.892976E-14 -6.117611E-17
      4242   1  4.225880E-04 -1.394845E-04 -1.394122E-04  2.747166E-06  5.775604E-07 -8.570277E-10
      4243   1  4.225851E-04 -1.394605E-04 -1.394108E-04  2.809277E-06  1.070337E-06 -6.184976E-09
      4244   1  4.225883E-04 -1.394967E-04 -1.393975E-04  2.938681E-06  1.372387E-06 -5.116722E-09
      4245   1  4.225847E-04 -1.394566E-04 -1.393901E-04  3.135065E-06  1.348060E-06 -2.640720E-08
      4246   1  4.225891E-04 -1.395369E-04 -1.393303E-04  3.647832E-06  6.234529E-07 -4.268238E-08
      4247   1  3.380714E-04 -1.115721E-04 -1.116077E-04  9.932764E-06 -2.312296E-07 -2.778012E-08
      4248   1  3.380677E-04 -1.115470E-04 -1.115551E-04  8.856031E-06 -6.334946E-07  2.710191E-08
      4249   1  3.380709E-04 -1.115700E-04 -1.115378E-04  8.266718E-06 -7.742411E-07  1.937377E-08
      4250   1  3.380681E-04 -1.115781E-04 -1.115306E-04  7.924928E-06 -6.408283E-07  5.696721E-09
      4251   1  3.380706E-04 -1.115705E-04 -1.115378E-04  7.736545E-06 -3.580390E-07  4.749364E-09
      4252   1  3.380682E-04 -1.115815E-04 -1.115283E-04  7.679030E-06 -2.142543E-14  1.106911E-16
      4253   1  3.380706E-04 -1.115705E-04 -1.115378E-04  7.736545E-06  3.580390E-07 -4.749364E-09
      4254   1  3.380681E-04 -1.115781E-04 -1.115306E-04  7.924928E-06  6.408282E-07 -5.696720E-09
      4255   1  3.380709E-04 -1.115700E-04 -1.115378E-04  8.266718E-06  7.742411E-07 -1.937377E-08
      4256   1  3.380677E-04 -1.115470E-04 -1.115551E-04  8.856031E-06  6.334946E-07 -2.710191E-08
      4257   1  3.380714E-04 -1.115721E-04 -1.116077E-04  9.932764E-06  2.312296E-07  2.778012E-08
      4258   1  2.535536E-04 -8.371046E-05 -8.363172E-05  1.452025E-05 -1.261764E-07  2.948857E-09
      4259   1  2.535507E-04 -8.367215E-05 -8.368006E-05  1.331919E-05 -3.184033E-07 -2.964742E-08
      4260   1  2.535531E-04 -8.365652E-05 -8.367962E-05  1.249386E-05 -4.059086E-07  1.175592E-08
      4261   1  2.535509E-04 -8.367670E-05 -8.365161E-05  1.198340E-05 -3.624025E-07  3.150780E-09
      4262   1  2.535529E-04 -8.367652E-05 -8.366084E-05  1.170202E-05 -2.068886E-07  2.558782E-09
      4263   1  2.535510E-04 -8.367778E-05 -8.364865E-05  1.161085E-05 -1.500400E-14 -2.741668E-16
      4264   1  2.535529E-04 -8.367652E-05 -8.366084E-05  1.170202E-05  2.068885E-07 -2.558782E-09
      4265   1  2.535509E-04 -8.367670E-05 -8.365161E-05  1.198340E-05  3.624024E-07 -3.150780E-09
      4266   1  2.535531E-04 -8.365652E-05 -8.367962E-05  1.249386E-05  4.059085E-07 -1.175592E-08
      4267   1  2.535507E-04 -8.367215E-05 -8.368006E-05  1.331919E-05  3.184032E-07  2.964742E-08
      4268   1  2.535536E-04 -8.371046E-05 -8.363172E-05  1.452025E-05  1.261764E-07 -2.948857E-09
      4269   1  1.690357E-04 -5.578817E-05 -5.579452E-05  1.772549E-05 -5.840805E-08 -1.178573E-08
      4270   1  1.690338E-04 -5.578752E-05 -5.576837E-05  1.645282E-05 -1.614194E-07  9.564969E-10
      4271   1  1.690355E-04 -5.578104E-05 -5.578399E-05  1.553574E-05 -2.067497E-07 -2.248455E-08
      4272   1  1.690340E-04 -5.577257E-05 -5.578158E-05  1.492189E-05 -1.868487E-07  3.486324E-09
      4273   1  1.690353E-04 -5.578444E-05 -5.577192E-05  1.457595E-05 -1.103995E-07 -3.405768E-09
      4274   1  1.690341E-04 -5.578038E-05 -5.577400E-05  1.446376E-05 -9.468175E-15  2.947624E-16
      4275   1  1.690353E-04 -5.578444E-05 -5.577192E-05  1.457595E-05  1.103995E-07  3.405767E-09
      4276   1  1.690340E-04 -5.577257E-05 -5.578158E-05  1.492189E-05  1.868487E-07 -3.486324E-09
      4277   1  1.690355E-04 -5.578104E-05 -5.578399E-05  1.553574E-05  2.067497E-07  2.248455E-08
      4278   1  1.690338E-04 -5.578752E-05 -5.576837E-05  1.645282E-05  1.614194E-07 -9.564970E-10
      4279   1  1.690357E-04 -5.578817E-05 -5.579452E-05  1.772549E-05  5.840804E-08  1.178573E-08
      4280   1  8.451787E-05 -2.790204E-05 -2.788002E-05  1.962254E-05 -2.572307E-08 -1.566716E-09
      4281   1  8.451689E-05 -2.789134E-05 -2.789336E-05  1.832411E-05 -6.644058E-08 -2.282592E-08
      4282   1  8.451771E-05 -2.788838E-05 -2.789117E-05  1.735709E-05 -8.708488E-08 -1.580535E-09
      4283   1  8.451698E-05 -2.789080E-05 -2.788747E-05  1.669891E-05 -7.936874E-08 -1.773271E-08
      4284   1  8.451765E-05 -2.788675E-05 -2.789231E-05  1.631662E-05 -4.672260E-08  3.090822E-10
      4285   1  8.451700E-05 -2.789211E-05 -2.788405E-05  1.619262E-05 -4.583559E-15 -1.766000E-16
      4286   1  8.451765E-05 -2.788675E-05 -2.789231E-05  1.631662E-05  4.672259E-08 -3.090818E-10
      4287   1  8.451698E-05 -2.789080E-05 -2.788747E-05  1.669891E-05  7.936873E-08  1.773270E-08
      4288   1  8.451771E-05 -2.788838E-05 -2.789117E-05  1.735709E-05  8.708488E-08  1.580534E-09
      4289   1  8.451689E-05 -2.789134E-05 -2.789336E-05  1.832411E-05  6.644058E-08  2.282592E-08
      4290   1  8.451787E-05 -2.790204E-05 -2.788002E-05  1.962254E-05  2.572306E-08  1.566716E-09
      4291   1  9.253226E-14 -3.056930E-14 -3.060823E-14  2.025245E-05 -1.927339E-17 -9.159198E-09
      4292   1  9.249524E-14 -3.042358E-14 -3.068297E-14  1.894416E-05 -7.140064E-17 -3.850627E-09
      4293   1  9.250511E-14 -3.051032E-14 -3.052184E-14  1.796586E-05 -9.692598E-17 -2.439720E-08
      4294   1  9.245973E-14 -3.060052E-14 -3.046299E-14  1.729125E-05 -8.576463E-17 -1.492789E-09
      4295   1  9.246288E-14 -3.052766E-14 -3.053594E-14  1.690021E-05 -4.880202E-17 -1.013442E-08
      4296   1  9.244618E-14 -3.065256E-14 -3.042530E-14  1.677106E-05 -5.178230E-18  2.282062E-16
      4297   1  9.243875E-14 -3.054501E-14 -3.050344E-14  1.690021E-05  5.274305E-17  1.013442E-08
      4298   1  9.240189E-14 -3.059011E-14 -3.045030E-14  1.729125E-05  8.210375E-17  1.492789E-09
      4299   1  9.239945E-14 -3.057624E-14 -3.045769E-14  1.796586E-05  9.625005E-17  2.439720E-08
      4300   1  9.235044E-14 -3.038889E-14 -3.063108E-14  1.894416E-05  6.912128E-17  3.850627E-09
      4301   1  9.236307E-14 -3.053460E-14 -3.056740E-14  2.025245E-05  1.918530E-17  9.159198E-09
      4302   1 -8.451787E-05  2.790204E-05  2.788002E-05  1.962254E-05  2.572307E-08 -1.566716E-09
      4303   1 -8.451689E-05  2.789134E-05  2.789336E-05  1.832411E-05  6.644058E-08 -2.282592E-08
      4304   1 -8.451771E-05  2.788838E-05  2.789117E-05  1.735709E-05  8.708488E-08 -1.580535E-09
      4305   1 -8.451698E-05  2.789080E-05  2.788747E-05  1.669891E-05  7.936874E-08 -1.773271E-08
      4306   1 -8.451765E-05  2.788675E-05  2.789231E-05  1.631662E-05  4.672260E-08  3.090821E-10
      4307   1 -8.451700E-05  2.789211E-05  2.788405E-05  1.619262E-05  4.582095E-15 -1.680467E-16
      4308   1 -8.451765E-05  2.788675E-05  2.789231E-05  1.631662E-05 -4.672259E-08 -3.090817E-10
      4309   1 -8.451698E-05  2.789080E-05  2.788747E-05  1.669891E-05 -7.936873E-08  1.773271E-08
      4310   1 -8.451771E-05  2.788838E-05  2.789117E-05  1.735709E-05 -8.708487E-08  1.580534E-09
      4311   1 -8.451689E-05  2.789134E-05  2.789336E-05  1.832411E-05 -6.644058E-08  2.282592E-08
      4312   1 -8.451787E-05  2.790204E-05  2.788002E-05  1.962254E-05 -2.572306E-08  1.566716E-09
      4313   1 -1.690357E-04  5.578817E-05  5.579452E-05  1.772549E-05  5.840804E-08 -1.178573E-08
      4314   1 -1.690338E-04  5.578752E-05  5.576837E-05  1.645282E-05  1.614194E-07  9.564970E-10
      4315   1 -1.690355E-04  5.578104E-05  5.578399E-05  1.553574E-05  2.067497E-07 -2.248455E-08
      4316   1 -1.690340E-04  5.577257E-05  5.578158E-05  1.492189E-05  1.868487E-07  3.486324E-09
      4317   1 -1.690353E-04  5.578444E-05  5.577192E-05  1.457595E-05  1.103995E-07 -3.405768E-09
      4318   1 -1.690341E-04  5.578038E-05  5.577400E-05  1.446376E-05  9.458843E-15  3.046600E-16
      4319   1 -1.690353E-04  5.578444E-05  5.577192E-05  1.457595E-05 -1.103995E-07  3.405767E-09
      4320   1 -1.690340E-04  5.577257E-05  5.578158E-05  1.492189E-05 -1.868487E-07 -3.486324E-09
      4321   1 -1.690355E-04  5.578104E-05  5.578399E-05  1.553574E-05 -2.067497E-07  2.248455E-08
      4322   1 -1.690338E-04  5.578752E-05  5.576837E-05  1.645282E-05 -1.614194E-07 -9.564971E-10
      4323   1 -1.690357E-04  5.578817E-05  5.579452E-05  1.772549E-05 -5.840804E-08  1.178573E-08
      4324   1 -2.535536E-04  8.371046E-05  8.363172E-05  1.452025E-05  1.261764E-07  2.948857E-09
      4325   1 -2.535507E-04  8.367215E-05  8.368006E-05  1.331919E-05  3.184033E-07 -2.964742E-08
      4326   1 -2.535531E-04  8.365652E-05  8.367962E-05  1.249386E-05  4.059086E-07  1.175592E-08
      4327   1 -2.535509E-04  8.367670E-05  8.365161E-05  1.198340E-05  3.624025E-07  3.150780E-09
      4328   1 -2.535529E-04  8.367652E-05  8.366084E-05  1.170202E-05  2.068886E-07  2.558782E-09
      4329   1 -2.535510E-04  8.367778E-05  8.364865E-05  1.161085E-05  1.499912E-14 -2.981971E-16
      4330   1 -2.535529E-04  8.367652E-05  8.366084E-05  1.170202E-05 -2.068885E-07 -2.558782E-09
      4331   1 -2.535509E-04  8.367670E-05  8.365161E-05  1.198340E-05 -3.624024E-07 -3.150780E-09
      4332   1 -2.535531E-04  8.365652E-05  8.367962E-05  1.249386E-05 -4.059085E-07 -1.175592E-08
      4333   1 -2.535507E-04  8.367215E-05  8.368006E-05  1.331919E-05 -3.184032E-07  2.964742E-08
      4334   1 -2.535536E-04  8.371046E-05  8.363172E-05  1.452025E-05 -1.261764E-07 -2.948857E-09
      4335   1 -3.380714E-04  1.115721E-04  1.116077E-04  9.932764E-06  2.312296E-07 -2.778012E-08
      4336   1 -3.380677E-04  1.115470E-04  1.115551E-04  8.856031E-06  6.334946E-07  2.710191E-08
      4337   1 -3.380709E-04  1.115700E-04  1.115378E-04  8.266718E-06  7.742411E-07  1.937377E-08
      4338   1 -3.380681E-04  1.115781E-04  1.115306E-04  7.924928E-06  6.408283E-07  5.696721E-09
      4339   1 -3.380706E-04  1.115705E-04  1.115378E-04  7.736545E-06  3.580390E-07  4.749364E-09
      4340   1 -3.380682E-04  1.115815E-04  1.115283E-04  7.679030E-06  2.141340E-14  8.723254E-17
      4341   1 -3.380706E-04  1.115705E-04  1.115378E-04  7.736545E-06 -3.580390E-07 -4.749364E-09
      4342   1 -3.380681E-04  1.115781E-04  1.115306E-04  7.924928E-06 -6.408282E-07 -5.696720E-09
      4343   1 -3.380709E-04  1.115700E-04  1.115378E-04  8.266718E-06 -7.742411E-07 -1.937377E-08
      4344   1 -3.380677E-04  1.115470E-04  1.115551E-04  8.856031E-06 -6.334946E-07 -2.710191E-08
      4345   1 -3.380714E-04  1.115721E-04  1.116077E-04  9.932764E-06 -2.312296E-07  2.778012E-08
      4346   1 -4.225891E-04  1.395369E-04  1.393303E-04  3.647832E-06  6.234529E-07  4.268238E-08
      4347   1 -4.225847E-04  1.394566E-04  1.393901E-04  3.135065E-06  1.348060E-06  2.640720E-08
      4348   1 -4.225883E-04  1.394967E-04  1.393975E-04  2.938681E-06  1.372387E-06  5.116722E-09
      4349   1 -4.225851E-04  1.394605E-04  1.394108E-04  2.809277E-06  1.070337E-06  6.184975E-09
      4350   1 -4.225880E-04  1.394845E-04  1.394122E-04  2.747166E-06  5.775604E-07  8.570278E-10
      4351   1 -4.225852E-04  1.394618E-04  1.394144E-04  2.724481E-06  2.895048E-14 -4.535353E-17
      4352   1 -4.225880E-04  1.394845E-04  1.394122E-04  2.747166E-06 -5.775604E-07 -8.570277E-10
      4353   1 -4.225851E-04  1.394605E-04  1.394108E-04  2.809277E-06 -1.070337E-06 -6.184976E-09
      4354   1 -4.225883E-04  1.394967E-04  1.393975E-04  2.938681E-06 -1.372387E-06 -5.116722E-09
      4355   1 -4.225847E-04  1.394566E-04  1.393901E-04  3.135065E-06 -1.348060E-06 -2.640720E-08
      4356   1 -4.225891E-04  1.395369E-04  1.393303E-04  3.647832E-06 -6.234529E-07 -4.268238E-08
      4357   1  4.180408E-04 -1.380364E-04 -1.378231E-04  3.648172E-06 -6.235236E-07  4.241201E-08
      4358   1  4.180444E-04 -1.379574E-04 -1.378998E-04  3.134843E-06 -1.347905E-06  2.601252E-08
      4359   1  4.180414E-04 -1.379970E-04 -1.378904E-04  2.938806E-06 -1.372578E-06  5.133613E-09
      4360   1  4.180440E-04 -1.379612E-04 -1.379198E-04  2.809147E-06 -1.070191E-06  6.074839E-09
      4361   1  4.180416E-04 -1.379850E-04 -1.379052E-04  2.747241E-06 -5.776485E-07  8.678857E-10
      4362   1  4.180439E-04 -1.379625E-04 -1.379232E-04  2.724375E-06 -2.893649E-14 -1.424709E-17
      4363   1  4.180416E-04 -1.379850E-04 -1.379052E-04  2.747241E-06  5.776484E-07 -8.678857E-10
      4364   1  4.180440E-04 -1.379612E-04 -1.379198E-04  2.809147E-06  1.070190E-06 -6.074840E-09
      4365   1  4.180414E-04 -1.379970E-04 -1.378904E-04  2.938806E-06  1.372578E-06 -5.133612E-09
      4366   1  4.180444E-04 -1.379574E-04 -1.378998E-04  3.134843E-06  1.347905E-06 -2.601251E-08
      4367   1  4.180408E-04 -1.380364E-04 -1.378231E-04  3.648172E-06  6.235236E-07 -4.241201E-08
      4368   1  3.344326E-04 -1.103724E-04 -1.103998E-04  9.932479E-06 -2.313123E-07 -2.753057E-08
      4369   1  3.344356E-04 -1.103473E-04 -1.103630E-04  8.856157E-06 -6.333322E-07  2.681045E-08
      4370   1  3.344329E-04 -1.103701E-04 -1.103313E-04  8.266729E-06 -7.744223E-07  1.916755E-08
      4371   1  3.344352E-04 -1.103781E-04 -1.103383E-04  7.924995E-06 -6.406935E-07  5.630182E-09
      4372   1  3.344331E-04 -1.103706E-04 -1.103317E-04  7.736585E-06 -3.581190E-07  4.700001E-09
      4373   1  3.344351E-04 -1.103815E-04 -1.103359E-04  7.679086E-06 -2.141564E-14  1.408362E-16
      4374   1  3.344331E-04 -1.103706E-04 -1.103317E-04  7.736585E-06  3.581189E-07 -4.700002E-09
      4375   1  3.344352E-04 -1.103781E-04 -1.103383E-04  7.924995E-06  6.406935E-07 -5.630181E-09
      4376   1  3.344329E-04 -1.103701E-04 -1.103313E-04  8.266729E-06  7.744223E-07 -1.916755E-08
      4377   1  3.344356E-04 -1.103473E-04 -1.103630E-04  8.856157E-06  6.333322E-07 -2.681046E-08
      4378   1  3.344326E-04 -1.103724E-04 -1.103998E-04  9.932479E-06  2.313123E-07  2.753057E-08
      4379   1  2.508244E-04 -8.281030E-05 -8.272640E-05  1.452040E-05 -1.262149E-07  2.943035E-09
      4380   1  2.508267E-04 -8.277258E-05 -8.278599E-05  1.331918E-05 -3.182998E-07 -2.931768E-08
      4381   1  2.508248E-04 -8.275716E-05 -8.277434E-05  1.249375E-05 -4.060403E-07  1.161945E-08
      4382   1  2.508265E-04 -8.277710E-05 -8.275750E-05  1.198338E-05 -3.623020E-07  3.120612E-09
      4383   1  2.508249E-04 -8.277694E-05 -8.275597E-05  1.170193E-05 -2.069493E-07  2.527300E-09
      4384   1  2.508264E-04 -8.277817E-05 -8.275447E-05  1.161082E-05 -1.500220E-14 -2.801307E-16
      4385   1  2.508249E-04 -8.277694E-05 -8.275597E-05  1.170193E-05  2.069493E-07 -2.527299E-09
      4386   1  2.508265E-04 -8.277710E-05 -8.275750E-05  1.198338E-05  3.623019E-07 -3.120613E-09
      4387   1  2.508248E-04 -8.275716E-05 -8.277434E-05  1.249375E-05  4.060403E-07 -1.161945E-08
      4388   1  2.508267E-04 -8.277258E-05 -8.278599E-05  1.331918E-05  3.182998E-07  2.931768E-08
      4389   1  2.508244E-04 -8.281030E-05 -8.272640E-05  1.452040E-05  1.262149E-07 -2.943035E-09
      4390   1  1.672162E-04 -5.518832E-05 -5.519051E-05  1.772527E-05 -5.844925E-08 -1.168026E-08
      4391   1  1.672178E-04 -5.518757E-05 -5.517256E-05  1.645289E-05 -1.613418E-07  9.346419E-10
      4392   1  1.672164E-04 -5.518113E-05 -5.518046E-05  1.553579E-05 -2.068378E-07 -2.224394E-08
      4393   1  1.672176E-04 -5.517277E-05 -5.518540E-05  1.492198E-05 -1.867838E-07  3.446856E-09
      4394   1  1.672165E-04 -5.518450E-05 -5.516866E-05  1.457599E-05 -1.104389E-07 -3.370966E-09
      4395   1  1.672176E-04 -5.518049E-05 -5.517783E-05  1.446386E-05 -9.467917E-15  2.974407E-16
      4396   1  1.672165E-04 -5.518450E-05 -5.516866E-05  1.457599E-05  1.104389E-07  3.370965E-09
      4397   1  1.672176E-04 -5.517277E-05 -5.518540E-05  1.492198E-05  1.867838E-07 -3.446856E-09
      4398   1  1.672164E-04 -5.518113E-05 -5.518046E-05  1.553579E-05  2.068377E-07  2.224394E-08
      4399   1  1.672178E-04 -5.518757E-05 -5.517256E-05  1.645289E-05  1.613418E-07 -9.346420E-10
      4400   1  1.672162E-04 -5.518832E-05 -5.519051E-05  1.772527E-05  5.844925E-08  1.168026E-08
      4401   1  8.360812E-05 -2.760200E-05 -2.757818E-05  1.962265E-05 -2.573657E-08 -1.535303E-09
      4402   1  8.360892E-05 -2.759147E-05 -2.759537E-05  1.832413E-05 -6.640440E-08 -2.256908E-08
      4403   1  8.360824E-05 -2.758856E-05 -2.758940E-05  1.735697E-05 -8.713082E-08 -1.570669E-09
      4404   1  8.360884E-05 -2.759094E-05 -2.758943E-05  1.669888E-05 -7.933419E-08 -1.754295E-08
      4405   1  8.360829E-05 -2.758694E-05 -2.759060E-05  1.631653E-05 -4.674352E-08  3.032157E-10
      4406   1  8.360882E-05 -2.759225E-05 -2.758601E-05  1.619258E-05 -4.575891E-15 -1.329672E-16
      4407   1  8.360829E-05 -2.758694E-05 -2.759060E-05  1.631653E-05  4.674351E-08 -3.032153E-10
      4408   1  8.360884E-05 -2.759094E-05 -2.758943E-05  1.669888E-05  7.933418E-08  1.754295E-08
      4409   1  8.360824E-05 -2.758856E-05 -2.758940E-05  1.735697E-05  8.713082E-08  1.570669E-09
      4410   1  8.360892E-05 -2.759147E-05 -2.759537E-05  1.832413E-05  6.640439E-08  2.256908E-08
      4411   1  8.360812E-05 -2.760200E-05 -2.757818E-05  1.962265E-05  2.573657E-08  1.535303E-09
      4412   1  9.150119E-14 -3.020501E-14 -3.022989E-14  2.025224E-05 -3.136224E-17 -9.077668E-09
      4413   1  9.150563E-14 -3.004194E-14 -3.040175E-14  1.894421E-05 -7.454483E-17 -3.821251E-09
      4414   1  9.146416E-14 -3.012868E-14 -3.013651E-14  1.796591E-05 -9.735712E-17 -2.413859E-08
      4415   1  9.145701E-14 -3.017031E-14 -3.019020E-14  1.729135E-05 -9.490919E-17 -1.477515E-09
      4416   1  9.141857E-14 -3.006623E-14 -3.015851E-14  1.690025E-05 -4.675092E-17 -1.002831E-08
      4417   1  9.141402E-14 -3.014256E-14 -3.013971E-14  1.677116E-05  2.582709E-18  2.338609E-16
      4418   1  9.138193E-14 -3.004194E-14 -3.014655E-14  1.690025E-05  4.748975E-17  1.002831E-08
      4419   1  9.138805E-14 -3.009051E-14 -3.016009E-14  1.729135E-05  8.854967E-17  1.477516E-09
      4420   1  9.135146E-14 -3.006623E-14 -3.007982E-14  1.796591E-05  1.052269E-16  2.413859E-08
      4421   1  9.137547E-14 -3.002806E-14 -3.035333E-14  1.894421E-05  6.731879E-17  3.821251E-09
      4422   1  9.131877E-14 -3.013562E-14 -3.018341E-14  2.025224E-05  2.361358E-17  9.077668E-09
      4423   1 -8.360812E-05  2.760200E-05  2.757818E-05  1.962265E-05  2.573657E-08 -1.535303E-09
      4424   1 -8.360892E-05  2.759147E-05  2.759537E-05  1.832413E-05  6.640440E-08 -2.256908E-08
      4425   1 -8.360824E-05  2.758856E-05  2.758940E-05  1.735697E-05  8.713082E-08 -1.570669E-09
      4426   1 -8.360884E-05  2.759094E-05  2.758943E-05  1.669888E-05  7.933419E-08 -1.754295E-08
      4427   1 -8.360829E-05  2.758694E-05  2.759060E-05  1.631653E-05  4.674352E-08  3.032157E-10
      4428   1 -8.360882E-05  2.759225E-05  2.758601E-05  1.619258E-05  4.572784E-15 -1.813184E-16
      4429   1 -8.360829E-05  2.758694E-05  2.759060E-05  1.631653E-05 -4.674351E-08 -3.032153E-10
      4430   1 -8.360884E-05  2.759094E-05  2.758943E-05  1.669888E-05 -7.933418E-08  1.754295E-08
      4431   1 -8.360824E-05  2.758856E-05  2.758940E-05  1.735697E-05 -8.713082E-08  1.570669E-09
      4432   1 -8.360892E-05  2.759147E-05  2.759537E-05  1.832413E-05 -6.640439E-08  2.256908E-08
      4433   1 -8.360812E-05  2.760200E-05  2.757818E-05  1.962265E-05 -2.573657E-08  1.535303E-09
      4434   1 -1.672162E-04  5.518832E-05  5.519051E-05  1.772527E-05  5.844925E-08 -1.168026E-08
      4435   1 -1.672178E-04  5.518757E-05  5.517256E-05  1.645289E-05  1.613418E-07  9.346420E-10
      4436   1 -1.672164E-04  5.518113E-05  5.518046E-05  1.553579E-05  2.068378E-07 -2.224394E-08
      4437   1 -1.672176E-04  5.517277E-05  5.518540E-05  1.492198E-05  1.867838E-07  3.446856E-09
      4438   1 -1.672165E-04  5.518450E-05  5.516866E-05  1.457599E-05  1.104389E-07 -3.370966E-09
      4439   1 -1.672176E-04  5.518049E-05  5.517783E-05  1.446386E-05  9.462978E-15  3.008144E-16
      4440   1 -1.672165E-04  5.518450E-05  5.516866E-05  1.457599E-05 -1.104389E-07  3.370965E-09
      4441   1 -1.672176E-04  5.517277E-05  5.518540E-05  1.492198E-05 -1.867838E-07 -3.446856E-09
      4442   1 -1.672164E-04  5.518113E-05  5.518046E-05  1.553579E-05 -2.068377E-07  2.224394E-08
      4443   1 -1.672178E-04  5.518757E-05  5.517256E-05  1.645289E-05 -1.613418E-07 -9.346421E-10
      4444   1 -1.672162E-04  5.518832E-05  5.519051E-05  1.772527E-05 -5.844925E-08  1.168026E-08
      4445   1 -2.508244E-04  8.281030E-05  8.272640E-05  1.452040E-05  1.262149E-07  2.943035E-09
      4446   1 -2.508267E-04  8.277258E-05  8.278599E-05  1.331918E-05  3.182998E-07 -2.931768E-08
      4447   1 -2.508248E-04  8.275716E-05  8.277434E-05  1.249375E-05  4.060403E-07  1.161945E-08
      4448   1 -2.508265E-04  8.277710E-05  8.275750E-05  1.198338E-05  3.623020E-07  3.120612E-09
      4449   1 -2.508249E-04  8.277694E-05  8.275597E-05  1.170193E-05  2.069493E-07  2.527300E-09
      4450   1 -2.508264E-04  8.277817E-05  8.275447E-05  1.161082E-05  1.501894E-14 -2.819214E-16
      4451   1 -2.508249E-04  8.277694E-05  8.275597E-05  1.170193E-05 -2.069493E-07 -2.527299E-09
      4452   1 -2.508265E-04  8.277710E-05  8.275750E-05  1.198338E-05 -3.623019E-07 -3.120613E-09
      4453   1 -2.508248E-04  8.275716E-05  8.277434E-05  1.249375E-05 -4.060403E-07 -1.161945E-08
      4454   1 -2.508267E-04  8.277258E-05  8.278599E-05  1.331918E-05 -3.182998E-07  2.931768E-08
      4455   1 -2.508244E-04  8.281030E-05  8.272640E-05  1.452040E-05 -1.262149E-07 -2.943035E-09
      4456   1 -3.344326E-04  1.103724E-04  1.103998E-04  9.932479E-06  2.313123E-07 -2.753057E-08
      4457   1 -3.344356E-04  1.103473E-04  1.103630E-04  8.856157E-06  6.333322E-07  2.681045E-08
      4458   1 -3.344329E-04  1.103701E-04  1.103313E-04  8.266729E-06  7.744223E-07  1.916755E-08
      4459   1 -3.344352E-04  1.103781E-04  1.103383E-04  7.924995E-06  6.406935E-07  5.630182E-09
      4460   1 -3.344331E-04  1.103706E-04  1.103317E-04  7.736585E-06  3.581190E-07  4.700001E-09
      4461   1 -3.344351E-04  1.103815E-04  1.103359E-04  7.679086E-06  2.140918E-14  8.774075E-17
      4462   1 -3.344331E-04  1.103706E-04  1.103317E-04  7.736585E-06 -3.581189E-07 -4.700002E-09
      4463   1 -3.344352E-04  1.103781E-04  1.103383E-04  7.924995E-06 -6.406935E-07 -5.630181E-09
      4464   1 -3.344329E-04  1.103701E-04  1.103313E-04  8.266729E-06 -7.744223E-07 -1.916755E-08
      4465   1 -3.344356E-04  1.103473E-04  1.103630E-04  8.856157E-06 -6.333322E-07 -2.681046E-08
      4466   1 -3.344326E-04  1.103724E-04  1.103998E-04  9.932479E-06 -2.313123E-07  2.753058E-08
      4467   1 -4.180408E-04  1.380364E-04  1.378231E-04  3.648172E-06  6.235236E-07  4.241201E-08
      4468   1 -4.180444E-04  1.379574E-04  1.378998E-04  3.134843E-06  1.347905E-06  2.601252E-08
      4469   1 -4.180414E-04  1.379970E-04  1.378904E-04  2.938806E-06  1.372578E-06  5.133613E-09
      4470   1 -4.180440E-04  1.379612E-04  1.379198E-04  2.809147E-06  1.070191E-06  6.074839E-09
      4471   1 -4.180416E-04  1.379850E-04  1.379052E-04  2.747241E-06  5.776485E-07  8.678857E-10
      4472   1 -4.180439E-04  1.379625E-04  1.379232E-04  2.724375E-06  2.894575E-14 -6.129808E-17
      4473   1 -4.180416E-04  1.379850E-04  1.379052E-04  2.747241E-06 -5.776484E-07 -8.678856E-10
      4474   1 -4.180440E-04  1.379612E-04  1.379198E-04  2.809147E-06 -1.070190E-06 -6.074840E-09
      4475   1 -4.180414E-04  1.379970E-04  1.378904E-04  2.938806E-06 -1.372578E-06 -5.133612E-09
      4476   1 -4.180444E-04  1.379574E-04  1.378998E-04  3.134843E-06 -1.347905E-06 -2.601251E-08
      4477   1 -4.180408E-04  1.380364E-04  1.378231E-04  3.648172E-06 -6.235236E-07 -4.241201E-08
      4478   1  4.135004E-04 -1.365361E-04 -1.363324E-04  3.647897E-06 -6.234685E-07  4.179809E-08
      4479   1  4.134975E-04 -1.364576E-04 -1.363940E-04  3.135025E-06 -1.348039E-06  2.581939E-08
      4480   1  4.134999E-04 -1.364968E-04 -1.363983E-04  2.938705E-06 -1.372431E-06  5.018891E-09
      4481   1  4.134977E-04 -1.364614E-04 -1.364142E-04  2.809255E-06 -1.070319E-06  6.043688E-09
      4482   1  4.134997E-04 -1.364849E-04 -1.364127E-04  2.747182E-06 -5.775811E-07  8.417992E-10
      4483   1  4.134978E-04 -1.364627E-04 -1.364176E-04  2.724464E-06 -2.894393E-14 -3.013066E-17
      4484   1  4.134997E-04 -1.364849E-04 -1.364127E-04  2.747182E-06  5.775810E-07 -8.417991E-10
      4485   1  4.134977E-04 -1.364614E-04 -1.364142E-04  2.809255E-06  1.070319E-06 -6.043688E-09
      4486   1  4.134999E-04 -1.364968E-04 -1.363983E-04  2.938705E-06  1.372431E-06 -5.018891E-09
      4487   1  4.134975E-04 -1.364576E-04 -1.363940E-04  3.135025E-06  1.348039E-06 -2.581939E-08
      4488   1  4.135004E-04 -1.365361E-04 -1.363324E-04  3.647897E-06  6.234685E-07 -4.179809E-08
      4489   1  3.308004E-04 -1.091727E-04 -1.092062E-04  9.932705E-06 -2.312474E-07 -2.719197E-08
      4490   1  3.307979E-04 -1.091481E-04 -1.091574E-04  8.856049E-06 -6.334713E-07  2.651800E-08
      4491   1  3.308001E-04 -1.091706E-04 -1.091379E-04  8.266715E-06 -7.742824E-07  1.895593E-08
      4492   1  3.307982E-04 -1.091785E-04 -1.091333E-04  7.924936E-06 -6.408113E-07  5.571679E-09
      4493   1  3.307999E-04 -1.091711E-04 -1.091380E-04  7.736549E-06 -3.580579E-07  4.646558E-09
      4494   1  3.307983E-04 -1.091818E-04 -1.091310E-04  7.679037E-06 -2.141291E-14  9.002181E-17
      4495   1  3.307999E-04 -1.091711E-04 -1.091380E-04  7.736549E-06  3.580579E-07 -4.646558E-09
      4496   1  3.307982E-04 -1.091785E-04 -1.091333E-04  7.924936E-06  6.408112E-07 -5.571678E-09
      4497   1  3.308001E-04 -1.091706E-04 -1.091379E-04  8.266715E-06  7.742824E-07 -1.895593E-08
      4498   1  3.307979E-04 -1.091481E-04 -1.091574E-04  8.856049E-06  6.334712E-07 -2.651800E-08
      4499   1  3.308004E-04 -1.091727E-04 -1.092062E-04  9.932705E-06  2.312474E-07  2.719197E-08
      4500   1  2.481003E-04 -8.191022E-05 -8.183215E-05  1.452028E-05 -1.261850E-07  2.889495E-09
      4501   1  2.480984E-04 -8.187277E-05 -8.188147E-05  1.331919E-05 -3.183902E-07 -2.900963E-08
      4502   1  2.481000E-04 -8.185748E-05 -8.187912E-05  1.249385E-05 -4.059391E-07  1.149873E-08
      4503   1  2.480986E-04 -8.187722E-05 -8.185357E-05  1.198341E-05 -3.623906E-07  3.081182E-09
      4504   1  2.480999E-04 -8.187706E-05 -8.186079E-05  1.170202E-05 -2.069031E-07  2.501531E-09
      4505   1  2.480986E-04 -8.187828E-05 -8.185066E-05  1.161085E-05 -1.501258E-14 -2.843786E-16
      4506   1  2.480999E-04 -8.187706E-05 -8.186079E-05  1.170202E-05  2.069031E-07 -2.501531E-09
      4507   1  2.480986E-04 -8.187722E-05 -8.185357E-05  1.198341E-05  3.623905E-07 -3.081183E-09
      4508   1  2.481000E-04 -8.185748E-05 -8.187912E-05  1.249385E-05  4.059391E-07 -1.149873E-08
      4509   1  2.480984E-04 -8.187277E-05 -8.188147E-05  1.331919E-05  3.183901E-07  2.900963E-08
      4510   1  2.481003E-04 -8.191022E-05 -8.183215E-05  1.452028E-05  1.261850E-07 -2.889496E-09
      4511   1  1.654002E-04 -5.458843E-05 -5.459394E-05  1.772543E-05 -5.841725E-08 -1.153688E-08
      4512   1  1.653989E-04 -5.458777E-05 -5.456971E-05  1.645282E-05 -1.614092E-07  9.312351E-10
      4513   1  1.654001E-04 -5.458143E-05 -5.458371E-05  1.553574E-05 -2.067705E-07 -2.200456E-08
      4514   1  1.653991E-04 -5.457315E-05 -5.458260E-05  1.492189E-05 -1.868415E-07  3.407814E-09
      4515   1  1.654000E-04 -5.458476E-05 -5.457192E-05  1.457595E-05 -1.104092E-07 -3.334737E-09
      4516   1  1.653991E-04 -5.458079E-05 -5.457517E-05  1.446377E-05 -9.467388E-15  3.193661E-16
      4517   1  1.654000E-04 -5.458476E-05 -5.457192E-05  1.457595E-05  1.104092E-07  3.334737E-09
      4518   1  1.653991E-04 -5.457315E-05 -5.458260E-05  1.492189E-05  1.868415E-07 -3.407814E-09
      4519   1  1.654001E-04 -5.458143E-05 -5.458371E-05  1.553574E-05  2.067705E-07  2.200456E-08
      4520   1  1.653989E-04 -5.458777E-05 -5.456971E-05  1.645282E-05  1.614092E-07 -9.312352E-10
      4521   1  1.654002E-04 -5.458843E-05 -5.459394E-05  1.772543E-05  5.841725E-08  1.153688E-08
      4522   1  8.270011E-05 -2.730199E-05 -2.728010E-05  1.962257E-05 -2.572612E-08 -1.531656E-09
      4523   1  8.269946E-05 -2.729153E-05 -2.729384E-05  1.832412E-05 -6.643611E-08 -2.233581E-08
      4524   1  8.270001E-05 -2.728864E-05 -2.729104E-05  1.735708E-05 -8.709577E-08 -1.551771E-09
      4525   1  8.269952E-05 -2.729100E-05 -2.728806E-05  1.669892E-05 -7.936480E-08 -1.735523E-08
      4526   1  8.269997E-05 -2.728704E-05 -2.729217E-05  1.631662E-05 -4.672773E-08  2.997844E-10
      4527   1  8.269954E-05 -2.729229E-05 -2.728470E-05  1.619263E-05 -4.584382E-15 -1.971234E-16
      4528   1  8.269997E-05 -2.728704E-05 -2.729217E-05  1.631662E-05  4.672772E-08 -2.997840E-10
      4529   1  8.269952E-05 -2.729100E-05 -2.728806E-05  1.669892E-05  7.936479E-08  1.735523E-08
      4530   1  8.270001E-05 -2.728864E-05 -2.729104E-05  1.735708E-05  8.709576E-08  1.551770E-09
      4531   1  8.269946E-05 -2.729153E-05 -2.729384E-05  1.832412E-05  6.643610E-08  2.233581E-08
      4532   1  8.270011E-05 -2.730199E-05 -2.728010E-05  1.962257E-05  2.572612E-08  1.531656E-09
      4533   1  9.057365E-14 -2.990663E-14 -2.996117E-14  2.025239E-05 -2.231762E-17 -8.966177E-09
      4534   1  9.052915E-14 -2.980255E-14 -3.002241E-14  1.894415E-05 -5.927282E-17 -3.773206E-09
      4535   1  9.053630E-14 -2.995174E-14 -2.985790E-14  1.796585E-05 -1.076011E-16 -2.387727E-08
      4536   1  9.051072E-14 -3.002806E-14 -2.980865E-14  1.729125E-05 -8.593488E-17 -1.464621E-09
      4537   1  9.051256E-14 -2.996561E-14 -2.988485E-14  1.690020E-05 -4.941061E-17 -9.919241E-09
      4538   1  9.046572E-14 -3.003153E-14 -2.975105E-14  1.677107E-05 -3.618631E-18  2.309370E-16
      4539   1  9.047174E-14 -2.988929E-14 -2.988608E-14  1.690020E-05  5.857190E-17  9.919241E-09
      4540   1  9.042588E-14 -3.001072E-14 -2.976243E-14  1.729125E-05  9.010821E-17  1.464622E-09
      4541   1  9.042566E-14 -2.989275E-14 -2.982331E-14  1.796585E-05  9.827869E-17  2.387727E-08
      4542   1  9.035947E-14 -2.976785E-14 -2.996521E-14  1.894415E-05  6.836064E-17  3.773207E-09
      4543   1  9.037855E-14 -2.991010E-14 -2.989816E-14  2.025239E-05  1.457913E-17  8.966177E-09
      4544   1 -8.270011E-05  2.730199E-05  2.728010E-05  1.962257E-05  2.572612E-08 -1.531657E-09
      4545   1 -8.269946E-05  2.729153E-05  2.729384E-05  1.832412E-05  6.643611E-08 -2.233581E-08
      4546   1 -8.270001E-05  2.728864E-05  2.729104E-05  1.735708E-05  8.709577E-08 -1.551770E-09
      4547   1 -8.269952E-05  2.729100E-05  2.728806E-05  1.669892E-05  7.936480E-08 -1.735523E-08
      4548   1 -8.269997E-05  2.728704E-05  2.729217E-05  1.631662E-05  4.672773E-08  2.997844E-10
      4549   1 -8.269954E-05  2.729229E-05  2.728470E-05  1.619263E-05  4.585114E-15 -1.721899E-16
      4550   1 -8.269997E-05  2.728704E-05  2.729217E-05  1.631662E-05 -4.672772E-08 -2.997840E-10
      4551   1 -8.269952E-05  2.729100E-05  2.728806E-05  1.669892E-05 -7.936479E-08  1.735523E-08
      4552   1 -8.270001E-05  2.728864E-05  2.729104E-05  1.735708E-05 -8.709576E-08  1.551770E-09
      4553   1 -8.269946E-05  2.729153E-05  2.729384E-05  1.832412E-05 -6.643610E-08  2.233581E-08
      4554   1 -8.270011E-05  2.730199E-05  2.728010E-05  1.962257E-05 -2.572612E-08  1.531657E-09
      4555   1 -1.654002E-04  5.458843E-05  5.459394E-05  1.772543E-05  5.841725E-08 -1.153688E-08
      4556   1 -1.653989E-04  5.458777E-05  5.456971E-05  1.645282E-05  1.614092E-07  9.312352E-10
      4557   1 -1.654001E-04  5.458143E-05  5.458371E-05  1.553574E-05  2.067705E-07 -2.200456E-08
      4558   1 -1.653991E-04  5.457315E-05  5.458260E-05  1.492189E-05  1.868415E-07  3.407814E-09
      4559   1 -1.654000E-04  5.458476E-05  5.457192E-05  1.457595E-05  1.104092E-07 -3.334737E-09
      4560   1 -1.653991E-04  5.458079E-05  5.457517E-05  1.446377E-05  9.465866E-15  2.735959E-16
      4561   1 -1.654000E-04  5.458476E-05  5.457192E-05  1.457595E-05 -1.104092E-07  3.334737E-09
      4562   1 -1.653991E-04  5.457315E-05  5.458260E-05  1.492189E-05 -1.868415E-07 -3.407814E-09
      4563   1 -1.654001E-04  5.458143E-05  5.458371E-05  1.553574E-05 -2.067705E-07  2.200456E-08
      4564   1 -1.653989E-04  5.458777E-05  5.456971E-05  1.645282E-05 -1.614092E-07 -9.312353E-10
      4565   1 -1.654002E-04  5.458843E-05  5.459394E-05  1.772543E-05 -5.841725E-08  1.153688E-08
      4566   1 -2.481003E-04  8.191022E-05  8.183215E-05  1.452028E-05  1.261850E-07  2.889496E-09
      4567   1 -2.480984E-04  8.187277E-05  8.188147E-05  1.331919E-05  3.183902E-07 -2.900963E-08
      4568   1 -2.481000E-04  8.185748E-05  8.187912E-05  1.249385E-05  4.059391E-07  1.149873E-08
      4569   1 -2.480986E-04  8.187722E-05  8.185357E-05  1.198341E-05  3.623906E-07  3.081182E-09
      4570   1 -2.480999E-04  8.187706E-05  8.186079E-05  1.170202E-05  2.069031E-07  2.501531E-09
      4571   1 -2.480986E-04  8.187828E-05  8.185066E-05  1.161085E-05  1.501164E-14 -2.517255E-16
      4572   1 -2.480999E-04  8.187706E-05  8.186079E-05  1.170202E-05 -2.069031E-07 -2.501531E-09
      4573   1 -2.480986E-04  8.187722E-05  8.185357E-05  1.198341E-05 -3.623905E-07 -3.081183E-09
      4574   1 -2.481000E-04  8.185748E-05  8.187912E-05  1.249385E-05 -4.059391E-07 -1.149873E-08
      4575   1 -2.480984E-04  8.187277E-05  8.188147E-05  1.331919E-05 -3.183901E-07  2.900963E-08
      4576   1 -2.481003E-04  8.191022E-05  8.183215E-05  1.452028E-05 -1.261850E-07 -2.889496E-09
      4577   1 -3.308004E-04  1.091727E-04  1.092062E-04  9.932705E-06  2.312474E-07 -2.719197E-08
      4578   1 -3.307979E-04  1.091481E-04  1.091574E-04  8.856049E-06  6.334713E-07  2.651800E-08
      4579   1 -3.308001E-04  1.091706E-04  1.091379E-04  8.266715E-06  7.742824E-07  1.895593E-08
      4580   1 -3.307982E-04  1.091785E-04  1.091333E-04  7.924936E-06  6.408113E-07  5.571679E-09
      4581   1 -3.307999E-04  1.091711E-04  1.091380E-04  7.736549E-06  3.580579E-07  4.646558E-09
      4582   1 -3.307983E-04  1.091818E-04  1.091310E-04  7.679037E-06  2.141231E-14  1.036751E-16
      4583   1 -3.307999E-04  1.091711E-04  1.091380E-04  7.736549E-06 -3.580579E-07 -4.646558E-09
      4584   1 -3.307982E-04  1.091785E-04  1.091333E-04  7.924936E-06 -6.408112E-07 -5.571678E-09
      4585   1 -3.308001E-04  1.091706E-04  1.091379E-04  8.266715E-06 -7.742824E-07 -1.895593E-08
      4586   1 -3.307979E-04  1.091481E-04  1.091574E-04  8.856049E-06 -6.334712E-07 -2.651800E-08
      4587   1 -3.308004E-04  1.091727E-04  1.092062E-04  9.932705E-06 -2.312474E-07  2.719197E-08
      4588   1 -4.135004E-04  1.365361E-04  1.363324E-04  3.647897E-06  6.234685E-07  4.179809E-08
      4589   1 -4.134975E-04  1.364576E-04  1.363940E-04  3.135025E-06  1.348039E-06  2.581939E-08
      4590   1 -4.134999E-04  1.364968E-04  1.363983E-04  2.938705E-06  1.372431E-06  5.018891E-09
      4591   1 -4.134977E-04  1.364614E-04  1.364142E-04  2.809255E-06  1.070319E-06  6.043688E-09
      4592   1 -4.134997E-04  1.364849E-04  1.364127E-04  2.747182E-06  5.775811E-07  8.417992E-10
      4593   1 -4.134978E-04  1.364627E-04  1.364176E-04  2.724464E-06  2.894330E-14 -6.966338E-17
      4594   1 -4.134997E-04  1.364849E-04  1.364127E-04  2.747182E-06 -5.775810E-07 -8.417991E-10
      4595   1 -4.134977E-04  1.364614E-04  1.364142E-04  2.809255E-06 -1.070319E-06 -6.043688E-09
      4596   1 -4.134999E-04  1.364968E-04  1.363983E-04  2.938705E-06 -1.372431E-06 -5.018891E-09
      4597   1 -4.134975E-04  1.364576E-04  1.363940E-04  3.135025E-06 -1.348039E-06 -2.581939E-08
      4598   1 -4.135004E-04  1.365361E-04  1.363324E-04  3.647897E-06 -6.234685E-07 -4.179809E-08
      4599   1  4.089536E-04 -1.350356E-04 -1.348282E-04  3.648120E-06 -6.235149E-07  4.146281E-08
      4600   1  4.089560E-04 -1.349583E-04 -1.349008E-04  3.134876E-06 -1.347934E-06  2.546270E-08
      4601   1  4.089540E-04 -1.349970E-04 -1.348939E-04  2.938787E-06 -1.372557E-06  5.011366E-09
      4602   1  4.089557E-04 -1.349620E-04 -1.349204E-04  2.809166E-06 -1.070219E-06  5.948656E-09
      4603   1  4.089541E-04 -1.349853E-04 -1.349084E-04  2.747229E-06 -5.776390E-07  8.459060E-10
      4604   1  4.089557E-04 -1.349633E-04 -1.349238E-04  2.724391E-06 -2.893782E-14 -4.923972E-17
      4605   1  4.089541E-04 -1.349853E-04 -1.349084E-04  2.747229E-06  5.776389E-07 -8.459059E-10
      4606   1  4.089557E-04 -1.349620E-04 -1.349204E-04  2.809166E-06  1.070219E-06 -5.948657E-09
      4607   1  4.089540E-04 -1.349970E-04 -1.348939E-04  2.938787E-06  1.372557E-06 -5.011365E-09
      4608   1  4.089560E-04 -1.349583E-04 -1.349008E-04  3.134876E-06  1.347934E-06 -2.546270E-08
      4609   1  4.089536E-04 -1.350356E-04 -1.348282E-04  3.648120E-06  6.235149E-07 -4.146281E-08
      4610   1  3.271628E-04 -1.079730E-04 -1.080009E-04  9.932524E-06 -2.313017E-07 -2.692509E-08
      4611   1  3.271648E-04 -1.079485E-04 -1.079628E-04  8.856139E-06 -6.333613E-07  2.622701E-08
      4612   1  3.271631E-04 -1.079707E-04 -1.079338E-04  8.266729E-06 -7.744015E-07  1.874952E-08
      4613   1  3.271646E-04 -1.079786E-04 -1.079387E-04  7.924986E-06 -6.407193E-07  5.507474E-09
      4614   1  3.271632E-04 -1.079713E-04 -1.079341E-04  7.736582E-06 -3.581104E-07  4.596902E-09
      4615   1  3.271645E-04 -1.079819E-04 -1.079364E-04  7.679080E-06 -2.140603E-14  1.054302E-16
      4616   1  3.271632E-04 -1.079713E-04 -1.079341E-04  7.736582E-06  3.581104E-07 -4.596902E-09
      4617   1  3.271646E-04 -1.079786E-04 -1.079387E-04  7.924986E-06  6.407193E-07 -5.507473E-09
      4618   1  3.271631E-04 -1.079707E-04 -1.079338E-04  8.266729E-06  7.744015E-07 -1.874952E-08
      4619   1  3.271648E-04 -1.079485E-04 -1.079628E-04  8.856139E-06  6.333613E-07 -2.622701E-08
      4620   1  3.271628E-04 -1.079730E-04 -1.080009E-04  9.932524E-06  2.313017E-07  2.692509E-08
      4621   1  2.453721E-04 -8.101008E-05 -8.092885E-05  1.452037E-05 -1.262108E-07  2.874900E-09
      4622   1  2.453736E-04 -8.097316E-05 -8.098550E-05  1.331917E-05 -3.183190E-07 -2.868311E-08
      4623   1  2.453723E-04 -8.095807E-05 -8.097567E-05  1.249376E-05 -4.060260E-07  1.136658E-08
      4624   1  2.453735E-04 -8.097757E-05 -8.095768E-05  1.198338E-05 -3.623216E-07  3.050556E-09
      4625   1  2.453724E-04 -8.097741E-05 -8.095768E-05  1.170194E-05 -2.069431E-07  2.471890E-09
      4626   1  2.453735E-04 -8.097862E-05 -8.095473E-05  1.161082E-05 -1.501983E-14 -2.827616E-16
      4627   1  2.453724E-04 -8.097741E-05 -8.095768E-05  1.170194E-05  2.069431E-07 -2.471890E-09
      4628   1  2.453735E-04 -8.097757E-05 -8.095768E-05  1.198338E-05  3.623215E-07 -3.050556E-09
      4629   1  2.453723E-04 -8.095807E-05 -8.097567E-05  1.249376E-05  4.060260E-07 -1.136658E-08
      4630   1  2.453736E-04 -8.097316E-05 -8.098550E-05  1.331917E-05  3.183190E-07  2.868311E-08
      4631   1  2.453721E-04 -8.101008E-05 -8.092885E-05  1.452037E-05  1.262108E-07 -2.874901E-09
      4632   1  1.635814E-04 -5.398857E-05 -5.399129E-05  1.772531E-05 -5.844409E-08 -1.142385E-08
      4633   1  1.635824E-04 -5.398785E-05 -5.397262E-05  1.645288E-05 -1.613562E-07  9.144427E-10
      4634   1  1.635815E-04 -5.398156E-05 -5.398140E-05  1.553579E-05 -2.068284E-07 -2.176253E-08
      4635   1  1.635823E-04 -5.397337E-05 -5.398521E-05  1.492197E-05 -1.867967E-07  3.370003E-09
      4636   1  1.635816E-04 -5.398485E-05 -5.396985E-05  1.457599E-05 -1.104351E-07 -3.298777E-09
      4637   1  1.635823E-04 -5.398093E-05 -5.397782E-05  1.446385E-05 -9.462834E-15  2.709735E-16
      4638   1  1.635816E-04 -5.398485E-05 -5.396985E-05  1.457599E-05  1.104351E-07  3.298776E-09
      4639   1  1.635823E-04 -5.397337E-05 -5.398521E-05  1.492197E-05  1.867967E-07 -3.370003E-09
      4640   1  1.635815E-04 -5.398156E-05 -5.398140E-05  1.553579E-05  2.068284E-07  2.176253E-08
      4641   1  1.635824E-04 -5.398785E-05 -5.397262E-05  1.645288E-05  1.613562E-07 -9.144428E-10
      4642   1  1.635814E-04 -5.398857E-05 -5.399129E-05  1.772531E-05  5.844408E-08  1.142385E-08
      4643   1  8.179068E-05 -2.700196E-05 -2.697895E-05  1.962263E-05 -2.573520E-08 -1.504642E-09
      4644   1  8.179122E-05 -2.699165E-05 -2.699520E-05  1.832412E-05 -6.641125E-08 -2.208209E-08
      4645   1  8.179077E-05 -2.698880E-05 -2.698989E-05  1.735698E-05 -8.712595E-08 -1.538172E-09
      4646   1  8.179117E-05 -2.699113E-05 -2.698941E-05  1.669888E-05 -7.934108E-08 -1.716396E-08
      4647   1  8.179080E-05 -2.698722E-05 -2.699106E-05  1.631654E-05 -4.674145E-08  2.954602E-10
      4648   1  8.179115E-05 -2.699241E-05 -2.698606E-05  1.619258E-05 -4.577081E-15 -1.423423E-16
      4649   1  8.179080E-05 -2.698722E-05 -2.699106E-05  1.631654E-05  4.674144E-08 -2.954598E-10
      4650   1  8.179117E-05 -2.699113E-05 -2.698941E-05  1.669888E-05  7.934108E-08  1.716396E-08
      4651   1  8.179077E-05 -2.698880E-05 -2.698989E-05  1.735698E-05  8.712594E-08  1.538172E-09
      4652   1  8.179122E-05 -2.699165E-05 -2.699520E-05  1.832412E-05  6.641124E-08  2.208209E-08
      4653   1  8.179068E-05 -2.700196E-05 -2.697895E-05  1.962263E-05  2.573520E-08  1.504642E-09
      4654   1  8.948988E-14 -2.945560E-14 -2.957818E-14  2.025227E-05 -2.370252E-17 -8.878676E-09
      4655   1  8.951065E-14 -2.934805E-14 -2.974748E-14  1.894421E-05 -8.090350E-17 -3.738397E-09
      4656   1  8.946251E-14 -2.941050E-14 -2.947604E-14  1.796590E-05 -9.220631E-17 -2.361613E-08
      4657   1  8.945980E-14 -2.943826E-14 -2.953916E-14  1.729134E-05 -9.838372E-17 -1.447956E-09
      4658   1  8.940635E-14 -2.935846E-14 -2.949033E-14  1.690025E-05 -5.538558E-17 -9.811508E-09
      4659   1  8.941567E-14 -2.942438E-14 -2.949286E-14  1.677116E-05 -1.419733E-18  2.162567E-16
      4660   1  8.936325E-14 -2.935846E-14 -2.947366E-14  1.690025E-05  5.290864E-17  9.811508E-09
      4661   1  8.937843E-14 -2.938969E-14 -2.952034E-14  1.729134E-05  9.465424E-17  1.447957E-09
      4662   1  8.933642E-14 -2.937234E-14 -2.942653E-14  1.796590E-05  9.702424E-17  2.361613E-08
      4663   1  8.936227E-14 -2.930295E-14 -2.970375E-14  1.894421E-05  7.007249E-17  3.738397E-09
      4664   1  8.932731E-14 -2.947989E-14 -2.950658E-14  2.025227E-05  2.691193E-17  8.878676E-09
      4665   1 -8.179068E-05  2.700196E-05  2.697895E-05  1.962263E-05  2.573520E-08 -1.504643E-09
      4666   1 -8.179122E-05  2.699165E-05  2.699520E-05  1.832412E-05  6.641125E-08 -2.208209E-08
      4667   1 -8.179077E-05  2.698880E-05  2.698989E-05  1.735698E-05  8.712594E-08 -1.538172E-09
      4668   1 -8.179117E-05  2.699113E-05  2.698941E-05  1.669888E-05  7.934108E-08 -1.716396E-08
      4669   1 -8.179080E-05  2.698722E-05  2.699106E-05  1.631654E-05  4.674145E-08  2.954602E-10
      4670   1 -8.179115E-05  2.699241E-05  2.698606E-05  1.619258E-05  4.584244E-15 -1.669320E-16
      4671   1 -8.179080E-05  2.698722E-05  2.699106E-05  1.631654E-05 -4.674144E-08 -2.954598E-10
      4672   1 -8.179117E-05  2.699113E-05  2.698941E-05  1.669888E-05 -7.934108E-08  1.716396E-08
      4673   1 -8.179077E-05  2.698880E-05  2.698989E-05  1.735698E-05 -8.712594E-08  1.538172E-09
      4674   1 -8.179122E-05  2.699165E-05  2.699520E-05  1.832412E-05 -6.641124E-08  2.208209E-08
      4675   1 -8.179068E-05  2.700196E-05  2.697895E-05  1.962263E-05 -2.573520E-08  1.504643E-09
      4676   1 -1.635814E-04  5.398857E-05  5.399129E-05  1.772531E-05  5.844409E-08 -1.142385E-08
      4677   1 -1.635824E-04  5.398785E-05  5.397262E-05  1.645288E-05  1.613562E-07  9.144428E-10
      4678   1 -1.635815E-04  5.398156E-05  5.398140E-05  1.553579E-05  2.068284E-07 -2.176253E-08
      4679   1 -1.635823E-04  5.397337E-05  5.398521E-05  1.492197E-05  1.867967E-07  3.370003E-09
      4680   1 -1.635816E-04  5.398485E-05  5.396985E-05  1.457599E-05  1.104351E-07 -3.298777E-09
      4681   1 -1.635823E-04  5.398093E-05  5.397782E-05  1.446385E-05  9.469969E-15  2.791677E-16
      4682   1 -1.635816E-04  5.398485E-05  5.396985E-05  1.457599E-05 -1.104351E-07  3.298776E-09
      4683   1 -1.635823E-04  5.397337E-05  5.398521E-05  1.492197E-05 -1.867967E-07 -3.370003E-09
      4684   1 -1.635815E-04  5.398156E-05  5.398140E-05  1.553579E-05 -2.068284E-07  2.176253E-08
      4685   1 -1.635824E-04  5.398785E-05  5.397262E-05  1.645288E-05 -1.613562E-07 -9.144429E-10
      4686   1 -1.635814E-04  5.398857E-05  5.399129E-05  1.772531E-05 -5.844408E-08  1.142385E-08
      4687   1 -2.453721E-04  8.101008E-05  8.092885E-05  1.452037E-05  1.262108E-07  2.874901E-09
      4688   1 -2.453736E-04  8.097316E-05  8.098550E-05  1.331917E-05  3.183190E-07 -2.868311E-08
      4689   1 -2.453723E-04  8.095807E-05  8.097567E-05  1.249376E-05  4.060260E-07  1.136658E-08
      4690   1 -2.453735E-04  8.097757E-05  8.095768E-05  1.198338E-05  3.623216E-07  3.050556E-09
      4691   1 -2.453724E-04  8.097741E-05  8.095768E-05  1.170194E-05  2.069431E-07  2.471890E-09
      4692   1 -2.453735E-04  8.097862E-05  8.095473E-05  1.161082E-05  1.499487E-14 -2.888543E-16
      4693   1 -2.453724E-04  8.097741E-05  8.095768E-05  1.170194E-05 -2.069431E-07 -2.471890E-09
      4694   1 -2.453735E-04  8.097757E-05  8.095768E-05  1.198338E-05 -3.623215E-07 -3.050556E-09
      4695   1 -2.453723E-04  8.095807E-05  8.097567E-05  1.249376E-05 -4.060260E-07 -1.136658E-08
      4696   1 -2.453736E-04  8.097316E-05  8.098550E-05  1.331917E-05 -3.183190E-07  2.868311E-08
      4697   1 -2.453721E-04  8.101008E-05  8.092885E-05  1.452037E-05 -1.262108E-07 -2.874901E-09
      4698   1 -3.271628E-04  1.079730E-04  1.080009E-04  9.932524E-06  2.313017E-07 -2.692509E-08
      4699   1 -3.271648E-04  1.079485E-04  1.079628E-04  8.856139E-06  6.333613E-07  2.622701E-08
      4700   1 -3.271631E-04  1.079707E-04  1.079338E-04  8.266729E-06  7.744015E-07  1.874952E-08
      4701   1 -3.271646E-04  1.079786E-04  1.079387E-04  7.924986E-06  6.407193E-07  5.507474E-09
      4702   1 -3.271632E-04  1.079713E-04  1.079341E-04  7.736582E-06  3.581104E-07  4.596902E-09
      4703   1 -3.271645E-04  1.079819E-04  1.079364E-04  7.679080E-06  2.141686E-14  1.091521E-16
      4704   1 -3.271632E-04  1.079713E-04  1.079341E-04  7.736582E-06 -3.581104E-07 -4.596902E-09
      4705   1 -3.271646E-04  1.079786E-04  1.079387E-04  7.924986E-06 -6.407193E-07 -5.507473E-09
      4706   1 -3.271631E-04  1.079707E-04  1.079338E-04  8.266729E-06 -7.744015E-07 -1.874952E-08
      4707   1 -3.271648E-04  1.079485E-04  1.079628E-04  8.856139E-06 -6.333613E-07 -2.622701E-08
      4708   1 -3.271628E-04  1.079730E-04  1.080009E-04  9.932524E-06 -2.313017E-07  2.692509E-08
      4709   1 -4.089536E-04  1.350356E-04  1.348282E-04  3.648120E-06  6.235149E-07  4.146281E-08
      4710   1 -4.089560E-04  1.349583E-04  1.349008E-04  3.134876E-06  1.347934E-06  2.546270E-08
      4711   1 -4.089540E-04  1.349970E-04  1.348939E-04  2.938787E-06  1.372557E-06  5.011366E-09
      4712   1 -4.089557E-04  1.349620E-04  1.349204E-04  2.809166E-06  1.070219E-06  5.948656E-09
      4713   1 -4.089541E-04  1.349853E-04  1.349084E-04  2.747229E-06  5.776390E-07  8.459060E-10
      4714   1 -4.089557E-04  1.349633E-04  1.349238E-04  2.724391E-06  2.894316E-14 -4.748806E-17
      4715   1 -4.089541E-04  1.349853E-04  1.349084E-04  2.747229E-06 -5.776389E-07 -8.459060E-10
      4716   1 -4.089557E-04  1.349620E-04  1.349204E-04  2.809166E-06 -1.070219E-06 -5.948657E-09
      4717   1 -4.089540E-04  1.349970E-04  1.348939E-04  2.938787E-06 -1.372557E-06 -5.011365E-09
      4718   1 -4.089560E-04  1.349583E-04  1.349008E-04  3.134876E-06 -1.347934E-06 -2.546270E-08
      4719   1 -4.089536E-04  1.350356E-04  1.348282E-04  3.648120E-06 -6.235149E-07 -4.146281E-08
      4720   1  4.044120E-04 -1.335353E-04 -1.333350E-04  3.647938E-06 -6.234780E-07  4.090138E-08
      4721   1  4.044100E-04 -1.334586E-04 -1.333973E-04  3.134998E-06 -1.348022E-06  2.523907E-08
      4722   1  4.044116E-04 -1.334969E-04 -1.333996E-04  2.938720E-06 -1.372457E-06  4.916869E-09
      4723   1  4.044102E-04 -1.334623E-04 -1.334170E-04  2.809239E-06 -1.070303E-06  5.905714E-09
      4724   1  4.044115E-04 -1.334853E-04 -1.334137E-04  2.747191E-06 -5.775932E-07  8.255693E-10
      4725   1  4.044103E-04 -1.334635E-04 -1.334204E-04  2.724450E-06 -2.893422E-14 -2.397696E-17
      4726   1  4.044115E-04 -1.334853E-04 -1.334137E-04  2.747191E-06  5.775932E-07 -8.255692E-10
      4727   1  4.044102E-04 -1.334623E-04 -1.334170E-04  2.809239E-06  1.070303E-06 -5.905714E-09
      4728   1  4.044116E-04 -1.334969E-04 -1.333996E-04  2.938720E-06  1.372457E-06 -4.916868E-09
      4729   1  4.044100E-04 -1.334586E-04 -1.333973E-04  3.134998E-06  1.348022E-06 -2.523907E-08
      4730   1  4.044120E-04 -1.335353E-04 -1.333350E-04  3.647938E-06  6.234780E-07 -4.090138E-08
      4731   1  3.235296E-04 -1.067733E-04 -1.068051E-04  9.932670E-06 -2.312580E-07 -2.660011E-08
      4732   1  3.235280E-04 -1.067492E-04 -1.067592E-04  8.856064E-06 -6.334530E-07  2.593508E-08
      4733   1  3.235294E-04 -1.067712E-04 -1.067384E-04  8.266716E-06 -7.743068E-07  1.853934E-08
      4734   1  3.235282E-04 -1.067789E-04 -1.067356E-04  7.924944E-06 -6.407969E-07  5.448353E-09
      4735   1  3.235293E-04 -1.067717E-04 -1.067386E-04  7.736554E-06 -3.580689E-07  4.544461E-09
      4736   1  3.235282E-04 -1.067822E-04 -1.067333E-04  7.679043E-06 -2.142369E-14  8.763572E-17
      4737   1  3.235293E-04 -1.067717E-04 -1.067386E-04  7.736554E-06  3.580689E-07 -4.544461E-09
      4738   1  3.235282E-04 -1.067789E-04 -1.067356E-04  7.924944E-06  6.407969E-07 -5.448352E-09
      4739   1  3.235294E-04 -1.067712E-04 -1.067384E-04  8.266716E-06  7.743067E-07 -1.853934E-08
      4740   1  3.235280E-04 -1.067492E-04 -1.067592E-04  8.856064E-06  6.334530E-07 -2.593508E-08
      4741   1  3.235296E-04 -1.067733E-04 -1.068051E-04  9.932670E-06  2.312580E-07  2.660011E-08
      4742   1  2.426472E-04 -8.011000E-05 -8.003295E-05  1.452030E-05 -1.261901E-07  2.828995E-09
      4743   1  2.426460E-04 -8.007338E-05 -8.008253E-05  1.331919E-05 -3.183789E-07 -2.837097E-08
      4744   1  2.426470E-04 -8.005844E-05 -8.007895E-05  1.249383E-05 -4.059570E-07  1.124445E-08
      4745   1  2.426461E-04 -8.007774E-05 -8.005521E-05  1.198340E-05 -3.623801E-07  3.013454E-09
      4746   1  2.426470E-04 -8.007758E-05 -8.006105E-05  1.170201E-05 -2.069115E-07  2.445807E-09
      4747   1  2.426461E-04 -8.007878E-05 -8.005235E-05  1.161085E-05 -1.499878E-14 -3.170385E-16
      4748   1  2.426470E-04 -8.007758E-05 -8.006105E-05  1.170201E-05  2.069115E-07 -2.445806E-09
      4749   1  2.426461E-04 -8.007774E-05 -8.005521E-05  1.198340E-05  3.623801E-07 -3.013454E-09
      4750   1  2.426470E-04 -8.005844E-05 -8.007895E-05  1.249383E-05  4.059569E-07 -1.124445E-08
      4751   1  2.426460E-04 -8.007338E-05 -8.008253E-05  1.331919E-05  3.183789E-07  2.837097E-08
      4752   1  2.426472E-04 -8.011000E-05 -8.003295E-05  1.452030E-05  1.261901E-07 -2.828995E-09
      4753   1  1.617648E-04 -5.338868E-05 -5.339361E-05  1.772541E-05 -5.842263E-08 -1.128589E-08
      4754   1  1.617640E-04 -5.338803E-05 -5.337081E-05  1.645282E-05 -1.614007E-07  9.090683E-10
      4755   1  1.617647E-04 -5.338183E-05 -5.338364E-05  1.553574E-05 -2.067825E-07 -2.152163E-08
      4756   1  1.617641E-04 -5.337372E-05 -5.338340E-05  1.492190E-05 -1.868348E-07  3.332095E-09
      4757   1  1.617647E-04 -5.338508E-05 -5.337213E-05  1.457595E-05 -1.104147E-07 -3.262028E-09
      4758   1  1.617641E-04 -5.338120E-05 -5.337612E-05  1.446378E-05 -9.464951E-15  2.714012E-16
      4759   1  1.617647E-04 -5.338508E-05 -5.337213E-05  1.457595E-05  1.104147E-07  3.262028E-09
      4760   1  1.617641E-04 -5.337372E-05 -5.338340E-05  1.492190E-05  1.868348E-07 -3.332095E-09
      4761   1  1.617647E-04 -5.338183E-05 -5.338364E-05  1.553574E-05  2.067825E-07  2.152163E-08
      4762   1  1.617640E-04 -5.338803E-05 -5.337081E-05  1.645282E-05  1.614007E-07 -9.090684E-10
      4763   1  1.617648E-04 -5.338868E-05 -5.339361E-05  1.772541E-05  5.842263E-08  1.128589E-08
      4764   1  8.088242E-05 -2.670194E-05 -2.668030E-05  1.962259E-05 -2.572793E-08 -1.496410E-09
      4765   1  8.088198E-05 -2.669172E-05 -2.669419E-05  1.832413E-05 -6.643221E-08 -2.184396E-08
      4766   1  8.088235E-05 -2.668889E-05 -2.669102E-05  1.735707E-05 -8.710204E-08 -1.519162E-09
      4767   1  8.088202E-05 -2.669121E-05 -2.668853E-05  1.669892E-05 -7.936123E-08 -1.697461E-08
      4768   1  8.088233E-05 -2.668733E-05 -2.669214E-05  1.631661E-05 -4.673067E-08  2.924596E-10
      4769   1  8.088203E-05 -2.669246E-05 -2.668524E-05  1.619263E-05 -4.580137E-15 -1.281225E-16
      4770   1  8.088233E-05 -2.668733E-05 -2.669214E-05  1.631661E-05  4.673066E-08 -2.924592E-10
      4771   1  8.088202E-05 -2.669121E-05 -2.668853E-05  1.669892E-05  7.936122E-08  1.697461E-08
      4772   1  8.088235E-05 -2.668889E-05 -2.669102E-05  1.735707E-05  8.710204E-08  1.519162E-09
      4773   1  8.088198E-05 -2.669172E-05 -2.669419E-05  1.832413E-05  6.643221E-08  2.184396E-08
      4774   1  8.088242E-05 -2.670194E-05 -2.668030E-05  1.962259E-05  2.572793E-08  1.496410E-09
      4775   1  8.858187E-14 -2.921274E-14 -2.935525E-14  2.025236E-05 -2.160950E-17 -8.771211E-09
      4776   1  8.851979E-14 -2.915723E-14 -2.932267E-14  1.894415E-05 -6.292523E-17 -3.692152E-09
      4777   1  8.855931E-14 -2.928213E-14 -2.921799E-14  1.796585E-05 -9.239435E-17 -2.335363E-08
      4778   1  8.852473E-14 -2.935152E-14 -2.915446E-14  1.729126E-05 -8.815157E-17 -1.433252E-09
      4779   1  8.854121E-14 -2.937928E-14 -2.922367E-14  1.690021E-05 -5.645983E-17 -9.702024E-09
      4780   1  8.850044E-14 -2.946601E-14 -2.909975E-14  1.677108E-05  1.451814E-18  2.251262E-16
      4781   1  8.852749E-14 -2.938969E-14 -2.921675E-14  1.690021E-05  4.303605E-17  9.702024E-09
      4782   1  8.845404E-14 -2.938622E-14 -2.911271E-14  1.729126E-05  8.153793E-17  1.433252E-09
      4783   1  8.844894E-14 -2.926132E-14 -2.919031E-14  1.796585E-05  9.014633E-17  2.335363E-08
      4784   1  8.839701E-14 -2.917458E-14 -2.928245E-14  1.894415E-05  7.267627E-17  3.692152E-09
      4785   1  8.839977E-14 -2.921621E-14 -2.925615E-14  2.025236E-05  2.490616E-17  8.771211E-09
      4786   1 -8.088242E-05  2.670194E-05  2.668030E-05  1.962259E-05  2.572793E-08 -1.496410E-09
      4787   1 -8.088198E-05  2.669172E-05  2.669419E-05  1.832413E-05  6.643221E-08 -2.184396E-08
      4788   1 -8.088235E-05  2.668889E-05  2.669102E-05  1.735707E-05  8.710204E-08 -1.519162E-09
      4789   1 -8.088202E-05  2.669121E-05  2.668853E-05  1.669892E-05  7.936123E-08 -1.697461E-08
      4790   1 -8.088232E-05  2.668733E-05  2.669214E-05  1.631661E-05  4.673067E-08  2.924596E-10
      4791   1 -8.088203E-05  2.669246E-05  2.668524E-05  1.619263E-05  4.566003E-15 -1.602925E-16
      4792   1 -8.088232E-05  2.668733E-05  2.669214E-05  1.631661E-05 -4.673066E-08 -2.924592E-10
      4793   1 -8.088202E-05  2.669121E-05  2.668853E-05  1.669892E-05 -7.936122E-08  1.697461E-08
      4794   1 -8.088235E-05  2.668889E-05  2.669102E-05  1.735707E-05 -8.710204E-08  1.519162E-09
      4795   1 -8.088198E-05  2.669172E-05  2.669419E-05  1.832413E-05 -6.643221E-08  2.184396E-08
      4796   1 -8.088242E-05  2.670194E-05  2.668030E-05  1.962259E-05 -2.572793E-08  1.496410E-09
      4797   1 -1.617648E-04  5.338868E-05  5.339361E-05  1.772541E-05  5.842263E-08 -1.128589E-08
      4798   1 -1.617640E-04  5.338803E-05  5.337081E-05  1.645282E-05  1.614007E-07  9.090684E-10
      4799   1 -1.617647E-04  5.338183E-05  5.338364E-05  1.553574E-05  2.067825E-07 -2.152163E-08
      4800   1 -1.617641E-04  5.337372E-05  5.338340E-05  1.492190E-05  1.868348E-07  3.332095E-09
      4801   1 -1.617647E-04  5.338508E-05  5.337213E-05  1.457595E-05  1.104147E-07 -3.262029E-09
      4802   1 -1.617641E-04  5.338120E-05  5.337612E-05  1.446378E-05  9.460049E-15  3.213643E-16
      4803   1 -1.617647E-04  5.338508E-05  5.337213E-05  1.457595E-05 -1.104147E-07  3.262028E-09
      4804   1 -1.617641E-04  5.337372E-05  5.338340E-05  1.492190E-05 -1.868348E-07 -3.332095E-09
      4805   1 -1.617647E-04  5.338183E-05  5.338364E-05  1.553574E-05 -2.067825E-07  2.152163E-08
      4806   1 -1.617640E-04  5.338803E-05  5.337081E-05  1.645282E-05 -1.614007E-07 -9.090685E-10
      4807   1 -1.617648E-04  5.338868E-05  5.339361E-05  1.772541E-05 -5.842262E-08  1.128589E-08
      4808   1 -2.426472E-04  8.011000E-05  8.003295E-05  1.452030E-05  1.261901E-07  2.828995E-09
      4809   1 -2.426460E-04  8.007338E-05  8.008253E-05  1.331919E-05  3.183789E-07 -2.837097E-08
      4810   1 -2.426470E-04  8.005844E-05  8.007895E-05  1.249383E-05  4.059570E-07  1.124445E-08
      4811   1 -2.426461E-04  8.007774E-05  8.005521E-05  1.198340E-05  3.623801E-07  3.013454E-09
      4812   1 -2.426470E-04  8.007758E-05  8.006105E-05  1.170201E-05  2.069115E-07  2.445807E-09
      4813   1 -2.426461E-04  8.007878E-05  8.005235E-05  1.161085E-05  1.501741E-14 -2.512799E-16
      4814   1 -2.426470E-04  8.007758E-05  8.006105E-05  1.170201E-05 -2.069115E-07 -2.445806E-09
      4815   1 -2.426461E-04  8.007774E-05  8.005521E-05  1.198340E-05 -3.623801E-07 -3.013454E-09
      4816   1 -2.426470E-04  8.005844E-05  8.007895E-05  1.249383E-05 -4.059569E-07 -1.124445E-08
      4817   1 -2.426460E-04  8.007338E-05  8.008253E-05  1.331919E-05 -3.183789E-07  2.837097E-08
      4818   1 -2.426472E-04  8.011000E-05  8.003295E-05  1.452030E-05 -1.261901E-07 -2.828995E-09
      4819   1 -3.235296E-04  1.067733E-04  1.068051E-04  9.932670E-06  2.312580E-07 -2.660011E-08
      4820   1 -3.235280E-04  1.067492E-04  1.067592E-04  8.856064E-06  6.334530E-07  2.593508E-08
      4821   1 -3.235294E-04  1.067712E-04  1.067384E-04  8.266716E-06  7.743068E-07  1.853934E-08
      4822   1 -3.235282E-04  1.067789E-04  1.067356E-04  7.924944E-06  6.407969E-07  5.448353E-09
      4823   1 -3.235293E-04  1.067717E-04  1.067386E-04  7.736554E-06  3.580689E-07  4.544461E-09
      4824   1 -3.235282E-04  1.067822E-04  1.067333E-04  7.679043E-06  2.139635E-14  1.023301E-16
      4825   1 -3.235293E-04  1.067717E-04  1.067386E-04  7.736554E-06 -3.580689E-07 -4.544461E-09
      4826   1 -3.235282E-04  1.067789E-04  1.067356E-04  7.924944E-06 -6.407969E-07 -5.448352E-09
      4827   1 -3.235294E-04  1.067712E-04  1.067384E-04  8.266716E-06 -7.743067E-07 -1.853934E-08
      4828   1 -3.235280E-04  1.067492E-04  1.067592E-04  8.856064E-06 -6.334530E-07 -2.593508E-08
      4829   1 -3.235296E-04  1.067733E-04  1.068051E-04  9.932670E-06 -2.312580E-07  2.660011E-08
      4830   1 -4.044120E-04  1.335353E-04  1.333350E-04  3.647938E-06  6.234780E-07  4.090138E-08
      4831   1 -4.044100E-04  1.334586E-04  1.333973E-04  3.134998E-06  1.348022E-06  2.523907E-08
      4832   1 -4.044116E-04  1.334969E-04  1.333996E-04  2.938720E-06  1.372457E-06  4.916869E-09
      4833   1 -4.044102E-04  1.334623E-04  1.334170E-04  2.809239E-06  1.070303E-06  5.905714E-09
      4834   1 -4.044115E-04  1.334853E-04  1.334137E-04  2.747191E-06  5.775932E-07  8.255693E-10
      4835   1 -4.044103E-04  1.334635E-04  1.334204E-04  2.724450E-06  2.894546E-14 -3.915325E-17
      4836   1 -4.044115E-04  1.334853E-04  1.334137E-04  2.747191E-06 -5.775932E-07 -8.255692E-10
      4837   1 -4.044102E-04  1.334623E-04  1.334170E-04  2.809239E-06 -1.070303E-06 -5.905714E-09
      4838   1 -4.044116E-04  1.334969E-04  1.333996E-04  2.938720E-06 -1.372457E-06 -4.916868E-09
      4839   1 -4.044100E-04  1.334586E-04  1.333973E-04  3.134998E-06 -1.348022E-06 -2.523907E-08
      4840   1 -4.044120E-04  1.335353E-04  1.333350E-04  3.647938E-06 -6.234780E-07 -4.090138E-08
      4841   1  3.998661E-04 -1.320349E-04 -1.318329E-04  3.648087E-06 -6.235083E-07  4.052368E-08
      4842   1  3.998677E-04 -1.319592E-04 -1.319022E-04  3.134899E-06 -1.347951E-06  2.490724E-08
      4843   1  3.998664E-04 -1.319970E-04 -1.318971E-04  2.938774E-06 -1.372540E-06  4.893176E-09
      4844   1  3.998675E-04 -1.319628E-04 -1.319214E-04  2.809180E-06 -1.070236E-06  5.820486E-09
      4845   1  3.998665E-04 -1.319856E-04 -1.319112E-04  2.747222E-06 -5.776314E-07  8.251642E-10
      4846   1  3.998675E-04 -1.319640E-04 -1.319247E-04  2.724402E-06 -2.893536E-14 -2.961312E-17
      4847   1  3.998665E-04 -1.319856E-04 -1.319112E-04  2.747222E-06  5.776314E-07 -8.251642E-10
      4848   1  3.998675E-04 -1.319628E-04 -1.319214E-04  2.809180E-06  1.070236E-06 -5.820487E-09
      4849   1  3.998664E-04 -1.319970E-04 -1.318971E-04  2.938774E-06  1.372540E-06 -4.893176E-09
      4850   1  3.998677E-04 -1.319592E-04 -1.319022E-04  3.134899E-06  1.347951E-06 -2.490724E-08
      4851   1  3.998661E-04 -1.320349E-04 -1.318329E-04  3.648087E-06  6.235083E-07 -4.052368E-08
      4852   1  3.198928E-04 -1.055736E-04 -1.056016E-04  9.932553E-06 -2.312940E-07 -2.632214E-08
      4853   1  3.198942E-04 -1.055497E-04 -1.055629E-04  8.856126E-06 -6.333790E-07  2.564411E-08
      4854   1  3.198930E-04 -1.055714E-04 -1.055359E-04  8.266727E-06 -7.743856E-07  1.833246E-08
      4855   1  3.198940E-04 -1.055791E-04 -1.055394E-04  7.924979E-06 -6.407348E-07  5.385335E-09
      4856   1  3.198931E-04 -1.055720E-04 -1.055362E-04  7.736577E-06 -3.581036E-07  4.494424E-09
      4857   1  3.198940E-04 -1.055823E-04 -1.055371E-04  7.679073E-06 -2.140153E-14  4.639877E-17
      4858   1  3.198931E-04 -1.055720E-04 -1.055362E-04  7.736577E-06  3.581036E-07 -4.494425E-09
      4859   1  3.198940E-04 -1.055791E-04 -1.055394E-04  7.924979E-06  6.407347E-07 -5.385334E-09
      4860   1  3.198930E-04 -1.055714E-04 -1.055359E-04  8.266727E-06  7.743855E-07 -1.833246E-08
      4861   1  3.198942E-04 -1.055497E-04 -1.055629E-04  8.856126E-06  6.333790E-07 -2.564411E-08
      4862   1  3.198928E-04 -1.055736E-04 -1.056016E-04  9.932553E-06  2.312940E-07  2.632214E-08
      4863   1  2.399196E-04 -7.920986E-05 -7.913099E-05  1.452036E-05 -1.262074E-07  2.808513E-09
      4864   1  2.399207E-04 -7.917374E-05 -7.918529E-05  1.331918E-05 -3.183306E-07 -2.804695E-08
      4865   1  2.399198E-04 -7.915898E-05 -7.917673E-05  1.249377E-05 -4.060146E-07  1.111455E-08
      4866   1  2.399206E-04 -7.917805E-05 -7.915812E-05  1.198338E-05 -3.623332E-07  2.982003E-09
      4867   1  2.399198E-04 -7.917790E-05 -7.915912E-05  1.170195E-05 -2.069380E-07  2.417065E-09
      4868   1  2.399205E-04 -7.917908E-05 -7.915525E-05  1.161083E-05 -1.501255E-14 -2.717578E-16
      4869   1  2.399198E-04 -7.917790E-05 -7.915912E-05  1.170195E-05  2.069380E-07 -2.417064E-09
      4870   1  2.399206E-04 -7.917805E-05 -7.915812E-05  1.198338E-05  3.623332E-07 -2.982003E-09
      4871   1  2.399198E-04 -7.915898E-05 -7.917673E-05  1.249377E-05  4.060146E-07 -1.111455E-08
      4872   1  2.399207E-04 -7.917374E-05 -7.918529E-05  1.331918E-05  3.183306E-07  2.804695E-08
      4873   1  2.399196E-04 -7.920986E-05 -7.913099E-05  1.452036E-05  1.262074E-07 -2.808513E-09
      4874   1  1.599464E-04 -5.278882E-05 -5.279186E-05  1.772533E-05 -5.844033E-08 -1.116805E-08
      4875   1  1.599471E-04 -5.278813E-05 -5.277287E-05  1.645287E-05 -1.613649E-07  8.949085E-10
      4876   1  1.599465E-04 -5.278198E-05 -5.278216E-05  1.553578E-05 -2.068209E-07 -2.127933E-08
      4877   1  1.599470E-04 -5.277397E-05 -5.278520E-05  1.492196E-05 -1.868044E-07  3.294746E-09
      4878   1  1.599465E-04 -5.278520E-05 -5.277085E-05  1.457599E-05 -1.104319E-07 -3.225653E-09
      4879   1  1.599470E-04 -5.278136E-05 -5.277798E-05  1.446384E-05 -9.461742E-15  2.866910E-16
      4880   1  1.599465E-04 -5.278520E-05 -5.277085E-05  1.457599E-05  1.104318E-07  3.225653E-09
      4881   1  1.599470E-04 -5.277397E-05 -5.278520E-05  1.492196E-05  1.868043E-07 -3.294746E-09
      4882   1  1.599465E-04 -5.278198E-05 -5.278216E-05  1.553578E-05  2.068209E-07  2.127933E-08
      4883   1  1.599471E-04 -5.278813E-05 -5.277287E-05  1.645287E-05  1.613649E-07 -8.949086E-10
      4884   1  1.599464E-04 -5.278882E-05 -5.279186E-05  1.772533E-05  5.844033E-08  1.116805E-08
      4885   1  7.997320E-05 -2.640192E-05 -2.637961E-05  1.962262E-05 -2.573401E-08 -1.472720E-09
      4886   1  7.997356E-05 -2.639183E-05 -2.639513E-05  1.832412E-05 -6.641533E-08 -2.159285E-08
      4887   1  7.997326E-05 -2.638904E-05 -2.639029E-05  1.735699E-05 -8.712201E-08 -1.503958E-09
      4888   1  7.997353E-05 -2.639133E-05 -2.638947E-05  1.669888E-05 -7.934514E-08 -1.678311E-08
      4889   1  7.997328E-05 -2.638750E-05 -2.639142E-05  1.631655E-05 -4.673973E-08  2.887219E-10
      4890   1  7.997352E-05 -2.639257E-05 -2.638621E-05  1.619259E-05 -4.573161E-15 -1.934593E-16
      4891   1  7.997328E-05 -2.638750E-05 -2.639142E-05  1.631655E-05  4.673972E-08 -2.887215E-10
      4892   1  7.997353E-05 -2.639133E-05 -2.638947E-05  1.669888E-05  7.934513E-08  1.678311E-08
      4893   1  7.997326E-05 -2.638904E-05 -2.639029E-05  1.735699E-05  8.712200E-08  1.503958E-09
      4894   1  7.997356E-05 -2.639183E-05 -2.639513E-05  1.832412E-05  6.641533E-08  2.159285E-08
      4895   1  7.997320E-05 -2.640192E-05 -2.637961E-05  1.962262E-05  2.573401E-08  1.472720E-09
      4896   1  8.749300E-14 -2.881376E-14 -2.890282E-14  2.025229E-05 -2.009416E-17 -8.679870E-09
      4897   1  8.753870E-14 -2.871314E-14 -2.910326E-14  1.894420E-05 -6.126674E-17 -3.654598E-09
      4898   1  8.743673E-14 -2.865416E-14 -2.880401E-14  1.796590E-05 -1.093968E-16 -2.309165E-08
      4899   1  8.744025E-14 -2.871314E-14 -2.890356E-14  1.729133E-05 -9.016962E-17 -1.416393E-09
      4900   1  8.739976E-14 -2.864375E-14 -2.881645E-14  1.690025E-05 -5.444590E-17 -9.593637E-09
      4901   1  8.740496E-14 -2.869233E-14 -2.885893E-14  1.677115E-05  1.411475E-18  2.192778E-16
      4902   1  8.733379E-14 -2.855008E-14 -2.880756E-14  1.690025E-05  4.633990E-17  9.593637E-09
      4903   1  8.737320E-14 -2.870273E-14 -2.886405E-14  1.729133E-05  8.287370E-17  1.416393E-09
      4904   1  8.734213E-14 -2.870620E-14 -2.877822E-14  1.796590E-05  1.003285E-16  2.309165E-08
      4905   1  8.736897E-14 -2.862641E-14 -2.905017E-14  1.894420E-05  7.568409E-17  3.654599E-09
      4906   1  8.731720E-14 -2.879641E-14 -2.881236E-14  2.025229E-05  1.096399E-17  8.679870E-09
      4907   1 -7.997320E-05  2.640192E-05  2.637961E-05  1.962262E-05  2.573401E-08 -1.472720E-09
      4908   1 -7.997356E-05  2.639183E-05  2.639513E-05  1.832412E-05  6.641533E-08 -2.159285E-08
      4909   1 -7.997326E-05  2.638904E-05  2.639029E-05  1.735699E-05  8.712201E-08 -1.503958E-09
      4910   1 -7.997353E-05  2.639133E-05  2.638947E-05  1.669888E-05  7.934514E-08 -1.678311E-08
      4911   1 -7.997328E-05  2.638750E-05  2.639142E-05  1.631655E-05  4.673973E-08  2.887218E-10
      4912   1 -7.997352E-05  2.639257E-05  2.638621E-05  1.619259E-05  4.568587E-15 -1.473105E-16
      4913   1 -7.997328E-05  2.638750E-05  2.639142E-05  1.631655E-05 -4.673972E-08 -2.887215E-10
      4914   1 -7.997353E-05  2.639133E-05  2.638947E-05  1.669888E-05 -7.934513E-08  1.678311E-08
      4915   1 -7.997326E-05  2.638904E-05  2.639029E-05  1.735699E-05 -8.712200E-08  1.503958E-09
      4916   1 -7.997356E-05  2.639183E-05  2.639513E-05  1.832412E-05 -6.641533E-08  2.159285E-08
      4917   1 -7.997320E-05  2.640192E-05  2.637961E-05  1.962262E-05 -2.573401E-08  1.472720E-09
      4918   1 -1.599464E-04  5.278882E-05  5.279186E-05  1.772533E-05  5.844033E-08 -1.116805E-08
      4919   1 -1.599471E-04  5.278813E-05  5.277287E-05  1.645287E-05  1.613649E-07  8.949086E-10
      4920   1 -1.599465E-04  5.278198E-05  5.278216E-05  1.553578E-05  2.068209E-07 -2.127933E-08
      4921   1 -1.599470E-04  5.277397E-05  5.278520E-05  1.492196E-05  1.868044E-07  3.294746E-09
      4922   1 -1.599465E-04  5.278520E-05  5.277085E-05  1.457599E-05  1.104319E-07 -3.225653E-09
      4923   1 -1.599470E-04  5.278136E-05  5.277798E-05  1.446384E-05  9.463374E-15  2.725074E-16
      4924   1 -1.599465E-04  5.278520E-05  5.277085E-05  1.457599E-05 -1.104318E-07  3.225653E-09
      4925   1 -1.599470E-04  5.277397E-05  5.278520E-05  1.492196E-05 -1.868043E-07 -3.294746E-09
      4926   1 -1.599465E-04  5.278198E-05  5.278216E-05  1.553578E-05 -2.068209E-07  2.127933E-08
      4927   1 -1.599471E-04  5.278813E-05  5.277287E-05  1.645287E-05 -1.613649E-07 -8.949087E-10
      4928   1 -1.599464E-04  5.278882E-05  5.279186E-05  1.772533E-05 -5.844033E-08  1.116805E-08
      4929   1 -2.399196E-04  7.920986E-05  7.913099E-05  1.452036E-05  1.262074E-07  2.808513E-09
      4930   1 -2.399207E-04  7.917374E-05  7.918529E-05  1.331918E-05  3.183306E-07 -2.804695E-08
      4931   1 -2.399198E-04  7.915898E-05  7.917673E-05  1.249377E-05  4.060146E-07  1.111455E-08
      4932   1 -2.399206E-04  7.917805E-05  7.915812E-05  1.198338E-05  3.623332E-07  2.982003E-09
      4933   1 -2.399198E-04  7.917790E-05  7.915912E-05  1.170195E-05  2.069380E-07  2.417065E-09
      4934   1 -2.399205E-04  7.917908E-05  7.915525E-05  1.161083E-05  1.500711E-14 -2.521278E-16
      4935   1 -2.399198E-04  7.917790E-05  7.915912E-05  1.170195E-05 -2.069380E-07 -2.417064E-09
      4936   1 -2.399206E-04  7.917805E-05  7.915812E-05  1.198338E-05 -3.623332E-07 -2.982003E-09
      4937   1 -2.399198E-04  7.915898E-05  7.917673E-05  1.249377E-05 -4.060146E-07 -1.111455E-08
      4938   1 -2.399207E-04  7.917374E-05  7.918529E-05  1.331918E-05 -3.183306E-07  2.804695E-08
      4939   1 -2.399196E-04  7.920986E-05  7.913099E-05  1.452036E-05 -1.262074E-07 -2.808513E-09
      4940   1 -3.198928E-04  1.055736E-04  1.056016E-04  9.932553E-06  2.312940E-07 -2.632214E-08
      4941   1 -3.198942E-04  1.055497E-04  1.055629E-04  8.856126E-06  6.333790E-07  2.564411E-08
      4942   1 -3.198930E-04  1.055714E-04  1.055359E-04  8.266727E-06  7.743856E-07  1.833246E-08
      4943   1 -3.198940E-04  1.055791E-04  1.055394E-04  7.924979E-06  6.407348E-07  5.385335E-09
      4944   1 -3.198931E-04  1.055720E-04  1.055362E-04  7.736577E-06  3.581036E-07  4.494424E-09
      4945   1 -3.198940E-04  1.055823E-04  1.055371E-04  7.679073E-06  2.140458E-14  9.316515E-17
      4946   1 -3.198931E-04  1.055720E-04  1.055362E-04  7.736577E-06 -3.581036E-07 -4.494425E-09
      4947   1 -3.198940E-04  1.055791E-04  1.055394E-04  7.924979E-06 -6.407347E-07 -5.385334E-09
      4948   1 -3.198930E-04  1.055714E-04  1.055359E-04  8.266727E-06 -7.743855E-07 -1.833246E-08
      4949   1 -3.198942E-04  1.055497E-04  1.055629E-04  8.856126E-06 -6.333790E-07 -2.564411E-08
      4950   1 -3.198928E-04  1.055736E-04  1.056016E-04  9.932553E-06 -2.312940E-07  2.632214E-08
      4951   1 -3.998661E-04  1.320349E-04  1.318329E-04  3.648087E-06  6.235083E-07  4.052368E-08
      4952   1 -3.998677E-04  1.319592E-04  1.319022E-04  3.134899E-06  1.347951E-06  2.490724E-08
      4953   1 -3.998664E-04  1.319970E-04  1.318971E-04  2.938774E-06  1.372540E-06  4.893176E-09
      4954   1 -3.998675E-04  1.319628E-04  1.319214E-04  2.809180E-06  1.070236E-06  5.820486E-09
      4955   1 -3.998665E-04  1.319856E-04  1.319112E-04  2.747222E-06  5.776314E-07  8.251642E-10
      4956   1 -3.998675E-04  1.319640E-04  1.319247E-04  2.724402E-06  2.893852E-14 -4.293610E-17
      4957   1 -3.998665E-04  1.319856E-04  1.319112E-04  2.747222E-06 -5.776314E-07 -8.251641E-10
      4958   1 -3.998675E-04  1.319628E-04  1.319214E-04  2.809180E-06 -1.070236E-06 -5.820487E-09
      4959   1 -3.998664E-04  1.319970E-04  1.318971E-04  2.938774E-06 -1.372540E-06 -4.893176E-09
      4960   1 -3.998677E-04  1.319592E-04  1.319022E-04  3.134899E-06 -1.347951E-06 -2.490724E-08
      4961   1 -3.998661E-04  1.320349E-04  1.318329E-04  3.648087E-06 -6.235083E-07 -4.052368E-08
      4962   1  3.953237E-04 -1.305345E-04 -1.303380E-04  3.647966E-06 -6.234839E-07  3.999661E-08
      4963   1  3.953224E-04 -1.304595E-04 -1.304002E-04  3.134980E-06 -1.348010E-06  2.466350E-08
      4964   1  3.953235E-04 -1.304970E-04 -1.304012E-04  2.938730E-06 -1.372473E-06  4.811908E-09
      4965   1  3.953226E-04 -1.304632E-04 -1.304195E-04  2.809228E-06 -1.070291E-06  5.769707E-09
      4966   1  3.953234E-04 -1.304857E-04 -1.304151E-04  2.747197E-06 -5.776007E-07  8.085666E-10
      4967   1  3.953226E-04 -1.304644E-04 -1.304228E-04  2.724441E-06 -2.892831E-14 -5.884677E-17
      4968   1  3.953234E-04 -1.304857E-04 -1.304151E-04  2.747197E-06  5.776007E-07 -8.085665E-10
      4969   1  3.953226E-04 -1.304632E-04 -1.304195E-04  2.809228E-06  1.070291E-06 -5.769707E-09
      4970   1  3.953235E-04 -1.304970E-04 -1.304012E-04  2.938730E-06  1.372473E-06 -4.811908E-09
      4971   1  3.953224E-04 -1.304595E-04 -1.304002E-04  3.134980E-06  1.348009E-06 -2.466350E-08
      4972   1  3.953237E-04 -1.305345E-04 -1.303380E-04  3.647966E-06  6.234839E-07 -3.999661E-08
      4973   1  3.162590E-04 -1.043739E-04 -1.044044E-04  9.932648E-06 -2.312647E-07 -2.600604E-08
      4974   1  3.162579E-04 -1.043503E-04 -1.043607E-04  8.856076E-06 -6.334399E-07  2.535238E-08
      4975   1  3.162589E-04 -1.043718E-04 -1.043393E-04  8.266718E-06 -7.743218E-07  1.812300E-08
      4976   1  3.162580E-04 -1.043794E-04 -1.043376E-04  7.924950E-06 -6.407862E-07  5.325600E-09
      4977   1  3.162588E-04 -1.043723E-04 -1.043394E-04  7.736558E-06 -3.580757E-07  4.442507E-09
      4978   1  3.162581E-04 -1.043826E-04 -1.043354E-04  7.679049E-06 -2.139196E-14  1.254761E-16
      4979   1  3.162588E-04 -1.043723E-04 -1.043394E-04  7.736558E-06  3.580756E-07 -4.442508E-09
      4980   1  3.162580E-04 -1.043794E-04 -1.043376E-04  7.924950E-06  6.407861E-07 -5.325600E-09
      4981   1  3.162589E-04 -1.043718E-04 -1.043393E-04  8.266718E-06  7.743218E-07 -1.812300E-08
      4982   1  3.162579E-04 -1.043503E-04 -1.043607E-04  8.856076E-06  6.334399E-07 -2.535238E-08
      4983   1  3.162590E-04 -1.043739E-04 -1.044044E-04  9.932648E-06  2.312647E-07  2.600604E-08
      4984   1  2.371943E-04 -7.830977E-05 -7.823399E-05  1.452031E-05 -1.261933E-07  2.767485E-09
      4985   1  2.371934E-04 -7.827399E-05 -7.828336E-05  1.331919E-05 -3.183705E-07 -2.773242E-08
      4986   1  2.371941E-04 -7.825939E-05 -7.827901E-05  1.249382E-05 -4.059679E-07  1.099115E-08
      4987   1  2.371935E-04 -7.827825E-05 -7.825663E-05  1.198340E-05 -3.623721E-07  2.946126E-09
      4988   1  2.371941E-04 -7.827810E-05 -7.826152E-05  1.170200E-05 -2.069167E-07  2.390595E-09
      4989   1  2.371935E-04 -7.827927E-05 -7.825383E-05  1.161085E-05 -1.499772E-14 -2.878946E-16
      4990   1  2.371941E-04 -7.827810E-05 -7.826152E-05  1.170200E-05  2.069166E-07 -2.390594E-09
      4991   1  2.371935E-04 -7.827825E-05 -7.825663E-05  1.198340E-05  3.623721E-07 -2.946127E-09
      4992   1  2.371941E-04 -7.825939E-05 -7.827901E-05  1.249382E-05  4.059679E-07 -1.099115E-08
      4993   1  2.371934E-04 -7.827399E-05 -7.828336E-05  1.331919E-05  3.183705E-07  2.773242E-08
      4994   1  2.371943E-04 -7.830977E-05 -7.823399E-05  1.452031E-05  1.261933E-07 -2.767485E-09
      4995   1  1.581295E-04 -5.218894E-05 -5.219344E-05  1.772539E-05 -5.842594E-08 -1.103383E-08
      4996   1  1.581290E-04 -5.218829E-05 -5.217176E-05  1.645283E-05 -1.613944E-07  8.879626E-10
      4997   1  1.581295E-04 -5.218222E-05 -5.218373E-05  1.553575E-05 -2.067898E-07 -2.103791E-08
      4998   1  1.581290E-04 -5.217430E-05 -5.218405E-05  1.492191E-05 -1.868297E-07  3.257178E-09
      4999   1  1.581294E-04 -5.218540E-05 -5.217249E-05  1.457596E-05 -1.104180E-07 -3.188813E-09
      5000   1  1.581290E-04 -5.218161E-05 -5.217693E-05  1.446379E-05 -9.464893E-15  2.943050E-16
      5001   1  1.581294E-04 -5.218540E-05 -5.217249E-05  1.457596E-05  1.104180E-07  3.188812E-09
      5002   1  1.581290E-04 -5.217430E-05 -5.218405E-05  1.492191E-05  1.868297E-07 -3.257178E-09
      5003   1  1.581295E-04 -5.218222E-05 -5.218373E-05  1.553575E-05  2.067898E-07  2.103791E-08
      5004   1  1.581290E-04 -5.218829E-05 -5.217176E-05  1.645283E-05  1.613944E-07 -8.879627E-10
      5005   1  1.581295E-04 -5.218894E-05 -5.219344E-05  1.772539E-05  5.842593E-08  1.103383E-08
      5006   1  7.906476E-05 -2.610190E-05 -2.608059E-05  1.962260E-05 -2.572906E-08 -1.461530E-09
      5007   1  7.906447E-05 -2.609191E-05 -2.609447E-05  1.832413E-05 -6.642927E-08 -2.135201E-08
      5008   1  7.906472E-05 -2.608915E-05 -2.609108E-05  1.735705E-05 -8.710586E-08 -1.485373E-09
      5009   1  7.906450E-05 -2.609141E-05 -2.608893E-05  1.669891E-05 -7.935848E-08 -1.659310E-08
      5010   1  7.906470E-05 -2.608762E-05 -2.609218E-05  1.631660E-05 -4.673243E-08  2.857488E-10
      5011   1  7.906451E-05 -2.609264E-05 -2.608571E-05  1.619262E-05 -4.584143E-15 -1.532980E-16
      5012   1  7.906470E-05 -2.608762E-05 -2.609218E-05  1.631660E-05  4.673242E-08 -2.857484E-10
      5013   1  7.906450E-05 -2.609141E-05 -2.608893E-05  1.669891E-05  7.935848E-08  1.659310E-08
      5014   1  7.906472E-05 -2.608915E-05 -2.609108E-05  1.735705E-05  8.710585E-08  1.485373E-09
      5015   1  7.906447E-05 -2.609191E-05 -2.609447E-05  1.832413E-05  6.642927E-08  2.135201E-08
      5016   1  7.906476E-05 -2.610190E-05 -2.608059E-05  1.962260E-05  2.572906E-08  1.461530E-09
      5017   1  8.660531E-14 -2.861253E-14 -2.867614E-14  2.025235E-05 -2.637745E-17 -8.575336E-09
      5018   1  8.651413E-14 -2.849804E-14 -2.865846E-14  1.894416E-05 -6.629388E-17 -3.609876E-09
      5019   1  8.659295E-14 -2.862641E-14 -2.861071E-14  1.796586E-05 -1.081763E-16 -2.282893E-08
      5020   1  8.655381E-14 -2.882763E-14 -2.843649E-14  1.729128E-05 -8.098482E-17 -1.400987E-09
      5021   1  8.658211E-14 -2.878253E-14 -2.861015E-14  1.690021E-05 -5.181099E-17 -9.484168E-09
      5022   1  8.652779E-14 -2.888662E-14 -2.841739E-14  1.677109E-05 -7.749504E-18  2.220529E-16
      5023   1  8.655956E-14 -2.881376E-14 -2.858601E-14  1.690021E-05  5.410719E-17  9.484168E-09
      5024   1  8.648399E-14 -2.881029E-14 -2.844017E-14  1.729128E-05  7.964820E-17  1.400987E-09
      5025   1  8.650047E-14 -2.871314E-14 -2.854356E-14  1.796586E-05  1.036133E-16  2.282893E-08
      5026   1  8.641883E-14 -2.851192E-14 -2.862659E-14  1.894416E-05  6.164536E-17  3.609876E-09
      5027   1  8.644398E-14 -2.866457E-14 -2.860803E-14  2.025235E-05  2.363561E-17  8.575336E-09
      5028   1 -7.906476E-05  2.610190E-05  2.608059E-05  1.962260E-05  2.572906E-08 -1.461530E-09
      5029   1 -7.906447E-05  2.609191E-05  2.609447E-05  1.832413E-05  6.642927E-08 -2.135201E-08
      5030   1 -7.906472E-05  2.608915E-05  2.609108E-05  1.735705E-05  8.710586E-08 -1.485373E-09
      5031   1 -7.906450E-05  2.609141E-05  2.608893E-05  1.669891E-05  7.935848E-08 -1.659310E-08
      5032   1 -7.906470E-05  2.608762E-05  2.609218E-05  1.631660E-05  4.673243E-08  2.857488E-10
      5033   1 -7.906451E-05  2.609264E-05  2.608571E-05  1.619262E-05  4.594172E-15 -1.625338E-16
      5034   1 -7.906470E-05  2.608762E-05  2.609218E-05  1.631660E-05 -4.673242E-08 -2.857484E-10
      5035   1 -7.906450E-05  2.609141E-05  2.608893E-05  1.669891E-05 -7.935848E-08  1.659310E-08
      5036   1 -7.906472E-05  2.608915E-05  2.609108E-05  1.735705E-05 -8.710585E-08  1.485372E-09
      5037   1 -7.906447E-05  2.609191E-05  2.609447E-05  1.832413E-05 -6.642927E-08  2.135201E-08
      5038   1 -7.906476E-05  2.610190E-05  2.608059E-05  1.962260E-05 -2.572906E-08  1.461530E-09
      5039   1 -1.581295E-04  5.218894E-05  5.219344E-05  1.772539E-05  5.842594E-08 -1.103383E-08
      5040   1 -1.581290E-04  5.218829E-05  5.217176E-05  1.645283E-05  1.613944E-07  8.879627E-10
      5041   1 -1.581295E-04  5.218222E-05  5.218373E-05  1.553575E-05  2.067898E-07 -2.103791E-08
      5042   1 -1.581290E-04  5.217430E-05  5.218405E-05  1.492191E-05  1.868297E-07  3.257178E-09
      5043   1 -1.581294E-04  5.218540E-05  5.217249E-05  1.457596E-05  1.104180E-07 -3.188813E-09
      5044   1 -1.581290E-04  5.218161E-05  5.217693E-05  1.446379E-05  9.467911E-15  2.483484E-16
      5045   1 -1.581294E-04  5.218540E-05  5.217249E-05  1.457596E-05 -1.104180E-07  3.188813E-09
      5046   1 -1.581290E-04  5.217430E-05  5.218405E-05  1.492191E-05 -1.868297E-07 -3.257178E-09
      5047   1 -1.581295E-04  5.218222E-05  5.218373E-05  1.553575E-05 -2.067898E-07  2.103791E-08
      5048   1 -1.581290E-04  5.218829E-05  5.217176E-05  1.645283E-05 -1.613944E-07 -8.879628E-10
      5049   1 -1.581295E-04  5.218894E-05  5.219344E-05  1.772539E-05 -5.842593E-08  1.103383E-08
      5050   1 -2.371943E-04  7.830977E-05  7.823399E-05  1.452031E-05  1.261933E-07  2.767485E-09
      5051   1 -2.371934E-04  7.827399E-05  7.828336E-05  1.331919E-05  3.183705E-07 -2.773242E-08
      5052   1 -2.371941E-04  7.825939E-05  7.827901E-05  1.249382E-05  4.059679E-07  1.099115E-08
      5053   1 -2.371935E-04  7.827825E-05  7.825663E-05  1.198340E-05  3.623721E-07  2.946126E-09
      5054   1 -2.371941E-04  7.827810E-05  7.826152E-05  1.170200E-05  2.069167E-07  2.390595E-09
      5055   1 -2.371935E-04  7.827927E-05  7.825383E-05  1.161085E-05  1.499027E-14 -2.706084E-16
      5056   1 -2.371941E-04  7.827810E-05  7.826152E-05  1.170200E-05 -2.069166E-07 -2.390594E-09
      5057   1 -2.371935E-04  7.827825E-05  7.825663E-05  1.198340E-05 -3.623721E-07 -2.946127E-09
      5058   1 -2.371941E-04  7.825939E-05  7.827901E-05  1.249382E-05 -4.059679E-07 -1.099115E-08
      5059   1 -2.371934E-04  7.827399E-05  7.828336E-05  1.331919E-05 -3.183705E-07  2.773242E-08
      5060   1 -2.371943E-04  7.830977E-05  7.823399E-05  1.452031E-05 -1.261933E-07 -2.767485E-09
      5061   1 -3.162590E-04  1.043739E-04  1.044044E-04  9.932648E-06  2.312647E-07 -2.600604E-08
      5062   1 -3.162579E-04  1.043503E-04  1.043607E-04  8.856076E-06  6.334399E-07  2.535238E-08
      5063   1 -3.162589E-04  1.043718E-04  1.043393E-04  8.266718E-06  7.743218E-07  1.812300E-08
      5064   1 -3.162580E-04  1.043794E-04  1.043376E-04  7.924950E-06  6.407862E-07  5.325600E-09
      5065   1 -3.162588E-04  1.043723E-04  1.043394E-04  7.736558E-06  3.580757E-07  4.442507E-09
      5066   1 -3.162581E-04  1.043826E-04  1.043354E-04  7.679049E-06  2.141928E-14  8.903417E-17
      5067   1 -3.162588E-04  1.043723E-04  1.043394E-04  7.736558E-06 -3.580756E-07 -4.442508E-09
      5068   1 -3.162580E-04  1.043794E-04  1.043376E-04  7.924950E-06 -6.407861E-07 -5.325600E-09
      5069   1 -3.162589E-04  1.043718E-04  1.043393E-04  8.266718E-06 -7.743218E-07 -1.812300E-08
      5070   1 -3.162579E-04  1.043503E-04  1.043607E-04  8.856076E-06 -6.334399E-07 -2.535238E-08
      5071   1 -3.162590E-04  1.043739E-04  1.044044E-04  9.932648E-06 -2.312647E-07  2.600604E-08
      5072   1 -3.953237E-04  1.305345E-04  1.303380E-04  3.647966E-06  6.234839E-07  3.999661E-08
      5073   1 -3.953224E-04  1.304595E-04  1.304002E-04  3.134980E-06  1.348010E-06  2.466350E-08
      5074   1 -3.953235E-04  1.304970E-04  1.304012E-04  2.938730E-06  1.372473E-06  4.811908E-09
      5075   1 -3.953226E-04  1.304632E-04  1.304195E-04  2.809228E-06  1.070291E-06  5.769707E-09
      5076   1 -3.953234E-04  1.304857E-04  1.304151E-04  2.747197E-06  5.776007E-07  8.085665E-10
      5077   1 -3.953226E-04  1.304644E-04  1.304228E-04  2.724441E-06  2.893376E-14 -1.135194E-17
      5078   1 -3.953234E-04  1.304857E-04  1.304151E-04  2.747197E-06 -5.776007E-07 -8.085665E-10
      5079   1 -3.953226E-04  1.304632E-04  1.304195E-04  2.809228E-06 -1.070291E-06 -5.769707E-09
      5080   1 -3.953235E-04  1.304970E-04  1.304012E-04  2.938730E-06 -1.372473E-06 -4.811908E-09
      5081   1 -3.953224E-04  1.304595E-04  1.304002E-04  3.134980E-06 -1.348009E-06 -2.466350E-08
      5082   1 -3.953237E-04  1.305345E-04  1.303380E-04  3.647966E-06 -6.234839E-07 -3.999661E-08
      5083   1  3.907785E-04 -1.290341E-04 -1.288372E-04  3.648064E-06 -6.235037E-07  3.959107E-08
      5084   1  3.907796E-04 -1.289601E-04 -1.289039E-04  3.134914E-06 -1.347962E-06  2.434803E-08
      5085   1  3.907787E-04 -1.289971E-04 -1.288999E-04  2.938766E-06 -1.372528E-06  4.777519E-09
      5086   1  3.907795E-04 -1.289637E-04 -1.289227E-04  2.809189E-06 -1.070246E-06  5.690898E-09
      5087   1  3.907788E-04 -1.289859E-04 -1.289137E-04  2.747218E-06 -5.776260E-07  8.051600E-10
      5088   1  3.907794E-04 -1.289648E-04 -1.289260E-04  2.724409E-06 -2.891840E-14 -4.665542E-17
      5089   1  3.907788E-04 -1.289859E-04 -1.289137E-04  2.747218E-06  5.776259E-07 -8.051599E-10
      5090   1  3.907795E-04 -1.289637E-04 -1.289227E-04  2.809189E-06  1.070246E-06 -5.690899E-09
      5091   1  3.907787E-04 -1.289971E-04 -1.288999E-04  2.938766E-06  1.372528E-06 -4.777519E-09
      5092   1  3.907796E-04 -1.289601E-04 -1.289039E-04  3.134914E-06  1.347962E-06 -2.434803E-08
      5093   1  3.907785E-04 -1.290341E-04 -1.288372E-04  3.648064E-06  6.235037E-07 -3.959107E-08
      5094   1  3.126228E-04 -1.031742E-04 -1.032020E-04  9.932570E-06 -2.312887E-07 -2.572088E-08
      5095   1  3.126237E-04 -1.031508E-04 -1.031633E-04  8.856116E-06 -6.333903E-07  2.506131E-08
      5096   1  3.126229E-04 -1.031721E-04 -1.031378E-04  8.266725E-06 -7.743741E-07  1.791568E-08
      5097   1  3.126236E-04 -1.031796E-04 -1.031404E-04  7.924973E-06 -6.407444E-07  5.263237E-09
      5098   1  3.126230E-04 -1.031726E-04 -1.031381E-04  7.736573E-06 -3.580987E-07  4.392150E-09
      5099   1  3.126236E-04 -1.031827E-04 -1.031381E-04  7.679068E-06 -2.140252E-14  1.202617E-16
      5100   1  3.126230E-04 -1.031726E-04 -1.031381E-04  7.736573E-06  3.580986E-07 -4.392151E-09
      5101   1  3.126236E-04 -1.031796E-04 -1.031404E-04  7.924973E-06  6.407444E-07 -5.263236E-09
      5102   1  3.126229E-04 -1.031721E-04 -1.031378E-04  8.266725E-06  7.743741E-07 -1.791568E-08
      5103   1  3.126237E-04 -1.031508E-04 -1.031633E-04  8.856116E-06  6.333903E-07 -2.506131E-08
      5104   1  3.126228E-04 -1.031742E-04 -1.032020E-04  9.932570E-06  2.312887E-07  2.572088E-08
      5105   1  2.344671E-04 -7.740964E-05 -7.733294E-05  1.452035E-05 -1.262048E-07  2.743103E-09
      5106   1  2.344678E-04 -7.737433E-05 -7.738526E-05  1.331918E-05 -3.183379E-07 -2.741017E-08
      5107   1  2.344672E-04 -7.735990E-05 -7.737760E-05  1.249378E-05 -4.060063E-07  1.086253E-08
      5108   1  2.344677E-04 -7.737854E-05 -7.735873E-05  1.198339E-05 -3.623405E-07  2.913934E-09
      5109   1  2.344672E-04 -7.737839E-05 -7.736038E-05  1.170196E-05 -2.069343E-07  2.362327E-09
      5110   1  2.344677E-04 -7.737955E-05 -7.735594E-05  1.161083E-05 -1.500286E-14 -2.888577E-16
      5111   1  2.344672E-04 -7.737839E-05 -7.736038E-05  1.170196E-05  2.069342E-07 -2.362326E-09
      5112   1  2.344677E-04 -7.737854E-05 -7.735873E-05  1.198339E-05  3.623405E-07 -2.913934E-09
      5113   1  2.344672E-04 -7.735990E-05 -7.737760E-05  1.249378E-05  4.060063E-07 -1.086253E-08
      5114   1  2.344678E-04 -7.737433E-05 -7.738526E-05  1.331918E-05  3.183379E-07  2.741017E-08
      5115   1  2.344671E-04 -7.740964E-05 -7.733294E-05  1.452035E-05  1.262048E-07 -2.743104E-09
      5116   1  1.563114E-04 -5.158908E-05 -5.159230E-05  1.772534E-05 -5.843772E-08 -1.091287E-08
      5117   1  1.563118E-04 -5.158841E-05 -5.157324E-05  1.645287E-05 -1.613703E-07  8.752707E-10
      5118   1  1.563114E-04 -5.158240E-05 -5.158280E-05  1.553578E-05 -2.068154E-07 -2.079569E-08
      5119   1  1.563118E-04 -5.157457E-05 -5.158531E-05  1.492195E-05 -1.868091E-07  3.219894E-09
      5120   1  1.563115E-04 -5.158554E-05 -5.157174E-05  1.457598E-05 -1.104294E-07 -3.152295E-09
      5121   1  1.563118E-04 -5.158180E-05 -5.157826E-05  1.446383E-05 -9.465828E-15  2.631206E-16
      5122   1  1.563115E-04 -5.158554E-05 -5.157174E-05  1.457598E-05  1.104294E-07  3.152295E-09
      5123   1  1.563118E-04 -5.157457E-05 -5.158531E-05  1.492195E-05  1.868091E-07 -3.219894E-09
      5124   1  1.563114E-04 -5.158240E-05 -5.158280E-05  1.553578E-05  2.068154E-07  2.079569E-08
      5125   1  1.563118E-04 -5.158841E-05 -5.157324E-05  1.645286E-05  1.613703E-07 -8.752708E-10
      5126   1  1.563114E-04 -5.158908E-05 -5.159230E-05  1.772534E-05  5.843772E-08  1.091287E-08
      5127   1  7.815569E-05 -2.580187E-05 -2.578020E-05  1.962262E-05 -2.573312E-08 -1.440178E-09
      5128   1  7.815593E-05 -2.579201E-05 -2.579512E-05  1.832412E-05 -6.641790E-08 -2.110280E-08
      5129   1  7.815573E-05 -2.578929E-05 -2.579063E-05  1.735700E-05 -8.711914E-08 -1.469427E-09
      5130   1  7.815591E-05 -2.579152E-05 -2.578960E-05  1.669889E-05 -7.934764E-08 -1.640174E-08
      5131   1  7.815574E-05 -2.578778E-05 -2.579173E-05  1.631656E-05 -4.673845E-08  2.822314E-10
      5132   1  7.815590E-05 -2.579274E-05 -2.578641E-05  1.619260E-05 -4.584102E-15 -1.872212E-16
      5133   1  7.815574E-05 -2.578778E-05 -2.579173E-05  1.631656E-05  4.673844E-08 -2.822310E-10
      5134   1  7.815591E-05 -2.579152E-05 -2.578960E-05  1.669889E-05  7.934763E-08  1.640174E-08
      5135   1  7.815573E-05 -2.578929E-05 -2.579063E-05  1.735700E-05  8.711913E-08  1.469426E-09
      5136   1  7.815593E-05 -2.579201E-05 -2.579512E-05  1.832412E-05  6.641789E-08  2.110280E-08
      5137   1  7.815569E-05 -2.580187E-05 -2.578020E-05  1.962262E-05  2.573312E-08  1.440179E-09
      5138   1  8.552642E-14 -2.822742E-14 -2.819019E-14  2.025231E-05 -1.673398E-17 -8.481497E-09
      5139   1  8.556318E-14 -2.801578E-14 -2.849747E-14  1.894419E-05 -7.976679E-17 -3.570833E-09
      5140   1  8.544586E-14 -2.803660E-14 -2.810665E-14  1.796589E-05 -8.687848E-17 -2.256670E-08
      5141   1  8.546137E-14 -2.796721E-14 -2.827032E-14  1.729132E-05 -8.827312E-17 -1.384275E-09
      5142   1  8.535436E-14 -2.782843E-14 -2.813836E-14  1.690024E-05 -6.094963E-17 -9.375507E-09
      5143   1  8.538135E-14 -2.792558E-14 -2.822358E-14  1.677114E-05  2.385986E-18  1.834094E-16
      5144   1  8.532010E-14 -2.786313E-14 -2.812930E-14  1.690024E-05  4.570209E-17  9.375507E-09
      5145   1  8.537507E-14 -2.792905E-14 -2.824722E-14  1.729132E-05  8.630588E-17  1.384276E-09
      5146   1  8.531348E-14 -2.791864E-14 -2.809559E-14  1.796589E-05  9.109585E-17  2.256670E-08
      5147   1  8.537062E-14 -2.790476E-14 -2.840505E-14  1.894419E-05  6.578905E-17  3.570833E-09
      5148   1  8.529570E-14 -2.806783E-14 -2.815959E-14  2.025231E-05  3.004595E-17  8.481497E-09
      5149   1 -7.815569E-05  2.580187E-05  2.578020E-05  1.962262E-05  2.573312E-08 -1.440179E-09
      5150   1 -7.815593E-05  2.579201E-05  2.579512E-05  1.832412E-05  6.641790E-08 -2.110280E-08
      5151   1 -7.815573E-05  2.578929E-05  2.579063E-05  1.735701E-05  8.711914E-08 -1.469427E-09
      5152   1 -7.815591E-05  2.579152E-05  2.578960E-05  1.669889E-05  7.934764E-08 -1.640174E-08
      5153   1 -7.815574E-05  2.578778E-05  2.579173E-05  1.631656E-05  4.673845E-08  2.822313E-10
      5154   1 -7.815590E-05  2.579273E-05  2.578641E-05  1.619260E-05  4.558143E-15 -1.856751E-16
      5155   1 -7.815574E-05  2.578778E-05  2.579173E-05  1.631656E-05 -4.673844E-08 -2.822310E-10
      5156   1 -7.815591E-05  2.579152E-05  2.578960E-05  1.669889E-05 -7.934763E-08  1.640174E-08
      5157   1 -7.815573E-05  2.578929E-05  2.579063E-05  1.735700E-05 -8.711913E-08  1.469426E-09
      5158   1 -7.815593E-05  2.579201E-05  2.579512E-05  1.832412E-05 -6.641789E-08  2.110280E-08
      5159   1 -7.815569E-05  2.580187E-05  2.578020E-05  1.962262E-05 -2.573312E-08  1.440179E-09
      5160   1 -1.563114E-04  5.158908E-05  5.159230E-05  1.772534E-05  5.843772E-08 -1.091287E-08
      5161   1 -1.563118E-04  5.158841E-05  5.157324E-05  1.645287E-05  1.613703E-07  8.752708E-10
      5162   1 -1.563114E-04  5.158240E-05  5.158280E-05  1.553578E-05  2.068154E-07 -2.079569E-08
      5163   1 -1.563118E-04  5.157457E-05  5.158531E-05  1.492195E-05  1.868091E-07  3.219894E-09
      5164   1 -1.563115E-04  5.158554E-05  5.157174E-05  1.457598E-05  1.104294E-07 -3.152295E-09
      5165   1 -1.563118E-04  5.158180E-05  5.157826E-05  1.446383E-05  9.453245E-15  2.619102E-16
      5166   1 -1.563115E-04  5.158554E-05  5.157174E-05  1.457598E-05 -1.104294E-07  3.152295E-09
      5167   1 -1.563118E-04  5.157457E-05  5.158531E-05  1.492195E-05 -1.868091E-07 -3.219894E-09
      5168   1 -1.563114E-04  5.158240E-05  5.158280E-05  1.553578E-05 -2.068154E-07  2.079569E-08
      5169   1 -1.563118E-04  5.158841E-05  5.157324E-05  1.645286E-05 -1.613703E-07 -8.752709E-10
      5170   1 -1.563114E-04  5.158908E-05  5.159230E-05  1.772534E-05 -5.843772E-08  1.091287E-08
      5171   1 -2.344671E-04  7.740964E-05  7.733294E-05  1.452035E-05  1.262048E-07  2.743104E-09
      5172   1 -2.344678E-04  7.737433E-05  7.738526E-05  1.331918E-05  3.183379E-07 -2.741017E-08
      5173   1 -2.344672E-04  7.735990E-05  7.737760E-05  1.249378E-05  4.060063E-07  1.086253E-08
      5174   1 -2.344677E-04  7.737854E-05  7.735873E-05  1.198339E-05  3.623405E-07  2.913934E-09
      5175   1 -2.344672E-04  7.737839E-05  7.736038E-05  1.170196E-05  2.069343E-07  2.362327E-09
      5176   1 -2.344677E-04  7.737955E-05  7.735594E-05  1.161083E-05  1.500513E-14 -2.514519E-16
      5177   1 -2.344672E-04  7.737839E-05  7.736038E-05  1.170196E-05 -2.069342E-07 -2.362326E-09
      5178   1 -2.344677E-04  7.737854E-05  7.735873E-05  1.198339E-05 -3.623405E-07 -2.913934E-09
      5179   1 -2.344672E-04  7.735990E-05  7.737760E-05  1.249378E-05 -4.060063E-07 -1.086253E-08
      5180   1 -2.344678E-04  7.737433E-05  7.738526E-05  1.331918E-05 -3.183379E-07  2.741017E-08
      5181   1 -2.344671E-04  7.740964E-05  7.733294E-05  1.452035E-05 -1.262048E-07 -2.743104E-09
      5182   1 -3.126228E-04  1.031742E-04  1.032020E-04  9.932570E-06  2.312887E-07 -2.572088E-08
      5183   1 -3.126237E-04  1.031508E-04  1.031633E-04  8.856116E-06  6.333903E-07  2.506131E-08
      5184   1 -3.126229E-04  1.031721E-04  1.031378E-04  8.266725E-06  7.743741E-07  1.791568E-08
      5185   1 -3.126236E-04  1.031796E-04  1.031404E-04  7.924973E-06  6.407444E-07  5.263237E-09
      5186   1 -3.126230E-04  1.031726E-04  1.031381E-04  7.736573E-06  3.580987E-07  4.392150E-09
      5187   1 -3.126236E-04  1.031827E-04  1.031381E-04  7.679068E-06  2.137878E-14  7.373337E-17
      5188   1 -3.126230E-04  1.031726E-04  1.031381E-04  7.736573E-06 -3.580986E-07 -4.392151E-09
      5189   1 -3.126236E-04  1.031796E-04  1.031404E-04  7.924973E-06 -6.407444E-07 -5.263236E-09
      5190   1 -3.126229E-04  1.031721E-04  1.031378E-04  8.266725E-06 -7.743741E-07 -1.791568E-08
      5191   1 -3.126237E-04  1.031508E-04  1.031633E-04  8.856116E-06 -6.333903E-07 -2.506131E-08
      5192   1 -3.126228E-04  1.031742E-04  1.032020E-04  9.932570E-06 -2.312887E-07  2.572088E-08
      5193   1 -3.907785E-04  1.290341E-04  1.288372E-04  3.648064E-06  6.235037E-07  3.959107E-08
      5194   1 -3.907796E-04  1.289601E-04  1.289039E-04  3.134914E-06  1.347962E-06  2.434803E-08
      5195   1 -3.907787E-04  1.289971E-04  1.288999E-04  2.938766E-06  1.372528E-06  4.777519E-09
      5196   1 -3.907795E-04  1.289637E-04  1.289227E-04  2.809189E-06  1.070246E-06  5.690898E-09
      5197   1 -3.907788E-04  1.289859E-04  1.289137E-04  2.747218E-06  5.776260E-07  8.051600E-10
      5198   1 -3.907794E-04  1.289648E-04  1.289260E-04  2.724409E-06  2.891920E-14 -4.497576E-17
      5199   1 -3.907788E-04  1.289859E-04  1.289137E-04  2.747218E-06 -5.776259E-07 -8.051599E-10
      5200   1 -3.907795E-04  1.289637E-04  1.289227E-04  2.809189E-06 -1.070246E-06 -5.690899E-09
      5201   1 -3.907787E-04  1.289971E-04  1.288999E-04  2.938766E-06 -1.372528E-06 -4.777519E-09
      5202   1 -3.907796E-04  1.289601E-04  1.289039E-04  3.134914E-06 -1.347962E-06 -2.434803E-08
      5203   1 -3.907785E-04  1.290341E-04  1.288372E-04  3.648064E-06 -6.235037E-07 -3.959107E-08
      5204   1  3.862356E-04 -1.275337E-04 -1.273413E-04  3.647984E-06 -6.234877E-07  3.908659E-08
      5205   1  3.862348E-04 -1.274605E-04 -1.274030E-04  3.134967E-06 -1.348001E-06  2.409099E-08
      5206   1  3.862355E-04 -1.274971E-04 -1.274031E-04  2.938737E-06 -1.372483E-06  4.704955E-09
      5207   1  3.862348E-04 -1.274640E-04 -1.274217E-04  2.809220E-06 -1.070283E-06  5.634919E-09
      5208   1  3.862354E-04 -1.274860E-04 -1.274166E-04  2.747200E-06 -5.776055E-07  7.910145E-10
      5209   1  3.862349E-04 -1.274652E-04 -1.274249E-04  2.724435E-06 -2.893363E-14 -2.034743E-17
      5210   1  3.862354E-04 -1.274860E-04 -1.274166E-04  2.747200E-06  5.776054E-07 -7.910144E-10
      5211   1  3.862348E-04 -1.274640E-04 -1.274217E-04  2.809220E-06  1.070283E-06 -5.634920E-09
      5212   1  3.862355E-04 -1.274971E-04 -1.274031E-04  2.938737E-06  1.372483E-06 -4.704955E-09
      5213   1  3.862348E-04 -1.274605E-04 -1.274030E-04  3.134967E-06  1.348001E-06 -2.409099E-08
      5214   1  3.862356E-04 -1.275337E-04 -1.273413E-04  3.647984E-06  6.234877E-07 -3.908659E-08
      5215   1  3.089885E-04 -1.019745E-04 -1.020039E-04  9.932634E-06 -2.312690E-07 -2.541059E-08
      5216   1  3.089878E-04 -1.019514E-04 -1.019619E-04  8.856084E-06 -6.334308E-07  2.476968E-08
      5217   1  3.089884E-04 -1.019724E-04 -1.019403E-04  8.266719E-06 -7.743314E-07  1.770661E-08
      5218   1  3.089879E-04 -1.019799E-04 -1.019394E-04  7.924955E-06 -6.407786E-07  5.203028E-09
      5219   1  3.089884E-04 -1.019730E-04 -1.019405E-04  7.736561E-06 -3.580799E-07  4.340531E-09
      5220   1  3.089879E-04 -1.019830E-04 -1.019372E-04  7.679053E-06 -2.139789E-14  8.447036E-17
      5221   1  3.089884E-04 -1.019730E-04 -1.019405E-04  7.736561E-06  3.580799E-07 -4.340531E-09
      5222   1  3.089879E-04 -1.019799E-04 -1.019394E-04  7.924955E-06  6.407786E-07 -5.203027E-09
      5223   1  3.089884E-04 -1.019724E-04 -1.019403E-04  8.266719E-06  7.743314E-07 -1.770662E-08
      5224   1  3.089878E-04 -1.019514E-04 -1.019619E-04  8.856084E-06  6.334308E-07 -2.476968E-08
      5225   1  3.089885E-04 -1.019745E-04 -1.020039E-04  9.932634E-06  2.312690E-07  2.541059E-08
      5226   1  2.317414E-04 -7.650954E-05 -7.643520E-05  1.452032E-05 -1.261954E-07  2.705228E-09
      5227   1  2.317408E-04 -7.647460E-05 -7.648403E-05  1.331919E-05 -3.183646E-07 -2.709418E-08
      5228   1  2.317413E-04 -7.646033E-05 -7.647921E-05  1.249382E-05 -4.059749E-07  1.073818E-08
      5229   1  2.317409E-04 -7.647876E-05 -7.645790E-05  1.198340E-05 -3.623664E-07  2.878760E-09
      5230   1  2.317413E-04 -7.647861E-05 -7.646213E-05  1.170199E-05 -2.069199E-07  2.335538E-09
      5231   1  2.317409E-04 -7.647975E-05 -7.645516E-05  1.161084E-05 -1.500317E-14 -2.858872E-16
      5232   1  2.317413E-04 -7.647861E-05 -7.646213E-05  1.170199E-05  2.069199E-07 -2.335538E-09
      5233   1  2.317409E-04 -7.647876E-05 -7.645790E-05  1.198340E-05  3.623664E-07 -2.878761E-09
      5234   1  2.317413E-04 -7.646033E-05 -7.647921E-05  1.249382E-05  4.059749E-07 -1.073819E-08
      5235   1  2.317408E-04 -7.647460E-05 -7.648403E-05  1.331919E-05  3.183646E-07  2.709418E-08
      5236   1  2.317414E-04 -7.650954E-05 -7.643520E-05  1.452032E-05  1.261954E-07 -2.705228E-09
      5237   1  1.544943E-04 -5.098920E-05 -5.099339E-05  1.772538E-05 -5.842806E-08 -1.078117E-08
      5238   1  1.544939E-04 -5.098856E-05 -5.097261E-05  1.645284E-05 -1.613900E-07  8.672117E-10
      5239   1  1.544942E-04 -5.098263E-05 -5.098391E-05  1.553576E-05 -2.067945E-07 -2.055409E-08
      5240   1  1.544939E-04 -5.097489E-05 -5.098460E-05  1.492192E-05 -1.868260E-07  3.182409E-09
      5241   1  1.544942E-04 -5.098573E-05 -5.097294E-05  1.457596E-05 -1.104201E-07 -3.115486E-09
      5242   1  1.544939E-04 -5.098203E-05 -5.097764E-05  1.446380E-05 -9.460159E-15  2.005537E-16
      5243   1  1.544942E-04 -5.098573E-05 -5.097294E-05  1.457596E-05  1.104201E-07  3.115485E-09
      5244   1  1.544939E-04 -5.097489E-05 -5.098460E-05  1.492192E-05  1.868260E-07 -3.182409E-09
      5245   1  1.544942E-04 -5.098263E-05 -5.098391E-05  1.553576E-05  2.067945E-07  2.055409E-08
      5246   1  1.544939E-04 -5.098856E-05 -5.097261E-05  1.645284E-05  1.613900E-07 -8.672117E-10
      5247   1  1.544943E-04 -5.098920E-05 -5.099339E-05  1.772538E-05  5.842806E-08  1.078117E-08
      5248   1  7.724714E-05 -2.550186E-05 -2.548093E-05  1.962260E-05 -2.572979E-08 -1.427060E-09
      5249   1  7.724694E-05 -2.549210E-05 -2.549470E-05  1.832412E-05 -6.642720E-08 -2.086035E-08
      5250   1  7.724710E-05 -2.548940E-05 -2.549119E-05  1.735704E-05 -8.710829E-08 -1.451295E-09
      5251   1  7.724696E-05 -2.549161E-05 -2.548927E-05  1.669891E-05 -7.935653E-08 -1.621146E-08
      5252   1  7.724709E-05 -2.548791E-05 -2.549227E-05  1.631659E-05 -4.673354E-08  2.791844E-10
      5253   1  7.724696E-05 -2.549281E-05 -2.548613E-05  1.619262E-05 -4.573042E-15 -2.253083E-16
      5254   1  7.724709E-05 -2.548791E-05 -2.549227E-05  1.631659E-05  4.673353E-08 -2.791841E-10
      5255   1  7.724696E-05 -2.549161E-05 -2.548927E-05  1.669891E-05  7.935652E-08  1.621146E-08
      5256   1  7.724710E-05 -2.548940E-05 -2.549119E-05  1.735704E-05  8.710828E-08  1.451295E-09
      5257   1  7.724694E-05 -2.549210E-05 -2.549470E-05  1.832412E-05  6.642720E-08  2.086035E-08
      5258   1  7.724714E-05 -2.550186E-05 -2.548093E-05  1.962260E-05  2.572979E-08  1.427060E-09
      5259   1  8.463250E-14 -2.793252E-14 -2.807995E-14  2.025234E-05 -1.946312E-17 -8.378985E-09
      5260   1  8.455389E-14 -2.789435E-14 -2.798813E-14  1.894417E-05 -5.402207E-17 -3.527210E-09
      5261   1  8.464551E-14 -2.812334E-14 -2.794664E-14  1.796587E-05 -9.813216E-17 -2.230403E-08
      5262   1  8.458663E-14 -2.825865E-14 -2.779457E-14  1.729128E-05 -8.443309E-17 -1.368582E-09
      5263   1  8.468400E-14 -2.831416E-14 -2.795599E-14  1.690022E-05 -6.003325E-17 -9.266155E-09
      5264   1  8.459715E-14 -2.835232E-14 -2.774814E-14  1.677110E-05 -3.933621E-18  2.074539E-16
      5265   1  8.462068E-14 -2.824824E-14 -2.795404E-14  1.690022E-05  5.182190E-17  9.266154E-09
      5266   1  8.453091E-14 -2.823783E-14 -2.776557E-14  1.729128E-05  9.344891E-17  1.368582E-09
      5267   1  8.455422E-14 -2.813721E-14 -2.793599E-14  1.796587E-05  9.112126E-17  2.230403E-08
      5268   1  8.444027E-14 -2.799497E-14 -2.790702E-14  1.894417E-05  7.047992E-17  3.527210E-09
      5269   1  8.450705E-14 -2.802619E-14 -2.798825E-14  2.025234E-05  1.692202E-17  8.378985E-09
      5270   1 -7.724713E-05  2.550186E-05  2.548093E-05  1.962260E-05  2.572979E-08 -1.427060E-09
      5271   1 -7.724694E-05  2.549210E-05  2.549470E-05  1.832412E-05  6.642720E-08 -2.086035E-08
      5272   1 -7.724710E-05  2.548940E-05  2.549119E-05  1.735704E-05  8.710829E-08 -1.451295E-09
      5273   1 -7.724696E-05  2.549161E-05  2.548927E-05  1.669891E-05  7.935653E-08 -1.621146E-08
      5274   1 -7.724709E-05  2.548791E-05  2.549227E-05  1.631659E-05  4.673354E-08  2.791844E-10
      5275   1 -7.724696E-05  2.549281E-05  2.548613E-05  1.619262E-05  4.572675E-15 -1.964706E-16
      5276   1 -7.724709E-05  2.548791E-05  2.549227E-05  1.631659E-05 -4.673353E-08 -2.791841E-10
      5277   1 -7.724696E-05  2.549161E-05  2.548927E-05  1.669891E-05 -7.935652E-08  1.621146E-08
      5278   1 -7.724710E-05  2.548940E-05  2.549119E-05  1.735704E-05 -8.710828E-08  1.451295E-09
      5279   1 -7.724694E-05  2.549210E-05  2.549470E-05  1.832412E-05 -6.642720E-08  2.086035E-08
      5280   1 -7.724713E-05  2.550186E-05  2.548093E-05  1.962260E-05 -2.572979E-08  1.427060E-09
      5281   1 -1.544943E-04  5.098920E-05  5.099339E-05  1.772538E-05  5.842806E-08 -1.078117E-08
      5282   1 -1.544939E-04  5.098856E-05  5.097261E-05  1.645284E-05  1.613900E-07  8.672118E-10
      5283   1 -1.544942E-04  5.098263E-05  5.098391E-05  1.553576E-05  2.067945E-07 -2.055409E-08
      5284   1 -1.544939E-04  5.097489E-05  5.098460E-05  1.492192E-05  1.868260E-07  3.182409E-09
      5285   1 -1.544942E-04  5.098573E-05  5.097294E-05  1.457596E-05  1.104201E-07 -3.115486E-09
      5286   1 -1.544939E-04  5.098203E-05  5.097764E-05  1.446380E-05  9.454708E-15  2.667688E-16
      5287   1 -1.544942E-04  5.098573E-05  5.097294E-05  1.457596E-05 -1.104201E-07  3.115485E-09
      5288   1 -1.544939E-04  5.097489E-05  5.098460E-05  1.492192E-05 -1.868260E-07 -3.182409E-09
      5289   1 -1.544942E-04  5.098263E-05  5.098391E-05  1.553576E-05 -2.067945E-07  2.055409E-08
      5290   1 -1.544939E-04  5.098856E-05  5.097261E-05  1.645284E-05 -1.613900E-07 -8.672118E-10
      5291   1 -1.544943E-04  5.098920E-05  5.099339E-05  1.772538E-05 -5.842806E-08  1.078117E-08
      5292   1 -2.317414E-04  7.650954E-05  7.643520E-05  1.452032E-05  1.261954E-07  2.705228E-09
      5293   1 -2.317408E-04  7.647460E-05  7.648403E-05  1.331919E-05  3.183646E-07 -2.709418E-08
      5294   1 -2.317413E-04  7.646033E-05  7.647921E-05  1.249382E-05  4.059749E-07  1.073818E-08
      5295   1 -2.317409E-04  7.647876E-05  7.645790E-05  1.198340E-05  3.623664E-07  2.878760E-09
      5296   1 -2.317413E-04  7.647861E-05  7.646213E-05  1.170199E-05  2.069199E-07  2.335538E-09
      5297   1 -2.317409E-04  7.647975E-05  7.645516E-05  1.161084E-05  1.499012E-14 -2.523675E-16
      5298   1 -2.317413E-04  7.647861E-05  7.646213E-05  1.170199E-05 -2.069199E-07 -2.335538E-09
      5299   1 -2.317409E-04  7.647876E-05  7.645790E-05  1.198340E-05 -3.623664E-07 -2.878761E-09
      5300   1 -2.317413E-04  7.646033E-05  7.647921E-05  1.249382E-05 -4.059749E-07 -1.073819E-08
      5301   1 -2.317408E-04  7.647460E-05  7.648403E-05  1.331919E-05 -3.183646E-07  2.709418E-08
      5302   1 -2.317414E-04  7.650954E-05  7.643520E-05  1.452032E-05 -1.261954E-07 -2.705229E-09
      5303   1 -3.089885E-04  1.019745E-04  1.020039E-04  9.932634E-06  2.312690E-07 -2.541059E-08
      5304   1 -3.089878E-04  1.019514E-04  1.019619E-04  8.856084E-06  6.334308E-07  2.476968E-08
      5305   1 -3.089884E-04  1.019724E-04  1.019403E-04  8.266719E-06  7.743314E-07  1.770661E-08
      5306   1 -3.089879E-04  1.019799E-04  1.019394E-04  7.924955E-06  6.407786E-07  5.203028E-09
      5307   1 -3.089884E-04  1.019730E-04  1.019405E-04  7.736561E-06  3.580799E-07  4.340531E-09
      5308   1 -3.089879E-04  1.019830E-04  1.019372E-04  7.679053E-06  2.139420E-14  1.175614E-16
      5309   1 -3.089884E-04  1.019730E-04  1.019405E-04  7.736561E-06 -3.580799E-07 -4.340531E-09
      5310   1 -3.089879E-04  1.019799E-04  1.019394E-04  7.924955E-06 -6.407786E-07 -5.203027E-09
      5311   1 -3.089884E-04  1.019724E-04  1.019403E-04  8.266719E-06 -7.743314E-07 -1.770662E-08
      5312   1 -3.089878E-04  1.019514E-04  1.019619E-04  8.856084E-06 -6.334308E-07 -2.476968E-08
      5313   1 -3.089885E-04  1.019745E-04  1.020039E-04  9.932634E-06 -2.312690E-07  2.541059E-08
      5314   1 -3.862356E-04  1.275337E-04  1.273413E-04  3.647984E-06  6.234877E-07  3.908659E-08
      5315   1 -3.862348E-04  1.274605E-04  1.274030E-04  3.134967E-06  1.348001E-06  2.409099E-08
      5316   1 -3.862355E-04  1.274971E-04  1.274031E-04  2.938737E-06  1.372483E-06  4.704955E-09
      5317   1 -3.862348E-04  1.274640E-04  1.274217E-04  2.809220E-06  1.070283E-06  5.634919E-09
      5318   1 -3.862354E-04  1.274860E-04  1.274166E-04  2.747200E-06  5.776055E-07  7.910145E-10
      5319   1 -3.862349E-04  1.274652E-04  1.274249E-04  2.724435E-06  2.892020E-14 -2.902443E-17
      5320   1 -3.862354E-04  1.274860E-04  1.274166E-04  2.747200E-06 -5.776054E-07 -7.910144E-10
      5321   1 -3.862348E-04  1.274640E-04  1.274217E-04  2.809220E-06 -1.070283E-06 -5.634920E-09
      5322   1 -3.862355E-04  1.274971E-04  1.274031E-04  2.938737E-06 -1.372483E-06 -4.704955E-09
      5323   1 -3.862348E-04  1.274605E-04  1.274030E-04  3.134967E-06 -1.348001E-06 -2.409099E-08
      5324   1 -3.862356E-04  1.275337E-04  1.273413E-04  3.647984E-06 -6.234877E-07 -3.908659E-08
      5325   1  3.816908E-04 -1.260333E-04 -1.258414E-04  3.648050E-06 -6.235006E-07  3.866269E-08
      5326   1  3.816915E-04 -1.259610E-04 -1.259058E-04  3.134924E-06 -1.347969E-06  2.378633E-08
      5327   1  3.816909E-04 -1.259972E-04 -1.259026E-04  2.938761E-06 -1.372520E-06  4.663483E-09
      5328   1  3.816915E-04 -1.259645E-04 -1.259242E-04  2.809195E-06 -1.070253E-06  5.560338E-09
      5329   1  3.816910E-04 -1.259862E-04 -1.259160E-04  2.747215E-06 -5.776222E-07  7.856153E-10
      5330   1  3.816914E-04 -1.259657E-04 -1.259274E-04  2.724414E-06 -2.891618E-14 -4.288443E-17
      5331   1  3.816910E-04 -1.259862E-04 -1.259160E-04  2.747215E-06  5.776221E-07 -7.856152E-10
      5332   1  3.816915E-04 -1.259645E-04 -1.259242E-04  2.809195E-06  1.070253E-06 -5.560339E-09
      5333   1  3.816909E-04 -1.259972E-04 -1.259026E-04  2.938761E-06  1.372520E-06 -4.663483E-09
      5334   1  3.816915E-04 -1.259610E-04 -1.259058E-04  3.134924E-06  1.347969E-06 -2.378633E-08
      5335   1  3.816908E-04 -1.260333E-04 -1.258414E-04  3.648050E-06  6.235006E-07 -3.866269E-08
      5336   1  3.053526E-04 -1.007748E-04 -1.008023E-04  9.932582E-06 -2.312851E-07 -2.512073E-08
      5337   1  3.053532E-04 -1.007520E-04 -1.007639E-04  8.856110E-06 -6.333977E-07  2.447850E-08
      5338   1  3.053527E-04 -1.007727E-04 -1.007396E-04  8.266723E-06 -7.743663E-07  1.749897E-08
      5339   1  3.053532E-04 -1.007801E-04 -1.007415E-04  7.924969E-06 -6.407507E-07  5.141057E-09
      5340   1  3.053528E-04 -1.007732E-04 -1.007398E-04  7.736570E-06 -3.580953E-07  4.289940E-09
      5341   1  3.053532E-04 -1.007831E-04 -1.007393E-04  7.679065E-06 -2.139378E-14  5.331395E-17
      5342   1  3.053528E-04 -1.007732E-04 -1.007398E-04  7.736570E-06  3.580952E-07 -4.289941E-09
      5343   1  3.053532E-04 -1.007801E-04 -1.007415E-04  7.924969E-06  6.407507E-07 -5.141056E-09
      5344   1  3.053527E-04 -1.007727E-04 -1.007396E-04  8.266723E-06  7.743663E-07 -1.749897E-08
      5345   1  3.053532E-04 -1.007520E-04 -1.007639E-04  8.856110E-06  6.333976E-07 -2.447850E-08
      5346   1  3.053526E-04 -1.007748E-04 -1.008023E-04  9.932582E-06  2.312851E-07  2.512073E-08
      5347   1  2.290145E-04 -7.560942E-05 -7.553475E-05  1.452034E-05 -1.262031E-07  2.678286E-09
      5348   1  2.290149E-04 -7.557492E-05 -7.558537E-05  1.331918E-05 -3.183427E-07 -2.677313E-08
      5349   1  2.290145E-04 -7.556082E-05 -7.557835E-05  1.249379E-05 -4.060006E-07  1.061034E-08
      5350   1  2.290149E-04 -7.557903E-05 -7.555947E-05  1.198339E-05 -3.623452E-07  2.846015E-09
      5351   1  2.290146E-04 -7.557889E-05 -7.556152E-05  1.170196E-05 -2.069317E-07  2.307545E-09
      5352   1  2.290149E-04 -7.558001E-05 -7.555674E-05  1.161083E-05 -1.500045E-14 -2.828082E-16
      5353   1  2.290146E-04 -7.557889E-05 -7.556152E-05  1.170196E-05  2.069316E-07 -2.307544E-09
      5354   1  2.290149E-04 -7.557903E-05 -7.555947E-05  1.198339E-05  3.623452E-07 -2.846015E-09
      5355   1  2.290145E-04 -7.556082E-05 -7.557835E-05  1.249379E-05  4.060005E-07 -1.061034E-08
      5356   1  2.290149E-04 -7.557492E-05 -7.558537E-05  1.331918E-05  3.183427E-07  2.677313E-08
      5357   1  2.290145E-04 -7.560942E-05 -7.553475E-05  1.452034E-05  1.262031E-07 -2.678286E-09
      5358   1  1.526763E-04 -5.038933E-05 -5.039265E-05  1.772535E-05 -5.843596E-08 -1.065818E-08
      5359   1  1.526766E-04 -5.038868E-05 -5.037370E-05  1.645286E-05 -1.613739E-07  8.553980E-10
      5360   1  1.526764E-04 -5.038281E-05 -5.038336E-05  1.553577E-05 -2.068116E-07 -2.031200E-08
      5361   1  1.526766E-04 -5.037517E-05 -5.038550E-05  1.492195E-05 -1.868122E-07  3.145091E-09
      5362   1  1.526764E-04 -5.038588E-05 -5.037254E-05  1.457598E-05 -1.104278E-07 -3.078915E-09
      5363   1  1.526766E-04 -5.038222E-05 -5.037862E-05  1.446382E-05 -9.459089E-15  2.047774E-16
      5364   1  1.526764E-04 -5.038588E-05 -5.037254E-05  1.457598E-05  1.104277E-07  3.078915E-09
      5365   1  1.526766E-04 -5.037517E-05 -5.038550E-05  1.492195E-05  1.868121E-07 -3.145090E-09
      5366   1  1.526764E-04 -5.038281E-05 -5.038336E-05  1.553577E-05  2.068115E-07  2.031200E-08
      5367   1  1.526766E-04 -5.038868E-05 -5.037370E-05  1.645286E-05  1.613738E-07 -8.553981E-10
      5368   1  1.526763E-04 -5.038933E-05 -5.039265E-05  1.772535E-05  5.843595E-08  1.065818E-08
      5369   1  7.633815E-05 -2.520183E-05 -2.518074E-05  1.962261E-05 -2.573250E-08 -1.407287E-09
      5370   1  7.633831E-05 -2.519220E-05 -2.519515E-05  1.832412E-05 -6.641957E-08 -2.061245E-08
      5371   1  7.633818E-05 -2.518953E-05 -2.519092E-05  1.735701E-05 -8.711715E-08 -1.434956E-09
      5372   1  7.633830E-05 -2.519171E-05 -2.518976E-05  1.669889E-05 -7.934925E-08 -1.602029E-08
      5373   1  7.633819E-05 -2.518806E-05 -2.519200E-05  1.631657E-05 -4.673755E-08  2.757576E-10
      5374   1  7.633830E-05 -2.519290E-05 -2.518665E-05  1.619260E-05 -4.580994E-15 -1.964418E-16
      5375   1  7.633819E-05 -2.518806E-05 -2.519200E-05  1.631657E-05  4.673754E-08 -2.757573E-10
      5376   1  7.633830E-05 -2.519171E-05 -2.518976E-05  1.669889E-05  7.934925E-08  1.602029E-08
      5377   1  7.633818E-05 -2.518953E-05 -2.519092E-05  1.735701E-05  8.711714E-08  1.434956E-09
      5378   1  7.633831E-05 -2.519220E-05 -2.519515E-05  1.832412E-05  6.641956E-08  2.061245E-08
      5379   1  7.633815E-05 -2.520183E-05 -2.518074E-05  1.962261E-05  2.573250E-08  1.407287E-09
      5380   1  8.347804E-14 -2.747802E-14 -2.757334E-14  2.025231E-05 -1.899810E-17 -8.283505E-09
      5381   1  8.354884E-14 -2.731496E-14 -2.782674E-14  1.894419E-05 -7.774407E-17 -3.487294E-09
      5382   1  8.340344E-14 -2.723516E-14 -2.746334E-14  1.796589E-05 -9.374198E-17 -2.204172E-08
      5383   1  8.344345E-14 -2.723863E-14 -2.764296E-14  1.729131E-05 -8.939247E-17 -1.352058E-09
      5384   1  8.329980E-14 -2.709985E-14 -2.744072E-14  1.690024E-05 -6.132783E-17 -9.157364E-09
      5385   1  8.336929E-14 -2.706863E-14 -2.761904E-14  1.677113E-05 -1.127263E-17  1.726598E-16
      5386   1  8.331562E-14 -2.714495E-14 -2.742668E-14  1.690024E-05  4.604471E-17  9.157364E-09
      5387   1  8.336973E-14 -2.714495E-14 -2.764169E-14  1.729131E-05  7.161918E-17  1.352058E-09
      5388   1  8.329231E-14 -2.718312E-14 -2.739308E-14  1.796589E-05  9.065540E-17  2.204172E-08
      5389   1  8.340073E-14 -2.720046E-14 -2.780304E-14  1.894419E-05  7.278300E-17  3.487295E-09
      5390   1  8.328613E-14 -2.742598E-14 -2.743749E-14  2.025231E-05  2.074723E-17  8.283505E-09
      5391   1 -7.633815E-05  2.520183E-05  2.518074E-05  1.962261E-05  2.573250E-08 -1.407287E-09
      5392   1 -7.633831E-05  2.519220E-05  2.519515E-05  1.832412E-05  6.641957E-08 -2.061245E-08
      5393   1 -7.633818E-05  2.518953E-05  2.519092E-05  1.735701E-05  8.711715E-08 -1.434956E-09
      5394   1 -7.633830E-05  2.519171E-05  2.518976E-05  1.669889E-05  7.934925E-08 -1.602029E-08
      5395   1 -7.633819E-05  2.518806E-05  2.519200E-05  1.631657E-05  4.673755E-08  2.757577E-10
      5396   1 -7.633830E-05  2.519290E-05  2.518665E-05  1.619260E-05  4.571506E-15 -2.384499E-16
      5397   1 -7.633819E-05  2.518806E-05  2.519200E-05  1.631657E-05 -4.673754E-08 -2.757573E-10
      5398   1 -7.633830E-05  2.519171E-05  2.518976E-05  1.669889E-05 -7.934925E-08  1.602029E-08
      5399   1 -7.633818E-05  2.518953E-05  2.519092E-05  1.735701E-05 -8.711714E-08  1.434956E-09
      5400   1 -7.633831E-05  2.519220E-05  2.519515E-05  1.832412E-05 -6.641956E-08  2.061245E-08
      5401   1 -7.633815E-05  2.520183E-05  2.518074E-05  1.962261E-05 -2.573250E-08  1.407287E-09
      5402   1 -1.526763E-04  5.038933E-05  5.039265E-05  1.772535E-05  5.843596E-08 -1.065818E-08
      5403   1 -1.526766E-04  5.038868E-05  5.037370E-05  1.645286E-05  1.613739E-07  8.553981E-10
      5404   1 -1.526764E-04  5.038281E-05  5.038336E-05  1.553577E-05  2.068115E-07 -2.031200E-08
      5405   1 -1.526766E-04  5.037517E-05  5.038550E-05  1.492195E-05  1.868122E-07  3.145091E-09
      5406   1 -1.526764E-04  5.038588E-05  5.037254E-05  1.457598E-05  1.104278E-07 -3.078915E-09
      5407   1 -1.526766E-04  5.038222E-05  5.037862E-05  1.446382E-05  9.441332E-15  2.603966E-16
      5408   1 -1.526764E-04  5.038588E-05  5.037254E-05  1.457598E-05 -1.104277E-07  3.078915E-09
      5409   1 -1.526766E-04  5.037517E-05  5.038550E-05  1.492195E-05 -1.868121E-07 -3.145090E-09
      5410   1 -1.526764E-04  5.038281E-05  5.038336E-05  1.553577E-05 -2.068115E-07  2.031200E-08
      5411   1 -1.526766E-04  5.038868E-05  5.037370E-05  1.645286E-05 -1.613738E-07 -8.553982E-10
      5412   1 -1.526763E-04  5.038933E-05  5.039265E-05  1.772535E-05 -5.843595E-08  1.065818E-08
      5413   1 -2.290145E-04  7.560942E-05  7.553475E-05  1.452034E-05  1.262031E-07  2.678286E-09
      5414   1 -2.290149E-04  7.557492E-05  7.558537E-05  1.331918E-05  3.183427E-07 -2.677313E-08
      5415   1 -2.290145E-04  7.556082E-05  7.557835E-05  1.249379E-05  4.060006E-07  1.061034E-08
      5416   1 -2.290149E-04  7.557903E-05  7.555947E-05  1.198339E-05  3.623452E-07  2.846015E-09
      5417   1 -2.290146E-04  7.557889E-05  7.556152E-05  1.170196E-05  2.069317E-07  2.307545E-09
      5418   1 -2.290149E-04  7.558001E-05  7.555674E-05  1.161083E-05  1.498240E-14 -2.702306E-16
      5419   1 -2.290146E-04  7.557889E-05  7.556152E-05  1.170196E-05 -2.069316E-07 -2.307544E-09
      5420   1 -2.290149E-04  7.557903E-05  7.555947E-05  1.198339E-05 -3.623452E-07 -2.846015E-09
      5421   1 -2.290145E-04  7.556082E-05  7.557835E-05  1.249379E-05 -4.060005E-07 -1.061034E-08
      5422   1 -2.290149E-04  7.557492E-05  7.558537E-05  1.331918E-05 -3.183427E-07  2.677313E-08
      5423   1 -2.290145E-04  7.560942E-05  7.553475E-05  1.452034E-05 -1.262031E-07 -2.678286E-09
      5424   1 -3.053526E-04  1.007748E-04  1.008023E-04  9.932582E-06  2.312851E-07 -2.512073E-08
      5425   1 -3.053532E-04  1.007520E-04  1.007639E-04  8.856110E-06  6.333977E-07  2.447850E-08
      5426   1 -3.053527E-04  1.007727E-04  1.007396E-04  8.266723E-06  7.743663E-07  1.749897E-08
      5427   1 -3.053532E-04  1.007801E-04  1.007415E-04  7.924969E-06  6.407507E-07  5.141057E-09
      5428   1 -3.053528E-04  1.007732E-04  1.007398E-04  7.736570E-06  3.580953E-07  4.289940E-09
      5429   1 -3.053532E-04  1.007831E-04  1.007393E-04  7.679065E-06  2.138385E-14  8.101023E-17
      5430   1 -3.053528E-04  1.007732E-04  1.007398E-04  7.736570E-06 -3.580952E-07 -4.289941E-09
      5431   1 -3.053532E-04  1.007801E-04  1.007415E-04  7.924969E-06 -6.407507E-07 -5.141056E-09
      5432   1 -3.053527E-04  1.007727E-04  1.007396E-04  8.266723E-06 -7.743663E-07 -1.749897E-08
      5433   1 -3.053532E-04  1.007520E-04  1.007639E-04  8.856110E-06 -6.333976E-07 -2.447850E-08
      5434   1 -3.053526E-04  1.007748E-04  1.008023E-04  9.932582E-06 -2.312851E-07  2.512073E-08
      5435   1 -3.816908E-04  1.260333E-04  1.258414E-04  3.648050E-06  6.235006E-07  3.866269E-08
      5436   1 -3.816915E-04  1.259610E-04  1.259058E-04  3.134924E-06  1.347969E-06  2.378633E-08
      5437   1 -3.816909E-04  1.259972E-04  1.259026E-04  2.938761E-06  1.372520E-06  4.663483E-09
      5438   1 -3.816915E-04  1.259645E-04  1.259242E-04  2.809195E-06  1.070253E-06  5.560338E-09
      5439   1 -3.816910E-04  1.259862E-04  1.259160E-04  2.747215E-06  5.776222E-07  7.856153E-10
      5440   1 -3.816914E-04  1.259657E-04  1.259274E-04  2.724414E-06  2.890951E-14 -3.203140E-17
      5441   1 -3.816910E-04  1.259862E-04  1.259160E-04  2.747215E-06 -5.776221E-07 -7.856152E-10
      5442   1 -3.816915E-04  1.259645E-04  1.259242E-04  2.809195E-06 -1.070253E-06 -5.560339E-09
      5443   1 -3.816909E-04  1.259972E-04  1.259026E-04  2.938761E-06 -1.372520E-06 -4.663483E-09
      5444   1 -3.816915E-04  1.259610E-04  1.259058E-04  3.134924E-06 -1.347969E-06 -2.378633E-08
      5445   1 -3.816908E-04  1.260333E-04  1.258414E-04  3.648050E-06 -6.235006E-07 -3.866269E-08
      5446   1  3.771476E-04 -1.245329E-04 -1.243447E-04  3.647996E-06 -6.234902E-07  3.817314E-08
      5447   1  3.771470E-04 -1.244614E-04 -1.244055E-04  3.134959E-06 -1.347995E-06  2.352049E-08
      5448   1  3.771475E-04 -1.244972E-04 -1.244051E-04  2.938741E-06 -1.372490E-06  4.596671E-09
      5449   1  3.771471E-04 -1.244649E-04 -1.244238E-04  2.809215E-06 -1.070278E-06  5.500914E-09
      5450   1  3.771474E-04 -1.244863E-04 -1.244183E-04  2.747203E-06 -5.776085E-07  7.730878E-10
      5451   1  3.771471E-04 -1.244660E-04 -1.244270E-04  2.724431E-06 -2.891939E-14 -8.648206E-19
      5452   1  3.771474E-04 -1.244863E-04 -1.244183E-04  2.747203E-06  5.776085E-07 -7.730878E-10
      5453   1  3.771471E-04 -1.244649E-04 -1.244238E-04  2.809215E-06  1.070277E-06 -5.500914E-09
      5454   1  3.771475E-04 -1.244972E-04 -1.244051E-04  2.938741E-06  1.372490E-06 -4.596671E-09
      5455   1  3.771470E-04 -1.244614E-04 -1.244055E-04  3.134959E-06  1.347995E-06 -2.352049E-08
      5456   1  3.771476E-04 -1.245329E-04 -1.243447E-04  3.647996E-06  6.234902E-07 -3.817314E-08
      5457   1  3.017181E-04 -9.957509E-05 -9.960356E-05  9.932625E-06 -2.312719E-07 -2.481427E-08
      5458   1  3.017176E-04 -9.955258E-05 -9.956309E-05  8.856089E-06 -6.334247E-07  2.418693E-08
      5459   1  3.017180E-04 -9.957309E-05 -9.954146E-05  8.266721E-06 -7.743378E-07  1.729015E-08
      5460   1  3.017176E-04 -9.958032E-05 -9.954103E-05  7.924958E-06 -6.407735E-07  5.080513E-09
      5461   1  3.017180E-04 -9.957359E-05 -9.954165E-05  7.736563E-06 -3.580827E-07  4.238505E-09
      5462   1  3.017177E-04 -9.958337E-05 -9.953891E-05  7.679055E-06 -2.139260E-14  1.019599E-16
      5463   1  3.017180E-04 -9.957359E-05 -9.954165E-05  7.736563E-06  3.580827E-07 -4.238506E-09
      5464   1  3.017176E-04 -9.958032E-05 -9.954103E-05  7.924958E-06  6.407734E-07 -5.080512E-09
      5465   1  3.017180E-04 -9.957309E-05 -9.954146E-05  8.266721E-06  7.743377E-07 -1.729015E-08
      5466   1  3.017176E-04 -9.955258E-05 -9.956309E-05  8.856089E-06  6.334247E-07 -2.418693E-08
      5467   1  3.017181E-04 -9.957509E-05 -9.960356E-05  9.932625E-06  2.312719E-07  2.481427E-08
      5468   1  2.262886E-04 -7.470932E-05 -7.463652E-05  1.452032E-05 -1.261968E-07  2.642467E-09
      5469   1  2.262882E-04 -7.467520E-05 -7.468461E-05  1.331919E-05 -3.183606E-07 -2.645620E-08
      5470   1  2.262885E-04 -7.466127E-05 -7.467951E-05  1.249381E-05 -4.059795E-07  1.048533E-08
      5471   1  2.262882E-04 -7.467927E-05 -7.465907E-05  1.198339E-05 -3.623625E-07  2.811277E-09
      5472   1  2.262885E-04 -7.467912E-05 -7.466284E-05  1.170198E-05 -2.069220E-07  2.280528E-09
      5473   1  2.262882E-04 -7.468024E-05 -7.465639E-05  1.161084E-05 -1.497644E-14 -2.919180E-16
      5474   1  2.262885E-04 -7.467912E-05 -7.466284E-05  1.170198E-05  2.069220E-07 -2.280527E-09
      5475   1  2.262882E-04 -7.467927E-05 -7.465907E-05  1.198339E-05  3.623625E-07 -2.811277E-09
      5476   1  2.262885E-04 -7.466127E-05 -7.467951E-05  1.249381E-05  4.059795E-07 -1.048533E-08
      5477   1  2.262882E-04 -7.467520E-05 -7.468461E-05  1.331919E-05  3.183606E-07  2.645620E-08
      5478   1  2.262886E-04 -7.470932E-05 -7.463652E-05  1.452032E-05  1.261968E-07 -2.642467E-09
      5479   1  1.508590E-04 -4.978945E-05 -4.979340E-05  1.772538E-05 -5.842947E-08 -1.052815E-08
      5480   1  1.508588E-04 -4.978882E-05 -4.977339E-05  1.645284E-05 -1.613870E-07  8.465963E-10
      5481   1  1.508590E-04 -4.978303E-05 -4.978416E-05  1.553576E-05 -2.067975E-07 -2.007033E-08
      5482   1  1.508588E-04 -4.977548E-05 -4.978508E-05  1.492193E-05 -1.868234E-07  3.107620E-09
      5483   1  1.508590E-04 -4.978606E-05 -4.977345E-05  1.457597E-05 -1.104215E-07 -3.042154E-09
      5484   1  1.508588E-04 -4.978245E-05 -4.977829E-05  1.446380E-05 -9.441638E-15  2.402990E-16
      5485   1  1.508590E-04 -4.978606E-05 -4.977345E-05  1.457597E-05  1.104215E-07  3.042154E-09
      5486   1  1.508588E-04 -4.977548E-05 -4.978508E-05  1.492193E-05  1.868234E-07 -3.107620E-09
      5487   1  1.508590E-04 -4.978303E-05 -4.978416E-05  1.553576E-05  2.067975E-07  2.007033E-08
      5488   1  1.508588E-04 -4.978882E-05 -4.977339E-05  1.645284E-05  1.613870E-07 -8.465964E-10
      5489   1  1.508590E-04 -4.978945E-05 -4.979340E-05  1.772538E-05  5.842946E-08  1.052815E-08
      5490   1  7.542952E-05 -2.490181E-05 -2.488131E-05  1.962260E-05 -2.573028E-08 -1.392908E-09
      5491   1  7.542939E-05 -2.489229E-05 -2.489489E-05  1.832412E-05 -6.642579E-08 -2.036899E-08
      5492   1  7.542950E-05 -2.488965E-05 -2.489134E-05  1.735704E-05 -8.710988E-08 -1.417174E-09
      5493   1  7.542940E-05 -2.489181E-05 -2.488959E-05  1.669890E-05 -7.935519E-08 -1.582986E-08
      5494   1  7.542950E-05 -2.488820E-05 -2.489239E-05  1.631659E-05 -4.673426E-08  2.726346E-10
      5495   1  7.542941E-05 -2.489298E-05 -2.488652E-05  1.619261E-05 -4.576637E-15 -2.324299E-16
      5496   1  7.542950E-05 -2.488820E-05 -2.489239E-05  1.631659E-05  4.673425E-08 -2.726343E-10
      5497   1  7.542940E-05 -2.489181E-05 -2.488959E-05  1.669890E-05  7.935518E-08  1.582985E-08
      5498   1  7.542950E-05 -2.488965E-05 -2.489134E-05  1.735704E-05  8.710987E-08  1.417174E-09
      5499   1  7.542939E-05 -2.489229E-05 -2.489489E-05  1.832412E-05  6.642579E-08  2.036899E-08
      5500   1  7.542952E-05 -2.490181E-05 -2.488131E-05  1.962260E-05  2.573028E-08  1.392908E-09
      5501   1  8.266163E-14 -2.728720E-14 -2.746936E-14  2.025234E-05 -1.621221E-17 -8.182351E-09
      5502   1  8.256004E-14 -2.735659E-14 -2.727748E-14  1.894417E-05 -6.817091E-17 -3.444411E-09
      5503   1  8.270652E-14 -2.758210E-14 -2.733851E-14  1.796587E-05 -9.583924E-17 -2.177914E-08
      5504   1  8.261924E-14 -2.770700E-14 -2.711672E-14  1.729129E-05 -8.143502E-17 -1.336225E-09
      5505   1  8.273471E-14 -2.780068E-14 -2.733268E-14  1.690022E-05 -7.051274E-17 -9.048121E-09
      5506   1  8.264190E-14 -2.785966E-14 -2.706851E-14  1.677110E-05  7.165793E-18  9.348861E-17
      5507   1  8.268874E-14 -2.773823E-14 -2.733641E-14  1.690022E-05  4.224026E-17  9.048121E-09
      5508   1  8.257913E-14 -2.774517E-14 -2.707324E-14  1.729129E-05  7.383501E-17  1.336225E-09
      5509   1  8.263583E-14 -2.759251E-14 -2.729446E-14  1.796587E-05  9.295763E-17  2.177914E-08
      5510   1  8.247038E-14 -2.737741E-14 -2.722988E-14  1.894417E-05  6.865880E-17  3.444411E-09
      5511   1  8.255853E-14 -2.747455E-14 -2.738630E-14  2.025234E-05  1.106225E-17  8.182351E-09
      5512   1 -7.542952E-05  2.490181E-05  2.488131E-05  1.962260E-05  2.573028E-08 -1.392908E-09
      5513   1 -7.542939E-05  2.489229E-05  2.489489E-05  1.832412E-05  6.642579E-08 -2.036899E-08
      5514   1 -7.542950E-05  2.488965E-05  2.489134E-05  1.735704E-05  8.710988E-08 -1.417174E-09
      5515   1 -7.542940E-05  2.489181E-05  2.488959E-05  1.669890E-05  7.935519E-08 -1.582986E-08
      5516   1 -7.542949E-05  2.488820E-05  2.489239E-05  1.631659E-05  4.673426E-08  2.726347E-10
      5517   1 -7.542941E-05  2.489298E-05  2.488652E-05  1.619261E-05  4.562379E-15 -2.032896E-16
      5518   1 -7.542949E-05  2.488820E-05  2.489239E-05  1.631659E-05 -4.673425E-08 -2.726343E-10
      5519   1 -7.542940E-05  2.489181E-05  2.488959E-05  1.669890E-05 -7.935518E-08  1.582985E-08
      5520   1 -7.542950E-05  2.488965E-05  2.489134E-05  1.735704E-05 -8.710987E-08  1.417174E-09
      5521   1 -7.542939E-05  2.489229E-05  2.489489E-05  1.832412E-05 -6.642579E-08  2.036899E-08
      5522   1 -7.542952E-05  2.490181E-05  2.488131E-05  1.962260E-05 -2.573028E-08  1.392909E-09
      5523   1 -1.508590E-04  4.978945E-05  4.979340E-05  1.772538E-05  5.842947E-08 -1.052815E-08
      5524   1 -1.508588E-04  4.978882E-05  4.977339E-05  1.645284E-05  1.613870E-07  8.465964E-10
      5525   1 -1.508590E-04  4.978303E-05  4.978416E-05  1.553576E-05  2.067975E-07 -2.007033E-08
      5526   1 -1.508588E-04  4.977548E-05  4.978508E-05  1.492193E-05  1.868234E-07  3.107620E-09
      5527   1 -1.508590E-04  4.978606E-05  4.977345E-05  1.457597E-05  1.104215E-07 -3.042154E-09
      5528   1 -1.508588E-04  4.978245E-05  4.977829E-05  1.446380E-05  9.462306E-15  2.365221E-16
      5529   1 -1.508590E-04  4.978606E-05  4.977345E-05  1.457597E-05 -1.104215E-07  3.042154E-09
      5530   1 -1.508588E-04  4.977548E-05  4.978508E-05  1.492193E-05 -1.868234E-07 -3.107620E-09
      5531   1 -1.508590E-04  4.978303E-05  4.978416E-05  1.553576E-05 -2.067975E-07  2.007033E-08
      5532   1 -1.508588E-04  4.978882E-05  4.977339E-05  1.645284E-05 -1.613870E-07 -8.465965E-10
      5533   1 -1.508590E-04  4.978945E-05  4.979340E-05  1.772538E-05 -5.842946E-08  1.052815E-08
      5534   1 -2.262886E-04  7.470932E-05  7.463652E-05  1.452032E-05  1.261968E-07  2.642467E-09
      5535   1 -2.262882E-04  7.467520E-05  7.468461E-05  1.331919E-05  3.183606E-07 -2.645620E-08
      5536   1 -2.262885E-04  7.466127E-05  7.467951E-05  1.249381E-05  4.059795E-07  1.048533E-08
      5537   1 -2.262882E-04  7.467927E-05  7.465907E-05  1.198339E-05  3.623625E-07  2.811277E-09
      5538   1 -2.262885E-04  7.467912E-05  7.466284E-05  1.170198E-05  2.069220E-07  2.280528E-09
      5539   1 -2.262882E-04  7.468024E-05  7.465639E-05  1.161084E-05  1.496967E-14 -2.940839E-16
      5540   1 -2.262885E-04  7.467912E-05  7.466284E-05  1.170198E-05 -2.069220E-07 -2.280527E-09
      5541   1 -2.262882E-04  7.467927E-05  7.465907E-05  1.198339E-05 -3.623625E-07 -2.811277E-09
      5542   1 -2.262885E-04  7.466127E-05  7.467951E-05  1.249381E-05 -4.059795E-07 -1.048533E-08
      5543   1 -2.262882E-04  7.467520E-05  7.468461E-05  1.331919E-05 -3.183606E-07  2.645620E-08
      5544   1 -2.262886E-04  7.470932E-05  7.463652E-05  1.452032E-05 -1.261968E-07 -2.642467E-09
      5545   1 -3.017181E-04  9.957509E-05  9.960356E-05  9.932625E-06  2.312719E-07 -2.481427E-08
      5546   1 -3.017176E-04  9.955258E-05  9.956309E-05  8.856089E-06  6.334247E-07  2.418693E-08
      5547   1 -3.017180E-04  9.957309E-05  9.954146E-05  8.266721E-06  7.743378E-07  1.729015E-08
      5548   1 -3.017176E-04  9.958032E-05  9.954103E-05  7.924958E-06  6.407735E-07  5.080513E-09
      5549   1 -3.017180E-04  9.957359E-05  9.954165E-05  7.736563E-06  3.580827E-07  4.238505E-09
      5550   1 -3.017177E-04  9.958337E-05  9.953891E-05  7.679055E-06  2.137080E-14  7.591025E-17
      5551   1 -3.017180E-04  9.957359E-05  9.954165E-05  7.736563E-06 -3.580827E-07 -4.238506E-09
      5552   1 -3.017176E-04  9.958032E-05  9.954103E-05  7.924958E-06 -6.407734E-07 -5.080512E-09
      5553   1 -3.017180E-04  9.957309E-05  9.954146E-05  8.266721E-06 -7.743377E-07 -1.729015E-08
      5554   1 -3.017176E-04  9.955258E-05  9.956309E-05  8.856089E-06 -6.334247E-07 -2.418693E-08
      5555   1 -3.017181E-04  9.957509E-05  9.960356E-05  9.932625E-06 -2.312719E-07  2.481427E-08
      5556   1 -3.771476E-04  1.245329E-04  1.243447E-04  3.647996E-06  6.234902E-07  3.817314E-08
      5557   1 -3.771470E-04  1.244614E-04  1.244055E-04  3.134959E-06  1.347995E-06  2.352049E-08
      5558   1 -3.771475E-04  1.244972E-04  1.244051E-04  2.938741E-06  1.372490E-06  4.596671E-09
      5559   1 -3.771471E-04  1.244649E-04  1.244238E-04  2.809215E-06  1.070278E-06  5.500914E-09
      5560   1 -3.771474E-04  1.244863E-04  1.244183E-04  2.747203E-06  5.776085E-07  7.730879E-10
      5561   1 -3.771471E-04  1.244660E-04  1.244270E-04  2.724431E-06  2.890854E-14 -5.866042E-17
      5562   1 -3.771474E-04  1.244863E-04  1.244183E-04  2.747203E-06 -5.776085E-07 -7.730878E-10
      5563   1 -3.771471E-04  1.244649E-04  1.244238E-04  2.809215E-06 -1.070277E-06 -5.500914E-09
      5564   1 -3.771475E-04  1.244972E-04  1.244051E-04  2.938741E-06 -1.372490E-06 -4.596671E-09
      5565   1 -3.771470E-04  1.244614E-04  1.244055E-04  3.134959E-06 -1.347995E-06 -2.352049E-08
      5566   1 -3.771476E-04  1.245329E-04  1.243447E-04  3.647996E-06 -6.234902E-07 -3.817314E-08
      5567   1  3.726031E-04 -1.230325E-04 -1.228454E-04  3.648040E-06 -6.234986E-07  3.773709E-08
      5568   1  3.726035E-04 -1.229619E-04 -1.229078E-04  3.134930E-06 -1.347974E-06  2.322298E-08
      5569   1  3.726031E-04 -1.229972E-04 -1.229051E-04  2.938758E-06 -1.372514E-06  4.550508E-09
      5570   1  3.726035E-04 -1.229653E-04 -1.229258E-04  2.809199E-06 -1.070258E-06  5.429130E-09
      5571   1  3.726032E-04 -1.229865E-04 -1.229183E-04  2.747212E-06 -5.776197E-07  7.663679E-10
      5572   1  3.726035E-04 -1.229665E-04 -1.229289E-04  2.724417E-06 -2.890379E-14 -4.592697E-17
      5573   1  3.726032E-04 -1.229865E-04 -1.229183E-04  2.747212E-06  5.776196E-07 -7.663678E-10
      5574   1  3.726035E-04 -1.229653E-04 -1.229258E-04  2.809199E-06  1.070257E-06 -5.429131E-09
      5575   1  3.726031E-04 -1.229972E-04 -1.229051E-04  2.938758E-06  1.372514E-06 -4.550508E-09
      5576   1  3.726035E-04 -1.229619E-04 -1.229078E-04  3.134930E-06  1.347974E-06 -2.322298E-08
      5577   1  3.726031E-04 -1.230325E-04 -1.228454E-04  3.648040E-06  6.234986E-07 -3.773709E-08
      5578   1  2.980824E-04 -9.837541E-05 -9.840248E-05  9.932590E-06 -2.312827E-07 -2.452132E-08
      5579   1  2.980828E-04 -9.835314E-05 -9.836452E-05  8.856106E-06 -6.334025E-07  2.389569E-08
      5580   1  2.980825E-04 -9.837339E-05 -9.834123E-05  8.266722E-06 -7.743610E-07  1.708228E-08
      5581   1  2.980828E-04 -9.838055E-05 -9.834266E-05  7.924967E-06 -6.407548E-07  5.018794E-09
      5582   1  2.980825E-04 -9.837389E-05 -9.834145E-05  7.736568E-06 -3.580929E-07  4.187754E-09
      5583   1  2.980828E-04 -9.838355E-05 -9.834055E-05  7.679063E-06 -2.138272E-14  9.478807E-17
      5584   1  2.980825E-04 -9.837389E-05 -9.834145E-05  7.736568E-06  3.580929E-07 -4.187755E-09
      5585   1  2.980828E-04 -9.838055E-05 -9.834266E-05  7.924967E-06  6.407548E-07 -5.018793E-09
      5586   1  2.980825E-04 -9.837339E-05 -9.834123E-05  8.266722E-06  7.743610E-07 -1.708228E-08
      5587   1  2.980828E-04 -9.835314E-05 -9.836452E-05  8.856106E-06  6.334025E-07 -2.389569E-08
      5588   1  2.980824E-04 -9.837541E-05 -9.840248E-05  9.932590E-06  2.312827E-07  2.452132E-08
      5589   1  2.235618E-04 -7.380919E-05 -7.373647E-05  1.452034E-05 -1.262019E-07  2.613839E-09
      5590   1  2.235621E-04 -7.377551E-05 -7.378556E-05  1.331918E-05 -3.183459E-07 -2.613594E-08
      5591   1  2.235619E-04 -7.376175E-05 -7.377902E-05  1.249379E-05 -4.059967E-07  1.035799E-08
      5592   1  2.235621E-04 -7.377953E-05 -7.376029E-05  1.198339E-05 -3.623483E-07  2.778149E-09
      5593   1  2.235619E-04 -7.377938E-05 -7.376258E-05  1.170197E-05 -2.069299E-07  2.252707E-09
      5594   1  2.235621E-04 -7.378049E-05 -7.375762E-05  1.161083E-05 -1.496973E-14 -3.105401E-16
      5595   1  2.235619E-04 -7.377938E-05 -7.376258E-05  1.170197E-05  2.069299E-07 -2.252706E-09
      5596   1  2.235621E-04 -7.377953E-05 -7.376029E-05  1.198339E-05  3.623483E-07 -2.778149E-09
      5597   1  2.235619E-04 -7.376175E-05 -7.377902E-05  1.249379E-05  4.059967E-07 -1.035799E-08
      5598   1  2.235621E-04 -7.377551E-05 -7.378556E-05  1.331918E-05  3.183459E-07  2.613594E-08
      5599   1  2.235618E-04 -7.380919E-05 -7.373647E-05  1.452034E-05  1.262019E-07 -2.613839E-09
      5600   1  1.490412E-04 -4.918958E-05 -4.919294E-05  1.772535E-05 -5.843477E-08 -1.040383E-08
      5601   1  1.490414E-04 -4.918895E-05 -4.917422E-05  1.645286E-05 -1.613762E-07  8.353350E-10
      5602   1  1.490412E-04 -4.918323E-05 -4.918386E-05  1.553577E-05 -2.068090E-07 -1.982834E-08
      5603   1  1.490414E-04 -4.917576E-05 -4.918575E-05  1.492194E-05 -1.868142E-07  3.070259E-09
      5604   1  1.490413E-04 -4.918622E-05 -4.917330E-05  1.457598E-05 -1.104266E-07 -3.005559E-09
      5605   1  1.490414E-04 -4.918265E-05 -4.917903E-05  1.446382E-05 -9.433206E-15  2.002699E-16
      5606   1  1.490413E-04 -4.918622E-05 -4.917330E-05  1.457598E-05  1.104266E-07  3.005559E-09
      5607   1  1.490414E-04 -4.917576E-05 -4.918575E-05  1.492194E-05  1.868142E-07 -3.070258E-09
      5608   1  1.490412E-04 -4.918323E-05 -4.918386E-05  1.553577E-05  2.068089E-07  1.982834E-08
      5609   1  1.490414E-04 -4.918895E-05 -4.917422E-05  1.645286E-05  1.613762E-07 -8.353352E-10
      5610   1  1.490412E-04 -4.918958E-05 -4.919294E-05  1.772535E-05  5.843477E-08  1.040383E-08
      5611   1  7.452061E-05 -2.460179E-05 -2.458126E-05  1.962261E-05 -2.573208E-08 -1.374182E-09
      5612   1  7.452071E-05 -2.459238E-05 -2.459521E-05  1.832412E-05 -6.642068E-08 -2.012195E-08
      5613   1  7.452062E-05 -2.458978E-05 -2.459119E-05  1.735702E-05 -8.711580E-08 -1.400598E-09
      5614   1  7.452070E-05 -2.459191E-05 -2.458996E-05  1.669890E-05 -7.935032E-08 -1.563884E-08
      5615   1  7.452063E-05 -2.458834E-05 -2.459224E-05  1.631657E-05 -4.673694E-08  2.692535E-10
      5616   1  7.452070E-05 -2.459307E-05 -2.458692E-05  1.619260E-05 -4.562198E-15 -2.470605E-16
      5617   1  7.452063E-05 -2.458834E-05 -2.459224E-05  1.631657E-05  4.673693E-08 -2.692531E-10
      5618   1  7.452070E-05 -2.459191E-05 -2.458996E-05  1.669890E-05  7.935031E-08  1.563884E-08
      5619   1  7.452062E-05 -2.458978E-05 -2.459119E-05  1.735702E-05  8.711579E-08  1.400598E-09
      5620   1  7.452071E-05 -2.459238E-05 -2.459521E-05  1.832412E-05  6.642067E-08  2.012195E-08
      5621   1  7.452061E-05 -2.460179E-05 -2.458126E-05  1.962261E-05  2.573208E-08  1.374182E-09
      5622   1  8.146999E-14 -2.681882E-14 -2.681904E-14  2.025232E-05 -3.078372E-17 -8.085795E-09
      5623   1  8.155380E-14 -2.655168E-14 -2.722625E-14  1.894418E-05 -6.883244E-17 -3.403952E-09
      5624   1  8.134986E-14 -2.646494E-14 -2.673851E-14  1.796588E-05 -9.755448E-17 -2.151681E-08
      5625   1  8.140071E-14 -2.627412E-14 -2.705048E-14  1.729131E-05 -9.748206E-17 -1.319847E-09
      5626   1  8.124122E-14 -2.615963E-14 -2.674692E-14  1.690023E-05 -4.272000E-17 -8.939257E-09
      5627   1  8.132264E-14 -2.616310E-14 -2.701252E-14  1.677112E-05  3.599890E-21  1.191780E-16
      5628   1  8.120989E-14 -2.614228E-14 -2.674410E-14  1.690023E-05  4.030649E-17  8.939257E-09
      5629   1  8.129998E-14 -2.625677E-14 -2.700492E-14  1.729131E-05  8.700130E-17  1.319847E-09
      5630   1  8.120349E-14 -2.630188E-14 -2.669744E-14  1.796588E-05  9.165744E-17  2.151681E-08
      5631   1  8.136254E-14 -2.630535E-14 -2.717850E-14  1.894418E-05  7.341827E-17  3.403952E-09
      5632   1  8.123168E-14 -2.660372E-14 -2.676526E-14  2.025232E-05  3.202123E-17  8.085795E-09
      5633   1 -7.452061E-05  2.460179E-05  2.458126E-05  1.962261E-05  2.573208E-08 -1.374183E-09
      5634   1 -7.452071E-05  2.459238E-05  2.459521E-05  1.832412E-05  6.642068E-08 -2.012195E-08
      5635   1 -7.452062E-05  2.458978E-05  2.459119E-05  1.735702E-05  8.711580E-08 -1.400598E-09
      5636   1 -7.452070E-05  2.459191E-05  2.458996E-05  1.669890E-05  7.935032E-08 -1.563884E-08
      5637   1 -7.452063E-05  2.458834E-05  2.459224E-05  1.631657E-05  4.673694E-08  2.692534E-10
      5638   1 -7.452070E-05  2.459307E-05  2.458692E-05  1.619260E-05  4.575336E-15 -2.216740E-16
      5639   1 -7.452063E-05  2.458834E-05  2.459224E-05  1.631657E-05 -4.673693E-08 -2.692532E-10
      5640   1 -7.452070E-05  2.459191E-05  2.458996E-05  1.669890E-05 -7.935031E-08  1.563884E-08
      5641   1 -7.452062E-05  2.458978E-05  2.459119E-05  1.735702E-05 -8.711579E-08  1.400598E-09
      5642   1 -7.452071E-05  2.459238E-05  2.459521E-05  1.832412E-05 -6.642067E-08  2.012195E-08
      5643   1 -7.452061E-05  2.460179E-05  2.458126E-05  1.962261E-05 -2.573208E-08  1.374182E-09
      5644   1 -1.490412E-04  4.918958E-05  4.919294E-05  1.772535E-05  5.843477E-08 -1.040383E-08
      5645   1 -1.490414E-04  4.918895E-05  4.917422E-05  1.645286E-05  1.613762E-07  8.353351E-10
      5646   1 -1.490412E-04  4.918323E-05  4.918386E-05  1.553577E-05  2.068090E-07 -1.982834E-08
      5647   1 -1.490414E-04  4.917576E-05  4.918575E-05  1.492194E-05  1.868142E-07  3.070259E-09
      5648   1 -1.490413E-04  4.918622E-05  4.917330E-05  1.457598E-05  1.104266E-07 -3.005559E-09
      5649   1 -1.490414E-04  4.918265E-05  4.917903E-05  1.446382E-05  9.428468E-15  1.823840E-16
      5650   1 -1.490413E-04  4.918622E-05  4.917330E-05  1.457598E-05 -1.104266E-07  3.005559E-09
      5651   1 -1.490414E-04  4.917576E-05  4.918575E-05  1.492194E-05 -1.868142E-07 -3.070258E-09
      5652   1 -1.490412E-04  4.918323E-05  4.918386E-05  1.553577E-05 -2.068089E-07  1.982834E-08
      5653   1 -1.490414E-04  4.918895E-05  4.917422E-05  1.645286E-05 -1.613762E-07 -8.353353E-10
      5654   1 -1.490412E-04  4.918958E-05  4.919294E-05  1.772535E-05 -5.843477E-08  1.040383E-08
      5655   1 -2.235618E-04  7.380919E-05  7.373647E-05  1.452034E-05  1.262019E-07  2.613839E-09
      5656   1 -2.235621E-04  7.377551E-05  7.378556E-05  1.331918E-05  3.183459E-07 -2.613594E-08
      5657   1 -2.235619E-04  7.376175E-05  7.377902E-05  1.249379E-05  4.059967E-07  1.035799E-08
      5658   1 -2.235621E-04  7.377953E-05  7.376029E-05  1.198339E-05  3.623483E-07  2.778149E-09
      5659   1 -2.235619E-04  7.377938E-05  7.376258E-05  1.170197E-05  2.069299E-07  2.252707E-09
      5660   1 -2.235621E-04  7.378049E-05  7.375762E-05  1.161083E-05  1.495681E-14 -2.748139E-16
      5661   1 -2.235619E-04  7.377938E-05  7.376258E-05  1.170197E-05 -2.069299E-07 -2.252706E-09
      5662   1 -2.235621E-04  7.377953E-05  7.376029E-05  1.198339E-05 -3.623483E-07 -2.778149E-09
      5663   1 -2.235619E-04  7.376175E-05  7.377902E-05  1.249379E-05 -4.059967E-07 -1.035799E-08
      5664   1 -2.235621E-04  7.377551E-05  7.378556E-05  1.331918E-05 -3.183459E-07  2.613594E-08
      5665   1 -2.235618E-04  7.380919E-05  7.373647E-05  1.452034E-05 -1.262019E-07 -2.613840E-09
      5666   1 -2.980824E-04  9.837541E-05  9.840248E-05  9.932590E-06  2.312827E-07 -2.452132E-08
      5667   1 -2.980828E-04  9.835314E-05  9.836452E-05  8.856106E-06  6.334025E-07  2.389569E-08
      5668   1 -2.980825E-04  9.837339E-05  9.834123E-05  8.266722E-06  7.743610E-07  1.708228E-08
      5669   1 -2.980828E-04  9.838055E-05  9.834266E-05  7.924967E-06  6.407548E-07  5.018794E-09
      5670   1 -2.980825E-04  9.837389E-05  9.834145E-05  7.736568E-06  3.580929E-07  4.187754E-09
      5671   1 -2.980828E-04  9.838355E-05  9.834055E-05  7.679063E-06  2.134720E-14  6.691730E-17
      5672   1 -2.980825E-04  9.837389E-05  9.834145E-05  7.736568E-06 -3.580929E-07 -4.187755E-09
      5673   1 -2.980828E-04  9.838055E-05  9.834266E-05  7.924967E-06 -6.407548E-07 -5.018793E-09
      5674   1 -2.980825E-04  9.837339E-05  9.834123E-05  8.266722E-06 -7.743610E-07 -1.708228E-08
      5675   1 -2.980828E-04  9.835314E-05  9.836452E-05  8.856106E-06 -6.334025E-07 -2.389569E-08
      5676   1 -2.980824E-04  9.837541E-05  9.840248E-05  9.932590E-06 -2.312827E-07  2.452132E-08
      5677   1 -3.726031E-04  1.230325E-04  1.228454E-04  3.648040E-06  6.234986E-07  3.773709E-08
      5678   1 -3.726035E-04  1.229619E-04  1.229078E-04  3.134930E-06  1.347974E-06  2.322298E-08
      5679   1 -3.726031E-04  1.229972E-04  1.229051E-04  2.938758E-06  1.372514E-06  4.550508E-09
      5680   1 -3.726035E-04  1.229653E-04  1.229258E-04  2.809199E-06  1.070258E-06  5.429131E-09
      5681   1 -3.726032E-04  1.229865E-04  1.229183E-04  2.747212E-06  5.776197E-07  7.663679E-10
      5682   1 -3.726035E-04  1.229665E-04  1.229289E-04  2.724417E-06  2.887506E-14 -2.543301E-17
      5683   1 -3.726032E-04  1.229865E-04  1.229183E-04  2.747212E-06 -5.776196E-07 -7.663679E-10
      5684   1 -3.726035E-04  1.229653E-04  1.229258E-04  2.809199E-06 -1.070257E-06 -5.429131E-09
      5685   1 -3.726031E-04  1.229972E-04  1.229051E-04  2.938758E-06 -1.372514E-06 -4.550508E-09
      5686   1 -3.726035E-04  1.229619E-04  1.229078E-04  3.134930E-06 -1.347974E-06 -2.322298E-08
      5687   1 -3.726031E-04  1.230325E-04  1.228454E-04  3.648040E-06 -6.234986E-07 -3.773709E-08
      5688   1  3.680596E-04 -1.215321E-04 -1.213483E-04  3.648004E-06 -6.234918E-07  3.725742E-08
      5689   1  3.680592E-04 -1.214623E-04 -1.214080E-04  3.134954E-06 -1.347991E-06  2.295130E-08
      5690   1  3.680595E-04 -1.214972E-04 -1.214072E-04  2.938744E-06 -1.372494E-06  4.487507E-09
      5691   1  3.680592E-04 -1.214658E-04 -1.214258E-04  2.809212E-06 -1.070274E-06  5.367420E-09
      5692   1  3.680595E-04 -1.214867E-04 -1.214201E-04  2.747204E-06 -5.776106E-07  7.549116E-10
      5693   1  3.680593E-04 -1.214669E-04 -1.214289E-04  2.724428E-06 -2.889799E-14 -1.615292E-17
      5694   1  3.680595E-04 -1.214867E-04 -1.214201E-04  2.747204E-06  5.776105E-07 -7.549117E-10
      5695   1  3.680592E-04 -1.214658E-04 -1.214258E-04  2.809212E-06  1.070274E-06 -5.367420E-09
      5696   1  3.680595E-04 -1.214972E-04 -1.214072E-04  2.938744E-06  1.372494E-06 -4.487506E-09
      5697   1  3.680592E-04 -1.214623E-04 -1.214080E-04  3.134954E-06  1.347991E-06 -2.295130E-08
      5698   1  3.680596E-04 -1.215321E-04 -1.213483E-04  3.648004E-06  6.234918E-07 -3.725742E-08
      5699   1  2.944477E-04 -9.717569E-05 -9.720330E-05  9.932619E-06 -2.312738E-07 -2.421737E-08
      5700   1  2.944474E-04 -9.715372E-05 -9.716415E-05  8.856092E-06 -6.334206E-07  2.360416E-08
      5701   1  2.944476E-04 -9.717373E-05 -9.714271E-05  8.266721E-06 -7.743420E-07  1.687362E-08
      5702   1  2.944474E-04 -9.718079E-05 -9.714261E-05  7.924960E-06 -6.407700E-07  4.958026E-09
      5703   1  2.944476E-04 -9.717422E-05 -9.714290E-05  7.736564E-06 -3.580846E-07  4.136439E-09
      5704   1  2.944474E-04 -9.718376E-05 -9.714053E-05  7.679057E-06 -2.135658E-14  1.240988E-17
      5705   1  2.944476E-04 -9.717422E-05 -9.714290E-05  7.736564E-06  3.580845E-07 -4.136439E-09
      5706   1  2.944474E-04 -9.718079E-05 -9.714261E-05  7.924960E-06  6.407700E-07 -4.958025E-09
      5707   1  2.944476E-04 -9.717373E-05 -9.714271E-05  8.266721E-06  7.743419E-07 -1.687362E-08
      5708   1  2.944474E-04 -9.715372E-05 -9.716415E-05  8.856092E-06  6.334206E-07 -2.360416E-08
      5709   1  2.944477E-04 -9.717569E-05 -9.720330E-05  9.932619E-06  2.312738E-07  2.421737E-08
      5710   1  2.208358E-04 -7.290909E-05 -7.283791E-05  1.452033E-05 -1.261977E-07  2.579370E-09
      5711   1  2.208355E-04 -7.287580E-05 -7.288511E-05  1.331918E-05 -3.183579E-07 -2.581841E-08
      5712   1  2.208357E-04 -7.286221E-05 -7.287988E-05  1.249381E-05 -4.059826E-07  1.023254E-08
      5713   1  2.208355E-04 -7.287977E-05 -7.286018E-05  1.198339E-05 -3.623599E-07  2.743695E-09
      5714   1  2.208357E-04 -7.287963E-05 -7.286362E-05  1.170198E-05 -2.069234E-07  2.225535E-09
      5715   1  2.208355E-04 -7.288071E-05 -7.285756E-05  1.161084E-05 -1.498460E-14 -3.248253E-16
      5716   1  2.208357E-04 -7.287963E-05 -7.286362E-05  1.170198E-05  2.069234E-07 -2.225534E-09
      5717   1  2.208355E-04 -7.287977E-05 -7.286018E-05  1.198339E-05  3.623599E-07 -2.743696E-09
      5718   1  2.208357E-04 -7.286221E-05 -7.287988E-05  1.249381E-05  4.059826E-07 -1.023254E-08
      5719   1  2.208355E-04 -7.287580E-05 -7.288511E-05  1.331918E-05  3.183578E-07  2.581841E-08
      5720   1  2.208358E-04 -7.290909E-05 -7.283791E-05  1.452033E-05  1.261977E-07 -2.579371E-09
      5721   1  1.472238E-04 -4.858970E-05 -4.859347E-05  1.772537E-05 -5.843041E-08 -1.027489E-08
      5722   1  1.472237E-04 -4.858909E-05 -4.857411E-05  1.645285E-05 -1.613850E-07  8.260474E-10
      5723   1  1.472238E-04 -4.858344E-05 -4.858446E-05  1.553576E-05 -2.067996E-07 -1.958663E-08
      5724   1  1.472237E-04 -4.857607E-05 -4.858552E-05  1.492193E-05 -1.868217E-07  3.032790E-09
      5725   1  1.472238E-04 -4.858640E-05 -4.857401E-05  1.457597E-05 -1.104224E-07 -2.968836E-09
      5726   1  1.472237E-04 -4.858287E-05 -4.857889E-05  1.446381E-05 -9.432483E-15  2.141918E-16
      5727   1  1.472238E-04 -4.858640E-05 -4.857401E-05  1.457597E-05  1.104224E-07  2.968836E-09
      5728   1  1.472237E-04 -4.857607E-05 -4.858552E-05  1.492193E-05  1.868217E-07 -3.032790E-09
      5729   1  1.472238E-04 -4.858344E-05 -4.858446E-05  1.553576E-05  2.067996E-07  1.958663E-08
      5730   1  1.472237E-04 -4.858909E-05 -4.857411E-05  1.645285E-05  1.613850E-07 -8.260475E-10
      5731   1  1.472238E-04 -4.858970E-05 -4.859347E-05  1.772537E-05  5.843040E-08  1.027489E-08
      5732   1  7.361192E-05 -2.430177E-05 -2.428171E-05  1.962261E-05 -2.573060E-08 -1.358975E-09
      5733   1  7.361184E-05 -2.429247E-05 -2.429506E-05  1.832412E-05 -6.642484E-08 -1.987784E-08
      5734   1  7.361191E-05 -2.428990E-05 -2.429150E-05  1.735703E-05 -8.711094E-08 -1.383056E-09
      5735   1  7.361184E-05 -2.429201E-05 -2.428988E-05  1.669890E-05 -7.935429E-08 -1.544832E-08
      5736   1  7.361190E-05 -2.428848E-05 -2.429253E-05  1.631658E-05 -4.673474E-08  2.660742E-10
      5737   1  7.361185E-05 -2.429315E-05 -2.428688E-05  1.619261E-05 -4.572976E-15 -2.158651E-16
      5738   1  7.361190E-05 -2.428848E-05 -2.429253E-05  1.631658E-05  4.673473E-08 -2.660740E-10
      5739   1  7.361184E-05 -2.429201E-05 -2.428988E-05  1.669890E-05  7.935428E-08  1.544832E-08
      5740   1  7.361191E-05 -2.428990E-05 -2.429150E-05  1.735703E-05  8.711093E-08  1.383056E-09
      5741   1  7.361184E-05 -2.429247E-05 -2.429506E-05  1.832412E-05  6.642484E-08  1.987784E-08
      5742   1  7.361192E-05 -2.430177E-05 -2.428171E-05  1.962261E-05  2.573060E-08  1.358975E-09
      5743   1  8.073913E-14 -2.668699E-14 -2.684222E-14  2.025233E-05 -5.005965E-19 -7.985531E-09
      5744   1  8.059157E-14 -2.678413E-14 -2.655524E-14  1.894417E-05 -6.425507E-17 -3.361551E-09
      5745   1  8.079854E-14 -2.707903E-14 -2.673148E-14  1.796587E-05 -8.101489E-17 -2.125430E-08
      5746   1  8.072113E-14 -2.732536E-14 -2.642072E-14  1.729129E-05 -8.280509E-17 -1.303933E-09
      5747   1  8.087736E-14 -2.745720E-14 -2.672857E-14  1.690022E-05 -6.439536E-17 -8.830094E-09
      5748   1  8.075420E-14 -2.749190E-14 -2.637579E-14  1.677111E-05  7.759563E-18  1.147865E-16
      5749   1  8.084505E-14 -2.744333E-14 -2.670789E-14  1.690022E-05  4.957684E-17  8.830093E-09
      5750   1  8.067093E-14 -2.739822E-14 -2.638114E-14  1.729129E-05  7.912092E-17  1.303933E-09
      5751   1  8.074704E-14 -2.724210E-14 -2.669157E-14  1.796587E-05  1.039318E-16  2.125430E-08
      5752   1  8.052814E-14 -2.691250E-14 -2.652231E-14  1.894417E-05  5.919405E-17  3.361551E-09
      5753   1  8.063418E-14 -2.691944E-14 -2.677611E-14  2.025233E-05  1.484171E-17  7.985531E-09
      5754   1 -7.361192E-05  2.430177E-05  2.428171E-05  1.962261E-05  2.573060E-08 -1.358975E-09
      5755   1 -7.361183E-05  2.429247E-05  2.429506E-05  1.832412E-05  6.642484E-08 -1.987784E-08
      5756   1 -7.361191E-05  2.428990E-05  2.429150E-05  1.735703E-05  8.711094E-08 -1.383056E-09
      5757   1 -7.361184E-05  2.429201E-05  2.428988E-05  1.669890E-05  7.935429E-08 -1.544832E-08
      5758   1 -7.361190E-05  2.428848E-05  2.429253E-05  1.631658E-05  4.673474E-08  2.660742E-10
      5759   1 -7.361185E-05  2.429315E-05  2.428688E-05  1.619261E-05  4.567328E-15 -2.379832E-16
      5760   1 -7.361190E-05  2.428848E-05  2.429253E-05  1.631658E-05 -4.673473E-08 -2.660740E-10
      5761   1 -7.361184E-05  2.429201E-05  2.428988E-05  1.669890E-05 -7.935428E-08  1.544832E-08
      5762   1 -7.361191E-05  2.428990E-05  2.429150E-05  1.735703E-05 -8.711093E-08  1.383056E-09
      5763   1 -7.361183E-05  2.429247E-05  2.429506E-05  1.832412E-05 -6.642484E-08  1.987784E-08
      5764   1 -7.361192E-05  2.430177E-05  2.428171E-05  1.962261E-05 -2.573060E-08  1.358975E-09
      5765   1 -1.472238E-04  4.858970E-05  4.859347E-05  1.772537E-05  5.843041E-08 -1.027489E-08
      5766   1 -1.472237E-04  4.858909E-05  4.857411E-05  1.645285E-05  1.613850E-07  8.260475E-10
      5767   1 -1.472238E-04  4.858344E-05  4.858446E-05  1.553576E-05  2.067996E-07 -1.958663E-08
      5768   1 -1.472237E-04  4.857607E-05  4.858552E-05  1.492193E-05  1.868217E-07  3.032790E-09
      5769   1 -1.472238E-04  4.858640E-05  4.857401E-05  1.457597E-05  1.104224E-07 -2.968836E-09
      5770   1 -1.472237E-04  4.858287E-05  4.857889E-05  1.446381E-05  9.418505E-15  1.752223E-16
      5771   1 -1.472238E-04  4.858640E-05  4.857401E-05  1.457597E-05 -1.104224E-07  2.968836E-09
      5772   1 -1.472237E-04  4.857607E-05  4.858552E-05  1.492193E-05 -1.868217E-07 -3.032790E-09
      5773   1 -1.472238E-04  4.858344E-05  4.858446E-05  1.553576E-05 -2.067996E-07  1.958663E-08
      5774   1 -1.472237E-04  4.858909E-05  4.857411E-05  1.645285E-05 -1.613850E-07 -8.260476E-10
      5775   1 -1.472238E-04  4.858970E-05  4.859347E-05  1.772537E-05 -5.843040E-08  1.027489E-08
      5776   1 -2.208358E-04  7.290909E-05  7.283791E-05  1.452033E-05  1.261977E-07  2.579371E-09
      5777   1 -2.208355E-04  7.287580E-05  7.288511E-05  1.331918E-05  3.183579E-07 -2.581841E-08
      5778   1 -2.208357E-04  7.286221E-05  7.287988E-05  1.249381E-05  4.059826E-07  1.023254E-08
      5779   1 -2.208355E-04  7.287977E-05  7.286018E-05  1.198339E-05  3.623599E-07  2.743695E-09
      5780   1 -2.208357E-04  7.287963E-05  7.286362E-05  1.170198E-05  2.069234E-07  2.225535E-09
      5781   1 -2.208355E-04  7.288071E-05  7.285756E-05  1.161084E-05  1.494875E-14 -3.394764E-16
      5782   1 -2.208357E-04  7.287963E-05  7.286362E-05  1.170198E-05 -2.069234E-07 -2.225534E-09
      5783   1 -2.208355E-04  7.287977E-05  7.286018E-05  1.198339E-05 -3.623599E-07 -2.743696E-09
      5784   1 -2.208357E-04  7.286221E-05  7.287988E-05  1.249381E-05 -4.059826E-07 -1.023254E-08
      5785   1 -2.208355E-04  7.287580E-05  7.288511E-05  1.331918E-05 -3.183578E-07  2.581841E-08
      5786   1 -2.208358E-04  7.290909E-05  7.283791E-05  1.452033E-05 -1.261977E-07 -2.579371E-09
      5787   1 -2.944477E-04  9.717569E-05  9.720330E-05  9.932619E-06  2.312738E-07 -2.421737E-08
      5788   1 -2.944474E-04  9.715372E-05  9.716415E-05  8.856092E-06  6.334206E-07  2.360416E-08
      5789   1 -2.944476E-04  9.717373E-05  9.714271E-05  8.266721E-06  7.743420E-07  1.687362E-08
      5790   1 -2.944474E-04  9.718079E-05  9.714261E-05  7.924960E-06  6.407700E-07  4.958026E-09
      5791   1 -2.944476E-04  9.717422E-05  9.714290E-05  7.736564E-06  3.580846E-07  4.136439E-09
      5792   1 -2.944474E-04  9.718376E-05  9.714053E-05  7.679057E-06  2.133556E-14  6.314715E-17
      5793   1 -2.944476E-04  9.717422E-05  9.714290E-05  7.736564E-06 -3.580845E-07 -4.136440E-09
      5794   1 -2.944474E-04  9.718079E-05  9.714261E-05  7.924960E-06 -6.407700E-07 -4.958025E-09
      5795   1 -2.944476E-04  9.717373E-05  9.714271E-05  8.266721E-06 -7.743419E-07 -1.687362E-08
      5796   1 -2.944474E-04  9.715372E-05  9.716415E-05  8.856092E-06 -6.334206E-07 -2.360416E-08
      5797   1 -2.944477E-04  9.717569E-05  9.720330E-05  9.932619E-06 -2.312738E-07  2.421737E-08
      5798   1 -3.680596E-04  1.215321E-04  1.213483E-04  3.648004E-06  6.234918E-07  3.725742E-08
      5799   1 -3.680592E-04  1.214623E-04  1.214080E-04  3.134954E-06  1.347991E-06  2.295130E-08
      5800   1 -3.680595E-04  1.214972E-04  1.214072E-04  2.938744E-06  1.372494E-06  4.487507E-09
      5801   1 -3.680592E-04  1.214658E-04  1.214258E-04  2.809212E-06  1.070274E-06  5.367420E-09
      5802   1 -3.680595E-04  1.214867E-04  1.214201E-04  2.747204E-06  5.776106E-07  7.549117E-10
      5803   1 -3.680593E-04  1.214669E-04  1.214289E-04  2.724428E-06  2.885414E-14 -4.951416E-17
      5804   1 -3.680595E-04  1.214867E-04  1.214201E-04  2.747204E-06 -5.776105E-07 -7.549116E-10
      5805   1 -3.680592E-04  1.214658E-04  1.214258E-04  2.809212E-06 -1.070274E-06 -5.367420E-09
      5806   1 -3.680595E-04  1.214972E-04  1.214072E-04  2.938744E-06 -1.372494E-06 -4.487506E-09
      5807   1 -3.680592E-04  1.214623E-04  1.214080E-04  3.134954E-06 -1.347991E-06 -2.295130E-08
      5808   1 -3.680596E-04  1.215321E-04  1.213483E-04  3.648004E-06 -6.234918E-07 -3.725742E-08
      5809   1  3.635153E-04 -1.200317E-04 -1.198494E-04  3.648033E-06 -6.234973E-07  3.681333E-08
      5810   1  3.635156E-04 -1.199628E-04 -1.199099E-04  3.134935E-06 -1.347977E-06  2.265856E-08
      5811   1  3.635153E-04 -1.199973E-04 -1.199076E-04  2.938755E-06 -1.372510E-06  4.438233E-09
      5812   1  3.635155E-04 -1.199662E-04 -1.199274E-04  2.809201E-06 -1.070260E-06  5.297493E-09
      5813   1  3.635153E-04 -1.199868E-04 -1.199204E-04  2.747211E-06 -5.776180E-07  7.473158E-10
      5814   1  3.635155E-04 -1.199673E-04 -1.199305E-04  2.724419E-06 -2.886157E-14 -2.167049E-17
      5815   1  3.635153E-04 -1.199868E-04 -1.199204E-04  2.747211E-06  5.776179E-07 -7.473157E-10
      5816   1  3.635155E-04 -1.199662E-04 -1.199274E-04  2.809201E-06  1.070260E-06 -5.297493E-09
      5817   1  3.635153E-04 -1.199973E-04 -1.199076E-04  2.938755E-06  1.372510E-06 -4.438233E-09
      5818   1  3.635156E-04 -1.199628E-04 -1.199099E-04  3.134935E-06  1.347977E-06 -2.265855E-08
      5819   1  3.635153E-04 -1.200317E-04 -1.198494E-04  3.648033E-06  6.234973E-07 -3.681333E-08
      5820   1  2.908122E-04 -9.597600E-05 -9.600257E-05  9.932595E-06 -2.312811E-07 -2.392239E-08
      5821   1  2.908125E-04 -9.595428E-05 -9.596525E-05  8.856103E-06 -6.334058E-07  2.331286E-08
      5822   1  2.908122E-04 -9.597405E-05 -9.594279E-05  8.266722E-06 -7.743575E-07  1.666560E-08
      5823   1  2.908124E-04 -9.598102E-05 -9.594393E-05  7.924965E-06 -6.407576E-07  4.896474E-09
      5824   1  2.908123E-04 -9.597453E-05 -9.594300E-05  7.736567E-06 -3.580914E-07  4.085581E-09
      5825   1  2.908124E-04 -9.598396E-05 -9.594187E-05  7.679061E-06 -2.134065E-14  2.872543E-17
      5826   1  2.908123E-04 -9.597453E-05 -9.594300E-05  7.736567E-06  3.580913E-07 -4.085582E-09
      5827   1  2.908124E-04 -9.598102E-05 -9.594393E-05  7.924965E-06  6.407575E-07 -4.896473E-09
      5828   1  2.908122E-04 -9.597405E-05 -9.594279E-05  8.266722E-06  7.743574E-07 -1.666560E-08
      5829   1  2.908125E-04 -9.595428E-05 -9.596525E-05  8.856103E-06  6.334058E-07 -2.331286E-08
      5830   1  2.908122E-04 -9.597600E-05 -9.600257E-05  9.932595E-06  2.312811E-07  2.392239E-08
      5831   1  2.181091E-04 -7.200897E-05 -7.193814E-05  1.452034E-05 -1.262011E-07  2.549640E-09
      5832   1  2.181094E-04 -7.197611E-05 -7.198580E-05  1.331918E-05 -3.183481E-07 -2.549867E-08
      5833   1  2.181092E-04 -7.196268E-05 -7.197964E-05  1.249380E-05 -4.059941E-07  1.010553E-08
      5834   1  2.181093E-04 -7.198003E-05 -7.196115E-05  1.198339E-05 -3.623504E-07  2.710313E-09
      5835   1  2.181092E-04 -7.197988E-05 -7.196359E-05  1.170197E-05 -2.069287E-07  2.197827E-09
      5836   1  2.181093E-04 -7.198096E-05 -7.195856E-05  1.161084E-05 -1.495028E-14 -3.229245E-16
      5837   1  2.181092E-04 -7.197988E-05 -7.196359E-05  1.170197E-05  2.069287E-07 -2.197826E-09
      5838   1  2.181093E-04 -7.198003E-05 -7.196115E-05  1.198339E-05  3.623504E-07 -2.710313E-09
      5839   1  2.181092E-04 -7.196268E-05 -7.197964E-05  1.249380E-05  4.059941E-07 -1.010553E-08
      5840   1  2.181094E-04 -7.197611E-05 -7.198580E-05  1.331918E-05  3.183480E-07  2.549867E-08
      5841   1  2.181091E-04 -7.200897E-05 -7.193814E-05  1.452034E-05  1.262011E-07 -2.549640E-09
      5842   1  1.454061E-04 -4.798984E-05 -4.799319E-05  1.772536E-05 -5.843398E-08 -1.014970E-08
      5843   1  1.454062E-04 -4.798922E-05 -4.797478E-05  1.645285E-05 -1.613778E-07  8.151471E-10
      5844   1  1.454061E-04 -4.798364E-05 -4.798432E-05  1.553577E-05 -2.068072E-07 -1.934471E-08
      5845   1  1.454062E-04 -4.797636E-05 -4.798603E-05  1.492194E-05 -1.868155E-07  2.995398E-09
      5846   1  1.454061E-04 -4.798656E-05 -4.797401E-05  1.457597E-05 -1.104258E-07 -2.932225E-09
      5847   1  1.454062E-04 -4.798307E-05 -4.797947E-05  1.446382E-05 -9.428894E-15  1.617719E-16
      5848   1  1.454061E-04 -4.798656E-05 -4.797401E-05  1.457597E-05  1.104258E-07  2.932225E-09
      5849   1  1.454062E-04 -4.797636E-05 -4.798603E-05  1.492194E-05  1.868155E-07 -2.995398E-09
      5850   1  1.454061E-04 -4.798364E-05 -4.798432E-05  1.553577E-05  2.068072E-07  1.934471E-08
      5851   1  1.454062E-04 -4.798922E-05 -4.797478E-05  1.645285E-05  1.613778E-07 -8.151472E-10
      5852   1  1.454061E-04 -4.798984E-05 -4.799319E-05  1.772536E-05  5.843397E-08  1.014970E-08
      5853   1  7.270305E-05 -2.400174E-05 -2.398175E-05  1.962261E-05 -2.573180E-08 -1.340933E-09
      5854   1  7.270312E-05 -2.399257E-05 -2.399529E-05  1.832412E-05 -6.642142E-08 -1.963137E-08
      5855   1  7.270306E-05 -2.399003E-05 -2.399144E-05  1.735702E-05 -8.711490E-08 -1.366323E-09
      5856   1  7.270311E-05 -2.399211E-05 -2.399017E-05  1.669890E-05 -7.935103E-08 -1.525741E-08
      5857   1  7.270306E-05 -2.398863E-05 -2.399246E-05  1.631657E-05 -4.673654E-08  2.627216E-10
      5858   1  7.270311E-05 -2.399324E-05 -2.398720E-05  1.619260E-05 -4.543820E-15 -2.827178E-16
      5859   1  7.270306E-05 -2.398863E-05 -2.399246E-05  1.631657E-05  4.673653E-08 -2.627214E-10
      5860   1  7.270311E-05 -2.399211E-05 -2.399017E-05  1.669890E-05  7.935102E-08  1.525741E-08
      5861   1  7.270306E-05 -2.399003E-05 -2.399144E-05  1.735702E-05  8.711490E-08  1.366322E-09
      5862   1  7.270312E-05 -2.399257E-05 -2.399529E-05  1.832412E-05  6.642142E-08  1.963137E-08
      5863   1  7.270305E-05 -2.400174E-05 -2.398175E-05  1.962261E-05  2.573180E-08  1.340933E-09
      5864   1  7.946389E-14 -2.620126E-14 -2.611238E-14  2.025232E-05 -2.462409E-17 -7.888270E-09
      5865   1  7.957914E-14 -2.577799E-14 -2.665389E-14  1.894418E-05 -7.425345E-17 -3.320739E-09
      5866   1  7.928283E-14 -2.570513E-14 -2.599253E-14  1.796588E-05 -1.150195E-16 -2.099195E-08
      5867   1  7.933205E-14 -2.533043E-14 -2.648353E-14  1.729130E-05 -8.562317E-17 -1.287654E-09
      5868   1  7.912876E-14 -2.522288E-14 -2.602396E-14  1.690023E-05 -4.144659E-17 -8.721183E-09
      5869   1  7.921246E-14 -2.518818E-14 -2.641028E-14  1.677112E-05  1.091084E-18  1.171550E-16
      5870   1  7.906230E-14 -2.517084E-14 -2.602539E-14  1.690023E-05  3.624369E-17  8.721182E-09
      5871   1  7.927090E-14 -2.539635E-14 -2.640552E-14  1.729130E-05  9.100776E-17  1.287654E-09
      5872   1  7.913505E-14 -2.545186E-14 -2.598729E-14  1.796588E-05  9.671846E-17  2.099195E-08
      5873   1  7.932544E-14 -2.544839E-14 -2.661224E-14  1.894418E-05  7.413995E-17  3.320739E-09
      5874   1  7.915413E-14 -2.583003E-14 -2.602485E-14  2.025232E-05  2.045923E-17  7.888270E-09
      5875   1 -7.270305E-05  2.400174E-05  2.398175E-05  1.962261E-05  2.573180E-08 -1.340933E-09
      5876   1 -7.270312E-05  2.399257E-05  2.399529E-05  1.832412E-05  6.642142E-08 -1.963137E-08
      5877   1 -7.270306E-05  2.399003E-05  2.399144E-05  1.735702E-05  8.711490E-08 -1.366323E-09
      5878   1 -7.270311E-05  2.399211E-05  2.399017E-05  1.669890E-05  7.935103E-08 -1.525741E-08
      5879   1 -7.270306E-05  2.398863E-05  2.399246E-05  1.631657E-05  4.673654E-08  2.627215E-10
      5880   1 -7.270311E-05  2.399324E-05  2.398720E-05  1.619260E-05  4.568351E-15 -1.925289E-16
      5881   1 -7.270306E-05  2.398863E-05  2.399246E-05  1.631657E-05 -4.673653E-08 -2.627215E-10
      5882   1 -7.270311E-05  2.399211E-05  2.399017E-05  1.669890E-05 -7.935102E-08  1.525741E-08
      5883   1 -7.270306E-05  2.399003E-05  2.399144E-05  1.735702E-05 -8.711490E-08  1.366322E-09
      5884   1 -7.270312E-05  2.399257E-05  2.399529E-05  1.832412E-05 -6.642142E-08  1.963137E-08
      5885   1 -7.270305E-05  2.400174E-05  2.398175E-05  1.962261E-05 -2.573180E-08  1.340933E-09
      5886   1 -1.454061E-04  4.798984E-05  4.799319E-05  1.772536E-05  5.843398E-08 -1.014970E-08
      5887   1 -1.454062E-04  4.798922E-05  4.797478E-05  1.645285E-05  1.613778E-07  8.151472E-10
      5888   1 -1.454061E-04  4.798364E-05  4.798432E-05  1.553577E-05  2.068072E-07 -1.934471E-08
      5889   1 -1.454062E-04  4.797636E-05  4.798603E-05  1.492194E-05  1.868155E-07  2.995398E-09
      5890   1 -1.454061E-04  4.798656E-05  4.797401E-05  1.457597E-05  1.104258E-07 -2.932225E-09
      5891   1 -1.454062E-04  4.798307E-05  4.797947E-05  1.446382E-05  9.417191E-15  1.636870E-16
      5892   1 -1.454061E-04  4.798656E-05  4.797401E-05  1.457597E-05 -1.104258E-07  2.932225E-09
      5893   1 -1.454062E-04  4.797636E-05  4.798603E-05  1.492194E-05 -1.868155E-07 -2.995398E-09
      5894   1 -1.454061E-04  4.798364E-05  4.798432E-05  1.553577E-05 -2.068072E-07  1.934471E-08
      5895   1 -1.454062E-04  4.798922E-05  4.797478E-05  1.645285E-05 -1.613778E-07 -8.151473E-10
      5896   1 -1.454061E-04  4.798984E-05  4.799319E-05  1.772536E-05 -5.843397E-08  1.014970E-08
      5897   1 -2.181091E-04  7.200897E-05  7.193814E-05  1.452034E-05  1.262011E-07  2.549640E-09
      5898   1 -2.181094E-04  7.197611E-05  7.198580E-05  1.331918E-05  3.183481E-07 -2.549867E-08
      5899   1 -2.181092E-04  7.196268E-05  7.197964E-05  1.249380E-05  4.059941E-07  1.010553E-08
      5900   1 -2.181093E-04  7.198003E-05  7.196115E-05  1.198339E-05  3.623504E-07  2.710313E-09
      5901   1 -2.181092E-04  7.197988E-05  7.196359E-05  1.170197E-05  2.069287E-07  2.197827E-09
      5902   1 -2.181093E-04  7.198096E-05  7.195856E-05  1.161084E-05  1.492600E-14 -3.737762E-16
      5903   1 -2.181092E-04  7.197988E-05  7.196359E-05  1.170197E-05 -2.069287E-07 -2.197826E-09
      5904   1 -2.181093E-04  7.198003E-05  7.196115E-05  1.198339E-05 -3.623504E-07 -2.710313E-09
      5905   1 -2.181092E-04  7.196268E-05  7.197964E-05  1.249380E-05 -4.059941E-07 -1.010553E-08
      5906   1 -2.181094E-04  7.197611E-05  7.198580E-05  1.331918E-05 -3.183480E-07  2.549867E-08
      5907   1 -2.181091E-04  7.200897E-05  7.193814E-05  1.452034E-05 -1.262011E-07 -2.549640E-09
      5908   1 -2.908122E-04  9.597600E-05  9.600257E-05  9.932595E-06  2.312811E-07 -2.392239E-08
      5909   1 -2.908125E-04  9.595428E-05  9.596525E-05  8.856103E-06  6.334058E-07  2.331286E-08
      5910   1 -2.908122E-04  9.597405E-05  9.594279E-05  8.266722E-06  7.743575E-07  1.666560E-08
      5911   1 -2.908124E-04  9.598102E-05  9.594393E-05  7.924965E-06  6.407576E-07  4.896474E-09
      5912   1 -2.908123E-04  9.597453E-05  9.594300E-05  7.736567E-06  3.580914E-07  4.085581E-09
      5913   1 -2.908124E-04  9.598396E-05  9.594187E-05  7.679061E-06  2.133091E-14  3.290469E-17
      5914   1 -2.908123E-04  9.597453E-05  9.594300E-05  7.736567E-06 -3.580913E-07 -4.085582E-09
      5915   1 -2.908124E-04  9.598102E-05  9.594393E-05  7.924965E-06 -6.407575E-07 -4.896473E-09
      5916   1 -2.908122E-04  9.597405E-05  9.594279E-05  8.266722E-06 -7.743574E-07 -1.666560E-08
      5917   1 -2.908125E-04  9.595428E-05  9.596525E-05  8.856103E-06 -6.334058E-07 -2.331286E-08
      5918   1 -2.908122E-04  9.597600E-05  9.600257E-05  9.932595E-06 -2.312811E-07  2.392239E-08
      5919   1 -3.635153E-04  1.200317E-04  1.198494E-04  3.648033E-06  6.234973E-07  3.681333E-08
      5920   1 -3.635156E-04  1.199628E-04  1.199099E-04  3.134935E-06  1.347977E-06  2.265856E-08
      5921   1 -3.635153E-04  1.199973E-04  1.199076E-04  2.938755E-06  1.372510E-06  4.438233E-09
      5922   1 -3.635155E-04  1.199662E-04  1.199274E-04  2.809201E-06  1.070260E-06  5.297493E-09
      5923   1 -3.635153E-04  1.199868E-04  1.199204E-04  2.747211E-06  5.776180E-07  7.473158E-10
      5924   1 -3.635155E-04  1.199673E-04  1.199305E-04  2.724419E-06  2.885457E-14 -9.992617E-17
      5925   1 -3.635153E-04  1.199868E-04  1.199204E-04  2.747211E-06 -5.776179E-07 -7.473157E-10
      5926   1 -3.635155E-04  1.199662E-04  1.199274E-04  2.809201E-06 -1.070260E-06 -5.297493E-09
      5927   1 -3.635153E-04  1.199973E-04  1.199076E-04  2.938755E-06 -1.372510E-06 -4.438233E-09
      5928   1 -3.635156E-04  1.199628E-04  1.199099E-04  3.134935E-06 -1.347977E-06 -2.265855E-08
      5929   1 -3.635153E-04  1.200317E-04  1.198494E-04  3.648033E-06 -6.234973E-07 -3.681333E-08
      5930   1  3.589716E-04 -1.185313E-04 -1.183519E-04  3.648009E-06 -6.234928E-07  3.634021E-08
      5931   1  3.589714E-04 -1.184633E-04 -1.184104E-04  3.134950E-06 -1.347988E-06  2.238299E-08
      5932   1  3.589716E-04 -1.184973E-04 -1.184093E-04  2.938746E-06 -1.372497E-06  4.377761E-09
      5933   1  3.589714E-04 -1.184666E-04 -1.184278E-04  2.809210E-06 -1.070271E-06  5.234265E-09
      5934   1  3.589716E-04 -1.184870E-04 -1.184220E-04  2.747205E-06 -5.776119E-07  7.365704E-10
      5935   1  3.589714E-04 -1.184677E-04 -1.184308E-04  2.724427E-06 -2.884197E-14 -9.872169E-17
      5936   1  3.589716E-04 -1.184870E-04 -1.184220E-04  2.747205E-06  5.776119E-07 -7.365704E-10
      5937   1  3.589714E-04 -1.184666E-04 -1.184278E-04  2.809210E-06  1.070271E-06 -5.234265E-09
      5938   1  3.589716E-04 -1.184973E-04 -1.184093E-04  2.938746E-06  1.372497E-06 -4.377761E-09
      5939   1  3.589714E-04 -1.184633E-04 -1.184104E-04  3.134950E-06  1.347988E-06 -2.238299E-08
      5940   1  3.589716E-04 -1.185313E-04 -1.183519E-04  3.648009E-06  6.234928E-07 -3.634021E-08
      5941   1  2.871773E-04 -9.477629E-05 -9.480310E-05  9.932615E-06 -2.312751E-07 -2.362010E-08
      5942   1  2.871771E-04 -9.475486E-05 -9.476515E-05  8.856095E-06 -6.334178E-07  2.302137E-08
      5943   1  2.871773E-04 -9.477438E-05 -9.474402E-05  8.266722E-06 -7.743448E-07  1.645705E-08
      5944   1  2.871771E-04 -9.478127E-05 -9.474413E-05  7.924961E-06 -6.407677E-07  4.835558E-09
      5945   1  2.871773E-04 -9.477486E-05 -9.474421E-05  7.736565E-06 -3.580858E-07  4.034346E-09
      5946   1  2.871771E-04 -9.478416E-05 -9.474211E-05  7.679058E-06 -2.131144E-14 -1.683986E-17
      5947   1  2.871773E-04 -9.477486E-05 -9.474421E-05  7.736565E-06  3.580858E-07 -4.034347E-09
      5948   1  2.871771E-04 -9.478127E-05 -9.474413E-05  7.924961E-06  6.407677E-07 -4.835557E-09
      5949   1  2.871773E-04 -9.477438E-05 -9.474402E-05  8.266722E-06  7.743447E-07 -1.645705E-08
      5950   1  2.871771E-04 -9.475486E-05 -9.476515E-05  8.856095E-06  6.334178E-07 -2.302137E-08
      5951   1  2.871773E-04 -9.477629E-05 -9.480310E-05  9.932615E-06  2.312751E-07  2.362010E-08
      5952   1  2.153830E-04 -7.110887E-05 -7.103935E-05  1.452033E-05 -1.261983E-07  2.516058E-09
      5953   1  2.153828E-04 -7.107640E-05 -7.108556E-05  1.331918E-05 -3.183561E-07 -2.518073E-08
      5954   1  2.153830E-04 -7.106314E-05 -7.108029E-05  1.249380E-05 -4.059847E-07  9.979783E-09
      5955   1  2.153828E-04 -7.108027E-05 -7.106125E-05  1.198339E-05 -3.623581E-07  2.676049E-09
      5956   1  2.153830E-04 -7.108013E-05 -7.106444E-05  1.170198E-05 -2.069244E-07  2.170552E-09
      5957   1  2.153828E-04 -7.108119E-05 -7.105869E-05  1.161084E-05 -1.493121E-14 -3.224684E-16
      5958   1  2.153830E-04 -7.108013E-05 -7.106444E-05  1.170198E-05  2.069243E-07 -2.170552E-09
      5959   1  2.153828E-04 -7.108027E-05 -7.106125E-05  1.198339E-05  3.623581E-07 -2.676049E-09
      5960   1  2.153830E-04 -7.106314E-05 -7.108029E-05  1.249380E-05  4.059846E-07 -9.979784E-09
      5961   1  2.153828E-04 -7.107640E-05 -7.108556E-05  1.331918E-05  3.183560E-07  2.518073E-08
      5962   1  2.153830E-04 -7.110887E-05 -7.103935E-05  1.452033E-05  1.261983E-07 -2.516058E-09
      5963   1  1.435887E-04 -4.738996E-05 -4.739357E-05  1.772537E-05 -5.843104E-08 -1.002148E-08
      5964   1  1.435885E-04 -4.738936E-05 -4.737481E-05  1.645285E-05 -1.613837E-07  8.055453E-10
      5965   1  1.435886E-04 -4.738385E-05 -4.738479E-05  1.553576E-05 -2.068010E-07 -1.910297E-08
      5966   1  1.435886E-04 -4.737665E-05 -4.738594E-05  1.492193E-05 -1.868206E-07  2.957933E-09
      5967   1  1.435886E-04 -4.738673E-05 -4.737460E-05  1.457597E-05 -1.104230E-07 -2.895528E-09
      5968   1  1.435886E-04 -4.738329E-05 -4.737947E-05  1.446381E-05 -9.417079E-15  1.235406E-16
      5969   1  1.435886E-04 -4.738673E-05 -4.737460E-05  1.457597E-05  1.104230E-07  2.895527E-09
      5970   1  1.435886E-04 -4.737665E-05 -4.738594E-05  1.492193E-05  1.868206E-07 -2.957933E-09
      5971   1  1.435886E-04 -4.738385E-05 -4.738479E-05  1.553576E-05  2.068009E-07  1.910297E-08
      5972   1  1.435885E-04 -4.738936E-05 -4.737481E-05  1.645285E-05  1.613837E-07 -8.055454E-10
      5973   1  1.435887E-04 -4.738996E-05 -4.739357E-05  1.772537E-05  5.843104E-08  1.002148E-08
      5974   1  7.179433E-05 -2.370172E-05 -2.368213E-05  1.962261E-05 -2.573082E-08 -1.325184E-09
      5975   1  7.179427E-05 -2.369266E-05 -2.369521E-05  1.832412E-05 -6.642421E-08 -1.938683E-08
      5976   1  7.179432E-05 -2.369015E-05 -2.369169E-05  1.735703E-05 -8.711165E-08 -1.348939E-09
      5977   1  7.179428E-05 -2.369220E-05 -2.369016E-05  1.669890E-05 -7.935369E-08 -1.506682E-08
      5978   1  7.179432E-05 -2.368877E-05 -2.369269E-05  1.631658E-05 -4.673506E-08  2.595053E-10
      5979   1  7.179428E-05 -2.369332E-05 -2.368723E-05  1.619261E-05 -4.558974E-15 -3.181113E-16
      5980   1  7.179432E-05 -2.368877E-05 -2.369269E-05  1.631658E-05  4.673506E-08 -2.595051E-10
      5981   1  7.179428E-05 -2.369220E-05 -2.369016E-05  1.669890E-05  7.935368E-08  1.506682E-08
      5982   1  7.179432E-05 -2.369015E-05 -2.369169E-05  1.735703E-05  8.711164E-08  1.348939E-09
      5983   1  7.179427E-05 -2.369266E-05 -2.369521E-05  1.832412E-05  6.642421E-08  1.938682E-08
      5984   1  7.179433E-05 -2.370172E-05 -2.368213E-05  1.962261E-05  2.573082E-08  1.325184E-09
      5985   1  7.881532E-14 -2.610065E-14 -2.627805E-14  2.025233E-05 -3.267599E-17 -7.788586E-09
      5986   1  7.863773E-14 -2.626024E-14 -2.584655E-14  1.894418E-05 -7.319042E-17 -3.278651E-09
      5987   1  7.892948E-14 -2.676331E-14 -2.613442E-14  1.796588E-05 -9.596968E-17 -2.072949E-08
      5988   1  7.883733E-14 -2.706516E-14 -2.567814E-14  1.729130E-05 -7.355507E-17 -1.271684E-09
      5989   1  7.904896E-14 -2.724210E-14 -2.614006E-14  1.690023E-05 -4.565201E-17 -8.612072E-09
      5990   1  7.888828E-14 -2.728373E-14 -2.566853E-14  1.677111E-05 -1.990464E-17  6.173727E-17
      5991   1  7.904094E-14 -2.722822E-14 -2.613594E-14  1.690023E-05  6.690883E-17  8.612071E-09
      5992   1  7.876978E-14 -2.712761E-14 -2.562391E-14  1.729130E-05  6.426566E-17  1.271684E-09
      5993   1  7.885814E-14 -2.679107E-14 -2.611418E-14  1.796588E-05  7.540287E-17  2.072949E-08
      5994   1  7.857137E-14 -2.653086E-14 -2.580128E-14  1.894418E-05  5.740342E-17  3.278651E-09
      5995   1  7.872804E-14 -2.643025E-14 -2.619702E-14  2.025233E-05  3.280050E-17  7.788586E-09
      5996   1 -7.179433E-05  2.370172E-05  2.368213E-05  1.962261E-05  2.573082E-08 -1.325184E-09
      5997   1 -7.179427E-05  2.369266E-05  2.369521E-05  1.832412E-05  6.642421E-08 -1.938683E-08
      5998   1 -7.179432E-05  2.369015E-05  2.369169E-05  1.735703E-05  8.711165E-08 -1.348939E-09
      5999   1 -7.179428E-05  2.369220E-05  2.369016E-05  1.669890E-05  7.935369E-08 -1.506682E-08
      6000   1 -7.179432E-05  2.368877E-05  2.369269E-05  1.631658E-05  4.673506E-08  2.595053E-10
      6001   1 -7.179428E-05  2.369332E-05  2.368723E-05  1.619261E-05  4.536095E-15 -2.733189E-16
      6002   1 -7.179432E-05  2.368877E-05  2.369269E-05  1.631658E-05 -4.673506E-08 -2.595052E-10
      6003   1 -7.179428E-05  2.369220E-05  2.369016E-05  1.669890E-05 -7.935368E-08  1.506682E-08
      6004   1 -7.179432E-05  2.369015E-05  2.369169E-05  1.735703E-05 -8.711164E-08  1.348939E-09
      6005   1 -7.179427E-05  2.369266E-05  2.369521E-05  1.832412E-05 -6.642421E-08  1.938683E-08
      6006   1 -7.179433E-05  2.370172E-05  2.368213E-05  1.962261E-05 -2.573082E-08  1.325184E-09
      6007   1 -1.435887E-04  4.738996E-05  4.739357E-05  1.772537E-05  5.843104E-08 -1.002148E-08
      6008   1 -1.435885E-04  4.738936E-05  4.737481E-05  1.645285E-05  1.613837E-07  8.055454E-10
      6009   1 -1.435886E-04  4.738385E-05  4.738479E-05  1.553576E-05  2.068010E-07 -1.910297E-08
      6010   1 -1.435886E-04  4.737665E-05  4.738594E-05  1.492193E-05  1.868206E-07  2.957933E-09
      6011   1 -1.435886E-04  4.738673E-05  4.737460E-05  1.457597E-05  1.104230E-07 -2.895528E-09
      6012   1 -1.435886E-04  4.738329E-05  4.737947E-05  1.446381E-05  9.408204E-15  1.461394E-16
      6013   1 -1.435886E-04  4.738673E-05  4.737460E-05  1.457597E-05 -1.104230E-07  2.895527E-09
      6014   1 -1.435886E-04  4.737665E-05  4.738594E-05  1.492193E-05 -1.868206E-07 -2.957933E-09
      6015   1 -1.435886E-04  4.738385E-05  4.738479E-05  1.553576E-05 -2.068009E-07  1.910297E-08
      6016   1 -1.435885E-04  4.738936E-05  4.737481E-05  1.645285E-05 -1.613837E-07 -8.055455E-10
      6017   1 -1.435887E-04  4.738996E-05  4.739357E-05  1.772537E-05 -5.843104E-08  1.002148E-08
      6018   1 -2.153830E-04  7.110887E-05  7.103935E-05  1.452033E-05  1.261983E-07  2.516058E-09
      6019   1 -2.153828E-04  7.107640E-05  7.108556E-05  1.331918E-05  3.183561E-07 -2.518073E-08
      6020   1 -2.153830E-04  7.106314E-05  7.108029E-05  1.249380E-05  4.059847E-07  9.979783E-09
      6021   1 -2.153828E-04  7.108027E-05  7.106125E-05  1.198339E-05  3.623581E-07  2.676049E-09
      6022   1 -2.153829E-04  7.108013E-05  7.106444E-05  1.170198E-05  2.069244E-07  2.170552E-09
      6023   1 -2.153828E-04  7.108119E-05  7.105869E-05  1.161084E-05  1.490939E-14 -3.376553E-16
      6024   1 -2.153829E-04  7.108013E-05  7.106444E-05  1.170198E-05 -2.069243E-07 -2.170552E-09
      6025   1 -2.153828E-04  7.108027E-05  7.106125E-05  1.198339E-05 -3.623581E-07 -2.676049E-09
      6026   1 -2.153830E-04  7.106314E-05  7.108029E-05  1.249380E-05 -4.059846E-07 -9.979784E-09
      6027   1 -2.153828E-04  7.107640E-05  7.108556E-05  1.331918E-05 -3.183560E-07  2.518073E-08
      6028   1 -2.153830E-04  7.110887E-05  7.103935E-05  1.452033E-05 -1.261983E-07 -2.516059E-09
      6029   1 -2.871773E-04  9.477629E-05  9.480310E-05  9.932615E-06  2.312751E-07 -2.362010E-08
      6030   1 -2.871771E-04  9.475486E-05  9.476515E-05  8.856095E-06  6.334178E-07  2.302137E-08
      6031   1 -2.871773E-04  9.477438E-05  9.474402E-05  8.266722E-06  7.743448E-07  1.645705E-08
      6032   1 -2.871771E-04  9.478127E-05  9.474413E-05  7.924961E-06  6.407677E-07  4.835558E-09
      6033   1 -2.871773E-04  9.477486E-05  9.474421E-05  7.736565E-06  3.580858E-07  4.034346E-09
      6034   1 -2.871771E-04  9.478416E-05  9.474211E-05  7.679058E-06  2.128571E-14 -7.316671E-18
      6035   1 -2.871773E-04  9.477486E-05  9.474421E-05  7.736565E-06 -3.580858E-07 -4.034347E-09
      6036   1 -2.871771E-04  9.478127E-05  9.474413E-05  7.924961E-06 -6.407677E-07 -4.835557E-09
      6037   1 -2.871773E-04  9.477438E-05  9.474402E-05  8.266722E-06 -7.743447E-07 -1.645705E-08
      6038   1 -2.871771E-04  9.475486E-05  9.476515E-05  8.856095E-06 -6.334178E-07 -2.302137E-08
      6039   1 -2.871773E-04  9.477629E-05  9.480310E-05  9.932615E-06 -2.312751E-07  2.362010E-08
      6040   1 -3.589716E-04  1.185313E-04  1.183519E-04  3.648009E-06  6.234928E-07  3.634021E-08
      6041   1 -3.589714E-04  1.184633E-04  1.184104E-04  3.134950E-06  1.347988E-06  2.238299E-08
      6042   1 -3.589716E-04  1.184973E-04  1.184093E-04  2.938746E-06  1.372497E-06  4.377761E-09
      6043   1 -3.589714E-04  1.184666E-04  1.184278E-04  2.809210E-06  1.070271E-06  5.234265E-09
      6044   1 -3.589716E-04  1.184870E-04  1.184220E-04  2.747205E-06  5.776119E-07  7.365704E-10
      6045   1 -3.589714E-04  1.184677E-04  1.184308E-04  2.724427E-06  2.880935E-14 -4.291408E-17
      6046   1 -3.589716E-04  1.184870E-04  1.184220E-04  2.747205E-06 -5.776119E-07 -7.365704E-10
      6047   1 -3.589714E-04  1.184666E-04  1.184278E-04  2.809210E-06 -1.070271E-06 -5.234265E-09
      6048   1 -3.589716E-04  1.184973E-04  1.184093E-04  2.938746E-06 -1.372497E-06 -4.377761E-09
      6049   1 -3.589714E-04  1.184633E-04  1.184104E-04  3.134950E-06 -1.347988E-06 -2.238299E-08
      6050   1 -3.589716E-04  1.185313E-04  1.183519E-04  3.648009E-06 -6.234928E-07 -3.634021E-08
      6051   1  3.544274E-04 -1.170309E-04 -1.168532E-04  3.648029E-06 -6.234964E-07  3.589077E-08
      6052   1  3.544276E-04 -1.169638E-04 -1.169120E-04  3.134938E-06 -1.347979E-06  2.209341E-08
      6053   1  3.544275E-04 -1.169973E-04 -1.169100E-04  2.938753E-06 -1.372508E-06  4.326423E-09
      6054   1  3.544276E-04 -1.169670E-04 -1.169292E-04  2.809203E-06 -1.070262E-06  5.165571E-09
      6055   1  3.544275E-04 -1.169872E-04 -1.169225E-04  2.747210E-06 -5.776168E-07  7.283935E-10
      6056   1  3.544276E-04 -1.169681E-04 -1.169321E-04  2.724421E-06 -2.879784E-14 -3.345611E-17
      6057   1  3.544275E-04 -1.169872E-04 -1.169225E-04  2.747210E-06  5.776168E-07 -7.283935E-10
      6058   1  3.544276E-04 -1.169670E-04 -1.169292E-04  2.809203E-06  1.070262E-06 -5.165572E-09
      6059   1  3.544275E-04 -1.169973E-04 -1.169100E-04  2.938753E-06  1.372508E-06 -4.326423E-09
      6060   1  3.544276E-04 -1.169638E-04 -1.169120E-04  3.134938E-06  1.347979E-06 -2.209341E-08
      6061   1  3.544274E-04 -1.170309E-04 -1.168532E-04  3.648029E-06  6.234964E-07 -3.589077E-08
      6062   1  2.835419E-04 -9.357660E-05 -9.360260E-05  9.932598E-06 -2.312800E-07 -2.332376E-08
      6063   1  2.835421E-04 -9.355543E-05 -9.356603E-05  8.856101E-06 -6.334080E-07  2.273003E-08
      6064   1  2.835420E-04 -9.357470E-05 -9.354431E-05  8.266722E-06 -7.743551E-07  1.624893E-08
      6065   1  2.835421E-04 -9.358150E-05 -9.354525E-05  7.924964E-06 -6.407594E-07  4.774118E-09
      6066   1  2.835420E-04 -9.357517E-05 -9.354451E-05  7.736567E-06 -3.580904E-07  3.983417E-09
      6067   1  2.835421E-04 -9.358436E-05 -9.354324E-05  7.679060E-06 -2.128475E-14  9.940779E-18
      6068   1  2.835420E-04 -9.357517E-05 -9.354451E-05  7.736567E-06  3.580903E-07 -3.983418E-09
      6069   1  2.835421E-04 -9.358150E-05 -9.354525E-05  7.924964E-06  6.407594E-07 -4.774117E-09
      6070   1  2.835420E-04 -9.357470E-05 -9.354431E-05  8.266722E-06  7.743551E-07 -1.624893E-08
      6071   1  2.835421E-04 -9.355543E-05 -9.356603E-05  8.856101E-06  6.334080E-07 -2.273003E-08
      6072   1  2.835419E-04 -9.357660E-05 -9.360260E-05  9.932598E-06  2.312800E-07  2.332376E-08
      6073   1  2.126565E-04 -7.020875E-05 -7.013976E-05  1.452034E-05 -1.262006E-07  2.485603E-09
      6074   1  2.126566E-04 -7.017670E-05 -7.018609E-05  1.331918E-05 -3.183495E-07 -2.486133E-08
      6075   1  2.126565E-04 -7.016361E-05 -7.018021E-05  1.249380E-05 -4.059924E-07  9.852999E-09
      6076   1  2.126566E-04 -7.018053E-05 -7.016206E-05  1.198339E-05 -3.623518E-07  2.642499E-09
      6077   1  2.126565E-04 -7.018039E-05 -7.016457E-05  1.170197E-05 -2.069279E-07  2.142921E-09
      6078   1  2.126566E-04 -7.018143E-05 -7.015953E-05  1.161084E-05 -1.490274E-14 -3.265981E-16
      6079   1  2.126565E-04 -7.018039E-05 -7.016457E-05  1.170197E-05  2.069279E-07 -2.142920E-09
      6080   1  2.126566E-04 -7.018053E-05 -7.016206E-05  1.198339E-05  3.623517E-07 -2.642499E-09
      6081   1  2.126565E-04 -7.016361E-05 -7.018021E-05  1.249380E-05  4.059923E-07 -9.852999E-09
      6082   1  2.126566E-04 -7.017670E-05 -7.018609E-05  1.331918E-05  3.183495E-07  2.486133E-08
      6083   1  2.126565E-04 -7.020875E-05 -7.013976E-05  1.452034E-05  1.262006E-07 -2.485603E-09
      6084   1  1.417710E-04 -4.679009E-05 -4.679341E-05  1.772536E-05 -5.843344E-08 -9.895719E-09
      6085   1  1.417711E-04 -4.678949E-05 -4.677536E-05  1.645285E-05 -1.613789E-07  7.948828E-10
      6086   1  1.417710E-04 -4.678405E-05 -4.678476E-05  1.553577E-05 -2.068061E-07 -1.886109E-08
      6087   1  1.417711E-04 -4.677695E-05 -4.678633E-05  1.492194E-05 -1.868164E-07  2.920522E-09
      6088   1  1.417710E-04 -4.678690E-05 -4.677471E-05  1.457597E-05 -1.104253E-07 -2.858905E-09
      6089   1  1.417710E-04 -4.678350E-05 -4.677994E-05  1.446381E-05 -9.402485E-15  5.706884E-17
      6090   1  1.417710E-04 -4.678690E-05 -4.677471E-05  1.457597E-05  1.104253E-07  2.858904E-09
      6091   1  1.417711E-04 -4.677695E-05 -4.678633E-05  1.492194E-05  1.868164E-07 -2.920522E-09
      6092   1  1.417710E-04 -4.678405E-05 -4.678476E-05  1.553577E-05  2.068061E-07  1.886109E-08
      6093   1  1.417711E-04 -4.678949E-05 -4.677536E-05  1.645285E-05  1.613788E-07 -7.948830E-10
      6094   1  1.417710E-04 -4.679009E-05 -4.679341E-05  1.772536E-05  5.843344E-08  9.895719E-09
      6095   1  7.088548E-05 -2.340170E-05 -2.338224E-05  1.962261E-05 -2.573162E-08 -1.307587E-09
      6096   1  7.088553E-05 -2.339275E-05 -2.339538E-05  1.832412E-05 -6.642192E-08 -1.914072E-08
      6097   1  7.088549E-05 -2.339028E-05 -2.339168E-05  1.735702E-05 -8.711430E-08 -1.332098E-09
      6098   1  7.088553E-05 -2.339230E-05 -2.339039E-05  1.669890E-05 -7.935151E-08 -1.487598E-08
      6099   1  7.088549E-05 -2.338891E-05 -2.339267E-05  1.631658E-05 -4.673627E-08  2.561727E-10
      6100   1  7.088553E-05 -2.339341E-05 -2.338750E-05  1.619261E-05 -4.540042E-15 -2.946007E-16
      6101   1  7.088549E-05 -2.338891E-05 -2.339267E-05  1.631658E-05  4.673626E-08 -2.561726E-10
      6102   1  7.088553E-05 -2.339230E-05 -2.339039E-05  1.669890E-05  7.935150E-08  1.487598E-08
      6103   1  7.088549E-05 -2.339028E-05 -2.339168E-05  1.735702E-05  8.711430E-08  1.332097E-09
      6104   1  7.088553E-05 -2.339275E-05 -2.339538E-05  1.832412E-05  6.642192E-08  1.914072E-08
      6105   1  7.088548E-05 -2.340170E-05 -2.338224E-05  1.962261E-05  2.573162E-08  1.307587E-09
      6106   1  7.736129E-14 -2.536860E-14 -2.538219E-14  2.025232E-05 -2.082854E-18 -7.690865E-09
      6107   1  7.754832E-14 -2.491063E-14 -2.605535E-14  1.894418E-05 -8.392318E-17 -3.237605E-09
      6108   1  7.717004E-14 -2.459838E-14 -2.528450E-14  1.796588E-05 -1.016639E-16 -2.046712E-08
      6109   1  7.724062E-14 -2.432082E-14 -2.585155E-14  1.729130E-05 -8.739093E-17 -1.255469E-09
      6110   1  7.692425E-14 -2.396000E-14 -2.531726E-14  1.690023E-05 -5.725816E-17 -8.503128E-09
      6111   1  7.708677E-14 -2.392531E-14 -2.584617E-14  1.677112E-05 -9.370302E-20  2.951635E-17
      6112   1  7.685649E-14 -2.390449E-14 -2.528644E-14  1.690023E-05  4.984958E-17  8.503128E-09
      6113   1  7.710304E-14 -2.411960E-14 -2.584182E-14  1.729130E-05  8.509166E-17  1.255469E-09
      6114   1  7.697499E-14 -2.439715E-14 -2.523886E-14  1.796588E-05  9.154309E-17  2.046712E-08
      6115   1  7.730925E-14 -2.460532E-14 -2.601761E-14  1.894418E-05  7.560193E-17  3.237605E-09
      6116   1  7.707095E-14 -2.500083E-14 -2.526069E-14  2.025232E-05  2.017463E-17  7.690865E-09
      6117   1 -7.088548E-05  2.340170E-05  2.338224E-05  1.962261E-05  2.573162E-08 -1.307588E-09
      6118   1 -7.088553E-05  2.339275E-05  2.339538E-05  1.832412E-05  6.642192E-08 -1.914072E-08
      6119   1 -7.088549E-05  2.339028E-05  2.339168E-05  1.735702E-05  8.711430E-08 -1.332098E-09
      6120   1 -7.088553E-05  2.339230E-05  2.339039E-05  1.669890E-05  7.935151E-08 -1.487598E-08
      6121   1 -7.088549E-05  2.338891E-05  2.339267E-05  1.631658E-05  4.673626E-08  2.561727E-10
      6122   1 -7.088553E-05  2.339341E-05  2.338750E-05  1.619261E-05  4.534102E-15 -3.182701E-16
      6123   1 -7.088549E-05  2.338891E-05  2.339267E-05  1.631658E-05 -4.673626E-08 -2.561726E-10
      6124   1 -7.088553E-05  2.339230E-05  2.339039E-05  1.669890E-05 -7.935150E-08  1.487598E-08
      6125   1 -7.088549E-05  2.339028E-05  2.339168E-05  1.735702E-05 -8.711430E-08  1.332097E-09
      6126   1 -7.088553E-05  2.339275E-05  2.339538E-05  1.832412E-05 -6.642192E-08  1.914072E-08
      6127   1 -7.088548E-05  2.340170E-05  2.338224E-05  1.962261E-05 -2.573162E-08  1.307588E-09
      6128   1 -1.417710E-04  4.679009E-05  4.679341E-05  1.772536E-05  5.843344E-08 -9.895719E-09
      6129   1 -1.417711E-04  4.678949E-05  4.677536E-05  1.645285E-05  1.613788E-07  7.948829E-10
      6130   1 -1.417710E-04  4.678405E-05  4.678476E-05  1.553577E-05  2.068061E-07 -1.886109E-08
      6131   1 -1.417711E-04  4.677695E-05  4.678633E-05  1.492194E-05  1.868164E-07  2.920522E-09
      6132   1 -1.417710E-04  4.678690E-05  4.677471E-05  1.457597E-05  1.104253E-07 -2.858905E-09
      6133   1 -1.417710E-04  4.678350E-05  4.677994E-05  1.446381E-05  9.386654E-15  1.606449E-16
      6134   1 -1.417710E-04  4.678690E-05  4.677471E-05  1.457597E-05 -1.104253E-07  2.858904E-09
      6135   1 -1.417711E-04  4.677695E-05  4.678633E-05  1.492194E-05 -1.868164E-07 -2.920522E-09
      6136   1 -1.417710E-04  4.678405E-05  4.678476E-05  1.553577E-05 -2.068061E-07  1.886109E-08
      6137   1 -1.417711E-04  4.678949E-05  4.677536E-05  1.645285E-05 -1.613788E-07 -7.948831E-10
      6138   1 -1.417710E-04  4.679009E-05  4.679341E-05  1.772536E-05 -5.843344E-08  9.895719E-09
      6139   1 -2.126565E-04  7.020875E-05  7.013976E-05  1.452034E-05  1.262006E-07  2.485603E-09
      6140   1 -2.126566E-04  7.017670E-05  7.018609E-05  1.331918E-05  3.183495E-07 -2.486133E-08
      6141   1 -2.126565E-04  7.016361E-05  7.018021E-05  1.249380E-05  4.059924E-07  9.852999E-09
      6142   1 -2.126566E-04  7.018052E-05  7.016206E-05  1.198339E-05  3.623518E-07  2.642499E-09
      6143   1 -2.126565E-04  7.018039E-05  7.016457E-05  1.170197E-05  2.069279E-07  2.142921E-09
      6144   1 -2.126566E-04  7.018143E-05  7.015953E-05  1.161084E-05  1.490972E-14 -2.935367E-16
      6145   1 -2.126565E-04  7.018039E-05  7.016457E-05  1.170197E-05 -2.069279E-07 -2.142920E-09
      6146   1 -2.126566E-04  7.018052E-05  7.016206E-05  1.198339E-05 -3.623517E-07 -2.642499E-09
      6147   1 -2.126565E-04  7.016361E-05  7.018021E-05  1.249380E-05 -4.059923E-07 -9.852999E-09
      6148   1 -2.126566E-04  7.017670E-05  7.018609E-05  1.331918E-05 -3.183495E-07  2.486133E-08
      6149   1 -2.126565E-04  7.020875E-05  7.013976E-05  1.452034E-05 -1.262006E-07 -2.485604E-09
      6150   1 -2.835419E-04  9.357660E-05  9.360260E-05  9.932598E-06  2.312800E-07 -2.332376E-08
      6151   1 -2.835421E-04  9.355543E-05  9.356603E-05  8.856101E-06  6.334080E-07  2.273003E-08
      6152   1 -2.835420E-04  9.357470E-05  9.354431E-05  8.266722E-06  7.743551E-07  1.624893E-08
      6153   1 -2.835421E-04  9.358150E-05  9.354525E-05  7.924964E-06  6.407594E-07  4.774118E-09
      6154   1 -2.835420E-04  9.357517E-05  9.354451E-05  7.736567E-06  3.580904E-07  3.983417E-09
      6155   1 -2.835421E-04  9.358436E-05  9.354324E-05  7.679060E-06  2.125871E-14  5.245336E-17
      6156   1 -2.835420E-04  9.357517E-05  9.354451E-05  7.736567E-06 -3.580903E-07 -3.983418E-09
      6157   1 -2.835421E-04  9.358150E-05  9.354525E-05  7.924964E-06 -6.407594E-07 -4.774117E-09
      6158   1 -2.835420E-04  9.357470E-05  9.354431E-05  8.266722E-06 -7.743551E-07 -1.624893E-08
      6159   1 -2.835421E-04  9.355543E-05  9.356603E-05  8.856101E-06 -6.334080E-07 -2.273003E-08
      6160   1 -2.835419E-04  9.357660E-05  9.360260E-05  9.932598E-06 -2.312800E-07  2.332376E-08
      6161   1 -3.544274E-04  1.170309E-04  1.168532E-04  3.648029E-06  6.234964E-07  3.589077E-08
      6162   1 -3.544276E-04  1.169638E-04  1.169120E-04  3.134938E-06  1.347979E-06  2.209341E-08
      6163   1 -3.544275E-04  1.169973E-04  1.169100E-04  2.938753E-06  1.372508E-06  4.326423E-09
      6164   1 -3.544276E-04  1.169670E-04  1.169292E-04  2.809203E-06  1.070262E-06  5.165571E-09
      6165   1 -3.544275E-04  1.169872E-04  1.169225E-04  2.747210E-06  5.776168E-07  7.283934E-10
      6166   1 -3.544276E-04  1.169681E-04  1.169321E-04  2.724421E-06  2.879637E-14 -9.315160E-17
      6167   1 -3.544275E-04  1.169872E-04  1.169225E-04  2.747210E-06 -5.776168E-07 -7.283934E-10
      6168   1 -3.544276E-04  1.169670E-04  1.169292E-04  2.809203E-06 -1.070262E-06 -5.165572E-09
      6169   1 -3.544275E-04  1.169973E-04  1.169100E-04  2.938753E-06 -1.372508E-06 -4.326423E-09
      6170   1 -3.544276E-04  1.169638E-04  1.169120E-04  3.134938E-06 -1.347979E-06 -2.209341E-08
      6171   1 -3.544274E-04  1.170309E-04  1.168532E-04  3.648029E-06 -6.234964E-07 -3.589077E-08
      6172   1  3.498837E-04 -1.155305E-04 -1.153555E-04  3.648013E-06 -6.234935E-07  3.542202E-08
      6173   1  3.498835E-04 -1.154642E-04 -1.154128E-04  3.134948E-06 -1.347987E-06  2.181527E-08
      6174   1  3.498837E-04 -1.154974E-04 -1.154115E-04  2.938747E-06 -1.372499E-06  4.267632E-09
      6175   1  3.498835E-04 -1.154674E-04 -1.154297E-04  2.809209E-06 -1.070270E-06  5.101335E-09
      6176   1  3.498837E-04 -1.154873E-04 -1.154239E-04  2.747206E-06 -5.776128E-07  7.181206E-10
      6177   1  3.498835E-04 -1.154685E-04 -1.154326E-04  2.724425E-06 -2.876043E-14 -2.793938E-17
      6178   1  3.498837E-04 -1.154873E-04 -1.154239E-04  2.747206E-06  5.776128E-07 -7.181206E-10
      6179   1  3.498835E-04 -1.154674E-04 -1.154297E-04  2.809209E-06  1.070270E-06 -5.101336E-09
      6180   1  3.498837E-04 -1.154974E-04 -1.154115E-04  2.938747E-06  1.372499E-06 -4.267632E-09
      6181   1  3.498835E-04 -1.154642E-04 -1.154128E-04  3.134948E-06  1.347987E-06 -2.181526E-08
      6182   1  3.498837E-04 -1.155305E-04 -1.153555E-04  3.648013E-06  6.234935E-07 -3.542202E-08
      6183   1  2.799070E-04 -9.237689E-05 -9.240294E-05  9.932612E-06 -2.312760E-07 -2.302257E-08
      6184   1  2.799068E-04 -9.235600E-05 -9.236611E-05  8.856096E-06 -6.334160E-07  2.243856E-08
      6185   1  2.799069E-04 -9.237503E-05 -9.234537E-05  8.266722E-06 -7.743467E-07  1.604045E-08
      6186   1  2.799068E-04 -9.238174E-05 -9.234562E-05  7.924962E-06 -6.407662E-07  4.713104E-09
      6187   1  2.799069E-04 -9.237549E-05 -9.234555E-05  7.736565E-06 -3.580866E-07  3.932236E-09
      6188   1  2.799068E-04 -9.238456E-05 -9.234364E-05  7.679059E-06 -2.124899E-14  4.007059E-17
      6189   1  2.799069E-04 -9.237549E-05 -9.234555E-05  7.736565E-06  3.580866E-07 -3.932237E-09
      6190   1  2.799068E-04 -9.238174E-05 -9.234562E-05  7.924962E-06  6.407661E-07 -4.713103E-09
      6191   1  2.799069E-04 -9.237503E-05 -9.234537E-05  8.266722E-06  7.743466E-07 -1.604045E-08
      6192   1  2.799068E-04 -9.235600E-05 -9.236611E-05  8.856096E-06  6.334160E-07 -2.243856E-08
      6193   1  2.799070E-04 -9.237689E-05 -9.240294E-05  9.932612E-06  2.312760E-07  2.302257E-08
      6194   1  2.099302E-04 -6.930864E-05 -6.924083E-05  1.452033E-05 -1.261988E-07  2.452604E-09
      6195   1  2.099301E-04 -6.927700E-05 -6.928598E-05  1.331918E-05 -3.183548E-07 -2.454312E-08
      6196   1  2.099302E-04 -6.926408E-05 -6.928073E-05  1.249380E-05 -4.059861E-07  9.727059E-09
      6197   1  2.099301E-04 -6.928077E-05 -6.926228E-05  1.198339E-05 -3.623570E-07  2.608362E-09
      6198   1  2.099302E-04 -6.928063E-05 -6.926528E-05  1.170198E-05 -2.069250E-07  2.115578E-09
      6199   1  2.099301E-04 -6.928167E-05 -6.925979E-05  1.161084E-05 -1.488747E-14 -2.563020E-16
      6200   1  2.099302E-04 -6.928063E-05 -6.926528E-05  1.170198E-05  2.069250E-07 -2.115578E-09
      6201   1  2.099301E-04 -6.928077E-05 -6.926228E-05  1.198339E-05  3.623569E-07 -2.608363E-09
      6202   1  2.099302E-04 -6.926408E-05 -6.928073E-05  1.249380E-05  4.059860E-07 -9.727060E-09
      6203   1  2.099301E-04 -6.927700E-05 -6.928598E-05  1.331918E-05  3.183548E-07  2.454312E-08
      6204   1  2.099302E-04 -6.930864E-05 -6.924083E-05  1.452033E-05  1.261987E-07 -2.452604E-09
      6205   1  1.399535E-04 -4.619021E-05 -4.619369E-05  1.772537E-05 -5.843147E-08 -9.767960E-09
      6206   1  1.399534E-04 -4.618963E-05 -4.617549E-05  1.645285E-05 -1.613828E-07  7.850767E-10
      6207   1  1.399535E-04 -4.618425E-05 -4.618513E-05  1.553576E-05 -2.068019E-07 -1.861933E-08
      6208   1  1.399534E-04 -4.617725E-05 -4.618633E-05  1.492193E-05 -1.868198E-07  2.883061E-09
      6209   1  1.399535E-04 -4.618707E-05 -4.617521E-05  1.457597E-05 -1.104234E-07 -2.822224E-09
      6210   1  1.399534E-04 -4.618371E-05 -4.618003E-05  1.446381E-05 -9.378215E-15  1.472122E-16
      6211   1  1.399535E-04 -4.618707E-05 -4.617521E-05  1.457597E-05  1.104234E-07  2.822223E-09
      6212   1  1.399534E-04 -4.617725E-05 -4.618633E-05  1.492193E-05  1.868198E-07 -2.883061E-09
      6213   1  1.399535E-04 -4.618425E-05 -4.618513E-05  1.553576E-05  2.068019E-07  1.861933E-08
      6214   1  1.399534E-04 -4.618963E-05 -4.617549E-05  1.645285E-05  1.613828E-07 -7.850770E-10
      6215   1  1.399535E-04 -4.619021E-05 -4.619369E-05  1.772537E-05  5.843147E-08  9.767960E-09
      6216   1  6.997674E-05 -2.310168E-05 -2.308256E-05  1.962261E-05 -2.573097E-08 -1.291485E-09
      6217   1  6.997670E-05 -2.309284E-05 -2.309535E-05  1.832412E-05 -6.642379E-08 -1.889589E-08
      6218   1  6.997674E-05 -2.309040E-05 -2.309188E-05  1.735703E-05 -8.711213E-08 -1.314818E-09
      6219   1  6.997671E-05 -2.309240E-05 -2.309042E-05  1.669890E-05 -7.935329E-08 -1.468536E-08
      6220   1  6.997673E-05 -2.308905E-05 -2.309285E-05  1.631658E-05 -4.673528E-08  2.529325E-10
      6221   1  6.997671E-05 -2.309349E-05 -2.308757E-05  1.619261E-05 -4.529040E-15 -2.281450E-16
      6222   1  6.997673E-05 -2.308905E-05 -2.309285E-05  1.631658E-05  4.673527E-08 -2.529325E-10
      6223   1  6.997671E-05 -2.309240E-05 -2.309042E-05  1.669890E-05  7.935328E-08  1.468535E-08
      6224   1  6.997674E-05 -2.309040E-05 -2.309188E-05  1.735703E-05  8.711212E-08  1.314818E-09
      6225   1  6.997670E-05 -2.309284E-05 -2.309535E-05  1.832412E-05  6.642379E-08  1.889589E-08
      6226   1  6.997674E-05 -2.310168E-05 -2.308256E-05  1.962261E-05  2.573097E-08  1.291485E-09
      6227   1  7.691547E-14 -2.547268E-14 -2.572330E-14  2.025233E-05 -3.195601E-17 -7.591559E-09
      6228   1  7.665765E-14 -2.580575E-14 -2.507231E-14  1.894418E-05 -5.453368E-17 -3.195718E-09
      6229   1  7.709740E-14 -2.639555E-14 -2.560844E-14  1.796588E-05 -9.195898E-17 -2.020468E-08
      6230   1  7.696740E-14 -2.700618E-14 -2.488207E-14  1.729130E-05 -8.899267E-17 -1.239461E-09
      6231   1  7.731283E-14 -2.717271E-14 -2.562445E-14  1.690023E-05 -4.775392E-17 -8.394051E-09
      6232   1  7.709382E-14 -2.739475E-14 -2.489373E-14  1.677111E-05 -1.848025E-17  5.637851E-17
      6233   1  7.728811E-14 -2.724210E-14 -2.556451E-14  1.690023E-05  3.641606E-17  8.394051E-09
      6234   1  7.695667E-14 -2.708250E-14 -2.489900E-14  1.729130E-05  8.607761E-17  1.239461E-09
      6235   1  7.709057E-14 -2.670086E-14 -2.553894E-14  1.796588E-05  9.194458E-17  2.020468E-08
      6236   1  7.662924E-14 -2.616657E-14 -2.503744E-14  1.894418E-05  5.902210E-17  3.195718E-09
      6237   1  7.687481E-14 -2.598616E-14 -2.563825E-14  2.025233E-05  4.025101E-18  7.591559E-09
      6238   1 -6.997674E-05  2.310168E-05  2.308256E-05  1.962261E-05  2.573097E-08 -1.291485E-09
      6239   1 -6.997670E-05  2.309284E-05  2.309535E-05  1.832412E-05  6.642379E-08 -1.889589E-08
      6240   1 -6.997674E-05  2.309040E-05  2.309188E-05  1.735703E-05  8.711213E-08 -1.314818E-09
      6241   1 -6.997671E-05  2.309240E-05  2.309042E-05  1.669890E-05  7.935328E-08 -1.468536E-08
      6242   1 -6.997673E-05  2.308905E-05  2.309285E-05  1.631658E-05  4.673528E-08  2.529326E-10
      6243   1 -6.997671E-05  2.309349E-05  2.308757E-05  1.619261E-05  4.544837E-15 -2.873750E-16
      6244   1 -6.997673E-05  2.308905E-05  2.309285E-05  1.631658E-05 -4.673527E-08 -2.529325E-10
      6245   1 -6.997671E-05  2.309240E-05  2.309042E-05  1.669890E-05 -7.935328E-08  1.468535E-08
      6246   1 -6.997674E-05  2.309040E-05  2.309188E-05  1.735703E-05 -8.711212E-08  1.314818E-09
      6247   1 -6.997670E-05  2.309284E-05  2.309535E-05  1.832412E-05 -6.642379E-08  1.889589E-08
      6248   1 -6.997674E-05  2.310168E-05  2.308256E-05  1.962261E-05 -2.573097E-08  1.291485E-09
      6249   1 -1.399535E-04  4.619021E-05  4.619369E-05  1.772537E-05  5.843147E-08 -9.767960E-09
      6250   1 -1.399534E-04  4.618963E-05  4.617549E-05  1.645285E-05  1.613828E-07  7.850768E-10
      6251   1 -1.399535E-04  4.618425E-05  4.618513E-05  1.553576E-05  2.068019E-07 -1.861933E-08
      6252   1 -1.399534E-04  4.617725E-05  4.618633E-05  1.492193E-05  1.868198E-07  2.883061E-09
      6253   1 -1.399535E-04  4.618707E-05  4.617521E-05  1.457597E-05  1.104234E-07 -2.822224E-09
      6254   1 -1.399534E-04  4.618371E-05  4.618003E-05  1.446381E-05  9.368037E-15  1.488453E-16
      6255   1 -1.399535E-04  4.618707E-05  4.617521E-05  1.457597E-05 -1.104234E-07  2.822223E-09
      6256   1 -1.399534E-04  4.617725E-05  4.618633E-05  1.492193E-05 -1.868198E-07 -2.883061E-09
      6257   1 -1.399535E-04  4.618425E-05  4.618513E-05  1.553576E-05 -2.068019E-07  1.861933E-08
      6258   1 -1.399534E-04  4.618963E-05  4.617549E-05  1.645285E-05 -1.613828E-07 -7.850770E-10
      6259   1 -1.399535E-04  4.619021E-05  4.619369E-05  1.772537E-05 -5.843147E-08  9.767960E-09
      6260   1 -2.099302E-04  6.930864E-05  6.924083E-05  1.452033E-05  1.261988E-07  2.452604E-09
      6261   1 -2.099301E-04  6.927700E-05  6.928598E-05  1.331918E-05  3.183548E-07 -2.454312E-08
      6262   1 -2.099302E-04  6.926408E-05  6.928073E-05  1.249380E-05  4.059861E-07  9.727059E-09
      6263   1 -2.099301E-04  6.928077E-05  6.926228E-05  1.198339E-05  3.623570E-07  2.608362E-09
      6264   1 -2.099302E-04  6.928063E-05  6.926528E-05  1.170198E-05  2.069250E-07  2.115578E-09
      6265   1 -2.099301E-04  6.928167E-05  6.925979E-05  1.161084E-05  1.485789E-14 -3.560833E-16
      6266   1 -2.099302E-04  6.928063E-05  6.926528E-05  1.170198E-05 -2.069250E-07 -2.115578E-09
      6267   1 -2.099301E-04  6.928077E-05  6.926228E-05  1.198339E-05 -3.623569E-07 -2.608363E-09
      6268   1 -2.099302E-04  6.926408E-05  6.928073E-05  1.249380E-05 -4.059860E-07 -9.727060E-09
      6269   1 -2.099301E-04  6.927700E-05  6.928598E-05  1.331918E-05 -3.183548E-07  2.454312E-08
      6270   1 -2.099302E-04  6.930864E-05  6.924083E-05  1.452033E-05 -1.261987E-07 -2.452604E-09
      6271   1 -2.799070E-04  9.237689E-05  9.240294E-05  9.932612E-06  2.312760E-07 -2.302257E-08
      6272   1 -2.799068E-04  9.235600E-05  9.236611E-05  8.856096E-06  6.334160E-07  2.243856E-08
      6273   1 -2.799069E-04  9.237503E-05  9.234537E-05  8.266722E-06  7.743467E-07  1.604045E-08
      6274   1 -2.799068E-04  9.238174E-05  9.234562E-05  7.924962E-06  6.407662E-07  4.713104E-09
      6275   1 -2.799069E-04  9.237549E-05  9.234555E-05  7.736565E-06  3.580866E-07  3.932236E-09
      6276   1 -2.799068E-04  9.238456E-05  9.234364E-05  7.679059E-06  2.127220E-14 -3.759979E-18
      6277   1 -2.799069E-04  9.237549E-05  9.234555E-05  7.736565E-06 -3.580866E-07 -3.932237E-09
      6278   1 -2.799068E-04  9.238174E-05  9.234562E-05  7.924962E-06 -6.407661E-07 -4.713103E-09
      6279   1 -2.799069E-04  9.237503E-05  9.234537E-05  8.266722E-06 -7.743466E-07 -1.604045E-08
      6280   1 -2.799068E-04  9.235600E-05  9.236611E-05  8.856096E-06 -6.334160E-07 -2.243856E-08
      6281   1 -2.799070E-04  9.237689E-05  9.240294E-05  9.932612E-06 -2.312760E-07  2.302257E-08
      6282   1 -3.498837E-04  1.155305E-04  1.153555E-04  3.648013E-06  6.234935E-07  3.542202E-08
      6283   1 -3.498835E-04  1.154642E-04  1.154128E-04  3.134948E-06  1.347987E-06  2.181526E-08
      6284   1 -3.498837E-04  1.154974E-04  1.154115E-04  2.938747E-06  1.372499E-06  4.267632E-09
      6285   1 -3.498835E-04  1.154674E-04  1.154297E-04  2.809209E-06  1.070270E-06  5.101335E-09
      6286   1 -3.498837E-04  1.154873E-04  1.154239E-04  2.747206E-06  5.776128E-07  7.181206E-10
      6287   1 -3.498835E-04  1.154685E-04  1.154326E-04  2.724425E-06  2.873935E-14 -5.743392E-17
      6288   1 -3.498837E-04  1.154873E-04  1.154239E-04  2.747206E-06 -5.776128E-07 -7.181205E-10
      6289   1 -3.498835E-04  1.154674E-04  1.154297E-04  2.809209E-06 -1.070270E-06 -5.101336E-09
      6290   1 -3.498837E-04  1.154974E-04  1.154115E-04  2.938747E-06 -1.372499E-06 -4.267632E-09
      6291   1 -3.498835E-04  1.154642E-04  1.154128E-04  3.134948E-06 -1.347987E-06 -2.181526E-08
      6292   1 -3.498837E-04  1.155305E-04  1.153555E-04  3.648013E-06 -6.234935E-07 -3.542202E-08
      6293   1  3.453396E-04 -1.140301E-04 -1.138571E-04  3.648026E-06 -6.234959E-07  3.496902E-08
      6294   1  3.453397E-04 -1.139647E-04 -1.139142E-04  3.134940E-06 -1.347981E-06  2.152778E-08
      6295   1  3.453396E-04 -1.139974E-04 -1.139124E-04  2.938752E-06 -1.372506E-06  4.214920E-09
      6296   1  3.453397E-04 -1.139679E-04 -1.139309E-04  2.809204E-06 -1.070264E-06  5.033461E-09
      6297   1  3.453396E-04 -1.139875E-04 -1.139245E-04  2.747209E-06 -5.776161E-07  7.095569E-10
      6298   1  3.453397E-04 -1.139689E-04 -1.139338E-04  2.724422E-06 -2.867205E-14 -6.649547E-17
      6299   1  3.453396E-04 -1.139875E-04 -1.139245E-04  2.747209E-06  5.776160E-07 -7.095568E-10
      6300   1  3.453397E-04 -1.139679E-04 -1.139309E-04  2.809204E-06  1.070264E-06 -5.033462E-09
      6301   1  3.453396E-04 -1.139974E-04 -1.139124E-04  2.938752E-06  1.372506E-06 -4.214920E-09
      6302   1  3.453397E-04 -1.139647E-04 -1.139142E-04  3.134940E-06  1.347981E-06 -2.152778E-08
      6303   1  3.453396E-04 -1.140301E-04 -1.138571E-04  3.648026E-06  6.234958E-07 -3.496902E-08
      6304   1  2.762717E-04 -9.117720E-05 -9.120260E-05  9.932601E-06 -2.312793E-07 -2.272534E-08
      6305   1  2.762718E-04 -9.115657E-05 -9.116684E-05  8.856100E-06 -6.334095E-07  2.214720E-08
      6306   1  2.762717E-04 -9.117535E-05 -9.114580E-05  8.266722E-06 -7.743536E-07  1.583226E-08
      6307   1  2.762718E-04 -9.118198E-05 -9.114660E-05  7.924963E-06 -6.407606E-07  4.651739E-09
      6308   1  2.762717E-04 -9.117581E-05 -9.114599E-05  7.736566E-06 -3.580897E-07  3.881261E-09
      6309   1  2.762718E-04 -9.118476E-05 -9.114464E-05  7.679060E-06 -2.120699E-14 -3.304191E-17
      6310   1  2.762717E-04 -9.117581E-05 -9.114599E-05  7.736566E-06  3.580896E-07 -3.881262E-09
      6311   1  2.762718E-04 -9.118198E-05 -9.114660E-05  7.924963E-06  6.407606E-07 -4.651739E-09
      6312   1  2.762717E-04 -9.117535E-05 -9.114580E-05  8.266721E-06  7.743535E-07 -1.583226E-08
      6313   1  2.762718E-04 -9.115657E-05 -9.116684E-05  8.856100E-06  6.334094E-07 -2.214720E-08
      6314   1  2.762717E-04 -9.117720E-05 -9.120260E-05  9.932601E-06  2.312793E-07  2.272534E-08
      6315   1  2.072037E-04 -6.840852E-05 -6.834135E-05  1.452034E-05 -1.262002E-07  2.421676E-09
      6316   1  2.072038E-04 -6.837730E-05 -6.838640E-05  1.331918E-05 -3.183505E-07 -2.422395E-08
      6317   1  2.072038E-04 -6.836455E-05 -6.838077E-05  1.249380E-05 -4.059912E-07  9.600426E-09
      6318   1  2.072038E-04 -6.838102E-05 -6.836299E-05  1.198339E-05 -3.623527E-07  2.574701E-09
      6319   1  2.072038E-04 -6.838089E-05 -6.836552E-05  1.170197E-05 -2.069274E-07  2.087998E-09
      6320   1  2.072038E-04 -6.838191E-05 -6.836052E-05  1.161084E-05 -1.483239E-14 -3.544884E-16
      6321   1  2.072038E-04 -6.838089E-05 -6.836552E-05  1.170197E-05  2.069273E-07 -2.087998E-09
      6322   1  2.072038E-04 -6.838102E-05 -6.836299E-05  1.198339E-05  3.623527E-07 -2.574702E-09
      6323   1  2.072038E-04 -6.836455E-05 -6.838077E-05  1.249380E-05  4.059912E-07 -9.600427E-09
      6324   1  2.072038E-04 -6.837730E-05 -6.838640E-05  1.331918E-05  3.183504E-07  2.422395E-08
      6325   1  2.072037E-04 -6.840852E-05 -6.834135E-05  1.452034E-05  1.262002E-07 -2.421676E-09
      6326   1  1.381358E-04 -4.559034E-05 -4.559361E-05  1.772536E-05 -5.843309E-08 -9.641822E-09
      6327   1  1.381359E-04 -4.558976E-05 -4.557596E-05  1.645285E-05 -1.613796E-07  7.745719E-10
      6328   1  1.381358E-04 -4.558446E-05 -4.558518E-05  1.553577E-05 -2.068053E-07 -1.837747E-08
      6329   1  1.381359E-04 -4.557754E-05 -4.558665E-05  1.492194E-05 -1.868170E-07  2.845639E-09
      6330   1  1.381358E-04 -4.558723E-05 -4.557539E-05  1.457597E-05 -1.104250E-07 -2.785592E-09
      6331   1  1.381359E-04 -4.558392E-05 -4.558043E-05  1.446381E-05 -9.351563E-15  1.878990E-16
      6332   1  1.381358E-04 -4.558723E-05 -4.557539E-05  1.457597E-05  1.104250E-07  2.785591E-09
      6333   1  1.381359E-04 -4.557754E-05 -4.558665E-05  1.492194E-05  1.868170E-07 -2.845639E-09
      6334   1  1.381358E-04 -4.558446E-05 -4.558518E-05  1.553576E-05  2.068053E-07  1.837747E-08
      6335   1  1.381359E-04 -4.558976E-05 -4.557596E-05  1.645285E-05  1.613796E-07 -7.745722E-10
      6336   1  1.381358E-04 -4.559034E-05 -4.559361E-05  1.772536E-05  5.843308E-08  9.641822E-09
      6337   1  6.906791E-05 -2.280166E-05 -2.278271E-05  1.962261E-05 -2.573150E-08 -1.274174E-09
      6338   1  6.906795E-05 -2.279294E-05 -2.279549E-05  1.832412E-05 -6.642226E-08 -1.865002E-08
      6339   1  6.906792E-05 -2.279053E-05 -2.279191E-05  1.735703E-05 -8.711390E-08 -1.297902E-09
      6340   1  6.906794E-05 -2.279250E-05 -2.279062E-05  1.669890E-05 -7.935183E-08 -1.449456E-08
      6341   1  6.906792E-05 -2.278919E-05 -2.279287E-05  1.631658E-05 -4.673608E-08  2.496146E-10
      6342   1  6.906794E-05 -2.279357E-05 -2.278781E-05  1.619261E-05 -4.521282E-15 -2.561734E-16
      6343   1  6.906792E-05 -2.278919E-05 -2.279287E-05  1.631658E-05  4.673608E-08 -2.496146E-10
      6344   1  6.906794E-05 -2.279250E-05 -2.279062E-05  1.669890E-05  7.935182E-08  1.449455E-08
      6345   1  6.906792E-05 -2.279053E-05 -2.279191E-05  1.735703E-05  8.711390E-08  1.297901E-09
      6346   1  6.906795E-05 -2.279294E-05 -2.279549E-05  1.832412E-05  6.642226E-08  1.865002E-08
      6347   1  6.906791E-05 -2.280166E-05 -2.278271E-05  1.962261E-05  2.573150E-08  1.274174E-09
      6348   1  7.531302E-14 -2.475797E-14 -2.455485E-14  2.025232E-05 -2.761327E-18 -7.493534E-09
      6349   1  7.554623E-14 -2.404327E-14 -2.554747E-14  1.894418E-05 -8.611106E-17 -3.154519E-09
      6350   1  7.496174E-14 -2.346734E-14 -2.449955E-14  1.796588E-05 -8.527504E-17 -1.994231E-08
      6351   1  7.507590E-14 -2.293304E-14 -2.532488E-14  1.729130E-05 -8.724058E-17 -1.223287E-09
      6352   1  7.461588E-14 -2.241957E-14 -2.454327E-14  1.690023E-05 -4.744401E-17 -8.285085E-09
      6353   1  7.484052E-14 -2.239875E-14 -2.530469E-14  1.677112E-05  1.774703E-17  7.435107E-17
      6354   1  7.459842E-14 -2.252365E-14 -2.451262E-14  1.690023E-05  3.910412E-17  8.285085E-09
      6355   1  7.494461E-14 -2.281508E-14 -2.529135E-14  1.729130E-05  9.051182E-17  1.223287E-09
      6356   1  7.472256E-14 -2.312039E-14 -2.446319E-14  1.796588E-05  9.231134E-17  1.994231E-08
      6357   1  7.523387E-14 -2.350203E-14 -2.548872E-14  1.894418E-05  7.583909E-17  3.154519E-09
      6358   1  7.489614E-14 -2.401551E-14 -2.452287E-14  2.025232E-05  2.043891E-17  7.493534E-09
      6359   1 -6.906791E-05  2.280166E-05  2.278271E-05  1.962261E-05  2.573150E-08 -1.274174E-09
      6360   1 -6.906795E-05  2.279294E-05  2.279549E-05  1.832412E-05  6.642226E-08 -1.865002E-08
      6361   1 -6.906792E-05  2.279053E-05  2.279191E-05  1.735703E-05  8.711390E-08 -1.297902E-09
      6362   1 -6.906794E-05  2.279250E-05  2.279062E-05  1.669890E-05  7.935183E-08 -1.449456E-08
      6363   1 -6.906792E-05  2.278919E-05  2.279287E-05  1.631658E-05  4.673608E-08  2.496146E-10
      6364   1 -6.906794E-05  2.279357E-05  2.278781E-05  1.619261E-05  4.508206E-15 -2.903519E-16
      6365   1 -6.906792E-05  2.278919E-05  2.279287E-05  1.631658E-05 -4.673608E-08 -2.496146E-10
      6366   1 -6.906794E-05  2.279250E-05  2.279062E-05  1.669890E-05 -7.935182E-08  1.449456E-08
      6367   1 -6.906792E-05  2.279053E-05  2.279191E-05  1.735703E-05 -8.711390E-08  1.297901E-09
      6368   1 -6.906795E-05  2.279294E-05  2.279549E-05  1.832412E-05 -6.642226E-08  1.865002E-08
      6369   1 -6.906791E-05  2.280166E-05  2.278271E-05  1.962261E-05 -2.573150E-08  1.274174E-09
      6370   1 -1.381358E-04  4.559034E-05  4.559361E-05  1.772536E-05  5.843309E-08 -9.641823E-09
      6371   1 -1.381359E-04  4.558976E-05  4.557596E-05  1.645285E-05  1.613796E-07  7.745721E-10
      6372   1 -1.381358E-04  4.558446E-05  4.558518E-05  1.553577E-05  2.068053E-07 -1.837747E-08
      6373   1 -1.381359E-04  4.557754E-05  4.558665E-05  1.492194E-05  1.868170E-07  2.845639E-09
      6374   1 -1.381358E-04  4.558723E-05  4.557539E-05  1.457597E-05  1.104250E-07 -2.785592E-09
      6375   1 -1.381359E-04  4.558392E-05  4.558043E-05  1.446381E-05  9.337466E-15  1.085875E-16
      6376   1 -1.381358E-04  4.558723E-05  4.557539E-05  1.457597E-05 -1.104250E-07  2.785591E-09
      6377   1 -1.381359E-04  4.557754E-05  4.558665E-05  1.492194E-05 -1.868170E-07 -2.845638E-09
      6378   1 -1.381358E-04  4.558446E-05  4.558518E-05  1.553576E-05 -2.068053E-07  1.837747E-08
      6379   1 -1.381359E-04  4.558976E-05  4.557596E-05  1.645285E-05 -1.613796E-07 -7.745723E-10
      6380   1 -1.381358E-04  4.559034E-05  4.559361E-05  1.772536E-05 -5.843308E-08  9.641822E-09
      6381   1 -2.072037E-04  6.840852E-05  6.834135E-05  1.452034E-05  1.262002E-07  2.421677E-09
      6382   1 -2.072038E-04  6.837730E-05  6.838640E-05  1.331918E-05  3.183505E-07 -2.422395E-08
      6383   1 -2.072038E-04  6.836455E-05  6.838077E-05  1.249380E-05  4.059912E-07  9.600426E-09
      6384   1 -2.072038E-04  6.838102E-05  6.836299E-05  1.198339E-05  3.623527E-07  2.574702E-09
      6385   1 -2.072038E-04  6.838089E-05  6.836552E-05  1.170197E-05  2.069274E-07  2.087998E-09
      6386   1 -2.072038E-04  6.838191E-05  6.836052E-05  1.161084E-05  1.482691E-14 -3.444417E-16
      6387   1 -2.072038E-04  6.838089E-05  6.836552E-05  1.170197E-05 -2.069273E-07 -2.087998E-09
      6388   1 -2.072038E-04  6.838102E-05  6.836299E-05  1.198339E-05 -3.623527E-07 -2.574702E-09
      6389   1 -2.072038E-04  6.836455E-05  6.838077E-05  1.249380E-05 -4.059912E-07 -9.600427E-09
      6390   1 -2.072038E-04  6.837730E-05  6.838640E-05  1.331918E-05 -3.183504E-07  2.422395E-08
      6391   1 -2.072037E-04  6.840852E-05  6.834135E-05  1.452034E-05 -1.262002E-07 -2.421677E-09
      6392   1 -2.762717E-04  9.117720E-05  9.120260E-05  9.932601E-06  2.312793E-07 -2.272534E-08
      6393   1 -2.762718E-04  9.115657E-05  9.116684E-05  8.856100E-06  6.334095E-07  2.214720E-08
      6394   1 -2.762717E-04  9.117535E-05  9.114580E-05  8.266722E-06  7.743536E-07  1.583226E-08
      6395   1 -2.762718E-04  9.118198E-05  9.114660E-05  7.924963E-06  6.407606E-07  4.651740E-09
      6396   1 -2.762717E-04  9.117581E-05  9.114599E-05  7.736566E-06  3.580897E-07  3.881261E-09
      6397   1 -2.762718E-04  9.118476E-05  9.114464E-05  7.679060E-06  2.115544E-14 -6.744076E-18
      6398   1 -2.762717E-04  9.117581E-05  9.114599E-05  7.736566E-06 -3.580896E-07 -3.881262E-09
      6399   1 -2.762718E-04  9.118198E-05  9.114660E-05  7.924963E-06 -6.407606E-07 -4.651739E-09
      6400   1 -2.762717E-04  9.117535E-05  9.114580E-05  8.266721E-06 -7.743535E-07 -1.583226E-08
      6401   1 -2.762718E-04  9.115657E-05  9.116684E-05  8.856100E-06 -6.334094E-07 -2.214720E-08
      6402   1 -2.762717E-04  9.117720E-05  9.120260E-05  9.932601E-06 -2.312793E-07  2.272534E-08
      6403   1 -3.453396E-04  1.140301E-04  1.138571E-04  3.648026E-06  6.234959E-07  3.496902E-08
      6404   1 -3.453397E-04  1.139647E-04  1.139142E-04  3.134940E-06  1.347981E-06  2.152778E-08
      6405   1 -3.453396E-04  1.139974E-04  1.139124E-04  2.938752E-06  1.372506E-06  4.214920E-09
      6406   1 -3.453397E-04  1.139679E-04  1.139309E-04  2.809204E-06  1.070264E-06  5.033461E-09
      6407   1 -3.453396E-04  1.139875E-04  1.139245E-04  2.747209E-06  5.776161E-07  7.095568E-10
      6408   1 -3.453397E-04  1.139689E-04  1.139338E-04  2.724422E-06  2.869886E-14 -6.572129E-17
      6409   1 -3.453396E-04  1.139875E-04  1.139245E-04  2.747209E-06 -5.776160E-07 -7.095568E-10
      6410   1 -3.453397E-04  1.139679E-04  1.139309E-04  2.809204E-06 -1.070264E-06 -5.033462E-09
      6411   1 -3.453396E-04  1.139974E-04  1.139124E-04  2.938752E-06 -1.372506E-06 -4.214920E-09
      6412   1 -3.453397E-04  1.139647E-04  1.139142E-04  3.134940E-06 -1.347981E-06 -2.152778E-08
      6413   1 -3.453396E-04  1.140301E-04  1.138571E-04  3.648026E-06 -6.234958E-07 -3.496902E-08
      6414   1  3.407958E-04 -1.125297E-04 -1.123592E-04  3.648015E-06 -6.234940E-07  3.450317E-08
      6415   1  3.407957E-04 -1.124651E-04 -1.124151E-04  3.134946E-06 -1.347986E-06  2.124792E-08
      6416   1  3.407958E-04 -1.124974E-04 -1.124138E-04  2.938748E-06 -1.372501E-06  4.157249E-09
      6417   1  3.407957E-04 -1.124683E-04 -1.124316E-04  2.809208E-06 -1.070269E-06  4.968557E-09
      6418   1  3.407958E-04 -1.124877E-04 -1.124258E-04  2.747207E-06 -5.776134E-07  6.995988E-10
      6419   1  3.407957E-04 -1.124693E-04 -1.124344E-04  2.724425E-06 -2.867469E-14 -9.238588E-17
      6420   1  3.407958E-04 -1.124877E-04 -1.124258E-04  2.747207E-06  5.776134E-07 -6.995987E-10
      6421   1  3.407957E-04 -1.124683E-04 -1.124316E-04  2.809208E-06  1.070269E-06 -4.968557E-09
      6422   1  3.407958E-04 -1.124974E-04 -1.124138E-04  2.938748E-06  1.372501E-06 -4.157248E-09
      6423   1  3.407957E-04 -1.124651E-04 -1.124151E-04  3.134946E-06  1.347986E-06 -2.124792E-08
      6424   1  3.407958E-04 -1.125297E-04 -1.123592E-04  3.648015E-06  6.234940E-07 -3.450317E-08
      6425   1  2.726366E-04 -8.997749E-05 -9.000281E-05  9.932610E-06 -2.312766E-07 -2.242489E-08
      6426   1  2.726365E-04 -8.995714E-05 -8.996703E-05  8.856097E-06 -6.334148E-07  2.185575E-08
      6427   1  2.726366E-04 -8.997567E-05 -8.994674E-05  8.266722E-06 -7.743479E-07  1.562384E-08
      6428   1  2.726365E-04 -8.998221E-05 -8.994708E-05  7.924962E-06 -6.407652E-07  4.590660E-09
      6429   1  2.726366E-04 -8.997613E-05 -8.994692E-05  7.736566E-06 -3.580872E-07  3.830117E-09
      6430   1  2.726365E-04 -8.998496E-05 -8.994515E-05  7.679059E-06 -2.114698E-14  9.742573E-18
      6431   1  2.726366E-04 -8.997613E-05 -8.994692E-05  7.736566E-06  3.580872E-07 -3.830117E-09
      6432   1  2.726365E-04 -8.998221E-05 -8.994708E-05  7.924962E-06  6.407651E-07 -4.590659E-09
      6433   1  2.726366E-04 -8.997567E-05 -8.994674E-05  8.266722E-06  7.743479E-07 -1.562384E-08
      6434   1  2.726365E-04 -8.995714E-05 -8.996703E-05  8.856097E-06  6.334148E-07 -2.185575E-08
      6435   1  2.726366E-04 -8.997749E-05 -9.000281E-05  9.932610E-06  2.312766E-07  2.242489E-08
      6436   1  2.044775E-04 -6.750842E-05 -6.744232E-05  1.452033E-05 -1.261990E-07  2.389061E-09
      6437   1  2.044774E-04 -6.747760E-05 -6.748639E-05  1.331918E-05 -3.183540E-07 -2.390557E-08
      6438   1  2.044775E-04 -6.746501E-05 -6.748120E-05  1.249380E-05 -4.059870E-07  9.474358E-09
      6439   1  2.044774E-04 -6.748127E-05 -6.746330E-05  1.198339E-05 -3.623562E-07  2.540651E-09
      6440   1  2.044775E-04 -6.748114E-05 -6.746615E-05  1.170198E-05 -2.069254E-07  2.060612E-09
      6441   1  2.044774E-04 -6.748215E-05 -6.746087E-05  1.161084E-05 -1.480887E-14 -3.953209E-16
      6442   1  2.044775E-04 -6.748114E-05 -6.746615E-05  1.170198E-05  2.069254E-07 -2.060611E-09
      6443   1  2.044774E-04 -6.748127E-05 -6.746330E-05  1.198339E-05  3.623562E-07 -2.540652E-09
      6444   1  2.044775E-04 -6.746501E-05 -6.748120E-05  1.249380E-05  4.059870E-07 -9.474359E-09
      6445   1  2.044774E-04 -6.747760E-05 -6.748639E-05  1.331918E-05  3.183540E-07  2.390557E-08
      6446   1  2.044775E-04 -6.750842E-05 -6.744232E-05  1.452033E-05  1.261990E-07 -2.389061E-09
      6447   1  1.363183E-04 -4.499047E-05 -4.499383E-05  1.772537E-05 -5.843176E-08 -9.514374E-09
      6448   1  1.363183E-04 -4.498990E-05 -4.497615E-05  1.645285E-05 -1.613822E-07  7.646348E-10
      6449   1  1.363183E-04 -4.498466E-05 -4.498550E-05  1.553576E-05 -2.068025E-07 -1.813570E-08
      6450   1  1.363183E-04 -4.497784E-05 -4.498671E-05  1.492193E-05 -1.868193E-07  2.808182E-09
      6451   1  1.363183E-04 -4.498740E-05 -4.497583E-05  1.457597E-05 -1.104237E-07 -2.748921E-09
      6452   1  1.363183E-04 -4.498413E-05 -4.498057E-05  1.446381E-05 -9.346527E-15  5.871632E-17
      6453   1  1.363183E-04 -4.498740E-05 -4.497583E-05  1.457597E-05  1.104237E-07  2.748921E-09
      6454   1  1.363183E-04 -4.497784E-05 -4.498671E-05  1.492193E-05  1.868193E-07 -2.808182E-09
      6455   1  1.363183E-04 -4.498466E-05 -4.498550E-05  1.553576E-05  2.068025E-07  1.813570E-08
      6456   1  1.363183E-04 -4.498990E-05 -4.497615E-05  1.645285E-05  1.613822E-07 -7.646350E-10
      6457   1  1.363183E-04 -4.499047E-05 -4.499383E-05  1.772537E-05  5.843176E-08  9.514374E-09
      6458   1  6.815916E-05 -2.250164E-05 -2.248300E-05  1.962261E-05 -2.573106E-08 -1.257843E-09
      6459   1  6.815913E-05 -2.249303E-05 -2.249548E-05  1.832412E-05 -6.642351E-08 -1.840500E-08
      6460   1  6.815915E-05 -2.249065E-05 -2.249208E-05  1.735703E-05 -8.711245E-08 -1.280690E-09
      6461   1  6.815913E-05 -2.249260E-05 -2.249069E-05  1.669890E-05 -7.935302E-08 -1.430390E-08
      6462   1  6.815915E-05 -2.248934E-05 -2.249303E-05  1.631658E-05 -4.673543E-08  2.463593E-10
      6463   1  6.815913E-05 -2.249366E-05 -2.248791E-05  1.619261E-05 -4.494540E-15 -3.918470E-16
      6464   1  6.815915E-05 -2.248934E-05 -2.249303E-05  1.631658E-05  4.673542E-08 -2.463593E-10
      6465   1  6.815913E-05 -2.249260E-05 -2.249069E-05  1.669890E-05  7.935301E-08  1.430390E-08
      6466   1  6.815915E-05 -2.249065E-05 -2.249208E-05  1.735703E-05  8.711244E-08  1.280690E-09
      6467   1  6.815913E-05 -2.249303E-05 -2.249548E-05  1.832412E-05  6.642351E-08  1.840500E-08
      6468   1  6.815916E-05 -2.250164E-05 -2.248300E-05  1.962261E-05  2.573106E-08  1.257843E-09
      6469   1  7.501963E-14 -2.491757E-14 -2.521869E-14  2.025233E-05 -1.710414E-17 -7.394476E-09
      6470   1  7.471129E-14 -2.534084E-14 -2.431001E-14  1.894418E-05 -5.130224E-17 -3.112762E-09
      6471   1  7.538067E-14 -2.640249E-14 -2.506276E-14  1.796588E-05 -9.827446E-17 -1.967989E-08
      6472   1  7.520579E-14 -2.715189E-14 -2.411721E-14  1.729130E-05 -8.384059E-17 -1.207251E-09
      6473   1  7.568501E-14 -2.748496E-14 -2.508627E-14  1.690023E-05 -6.083253E-17 -8.176030E-09
      6474   1  7.537710E-14 -2.775558E-14 -2.410686E-14  1.677111E-05  1.138730E-18 -5.203154E-17
      6475   1  7.565574E-14 -2.755435E-14 -2.506683E-14  1.690023E-05  4.988431E-17  8.176030E-09
      6476   1  7.519029E-14 -2.732536E-14 -2.407048E-14  1.729130E-05  6.411192E-17  1.207251E-09
      6477   1  7.537731E-14 -2.674944E-14 -2.504995E-14  1.796588E-05  7.465240E-17  1.967989E-08
      6478   1  7.473200E-14 -2.597228E-14 -2.421910E-14  1.894418E-05  6.083391E-17  3.112762E-09
      6479   1  7.508371E-14 -2.570860E-14 -2.512681E-14  2.025233E-05  2.032201E-17  7.394476E-09
      6480   1 -6.815916E-05  2.250164E-05  2.248300E-05  1.962261E-05  2.573106E-08 -1.257843E-09
      6481   1 -6.815913E-05  2.249303E-05  2.249548E-05  1.832412E-05  6.642351E-08 -1.840500E-08
      6482   1 -6.815915E-05  2.249065E-05  2.249208E-05  1.735703E-05  8.711245E-08 -1.280690E-09
      6483   1 -6.815913E-05  2.249260E-05  2.249069E-05  1.669890E-05  7.935302E-08 -1.430390E-08
      6484   1 -6.815915E-05  2.248934E-05  2.249303E-05  1.631658E-05  4.673543E-08  2.463592E-10
      6485   1 -6.815913E-05  2.249366E-05  2.248791E-05  1.619261E-05  4.513848E-15 -3.613951E-16
      6486   1 -6.815915E-05  2.248934E-05  2.249303E-05  1.631658E-05 -4.673542E-08 -2.463592E-10
      6487   1 -6.815913E-05  2.249260E-05  2.249069E-05  1.669890E-05 -7.935301E-08  1.430390E-08
      6488   1 -6.815915E-05  2.249065E-05  2.249208E-05  1.735703E-05 -8.711244E-08  1.280690E-09
      6489   1 -6.815913E-05  2.249303E-05  2.249548E-05  1.832412E-05 -6.642351E-08  1.840500E-08
      6490   1 -6.815916E-05  2.250164E-05  2.248300E-05  1.962261E-05 -2.573106E-08  1.257843E-09
      6491   1 -1.363183E-04  4.499047E-05  4.499383E-05  1.772537E-05  5.843176E-08 -9.514374E-09
      6492   1 -1.363183E-04  4.498990E-05  4.497615E-05  1.645285E-05  1.613822E-07  7.646349E-10
      6493   1 -1.363183E-04  4.498466E-05  4.498550E-05  1.553576E-05  2.068025E-07 -1.813570E-08
      6494   1 -1.363183E-04  4.497784E-05  4.498671E-05  1.492193E-05  1.868193E-07  2.808182E-09
      6495   1 -1.363183E-04  4.498740E-05  4.497583E-05  1.457597E-05  1.104237E-07 -2.748921E-09
      6496   1 -1.363183E-04  4.498413E-05  4.498057E-05  1.446381E-05  9.316811E-15  3.624454E-18
      6497   1 -1.363183E-04  4.498740E-05  4.497583E-05  1.457597E-05 -1.104237E-07  2.748921E-09
      6498   1 -1.363183E-04  4.497784E-05  4.498671E-05  1.492193E-05 -1.868193E-07 -2.808182E-09
      6499   1 -1.363183E-04  4.498466E-05  4.498550E-05  1.553576E-05 -2.068025E-07  1.813570E-08
      6500   1 -1.363183E-04  4.498990E-05  4.497615E-05  1.645285E-05 -1.613822E-07 -7.646352E-10
      6501   1 -1.363183E-04  4.499047E-05  4.499383E-05  1.772537E-05 -5.843176E-08  9.514374E-09
      6502   1 -2.044775E-04  6.750842E-05  6.744232E-05  1.452033E-05  1.261990E-07  2.389062E-09
      6503   1 -2.044774E-04  6.747760E-05  6.748639E-05  1.331918E-05  3.183540E-07 -2.390556E-08
      6504   1 -2.044775E-04  6.746501E-05  6.748120E-05  1.249380E-05  4.059870E-07  9.474358E-09
      6505   1 -2.044774E-04  6.748127E-05  6.746330E-05  1.198339E-05  3.623562E-07  2.540651E-09
      6506   1 -2.044775E-04  6.748114E-05  6.746615E-05  1.170198E-05  2.069254E-07  2.060612E-09
      6507   1 -2.044774E-04  6.748215E-05  6.746087E-05  1.161084E-05  1.480374E-14 -3.909226E-16
      6508   1 -2.044775E-04  6.748114E-05  6.746615E-05  1.170198E-05 -2.069254E-07 -2.060611E-09
      6509   1 -2.044774E-04  6.748127E-05  6.746330E-05  1.198339E-05 -3.623562E-07 -2.540652E-09
      6510   1 -2.044775E-04  6.746501E-05  6.748120E-05  1.249380E-05 -4.059870E-07 -9.474359E-09
      6511   1 -2.044774E-04  6.747760E-05  6.748639E-05  1.331918E-05 -3.183540E-07  2.390556E-08
      6512   1 -2.044775E-04  6.750842E-05  6.744232E-05  1.452033E-05 -1.261990E-07 -2.389062E-09
      6513   1 -2.726366E-04  8.997749E-05  9.000281E-05  9.932610E-06  2.312766E-07 -2.242489E-08
      6514   1 -2.726365E-04  8.995714E-05  8.996703E-05  8.856097E-06  6.334148E-07  2.185575E-08
      6515   1 -2.726366E-04  8.997567E-05  8.994674E-05  8.266722E-06  7.743479E-07  1.562384E-08
      6516   1 -2.726365E-04  8.998221E-05  8.994708E-05  7.924962E-06  6.407652E-07  4.590660E-09
      6517   1 -2.726366E-04  8.997613E-05  8.994692E-05  7.736566E-06  3.580872E-07  3.830117E-09
      6518   1 -2.726365E-04  8.998496E-05  8.994515E-05  7.679059E-06  2.114347E-14 -4.915078E-17
      6519   1 -2.726366E-04  8.997613E-05  8.994692E-05  7.736566E-06 -3.580872E-07 -3.830117E-09
      6520   1 -2.726365E-04  8.998221E-05  8.994708E-05  7.924962E-06 -6.407651E-07 -4.590659E-09
      6521   1 -2.726366E-04  8.997567E-05  8.994674E-05  8.266722E-06 -7.743479E-07 -1.562384E-08
      6522   1 -2.726365E-04  8.995714E-05  8.996703E-05  8.856097E-06 -6.334148E-07 -2.185575E-08
      6523   1 -2.726366E-04  8.997749E-05  9.000281E-05  9.932610E-06 -2.312766E-07  2.242489E-08
      6524   1 -3.407958E-04  1.125297E-04  1.123592E-04  3.648015E-06  6.234940E-07  3.450317E-08
      6525   1 -3.407957E-04  1.124651E-04  1.124151E-04  3.134946E-06  1.347986E-06  2.124792E-08
      6526   1 -3.407958E-04  1.124974E-04  1.124138E-04  2.938748E-06  1.372501E-06  4.157249E-09
      6527   1 -3.407957E-04  1.124683E-04  1.124316E-04  2.809208E-06  1.070269E-06  4.968557E-09
      6528   1 -3.407958E-04  1.124877E-04  1.124258E-04  2.747207E-06  5.776134E-07  6.995988E-10
      6529   1 -3.407957E-04  1.124693E-04  1.124344E-04  2.724425E-06  2.862405E-14 -1.083118E-16
      6530   1 -3.407958E-04  1.124877E-04  1.124258E-04  2.747207E-06 -5.776134E-07 -6.995987E-10
      6531   1 -3.407957E-04  1.124683E-04  1.124316E-04  2.809208E-06 -1.070269E-06 -4.968557E-09
      6532   1 -3.407958E-04  1.124974E-04  1.124138E-04  2.938748E-06 -1.372501E-06 -4.157248E-09
      6533   1 -3.407957E-04  1.124651E-04  1.124151E-04  3.134946E-06 -1.347986E-06 -2.124792E-08
      6534   1 -3.407958E-04  1.125297E-04  1.123592E-04  3.648015E-06 -6.234940E-07 -3.450317E-08
      6535   1  3.362517E-04 -1.110293E-04 -1.108609E-04  3.648024E-06 -6.234955E-07  3.404781E-08
      6536   1  3.362518E-04 -1.109656E-04 -1.109164E-04  3.134941E-06 -1.347982E-06  2.096184E-08
      6537   1  3.362517E-04 -1.109975E-04 -1.109147E-04  2.938752E-06 -1.372505E-06  4.103624E-09
      6538   1  3.362518E-04 -1.109687E-04 -1.109327E-04  2.809205E-06 -1.070265E-06  4.901228E-09
      6539   1  3.362517E-04 -1.109878E-04 -1.109266E-04  2.747209E-06 -5.776156E-07  6.907784E-10
      6540   1  3.362518E-04 -1.109697E-04 -1.109355E-04  2.724422E-06 -2.856155E-14 -6.198926E-17
      6541   1  3.362517E-04 -1.109878E-04 -1.109266E-04  2.747209E-06  5.776155E-07 -6.907784E-10
      6542   1  3.362518E-04 -1.109687E-04 -1.109327E-04  2.809205E-06  1.070265E-06 -4.901229E-09
      6543   1  3.362517E-04 -1.109975E-04 -1.109147E-04  2.938752E-06  1.372505E-06 -4.103624E-09
      6544   1  3.362518E-04 -1.109656E-04 -1.109164E-04  3.134941E-06  1.347982E-06 -2.096184E-08
      6545   1  3.362517E-04 -1.110293E-04 -1.108609E-04  3.648024E-06  6.234955E-07 -3.404781E-08
      6546   1  2.690014E-04 -8.877780E-05 -8.880257E-05  9.932602E-06 -2.312788E-07 -2.212706E-08
      6547   1  2.690015E-04 -8.875771E-05 -8.876767E-05  8.856099E-06 -6.334104E-07  2.156437E-08
      6548   1  2.690014E-04 -8.877600E-05 -8.874726E-05  8.266722E-06 -7.743525E-07  1.541561E-08
      6549   1  2.690014E-04 -8.878245E-05 -8.874796E-05  7.924963E-06 -6.407615E-07  4.529347E-09
      6550   1  2.690014E-04 -8.877644E-05 -8.874745E-05  7.736566E-06 -3.580892E-07  3.779111E-09
      6551   1  2.690014E-04 -8.878516E-05 -8.874606E-05  7.679060E-06 -2.109051E-14 -2.726599E-17
      6552   1  2.690014E-04 -8.877644E-05 -8.874745E-05  7.736566E-06  3.580892E-07 -3.779111E-09
      6553   1  2.690014E-04 -8.878245E-05 -8.874796E-05  7.924963E-06  6.407614E-07 -4.529347E-09
      6554   1  2.690014E-04 -8.877600E-05 -8.874726E-05  8.266721E-06  7.743525E-07 -1.541561E-08
      6555   1  2.690015E-04 -8.875771E-05 -8.876767E-05  8.856099E-06  6.334104E-07 -2.156437E-08
      6556   1  2.690014E-04 -8.877780E-05 -8.880257E-05  9.932602E-06  2.312788E-07  2.212706E-08
      6557   1  2.017510E-04 -6.660830E-05 -6.654293E-05  1.452033E-05 -1.262000E-07  2.357817E-09
      6558   1  2.017511E-04 -6.657790E-05 -6.658672E-05  1.331918E-05 -3.183511E-07 -2.358654E-08
      6559   1  2.017510E-04 -6.656548E-05 -6.658130E-05  1.249380E-05 -4.059904E-07  9.347828E-09
      6560   1  2.017511E-04 -6.658152E-05 -6.656393E-05  1.198339E-05 -3.623533E-07  2.506918E-09
      6561   1  2.017510E-04 -6.658139E-05 -6.656646E-05  1.170197E-05 -2.069270E-07  2.033066E-09
      6562   1  2.017511E-04 -6.658239E-05 -6.656153E-05  1.161084E-05 -1.474571E-14 -3.824684E-16
      6563   1  2.017510E-04 -6.658139E-05 -6.656646E-05  1.170197E-05  2.069270E-07 -2.033066E-09
      6564   1  2.017511E-04 -6.658152E-05 -6.656393E-05  1.198339E-05  3.623533E-07 -2.506918E-09
      6565   1  2.017510E-04 -6.656548E-05 -6.658130E-05  1.249380E-05  4.059904E-07 -9.347828E-09
      6566   1  2.017511E-04 -6.657790E-05 -6.658672E-05  1.331918E-05  3.183511E-07  2.358654E-08
      6567   1  2.017510E-04 -6.660830E-05 -6.654293E-05  1.452033E-05  1.262000E-07 -2.357817E-09
      6568   1  1.345007E-04 -4.439060E-05 -4.439380E-05  1.772536E-05 -5.843285E-08 -9.387988E-09
      6569   1  1.345007E-04 -4.439003E-05 -4.437657E-05  1.645285E-05 -1.613800E-07  7.542335E-10
      6570   1  1.345007E-04 -4.438487E-05 -4.438559E-05  1.553576E-05 -2.068048E-07 -1.789386E-08
      6571   1  1.345007E-04 -4.437813E-05 -4.438698E-05  1.492194E-05 -1.868175E-07  2.770753E-09
      6572   1  1.345007E-04 -4.438757E-05 -4.437605E-05  1.457597E-05 -1.104247E-07 -2.712283E-09
      6573   1  1.345007E-04 -4.438435E-05 -4.438092E-05  1.446381E-05 -9.291834E-15  8.374615E-17
      6574   1  1.345007E-04 -4.438757E-05 -4.437605E-05  1.457597E-05  1.104247E-07  2.712282E-09
      6575   1  1.345007E-04 -4.437813E-05 -4.438698E-05  1.492194E-05  1.868174E-07 -2.770753E-09
      6576   1  1.345007E-04 -4.438487E-05 -4.438559E-05  1.553576E-05  2.068048E-07  1.789386E-08
      6577   1  1.345007E-04 -4.439003E-05 -4.437657E-05  1.645285E-05  1.613800E-07 -7.542337E-10
      6578   1  1.345007E-04 -4.439060E-05 -4.439380E-05  1.772536E-05  5.843284E-08  9.387988E-09
      6579   1  6.725034E-05 -2.220161E-05 -2.218317E-05  1.962261E-05 -2.573142E-08 -1.240721E-09
      6580   1  6.725036E-05 -2.219312E-05 -2.219560E-05  1.832412E-05 -6.642249E-08 -1.815930E-08
      6581   1  6.725035E-05 -2.219078E-05 -2.219213E-05  1.735703E-05 -8.711364E-08 -1.263722E-09
      6582   1  6.725036E-05 -2.219270E-05 -2.219086E-05  1.669890E-05 -7.935204E-08 -1.411313E-08
      6583   1  6.725035E-05 -2.218948E-05 -2.219307E-05  1.631658E-05 -4.673596E-08  2.430516E-10
      6584   1  6.725036E-05 -2.219374E-05 -2.218812E-05  1.619261E-05 -4.495459E-15 -3.571961E-16
      6585   1  6.725035E-05 -2.218948E-05 -2.219307E-05  1.631658E-05  4.673596E-08 -2.430516E-10
      6586   1  6.725036E-05 -2.219270E-05 -2.219086E-05  1.669890E-05  7.935204E-08  1.411313E-08
      6587   1  6.725035E-05 -2.219078E-05 -2.219213E-05  1.735703E-05  8.711363E-08  1.263722E-09
      6588   1  6.725036E-05 -2.219312E-05 -2.219560E-05  1.832412E-05  6.642248E-08  1.815930E-08
      6589   1  6.725034E-05 -2.220161E-05 -2.218317E-05  1.962261E-05  2.573142E-08  1.240721E-09
      6590   1  7.317888E-14 -2.399470E-14 -2.374219E-14  2.025232E-05 -2.021868E-17 -7.296254E-09
      6591   1  7.351834E-14 -2.303713E-14 -2.508518E-14  1.894418E-05 -1.092732E-16 -3.071461E-09
      6592   1  7.266681E-14 -2.205180E-14 -2.366073E-14  1.796588E-05 -9.032802E-17 -1.941751E-08
      6593   1  7.282532E-14 -2.123302E-14 -2.484086E-14  1.729130E-05 -1.065466E-16 -1.191104E-09
      6594   1  7.222532E-14 -2.068484E-14 -2.373567E-14  1.690023E-05 -6.641861E-17 -8.067049E-09
      6595   1  7.252033E-14 -2.051831E-14 -2.477562E-14  1.677112E-05 -4.199166E-18 -8.875412E-17
      6596   1  7.213089E-14 -2.055994E-14 -2.367666E-14  1.690023E-05  8.301008E-17  8.067048E-09
      6597   1  7.266594E-14 -2.094852E-14 -2.483519E-14  1.729130E-05  9.967757E-17  1.191103E-09
      6598   1  7.239608E-14 -2.153833E-14 -2.365992E-14  1.796588E-05  7.729684E-17  1.941751E-08
      6599   1  7.309149E-14 -2.226691E-14 -2.496607E-14  1.894418E-05  7.680725E-17  3.071460E-09
      6600   1  7.263699E-14 -2.291223E-14 -2.364135E-14  2.025232E-05  1.997643E-17  7.296254E-09
      6601   1 -6.725034E-05  2.220161E-05  2.218317E-05  1.962261E-05  2.573142E-08 -1.240721E-09
      6602   1 -6.725036E-05  2.219312E-05  2.219560E-05  1.832412E-05  6.642249E-08 -1.815930E-08
      6603   1 -6.725035E-05  2.219078E-05  2.219213E-05  1.735703E-05  8.711364E-08 -1.263722E-09
      6604   1 -6.725036E-05  2.219270E-05  2.219086E-05  1.669890E-05  7.935204E-08 -1.411313E-08
      6605   1 -6.725035E-05  2.218948E-05  2.219307E-05  1.631658E-05  4.673596E-08  2.430516E-10
      6606   1 -6.725036E-05  2.219374E-05  2.218812E-05  1.619261E-05  4.484667E-15 -3.180748E-16
      6607   1 -6.725035E-05  2.218948E-05  2.219307E-05  1.631658E-05 -4.673596E-08 -2.430516E-10
      6608   1 -6.725036E-05  2.219270E-05  2.219086E-05  1.669890E-05 -7.935203E-08  1.411313E-08
      6609   1 -6.725035E-05  2.219078E-05  2.219213E-05  1.735703E-05 -8.711363E-08  1.263722E-09
      6610   1 -6.725036E-05  2.219312E-05  2.219560E-05  1.832412E-05 -6.642248E-08  1.815930E-08
      6611   1 -6.725034E-05  2.220161E-05  2.218317E-05  1.962261E-05 -2.573142E-08  1.240721E-09
      6612   1 -1.345007E-04  4.439060E-05  4.439380E-05  1.772536E-05  5.843285E-08 -9.387988E-09
      6613   1 -1.345007E-04  4.439003E-05  4.437657E-05  1.645285E-05  1.613800E-07  7.542335E-10
      6614   1 -1.345007E-04  4.438487E-05  4.438559E-05  1.553576E-05  2.068048E-07 -1.789386E-08
      6615   1 -1.345007E-04  4.437813E-05  4.438698E-05  1.492194E-05  1.868175E-07  2.770753E-09
      6616   1 -1.345007E-04  4.438757E-05  4.437605E-05  1.457597E-05  1.104247E-07 -2.712283E-09
      6617   1 -1.345007E-04  4.438435E-05  4.438092E-05  1.446381E-05  9.276239E-15  5.571063E-17
      6618   1 -1.345007E-04  4.438757E-05  4.437605E-05  1.457597E-05 -1.104247E-07  2.712282E-09
      6619   1 -1.345007E-04  4.437813E-05  4.438698E-05  1.492194E-05 -1.868174E-07 -2.770753E-09
      6620   1 -1.345007E-04  4.438487E-05  4.438559E-05  1.553576E-05 -2.068048E-07  1.789386E-08
      6621   1 -1.345007E-04  4.439003E-05  4.437657E-05  1.645285E-05 -1.613800E-07 -7.542338E-10
      6622   1 -1.345007E-04  4.439060E-05  4.439380E-05  1.772536E-05 -5.843284E-08  9.387988E-09
      6623   1 -2.017510E-04  6.660830E-05  6.654293E-05  1.452033E-05  1.262000E-07  2.357817E-09
      6624   1 -2.017511E-04  6.657790E-05  6.658672E-05  1.331918E-05  3.183511E-07 -2.358654E-08
      6625   1 -2.017510E-04  6.656548E-05  6.658130E-05  1.249380E-05  4.059904E-07  9.347828E-09
      6626   1 -2.017511E-04  6.658152E-05  6.656393E-05  1.198339E-05  3.623533E-07  2.506918E-09
      6627   1 -2.017510E-04  6.658139E-05  6.656646E-05  1.170197E-05  2.069270E-07  2.033066E-09
      6628   1 -2.017511E-04  6.658239E-05  6.656153E-05  1.161084E-05  1.473182E-14 -4.006466E-16
      6629   1 -2.017510E-04  6.658139E-05  6.656646E-05  1.170197E-05 -2.069270E-07 -2.033066E-09
      6630   1 -2.017511E-04  6.658152E-05  6.656393E-05  1.198339E-05 -3.623533E-07 -2.506918E-09
      6631   1 -2.017510E-04  6.656548E-05  6.658130E-05  1.249380E-05 -4.059904E-07 -9.347828E-09
      6632   1 -2.017511E-04  6.657790E-05  6.658672E-05  1.331918E-05 -3.183511E-07  2.358654E-08
      6633   1 -2.017510E-04  6.660830E-05  6.654293E-05  1.452033E-05 -1.262000E-07 -2.357817E-09
      6634   1 -2.690014E-04  8.877780E-05  8.880257E-05  9.932602E-06  2.312788E-07 -2.212706E-08
      6635   1 -2.690015E-04  8.875771E-05  8.876767E-05  8.856099E-06  6.334104E-07  2.156437E-08
      6636   1 -2.690014E-04  8.877600E-05  8.874726E-05  8.266722E-06  7.743525E-07  1.541561E-08
      6637   1 -2.690014E-04  8.878245E-05  8.874796E-05  7.924963E-06  6.407615E-07  4.529347E-09
      6638   1 -2.690014E-04  8.877644E-05  8.874745E-05  7.736566E-06  3.580892E-07  3.779110E-09
      6639   1 -2.690014E-04  8.878516E-05  8.874606E-05  7.679060E-06  2.105111E-14  1.379393E-17
      6640   1 -2.690014E-04  8.877644E-05  8.874745E-05  7.736566E-06 -3.580892E-07 -3.779111E-09
      6641   1 -2.690014E-04  8.878245E-05  8.874796E-05  7.924963E-06 -6.407614E-07 -4.529347E-09
      6642   1 -2.690014E-04  8.877600E-05  8.874726E-05  8.266721E-06 -7.743525E-07 -1.541561E-08
      6643   1 -2.690015E-04  8.875771E-05  8.876767E-05  8.856099E-06 -6.334104E-07 -2.156437E-08
      6644   1 -2.690014E-04  8.877780E-05  8.880257E-05  9.932602E-06 -2.312788E-07  2.212706E-08
      6645   1 -3.362517E-04  1.110293E-04  1.108609E-04  3.648024E-06  6.234955E-07  3.404781E-08
      6646   1 -3.362518E-04  1.109656E-04  1.109164E-04  3.134941E-06  1.347982E-06  2.096184E-08
      6647   1 -3.362517E-04  1.109975E-04  1.109147E-04  2.938752E-06  1.372505E-06  4.103624E-09
      6648   1 -3.362518E-04  1.109687E-04  1.109327E-04  2.809205E-06  1.070265E-06  4.901228E-09
      6649   1 -3.362517E-04  1.109878E-04  1.109266E-04  2.747209E-06  5.776156E-07  6.907783E-10
      6650   1 -3.362518E-04  1.109697E-04  1.109355E-04  2.724422E-06  2.853929E-14 -1.833488E-17
      6651   1 -3.362517E-04  1.109878E-04  1.109266E-04  2.747209E-06 -5.776155E-07 -6.907784E-10
      6652   1 -3.362518E-04  1.109687E-04  1.109327E-04  2.809205E-06 -1.070265E-06 -4.901229E-09
      6653   1 -3.362517E-04  1.109975E-04  1.109147E-04  2.938752E-06 -1.372505E-06 -4.103624E-09
      6654   1 -3.362518E-04  1.109656E-04  1.109164E-04  3.134941E-06 -1.347982E-06 -2.096184E-08
      6655   1 -3.362517E-04  1.110293E-04  1.108609E-04  3.648024E-06 -6.234955E-07 -3.404781E-08
      6656   1  3.317079E-04 -1.095290E-04 -1.093629E-04  3.648017E-06 -6.234943E-07  3.358388E-08
      6657   1  3.317078E-04 -1.094661E-04 -1.094174E-04  3.134945E-06 -1.347985E-06  2.068084E-08
      6658   1  3.317079E-04 -1.094975E-04 -1.094160E-04  2.938749E-06 -1.372501E-06  4.046697E-09
      6659   1  3.317078E-04 -1.094691E-04 -1.094334E-04  2.809207E-06 -1.070268E-06  4.835878E-09
      6660   1  3.317079E-04 -1.094880E-04 -1.094277E-04  2.747207E-06 -5.776138E-07  6.810294E-10
      6661   1  3.317078E-04 -1.094701E-04 -1.094362E-04  2.724424E-06 -2.850492E-14  1.270465E-17
      6662   1  3.317079E-04 -1.094880E-04 -1.094277E-04  2.747207E-06  5.776138E-07 -6.810294E-10
      6663   1  3.317078E-04 -1.094691E-04 -1.094334E-04  2.809207E-06  1.070268E-06 -4.835878E-09
      6664   1  3.317079E-04 -1.094975E-04 -1.094160E-04  2.938749E-06  1.372501E-06 -4.046696E-09
      6665   1  3.317078E-04 -1.094661E-04 -1.094174E-04  3.134945E-06  1.347985E-06 -2.068084E-08
      6666   1  3.317079E-04 -1.095290E-04 -1.093629E-04  3.648017E-06  6.234942E-07 -3.358388E-08
      6667   1  2.653663E-04 -8.757810E-05 -8.760270E-05  9.932609E-06 -2.312770E-07 -2.182709E-08
      6668   1  2.653662E-04 -8.755829E-05 -8.756795E-05  8.856097E-06 -6.334140E-07  2.127294E-08
      6669   1  2.653663E-04 -8.757632E-05 -8.754813E-05  8.266722E-06 -7.743488E-07  1.520722E-08
      6670   1  2.653662E-04 -8.758269E-05 -8.754852E-05  7.924962E-06 -6.407645E-07  4.468225E-09
      6671   1  2.653663E-04 -8.757676E-05 -8.754831E-05  7.736566E-06 -3.580876E-07  3.727991E-09
      6672   1  2.653662E-04 -8.758536E-05 -8.754664E-05  7.679059E-06 -2.104639E-14 -2.552195E-17
      6673   1  2.653663E-04 -8.757676E-05 -8.754831E-05  7.736566E-06  3.580875E-07 -3.727992E-09
      6674   1  2.653662E-04 -8.758269E-05 -8.754852E-05  7.924962E-06  6.407644E-07 -4.468225E-09
      6675   1  2.653663E-04 -8.757632E-05 -8.754813E-05  8.266722E-06  7.743487E-07 -1.520722E-08
      6676   1  2.653662E-04 -8.755829E-05 -8.756795E-05  8.856097E-06  6.334140E-07 -2.127294E-08
      6677   1  2.653663E-04 -8.757810E-05 -8.760270E-05  9.932609E-06  2.312770E-07  2.182709E-08
      6678   1  1.990247E-04 -6.570819E-05 -6.564383E-05  1.452033E-05 -1.261992E-07  2.325458E-09
      6679   1  1.990247E-04 -6.567819E-05 -6.568678E-05  1.331918E-05 -3.183535E-07 -2.326803E-08
      6680   1  1.990247E-04 -6.566594E-05 -6.568167E-05  1.249380E-05 -4.059876E-07  9.221674E-09
      6681   1  1.990247E-04 -6.568177E-05 -6.566430E-05  1.198339E-05 -3.623557E-07  2.472925E-09
      6682   1  1.990247E-04 -6.568164E-05 -6.566703E-05  1.170198E-05 -2.069257E-07  2.005650E-09
      6683   1  1.990247E-04 -6.568262E-05 -6.566194E-05  1.161084E-05 -1.474379E-14 -3.972513E-16
      6684   1  1.990247E-04 -6.568164E-05 -6.566703E-05  1.170198E-05  2.069257E-07 -2.005650E-09
      6685   1  1.990247E-04 -6.568177E-05 -6.566430E-05  1.198339E-05  3.623556E-07 -2.472926E-09
      6686   1  1.990247E-04 -6.566594E-05 -6.568167E-05  1.249380E-05  4.059876E-07 -9.221675E-09
      6687   1  1.990247E-04 -6.567819E-05 -6.568678E-05  1.331918E-05  3.183535E-07  2.326803E-08
      6688   1  1.990247E-04 -6.570819E-05 -6.564383E-05  1.452033E-05  1.261992E-07 -2.325459E-09
      6689   1  1.326832E-04 -4.379072E-05 -4.379397E-05  1.772537E-05 -5.843196E-08 -9.260740E-09
      6690   1  1.326831E-04 -4.379017E-05 -4.377681E-05  1.645285E-05 -1.613818E-07  7.442089E-10
      6691   1  1.326831E-04 -4.378507E-05 -4.378587E-05  1.553576E-05 -2.068029E-07 -1.765208E-08
      6692   1  1.326831E-04 -4.377843E-05 -4.378708E-05  1.492193E-05 -1.868190E-07  2.733300E-09
      6693   1  1.326831E-04 -4.378774E-05 -4.377645E-05  1.457597E-05 -1.104239E-07 -2.675619E-09
      6694   1  1.326831E-04 -4.378456E-05 -4.378110E-05  1.446381E-05 -9.288381E-15 -2.799444E-18
      6695   1  1.326831E-04 -4.378774E-05 -4.377645E-05  1.457597E-05  1.104239E-07  2.675618E-09
      6696   1  1.326831E-04 -4.377843E-05 -4.378708E-05  1.492193E-05  1.868190E-07 -2.733300E-09
      6697   1  1.326831E-04 -4.378507E-05 -4.378587E-05  1.553576E-05  2.068029E-07  1.765208E-08
      6698   1  1.326831E-04 -4.379017E-05 -4.377681E-05  1.645285E-05  1.613818E-07 -7.442092E-10
      6699   1  1.326832E-04 -4.379072E-05 -4.379397E-05  1.772537E-05  5.843195E-08  9.260740E-09
      6700   1  6.634158E-05 -2.190159E-05 -2.188345E-05  1.962261E-05 -2.573113E-08 -1.224238E-09
      6701   1  6.634156E-05 -2.189322E-05 -2.189561E-05  1.832412E-05 -6.642333E-08 -1.791415E-08
      6702   1  6.634157E-05 -2.189090E-05 -2.189228E-05  1.735703E-05 -8.711266E-08 -1.246556E-09
      6703   1  6.634156E-05 -2.189280E-05 -2.189094E-05  1.669890E-05 -7.935284E-08 -1.392245E-08
      6704   1  6.634157E-05 -2.188962E-05 -2.189321E-05  1.631658E-05 -4.673552E-08  2.397864E-10
      6705   1  6.634156E-05 -2.189383E-05 -2.188824E-05  1.619261E-05 -4.495410E-15 -2.599609E-16
      6706   1  6.634157E-05 -2.188962E-05 -2.189321E-05  1.631658E-05  4.673551E-08 -2.397865E-10
      6707   1  6.634156E-05 -2.189280E-05 -2.189094E-05  1.669890E-05  7.935283E-08  1.392245E-08
      6708   1  6.634157E-05 -2.189090E-05 -2.189228E-05  1.735703E-05  8.711266E-08  1.246555E-09
      6709   1  6.634156E-05 -2.189322E-05 -2.189561E-05  1.832412E-05  6.642332E-08  1.791415E-08
      6710   1  6.634158E-05 -2.190159E-05 -2.188345E-05  1.962261E-05  2.573113E-08  1.224238E-09
      6711   1  7.320099E-14 -2.433470E-14 -2.481044E-14  2.025233E-05 -2.673998E-17 -7.197356E-09
      6712   1  7.277566E-14 -2.517431E-14 -2.340347E-14  1.894418E-05 -3.146304E-17 -3.029789E-09
      6713   1  7.376662E-14 -2.668699E-14 -2.460573E-14  1.796588E-05 -9.252395E-17 -1.915509E-08
      6714   1  7.354360E-14 -2.765843E-14 -2.329710E-14  1.729130E-05 -6.722181E-17 -1.175048E-09
      6715   1  7.422405E-14 -2.832456E-14 -2.460720E-14  1.690023E-05 -5.215394E-17 -7.958008E-09
      6716   1  7.382430E-14 -2.865763E-14 -2.322958E-14  1.677111E-05 -1.604492E-18  6.561011E-17
      6717   1  7.423673E-14 -2.844947E-14 -2.455679E-14  1.690023E-05  4.188536E-17  7.958007E-09
      6718   1  7.353677E-14 -2.779721E-14 -2.329470E-14  1.729130E-05  4.754057E-17  1.175048E-09
      6719   1  7.379264E-14 -2.714495E-14 -2.457658E-14  1.796588E-05  8.270684E-17  1.915509E-08
      6720   1  7.291498E-14 -2.616657E-14 -2.335263E-14  1.894418E-05  5.173508E-17  3.029789E-09
      6721   1  7.340417E-14 -2.563227E-14 -2.469068E-14  2.025233E-05  8.538092E-19  7.197356E-09
      6722   1 -6.634158E-05  2.190159E-05  2.188345E-05  1.962261E-05  2.573113E-08 -1.224238E-09
      6723   1 -6.634156E-05  2.189322E-05  2.189561E-05  1.832412E-05  6.642333E-08 -1.791415E-08
      6724   1 -6.634157E-05  2.189090E-05  2.189228E-05  1.735703E-05  8.711266E-08 -1.246556E-09
      6725   1 -6.634156E-05  2.189280E-05  2.189094E-05  1.669890E-05  7.935284E-08 -1.392245E-08
      6726   1 -6.634157E-05  2.188962E-05  2.189320E-05  1.631658E-05  4.673552E-08  2.397863E-10
      6727   1 -6.634156E-05  2.189383E-05  2.188824E-05  1.619261E-05  4.495050E-15 -3.445836E-16
      6728   1 -6.634157E-05  2.188962E-05  2.189320E-05  1.631658E-05 -4.673551E-08 -2.397864E-10
      6729   1 -6.634156E-05  2.189280E-05  2.189094E-05  1.669890E-05 -7.935283E-08  1.392245E-08
      6730   1 -6.634157E-05  2.189090E-05  2.189228E-05  1.735703E-05 -8.711266E-08  1.246555E-09
      6731   1 -6.634156E-05  2.189322E-05  2.189561E-05  1.832412E-05 -6.642332E-08  1.791415E-08
      6732   1 -6.634158E-05  2.190159E-05  2.188345E-05  1.962261E-05 -2.573113E-08  1.224238E-09
      6733   1 -1.326832E-04  4.379072E-05  4.379397E-05  1.772537E-05  5.843196E-08 -9.260740E-09
      6734   1 -1.326831E-04  4.379017E-05  4.377681E-05  1.645285E-05  1.613818E-07  7.442091E-10
      6735   1 -1.326831E-04  4.378507E-05  4.378587E-05  1.553576E-05  2.068029E-07 -1.765208E-08
      6736   1 -1.326831E-04  4.377843E-05  4.378708E-05  1.492193E-05  1.868190E-07  2.733300E-09
      6737   1 -1.326831E-04  4.378774E-05  4.377645E-05  1.457597E-05  1.104239E-07 -2.675619E-09
      6738   1 -1.326831E-04  4.378456E-05  4.378110E-05  1.446381E-05  9.298784E-15  1.044544E-16
      6739   1 -1.326831E-04  4.378774E-05  4.377645E-05  1.457597E-05 -1.104239E-07  2.675618E-09
      6740   1 -1.326831E-04  4.377843E-05  4.378708E-05  1.492193E-05 -1.868190E-07 -2.733300E-09
      6741   1 -1.326831E-04  4.378507E-05  4.378587E-05  1.553576E-05 -2.068029E-07  1.765208E-08
      6742   1 -1.326831E-04  4.379017E-05  4.377681E-05  1.645285E-05 -1.613818E-07 -7.442093E-10
      6743   1 -1.326832E-04  4.379072E-05  4.379397E-05  1.772537E-05 -5.843195E-08  9.260740E-09
      6744   1 -1.990247E-04  6.570819E-05  6.564383E-05  1.452033E-05  1.261992E-07  2.325459E-09
      6745   1 -1.990247E-04  6.567819E-05  6.568678E-05  1.331918E-05  3.183535E-07 -2.326803E-08
      6746   1 -1.990247E-04  6.566594E-05  6.568167E-05  1.249380E-05  4.059876E-07  9.221674E-09
      6747   1 -1.990247E-04  6.568177E-05  6.566430E-05  1.198339E-05  3.623557E-07  2.472925E-09
      6748   1 -1.990247E-04  6.568164E-05  6.566703E-05  1.170198E-05  2.069257E-07  2.005650E-09
      6749   1 -1.990247E-04  6.568262E-05  6.566194E-05  1.161084E-05  1.472573E-14 -3.772329E-16
      6750   1 -1.990247E-04  6.568164E-05  6.566703E-05  1.170198E-05 -2.069257E-07 -2.005650E-09
      6751   1 -1.990247E-04  6.568177E-05  6.566430E-05  1.198339E-05 -3.623556E-07 -2.472926E-09
      6752   1 -1.990247E-04  6.566594E-05  6.568167E-05  1.249380E-05 -4.059876E-07 -9.221675E-09
      6753   1 -1.990247E-04  6.567819E-05  6.568678E-05  1.331918E-05 -3.183535E-07  2.326803E-08
      6754   1 -1.990247E-04  6.570819E-05  6.564383E-05  1.452033E-05 -1.261992E-07 -2.325459E-09
      6755   1 -2.653663E-04  8.757810E-05  8.760270E-05  9.932609E-06  2.312770E-07 -2.182709E-08
      6756   1 -2.653662E-04  8.755829E-05  8.756795E-05  8.856097E-06  6.334140E-07  2.127294E-08
      6757   1 -2.653663E-04  8.757632E-05  8.754813E-05  8.266722E-06  7.743488E-07  1.520722E-08
      6758   1 -2.653662E-04  8.758269E-05  8.754852E-05  7.924962E-06  6.407645E-07  4.468225E-09
      6759   1 -2.653663E-04  8.757676E-05  8.754831E-05  7.736566E-06  3.580876E-07  3.727991E-09
      6760   1 -2.653662E-04  8.758536E-05  8.754664E-05  7.679059E-06  2.104163E-14  2.453007E-17
      6761   1 -2.653663E-04  8.757676E-05  8.754831E-05  7.736566E-06 -3.580875E-07 -3.727992E-09
      6762   1 -2.653662E-04  8.758269E-05  8.754852E-05  7.924962E-06 -6.407644E-07 -4.468225E-09
      6763   1 -2.653663E-04  8.757632E-05  8.754813E-05  8.266722E-06 -7.743487E-07 -1.520722E-08
      6764   1 -2.653662E-04  8.755829E-05  8.756795E-05  8.856097E-06 -6.334140E-07 -2.127294E-08
      6765   1 -2.653663E-04  8.757810E-05  8.760270E-05  9.932609E-06 -2.312770E-07  2.182709E-08
      6766   1 -3.317079E-04  1.095290E-04  1.093629E-04  3.648017E-06  6.234943E-07  3.358388E-08
      6767   1 -3.317078E-04  1.094661E-04  1.094174E-04  3.134945E-06  1.347985E-06  2.068084E-08
      6768   1 -3.317079E-04  1.094975E-04  1.094160E-04  2.938749E-06  1.372501E-06  4.046697E-09
      6769   1 -3.317078E-04  1.094691E-04  1.094334E-04  2.809207E-06  1.070268E-06  4.835877E-09
      6770   1 -3.317079E-04  1.094880E-04  1.094277E-04  2.747207E-06  5.776138E-07  6.810294E-10
      6771   1 -3.317078E-04  1.094701E-04  1.094362E-04  2.724424E-06  2.849398E-14 -8.003021E-17
      6772   1 -3.317079E-04  1.094880E-04  1.094277E-04  2.747207E-06 -5.776138E-07 -6.810294E-10
      6773   1 -3.317078E-04  1.094691E-04  1.094334E-04  2.809207E-06 -1.070268E-06 -4.835878E-09
      6774   1 -3.317079E-04  1.094975E-04  1.094160E-04  2.938749E-06 -1.372501E-06 -4.046696E-09
      6775   1 -3.317078E-04  1.094661E-04  1.094174E-04  3.134945E-06 -1.347985E-06 -2.068084E-08
      6776   1 -3.317079E-04  1.095290E-04  1.093629E-04  3.648017E-06 -6.234942E-07 -3.358388E-08
      6777   1  3.271639E-04 -1.080285E-04 -1.078647E-04  3.648023E-06 -6.234953E-07  3.312695E-08
      6778   1  3.271639E-04 -1.079665E-04 -1.079187E-04  3.134942E-06 -1.347982E-06  2.039569E-08
      6779   1  3.271639E-04 -1.079976E-04 -1.079171E-04  2.938751E-06 -1.372505E-06  3.992465E-09
      6780   1  3.271639E-04 -1.079696E-04 -1.079345E-04  2.809205E-06 -1.070265E-06  4.768913E-09
      6781   1  3.271639E-04 -1.079882E-04 -1.079286E-04  2.747209E-06 -5.776153E-07  6.720382E-10
      6782   1  3.271639E-04 -1.079705E-04 -1.079372E-04  2.724423E-06 -2.838009E-14 -5.145725E-18
      6783   1  3.271639E-04 -1.079882E-04 -1.079286E-04  2.747209E-06  5.776152E-07 -6.720383E-10
      6784   1  3.271639E-04 -1.079696E-04 -1.079345E-04  2.809205E-06  1.070265E-06 -4.768914E-09
      6785   1  3.271639E-04 -1.079976E-04 -1.079171E-04  2.938751E-06  1.372505E-06 -3.992465E-09
      6786   1  3.271639E-04 -1.079665E-04 -1.079187E-04  3.134942E-06  1.347982E-06 -2.039569E-08
      6787   1  3.271639E-04 -1.080285E-04 -1.078647E-04  3.648023E-06  6.234953E-07 -3.312695E-08
      6788   1  2.617311E-04 -8.637840E-05 -8.640253E-05  9.932604E-06 -2.312785E-07 -2.152887E-08
      6789   1  2.617311E-04 -8.635886E-05 -8.636852E-05  8.856099E-06 -6.334111E-07  2.098155E-08
      6790   1  2.617311E-04 -8.637665E-05 -8.634871E-05  8.266722E-06 -7.743518E-07  1.499896E-08
      6791   1  2.617311E-04 -8.638292E-05 -8.634934E-05  7.924963E-06 -6.407620E-07  4.406947E-09
      6792   1  2.617311E-04 -8.637708E-05 -8.634889E-05  7.736566E-06 -3.580889E-07  3.676964E-09
      6793   1  2.617311E-04 -8.638556E-05 -8.634749E-05  7.679060E-06 -2.097535E-14 -3.658251E-17
      6794   1  2.617311E-04 -8.637708E-05 -8.634889E-05  7.736566E-06  3.580889E-07 -3.676965E-09
      6795   1  2.617311E-04 -8.638292E-05 -8.634934E-05  7.924963E-06  6.407620E-07 -4.406947E-09
      6796   1  2.617311E-04 -8.637665E-05 -8.634871E-05  8.266722E-06  7.743518E-07 -1.499896E-08
      6797   1  2.617311E-04 -8.635886E-05 -8.636852E-05  8.856099E-06  6.334111E-07 -2.098155E-08
      6798   1  2.617311E-04 -8.637840E-05 -8.640253E-05  9.932603E-06  2.312785E-07  2.152887E-08
      6799   1  1.962983E-04 -6.480808E-05 -6.474449E-05  1.452033E-05 -1.261999E-07  2.294006E-09
      6800   1  1.962984E-04 -6.477849E-05 -6.478706E-05  1.331918E-05 -3.183516E-07 -2.294910E-08
      6801   1  1.962983E-04 -6.476641E-05 -6.478183E-05  1.249380E-05 -4.059899E-07  9.095212E-09
      6802   1  1.962983E-04 -6.478202E-05 -6.476489E-05  1.198339E-05 -3.623538E-07  2.439144E-09
      6803   1  1.962983E-04 -6.478189E-05 -6.476738E-05  1.170197E-05 -2.069268E-07  1.978129E-09
      6804   1  1.962983E-04 -6.478286E-05 -6.476255E-05  1.161084E-05 -1.471317E-14 -3.140218E-16
      6805   1  1.962983E-04 -6.478189E-05 -6.476738E-05  1.170197E-05  2.069268E-07 -1.978128E-09
      6806   1  1.962983E-04 -6.478202E-05 -6.476489E-05  1.198339E-05  3.623537E-07 -2.439145E-09
      6807   1  1.962983E-04 -6.476641E-05 -6.478183E-05  1.249380E-05  4.059899E-07 -9.095213E-09
      6808   1  1.962984E-04 -6.477849E-05 -6.478706E-05  1.331918E-05  3.183515E-07  2.294910E-08
      6809   1  1.962983E-04 -6.480808E-05 -6.474449E-05  1.452033E-05  1.261999E-07 -2.294006E-09
      6810   1  1.308655E-04 -4.319085E-05 -4.319398E-05  1.772536E-05 -5.843269E-08 -9.134192E-09
      6811   1  1.308656E-04 -4.319030E-05 -4.317719E-05  1.645285E-05 -1.613804E-07  7.338780E-10
      6812   1  1.308655E-04 -4.318527E-05 -4.318599E-05  1.553576E-05 -2.068045E-07 -1.741025E-08
      6813   1  1.308656E-04 -4.317872E-05 -4.318732E-05  1.492194E-05 -1.868177E-07  2.695866E-09
      6814   1  1.308655E-04 -4.318791E-05 -4.317671E-05  1.457597E-05 -1.104246E-07 -2.638976E-09
      6815   1  1.308656E-04 -4.318477E-05 -4.318143E-05  1.446381E-05 -9.267658E-15  1.041677E-16
      6816   1  1.308655E-04 -4.318791E-05 -4.317671E-05  1.457597E-05  1.104246E-07  2.638975E-09
      6817   1  1.308656E-04 -4.317872E-05 -4.318732E-05  1.492194E-05  1.868177E-07 -2.695866E-09
      6818   1  1.308655E-04 -4.318527E-05 -4.318599E-05  1.553576E-05  2.068044E-07  1.741025E-08
      6819   1  1.308656E-04 -4.319030E-05 -4.317719E-05  1.645285E-05  1.613804E-07 -7.338783E-10
      6820   1  1.308655E-04 -4.319085E-05 -4.319398E-05  1.772536E-05  5.843268E-08  9.134192E-09
      6821   1  6.543277E-05 -2.160157E-05 -2.158364E-05  1.962261E-05 -2.573136E-08 -1.207238E-09
      6822   1  6.543278E-05 -2.159331E-05 -2.159571E-05  1.832412E-05 -6.642264E-08 -1.766855E-08
      6823   1  6.543277E-05 -2.159103E-05 -2.159235E-05  1.735703E-05 -8.711346E-08 -1.229552E-09
      6824   1  6.543278E-05 -2.159290E-05 -2.159110E-05  1.669890E-05 -7.935219E-08 -1.373170E-08
      6825   1  6.543277E-05 -2.158976E-05 -2.159327E-05  1.631658E-05 -4.673588E-08  2.364861E-10
      6826   1  6.543278E-05 -2.159391E-05 -2.158843E-05  1.619261E-05 -4.470069E-15 -2.632453E-16
      6827   1  6.543277E-05 -2.158976E-05 -2.159327E-05  1.631658E-05  4.673587E-08 -2.364861E-10
      6828   1  6.543278E-05 -2.159290E-05 -2.159110E-05  1.669890E-05  7.935218E-08  1.373170E-08
      6829   1  6.543277E-05 -2.159103E-05 -2.159235E-05  1.735703E-05  8.711346E-08  1.229552E-09
      6830   1  6.543278E-05 -2.159331E-05 -2.159571E-05  1.832412E-05  6.642264E-08  1.766855E-08
      6831   1  6.543277E-05 -2.160157E-05 -2.158364E-05  1.962261E-05  2.573136E-08  1.207238E-09
      6832   1  7.098163E-14 -2.309264E-14 -2.286996E-14  2.025232E-05 -1.646632E-18 -7.099005E-09
      6833   1  7.144751E-14 -2.181588E-14 -2.465218E-14  1.894418E-05 -9.855228E-17 -2.988419E-09
      6834   1  7.023722E-14 -2.033096E-14 -2.275745E-14  1.796588E-05 -1.202567E-16 -1.889271E-08
      6835   1  7.042424E-14 -1.899869E-14 -2.442814E-14  1.729130E-05 -1.141495E-16 -1.158918E-09
      6836   1  6.953682E-14 -1.824235E-14 -2.280746E-14  1.690023E-05 -5.247475E-17 -7.849016E-09
      6837   1  7.001929E-14 -1.799949E-14 -2.435942E-14  1.677112E-05  3.682137E-17 -2.665009E-17
      6838   1  6.948684E-14 -1.808970E-14 -2.280804E-14  1.690023E-05  3.347135E-17  7.849015E-09
      6839   1  7.024253E-14 -1.873501E-14 -2.437555E-14  1.729130E-05  1.152206E-16  1.158918E-09
      6840   1  6.992627E-14 -1.969258E-14 -2.277817E-14  1.796588E-05  9.546993E-17  1.889271E-08
      6841   1  7.093404E-14 -2.068484E-14 -2.456199E-14  1.894418E-05  9.580790E-17  2.988419E-09
      6842   1  7.030054E-14 -2.165629E-14 -2.275008E-14  2.025232E-05  4.002824E-17  7.099005E-09
      6843   1 -6.543277E-05  2.160157E-05  2.158364E-05  1.962261E-05  2.573136E-08 -1.207238E-09
      6844   1 -6.543278E-05  2.159331E-05  2.159571E-05  1.832412E-05  6.642264E-08 -1.766855E-08
      6845   1 -6.543277E-05  2.159103E-05  2.159235E-05  1.735703E-05  8.711346E-08 -1.229552E-09
      6846   1 -6.543278E-05  2.159290E-05  2.159110E-05  1.669890E-05  7.935219E-08 -1.373170E-08
      6847   1 -6.543277E-05  2.158976E-05  2.159327E-05  1.631658E-05  4.673588E-08  2.364861E-10
      6848   1 -6.543278E-05  2.159391E-05  2.158843E-05  1.619261E-05  4.474369E-15 -3.310971E-16
      6849   1 -6.543277E-05  2.158976E-05  2.159327E-05  1.631658E-05 -4.673587E-08 -2.364860E-10
      6850   1 -6.543278E-05  2.159290E-05  2.159110E-05  1.669890E-05 -7.935218E-08  1.373170E-08
      6851   1 -6.543277E-05  2.159103E-05  2.159235E-05  1.735703E-05 -8.711346E-08  1.229552E-09
      6852   1 -6.543278E-05  2.159331E-05  2.159571E-05  1.832412E-05 -6.642264E-08  1.766855E-08
      6853   1 -6.543277E-05  2.160157E-05  2.158364E-05  1.962261E-05 -2.573136E-08  1.207238E-09
      6854   1 -1.308655E-04  4.319085E-05  4.319398E-05  1.772536E-05  5.843269E-08 -9.134192E-09
      6855   1 -1.308656E-04  4.319030E-05  4.317719E-05  1.645285E-05  1.613804E-07  7.338781E-10
      6856   1 -1.308655E-04  4.318527E-05  4.318599E-05  1.553576E-05  2.068045E-07 -1.741025E-08
      6857   1 -1.308656E-04  4.317872E-05  4.318732E-05  1.492194E-05  1.868177E-07  2.695866E-09
      6858   1 -1.308655E-04  4.318791E-05  4.317671E-05  1.457597E-05  1.104246E-07 -2.638976E-09
      6859   1 -1.308656E-04  4.318477E-05  4.318143E-05  1.446381E-05  9.216426E-15  8.949708E-17
      6860   1 -1.308655E-04  4.318791E-05  4.317671E-05  1.457597E-05 -1.104246E-07  2.638975E-09
      6861   1 -1.308656E-04  4.317872E-05  4.318732E-05  1.492194E-05 -1.868177E-07 -2.695866E-09
      6862   1 -1.308655E-04  4.318527E-05  4.318599E-05  1.553576E-05 -2.068044E-07  1.741025E-08
      6863   1 -1.308656E-04  4.319030E-05  4.317719E-05  1.645285E-05 -1.613804E-07 -7.338783E-10
      6864   1 -1.308655E-04  4.319085E-05  4.319398E-05  1.772536E-05 -5.843268E-08  9.134192E-09
      6865   1 -1.962983E-04  6.480808E-05  6.474449E-05  1.452033E-05  1.261999E-07  2.294007E-09
      6866   1 -1.962984E-04  6.477849E-05  6.478706E-05  1.331918E-05  3.183515E-07 -2.294910E-08
      6867   1 -1.962983E-04  6.476641E-05  6.478183E-05  1.249380E-05  4.059899E-07  9.095213E-09
      6868   1 -1.962983E-04  6.478202E-05  6.476489E-05  1.198339E-05  3.623538E-07  2.439144E-09
      6869   1 -1.962983E-04  6.478189E-05  6.476738E-05  1.170197E-05  2.069268E-07  1.978129E-09
      6870   1 -1.962983E-04  6.478286E-05  6.476255E-05  1.161084E-05  1.467578E-14 -3.882469E-16
      6871   1 -1.962983E-04  6.478189E-05  6.476738E-05  1.170197E-05 -2.069268E-07 -1.978128E-09
      6872   1 -1.962983E-04  6.478202E-05  6.476489E-05  1.198339E-05 -3.623537E-07 -2.439145E-09
      6873   1 -1.962983E-04  6.476641E-05  6.478183E-05  1.249380E-05 -4.059899E-07 -9.095213E-09
      6874   1 -1.962984E-04  6.477849E-05  6.478706E-05  1.331918E-05 -3.183515E-07  2.294910E-08
      6875   1 -1.962983E-04  6.480808E-05  6.474449E-05  1.452033E-05 -1.261999E-07 -2.294007E-09
      6876   1 -2.617311E-04  8.637840E-05  8.640253E-05  9.932604E-06  2.312785E-07 -2.152887E-08
      6877   1 -2.617311E-04  8.635886E-05  8.636852E-05  8.856099E-06  6.334111E-07  2.098155E-08
      6878   1 -2.617311E-04  8.637665E-05  8.634871E-05  8.266722E-06  7.743518E-07  1.499896E-08
      6879   1 -2.617311E-04  8.638292E-05  8.634934E-05  7.924963E-06  6.407620E-07  4.406947E-09
      6880   1 -2.617311E-04  8.637708E-05  8.634889E-05  7.736566E-06  3.580889E-07  3.676964E-09
      6881   1 -2.617311E-04  8.638556E-05  8.634749E-05  7.679060E-06  2.097540E-14 -4.928122E-17
      6882   1 -2.617311E-04  8.637708E-05  8.634889E-05  7.736566E-06 -3.580889E-07 -3.676965E-09
      6883   1 -2.617311E-04  8.638292E-05  8.634934E-05  7.924963E-06 -6.407620E-07 -4.406947E-09
      6884   1 -2.617311E-04  8.637665E-05  8.634871E-05  8.266722E-06 -7.743518E-07 -1.499896E-08
      6885   1 -2.617311E-04  8.635886E-05  8.636852E-05  8.856099E-06 -6.334111E-07 -2.098155E-08
      6886   1 -2.617311E-04  8.637840E-05  8.640253E-05  9.932603E-06 -2.312785E-07  2.152887E-08
      6887   1 -3.271639E-04  1.080285E-04  1.078647E-04  3.648023E-06  6.234953E-07  3.312695E-08
      6888   1 -3.271639E-04  1.079665E-04  1.079187E-04  3.134942E-06  1.347982E-06  2.039569E-08
      6889   1 -3.271639E-04  1.079976E-04  1.079171E-04  2.938751E-06  1.372505E-06  3.992465E-09
      6890   1 -3.271639E-04  1.079696E-04  1.079345E-04  2.809205E-06  1.070265E-06  4.768913E-09
      6891   1 -3.271639E-04  1.079882E-04  1.079286E-04  2.747209E-06  5.776153E-07  6.720383E-10
      6892   1 -3.271639E-04  1.079705E-04  1.079372E-04  2.724423E-06  2.833573E-14 -1.030466E-16
      6893   1 -3.271639E-04  1.079882E-04  1.079286E-04  2.747209E-06 -5.776152E-07 -6.720382E-10
      6894   1 -3.271639E-04  1.079696E-04  1.079345E-04  2.809205E-06 -1.070265E-06 -4.768914E-09
      6895   1 -3.271639E-04  1.079976E-04  1.079171E-04  2.938751E-06 -1.372505E-06 -3.992464E-09
      6896   1 -3.271639E-04  1.079665E-04  1.079187E-04  3.134942E-06 -1.347982E-06 -2.039569E-08
      6897   1 -3.271639E-04  1.080285E-04  1.078647E-04  3.648023E-06 -6.234953E-07 -3.312695E-08
      6898   1  3.226200E-04 -1.065282E-04 -1.063667E-04  3.648018E-06 -6.234944E-07  3.266430E-08
      6899   1  3.226199E-04 -1.064670E-04 -1.064197E-04  3.134945E-06 -1.347984E-06  2.011393E-08
      6900   1  3.226200E-04 -1.064976E-04 -1.064183E-04  2.938749E-06 -1.372502E-06  3.936032E-09
      6901   1  3.226199E-04 -1.064700E-04 -1.064353E-04  2.809207E-06 -1.070267E-06  4.703265E-09
      6902   1  3.226200E-04 -1.064883E-04 -1.064297E-04  2.747207E-06 -5.776141E-07  6.624285E-10
      6903   1  3.226199E-04 -1.064710E-04 -1.064380E-04  2.724424E-06 -2.837042E-14 -3.948529E-17
      6904   1  3.226200E-04 -1.064883E-04 -1.064297E-04  2.747207E-06  5.776140E-07 -6.624285E-10
      6905   1  3.226199E-04 -1.064700E-04 -1.064353E-04  2.809207E-06  1.070267E-06 -4.703266E-09
      6906   1  3.226200E-04 -1.064976E-04 -1.064183E-04  2.938749E-06  1.372502E-06 -3.936032E-09
      6907   1  3.226199E-04 -1.064670E-04 -1.064197E-04  3.134945E-06  1.347984E-06 -2.011393E-08
      6908   1  3.226200E-04 -1.065282E-04 -1.063667E-04  3.648018E-06  6.234944E-07 -3.266430E-08
      6909   1  2.580960E-04 -8.517870E-05 -8.520261E-05  9.932608E-06 -2.312773E-07 -2.122922E-08
      6910   1  2.580959E-04 -8.515943E-05 -8.516885E-05  8.856098E-06 -6.334135E-07  2.069012E-08
      6911   1  2.580960E-04 -8.517697E-05 -8.514953E-05  8.266722E-06 -7.743493E-07  1.479059E-08
      6912   1  2.580959E-04 -8.518316E-05 -8.514995E-05  7.924963E-06 -6.407640E-07  4.345797E-09
      6913   1  2.580960E-04 -8.517740E-05 -8.514970E-05  7.736566E-06 -3.580878E-07  3.625861E-09
      6914   1  2.580959E-04 -8.518576E-05 -8.514812E-05  7.679059E-06 -2.099274E-14 -2.656126E-17
      6915   1  2.580960E-04 -8.517740E-05 -8.514970E-05  7.736566E-06  3.580878E-07 -3.625862E-09
      6916   1  2.580959E-04 -8.518316E-05 -8.514995E-05  7.924963E-06  6.407640E-07 -4.345796E-09
      6917   1  2.580960E-04 -8.517697E-05 -8.514953E-05  8.266722E-06  7.743493E-07 -1.479059E-08
      6918   1  2.580959E-04 -8.515943E-05 -8.516885E-05  8.856098E-06  6.334135E-07 -2.069012E-08
      6919   1  2.580960E-04 -8.517870E-05 -8.520261E-05  9.932608E-06  2.312772E-07  2.122922E-08
      6920   1  1.935720E-04 -6.390797E-05 -6.384535E-05  1.452033E-05 -1.261993E-07  2.261817E-09
      6921   1  1.935720E-04 -6.387879E-05 -6.388716E-05  1.331918E-05 -3.183532E-07 -2.263052E-08
      6922   1  1.935720E-04 -6.386688E-05 -6.388216E-05  1.249380E-05 -4.059880E-07  8.969003E-09
      6923   1  1.935720E-04 -6.388227E-05 -6.386530E-05  1.198339E-05 -3.623553E-07  2.405190E-09
      6924   1  1.935720E-04 -6.388214E-05 -6.386791E-05  1.170197E-05 -2.069259E-07  1.950693E-09
      6925   1  1.935720E-04 -6.388310E-05 -6.386300E-05  1.161084E-05 -1.470528E-14 -3.260039E-16
      6926   1  1.935720E-04 -6.388214E-05 -6.386791E-05  1.170197E-05  2.069259E-07 -1.950693E-09
      6927   1  1.935720E-04 -6.388227E-05 -6.386530E-05  1.198339E-05  3.623553E-07 -2.405191E-09
      6928   1  1.935720E-04 -6.386688E-05 -6.388216E-05  1.249380E-05  4.059880E-07 -8.969003E-09
      6929   1  1.935720E-04 -6.387879E-05 -6.388716E-05  1.331918E-05  3.183531E-07  2.263052E-08
      6930   1  1.935720E-04 -6.390797E-05 -6.384535E-05  1.452033E-05  1.261993E-07 -2.261817E-09
      6931   1  1.290480E-04 -4.259098E-05 -4.259413E-05  1.772536E-05 -5.843209E-08 -9.007074E-09
      6932   1  1.290480E-04 -4.259044E-05 -4.257745E-05  1.645285E-05 -1.613815E-07  7.237964E-10
      6933   1  1.290480E-04 -4.258548E-05 -4.258624E-05  1.553576E-05 -2.068032E-07 -1.716845E-08
      6934   1  1.290480E-04 -4.257902E-05 -4.258745E-05  1.492193E-05 -1.868187E-07  2.658417E-09
      6935   1  1.290480E-04 -4.258807E-05 -4.257709E-05  1.457597E-05 -1.104240E-07 -2.602316E-09
      6936   1  1.290480E-04 -4.258498E-05 -4.258163E-05  1.446381E-05 -9.276752E-15  1.735410E-16
      6937   1  1.290480E-04 -4.258807E-05 -4.257709E-05  1.457597E-05  1.104240E-07  2.602315E-09
      6938   1  1.290480E-04 -4.257902E-05 -4.258745E-05  1.492193E-05  1.868187E-07 -2.658417E-09
      6939   1  1.290480E-04 -4.258548E-05 -4.258624E-05  1.553576E-05  2.068032E-07  1.716845E-08
      6940   1  1.290480E-04 -4.259044E-05 -4.257745E-05  1.645285E-05  1.613815E-07 -7.237966E-10
      6941   1  1.290480E-04 -4.259098E-05 -4.259413E-05  1.772536E-05  5.843209E-08  9.007074E-09
      6942   1  6.452400E-05 -2.130155E-05 -2.128389E-05  1.962261E-05 -2.573117E-08 -1.190656E-09
      6943   1  6.452398E-05 -2.129340E-05 -2.129574E-05  1.832412E-05 -6.642320E-08 -1.742332E-08
      6944   1  6.452399E-05 -2.129115E-05 -2.129248E-05  1.735703E-05 -8.711281E-08 -1.212415E-09
      6945   1  6.452399E-05 -2.129299E-05 -2.129120E-05  1.669890E-05 -7.935272E-08 -1.354101E-08
      6946   1  6.452399E-05 -2.128990E-05 -2.129339E-05  1.631658E-05 -4.673559E-08  2.332146E-10
      6947   1  6.452399E-05 -2.129400E-05 -2.128857E-05  1.619261E-05 -4.465847E-15 -1.717541E-16
      6948   1  6.452399E-05 -2.128990E-05 -2.129339E-05  1.631658E-05  4.673558E-08 -2.332144E-10
      6949   1  6.452399E-05 -2.129299E-05 -2.129120E-05  1.669890E-05  7.935271E-08  1.354101E-08
      6950   1  6.452399E-05 -2.129115E-05 -2.129248E-05  1.735703E-05  8.711280E-08  1.212415E-09
      6951   1  6.452398E-05 -2.129340E-05 -2.129574E-05  1.832412E-05  6.642320E-08  1.742332E-08
      6952   1  6.452400E-05 -2.130155E-05 -2.128389E-05  1.962261E-05  2.573117E-08  1.190656E-09
      6953   1  7.148123E-14 -2.390449E-14 -2.442146E-14  2.025233E-05 -1.753104E-17 -7.000210E-09
      6954   1  7.090346E-14 -2.512573E-14 -2.250889E-14  1.894418E-05 -3.277848E-17 -2.946805E-09
      6955   1  7.229666E-14 -2.733924E-14 -2.420002E-14  1.796588E-05 -6.663481E-17 -1.863030E-08
      6956   1  7.205586E-14 -2.897682E-14 -2.234805E-14  1.729130E-05 -8.358733E-17 -1.142849E-09
      6957   1  7.308336E-14 -2.994827E-14 -2.418963E-14  1.690023E-05 -4.025228E-17 -7.739984E-09
      6958   1  7.246395E-14 -3.031603E-14 -2.231987E-14  1.677111E-05 -3.172350E-18  1.479905E-16
      6959   1  7.301234E-14 -2.999684E-14 -2.419922E-14  1.690023E-05  3.677605E-17  7.739983E-09
      6960   1  7.209348E-14 -2.930295E-14 -2.230526E-14  1.729130E-05  6.521603E-17  1.142849E-09
      6961   1  7.244422E-14 -2.797068E-14 -2.421353E-14  1.796588E-05  8.232398E-17  1.863030E-08
      6962   1  7.117939E-14 -2.663147E-14 -2.240431E-14  1.894418E-05  4.361711E-17  2.946804E-09
      6963   1  7.184271E-14 -2.574330E-14 -2.431247E-14  2.025233E-05  6.031722E-18  7.000210E-09
      6964   1 -6.452400E-05  2.130155E-05  2.128389E-05  1.962261E-05  2.573117E-08 -1.190656E-09
      6965   1 -6.452398E-05  2.129340E-05  2.129574E-05  1.832412E-05  6.642320E-08 -1.742332E-08
      6966   1 -6.452399E-05  2.129115E-05  2.129248E-05  1.735703E-05  8.711281E-08 -1.212415E-09
      6967   1 -6.452398E-05  2.129299E-05  2.129120E-05  1.669890E-05  7.935272E-08 -1.354101E-08
      6968   1 -6.452399E-05  2.128990E-05  2.129339E-05  1.631658E-05  4.673559E-08  2.332146E-10
      6969   1 -6.452399E-05  2.129400E-05  2.128857E-05  1.619261E-05  4.496289E-15 -1.379414E-16
      6970   1 -6.452399E-05  2.128990E-05  2.129339E-05  1.631658E-05 -4.673558E-08 -2.332145E-10
      6971   1 -6.452398E-05  2.129299E-05  2.129120E-05  1.669890E-05 -7.935271E-08  1.354101E-08
      6972   1 -6.452399E-05  2.129115E-05  2.129248E-05  1.735703E-05 -8.711280E-08  1.212415E-09
      6973   1 -6.452398E-05  2.129340E-05  2.129574E-05  1.832412E-05 -6.642320E-08  1.742332E-08
      6974   1 -6.452400E-05  2.130155E-05  2.128389E-05  1.962261E-05 -2.573117E-08  1.190656E-09
      6975   1 -1.290480E-04  4.259098E-05  4.259413E-05  1.772536E-05  5.843209E-08 -9.007074E-09
      6976   1 -1.290480E-04  4.259044E-05  4.257745E-05  1.645285E-05  1.613815E-07  7.237965E-10
      6977   1 -1.290480E-04  4.258548E-05  4.258624E-05  1.553576E-05  2.068032E-07 -1.716845E-08
      6978   1 -1.290480E-04  4.257902E-05  4.258745E-05  1.492193E-05  1.868187E-07  2.658417E-09
      6979   1 -1.290480E-04  4.258807E-05  4.257709E-05  1.457597E-05  1.104240E-07 -2.602316E-09
      6980   1 -1.290480E-04  4.258498E-05  4.258163E-05  1.446381E-05  9.293536E-15  1.500006E-16
      6981   1 -1.290480E-04  4.258807E-05  4.257709E-05  1.457597E-05 -1.104240E-07  2.602315E-09
      6982   1 -1.290480E-04  4.257902E-05  4.258745E-05  1.492193E-05 -1.868187E-07 -2.658417E-09
      6983   1 -1.290480E-04  4.258548E-05  4.258624E-05  1.553576E-05 -2.068032E-07  1.716845E-08
      6984   1 -1.290480E-04  4.259044E-05  4.257745E-05  1.645285E-05 -1.613815E-07 -7.237966E-10
      6985   1 -1.290480E-04  4.259098E-05  4.259413E-05  1.772536E-05 -5.843208E-08  9.007074E-09
      6986   1 -1.935720E-04  6.390797E-05  6.384535E-05  1.452033E-05  1.261993E-07  2.261817E-09
      6987   1 -1.935720E-04  6.387879E-05  6.388716E-05  1.331918E-05  3.183532E-07 -2.263052E-08
      6988   1 -1.935720E-04  6.386688E-05  6.388216E-05  1.249380E-05  4.059880E-07  8.969003E-09
      6989   1 -1.935720E-04  6.388227E-05  6.386530E-05  1.198339E-05  3.623553E-07  2.405190E-09
      6990   1 -1.935720E-04  6.388214E-05  6.386791E-05  1.170197E-05  2.069259E-07  1.950693E-09
      6991   1 -1.935720E-04  6.388310E-05  6.386300E-05  1.161084E-05  1.469758E-14 -3.417210E-16
      6992   1 -1.935720E-04  6.388214E-05  6.386791E-05  1.170197E-05 -2.069259E-07 -1.950693E-09
      6993   1 -1.935720E-04  6.388227E-05  6.386530E-05  1.198339E-05 -3.623553E-07 -2.405191E-09
      6994   1 -1.935720E-04  6.386688E-05  6.388216E-05  1.249380E-05 -4.059880E-07 -8.969003E-09
      6995   1 -1.935720E-04  6.387879E-05  6.388716E-05  1.331918E-05 -3.183531E-07  2.263052E-08
      6996   1 -1.935720E-04  6.390797E-05  6.384535E-05  1.452033E-05 -1.261993E-07 -2.261817E-09
      6997   1 -2.580960E-04  8.517870E-05  8.520261E-05  9.932608E-06  2.312773E-07 -2.122922E-08
      6998   1 -2.580959E-04  8.515943E-05  8.516885E-05  8.856098E-06  6.334135E-07  2.069012E-08
      6999   1 -2.580960E-04  8.517697E-05  8.514953E-05  8.266722E-06  7.743493E-07  1.479059E-08
      7000   1 -2.580959E-04  8.518316E-05  8.514995E-05  7.924963E-06  6.407640E-07  4.345797E-09
      7001   1 -2.580960E-04  8.517740E-05  8.514970E-05  7.736566E-06  3.580878E-07  3.625862E-09
      7002   1 -2.580959E-04  8.518576E-05  8.514812E-05  7.679059E-06  2.097256E-14 -3.289537E-17
      7003   1 -2.580960E-04  8.517740E-05  8.514970E-05  7.736566E-06 -3.580878E-07 -3.625862E-09
      7004   1 -2.580959E-04  8.518316E-05  8.514995E-05  7.924963E-06 -6.407640E-07 -4.345796E-09
      7005   1 -2.580960E-04  8.517697E-05  8.514953E-05  8.266722E-06 -7.743493E-07 -1.479059E-08
      7006   1 -2.580959E-04  8.515943E-05  8.516885E-05  8.856098E-06 -6.334135E-07 -2.069012E-08
      7007   1 -2.580960E-04  8.517870E-05  8.520261E-05  9.932608E-06 -2.312772E-07  2.122922E-08
      7008   1 -3.226200E-04  1.065282E-04  1.063667E-04  3.648018E-06  6.234944E-07  3.266430E-08
      7009   1 -3.226199E-04  1.064670E-04  1.064197E-04  3.134945E-06  1.347984E-06  2.011393E-08
      7010   1 -3.226200E-04  1.064976E-04  1.064183E-04  2.938749E-06  1.372502E-06  3.936033E-09
      7011   1 -3.226199E-04  1.064700E-04  1.064353E-04  2.809207E-06  1.070267E-06  4.703265E-09
      7012   1 -3.226200E-04  1.064883E-04  1.064297E-04  2.747207E-06  5.776141E-07  6.624286E-10
      7013   1 -3.226199E-04  1.064710E-04  1.064380E-04  2.724424E-06  2.831429E-14 -1.213231E-16
      7014   1 -3.226200E-04  1.064883E-04  1.064297E-04  2.747207E-06 -5.776140E-07 -6.624285E-10
      7015   1 -3.226199E-04  1.064700E-04  1.064353E-04  2.809207E-06 -1.070267E-06 -4.703266E-09
      7016   1 -3.226200E-04  1.064976E-04  1.064183E-04  2.938749E-06 -1.372502E-06 -3.936033E-09
      7017   1 -3.226199E-04  1.064670E-04  1.064197E-04  3.134945E-06 -1.347984E-06 -2.011393E-08
      7018   1 -3.226200E-04  1.065282E-04  1.063667E-04  3.648018E-06 -6.234944E-07 -3.266430E-08
      7019   1  3.180760E-04 -1.050278E-04 -1.048684E-04  3.648022E-06 -6.234951E-07  3.220632E-08
      7020   1  3.180760E-04 -1.049675E-04 -1.049209E-04  3.134942E-06 -1.347983E-06  1.982940E-08
      7021   1  3.180760E-04 -1.049976E-04 -1.049194E-04  2.938751E-06 -1.372504E-06  3.881397E-09
      7022   1  3.180760E-04 -1.049704E-04 -1.049363E-04  2.809205E-06 -1.070266E-06  4.636543E-09
      7023   1  3.180760E-04 -1.049885E-04 -1.049306E-04  2.747208E-06 -5.776151E-07  6.533240E-10
      7024   1  3.180760E-04 -1.049714E-04 -1.049389E-04  2.724423E-06 -2.822106E-14 -7.059173E-18
      7025   1  3.180760E-04 -1.049885E-04 -1.049306E-04  2.747208E-06  5.776150E-07 -6.533240E-10
      7026   1  3.180760E-04 -1.049704E-04 -1.049363E-04  2.809205E-06  1.070266E-06 -4.636544E-09
      7027   1  3.180760E-04 -1.049976E-04 -1.049194E-04  2.938751E-06  1.372504E-06 -3.881397E-09
      7028   1  3.180760E-04 -1.049675E-04 -1.049209E-04  3.134942E-06  1.347983E-06 -1.982940E-08
      7029   1  3.180760E-04 -1.050278E-04 -1.048684E-04  3.648022E-06  6.234951E-07 -3.220632E-08
      7030   1  2.544608E-04 -8.397900E-05 -8.400248E-05  9.932604E-06 -2.312782E-07 -2.093074E-08
      7031   1  2.544608E-04 -8.396000E-05 -8.396937E-05  8.856099E-06 -6.334115E-07  2.039872E-08
      7032   1  2.544608E-04 -8.397729E-05 -8.395015E-05  8.266722E-06 -7.743514E-07  1.458231E-08
      7033   1  2.544608E-04 -8.398340E-05 -8.395073E-05  7.924963E-06 -6.407624E-07  4.284542E-09
      7034   1  2.544608E-04 -8.397772E-05 -8.395033E-05  7.736566E-06 -3.580887E-07  3.574821E-09
      7035   1  2.544608E-04 -8.398596E-05 -8.394894E-05  7.679060E-06 -2.094416E-14  9.894615E-17
      7036   1  2.544608E-04 -8.397772E-05 -8.395033E-05  7.736566E-06  3.580887E-07 -3.574821E-09
      7037   1  2.544608E-04 -8.398340E-05 -8.395073E-05  7.924963E-06  6.407623E-07 -4.284541E-09
      7038   1  2.544608E-04 -8.397729E-05 -8.395015E-05  8.266722E-06  7.743513E-07 -1.458231E-08
      7039   1  2.544608E-04 -8.396000E-05 -8.396937E-05  8.856099E-06  6.334115E-07 -2.039873E-08
      7040   1  2.544608E-04 -8.397900E-05 -8.400248E-05  9.932604E-06  2.312782E-07  2.093074E-08
      7041   1  1.908456E-04 -6.300785E-05 -6.294605E-05  1.452033E-05 -1.261998E-07  2.230227E-09
      7042   1  1.908456E-04 -6.297909E-05 -6.298740E-05  1.331918E-05 -3.183518E-07 -2.231165E-08
      7043   1  1.908456E-04 -6.296735E-05 -6.298235E-05  1.249380E-05 -4.059896E-07  8.842587E-09
      7044   1  1.908456E-04 -6.298252E-05 -6.296585E-05  1.198339E-05 -3.623540E-07  2.371377E-09
      7045   1  1.908456E-04 -6.298240E-05 -6.296830E-05  1.170197E-05 -2.069266E-07  1.923187E-09
      7046   1  1.908456E-04 -6.298334E-05 -6.296358E-05  1.161084E-05 -1.471765E-14 -2.169963E-16
      7047   1  1.908456E-04 -6.298240E-05 -6.296830E-05  1.170197E-05  2.069266E-07 -1.923187E-09
      7048   1  1.908456E-04 -6.298252E-05 -6.296585E-05  1.198339E-05  3.623540E-07 -2.371378E-09
      7049   1  1.908456E-04 -6.296735E-05 -6.298235E-05  1.249380E-05  4.059896E-07 -8.842587E-09
      7050   1  1.908456E-04 -6.297909E-05 -6.298740E-05  1.331918E-05  3.183518E-07  2.231165E-08
      7051   1  1.908456E-04 -6.300785E-05 -6.294605E-05  1.452033E-05  1.261998E-07 -2.230228E-09
      7052   1  1.272304E-04 -4.199111E-05 -4.199416E-05  1.772536E-05 -5.843258E-08 -8.880422E-09
      7053   1  1.272304E-04 -4.199057E-05 -4.197782E-05  1.645285E-05 -1.613806E-07  7.135120E-10
      7054   1  1.272304E-04 -4.198568E-05 -4.198639E-05  1.553576E-05 -2.068042E-07 -1.692663E-08
      7055   1  1.272304E-04 -4.197931E-05 -4.198767E-05  1.492194E-05 -1.868179E-07  2.620980E-09
      7056   1  1.272304E-04 -4.198824E-05 -4.197737E-05  1.457597E-05 -1.104245E-07 -2.565669E-09
      7057   1  1.272304E-04 -4.198519E-05 -4.198193E-05  1.446381E-05 -9.309608E-15  2.915449E-16
      7058   1  1.272304E-04 -4.198824E-05 -4.197737E-05  1.457597E-05  1.104245E-07  2.565669E-09
      7059   1  1.272304E-04 -4.197931E-05 -4.198767E-05  1.492194E-05  1.868179E-07 -2.620980E-09
      7060   1  1.272304E-04 -4.198568E-05 -4.198639E-05  1.553576E-05  2.068042E-07  1.692663E-08
      7061   1  1.272304E-04 -4.199057E-05 -4.197782E-05  1.645285E-05  1.613806E-07 -7.135121E-10
      7062   1  1.272304E-04 -4.199111E-05 -4.199416E-05  1.772536E-05  5.843258E-08  8.880422E-09
      7063   1  6.361520E-05 -2.100153E-05 -2.098410E-05  1.962261E-05 -2.573133E-08 -1.173737E-09
      7064   1  6.361521E-05 -2.099350E-05 -2.099582E-05  1.832412E-05 -6.642274E-08 -1.717778E-08
      7065   1  6.361520E-05 -2.099128E-05 -2.099257E-05  1.735703E-05 -8.711334E-08 -1.195388E-09
      7066   1  6.361520E-05 -2.099309E-05 -2.099134E-05  1.669890E-05 -7.935228E-08 -1.335027E-08
      7067   1  6.361520E-05 -2.099005E-05 -2.099346E-05  1.631658E-05 -4.673583E-08  2.299195E-10
      7068   1  6.361520E-05 -2.099408E-05 -2.098875E-05  1.619261E-05 -4.503820E-15  8.530575E-17
      7069   1  6.361520E-05 -2.099005E-05 -2.099346E-05  1.631658E-05  4.673582E-08 -2.299190E-10
      7070   1  6.361520E-05 -2.099309E-05 -2.099134E-05  1.669890E-05  7.935228E-08  1.335027E-08
      7071   1  6.361520E-05 -2.099128E-05 -2.099257E-05  1.735703E-05  8.711334E-08  1.195388E-09
      7072   1  6.361521E-05 -2.099350E-05 -2.099582E-05  1.832412E-05  6.642274E-08  1.717778E-08
      7073   1  6.361520E-05 -2.100153E-05 -2.098410E-05  1.962261E-05  2.573133E-08  1.173737E-09
      7074   1  6.881691E-14 -2.246120E-14 -2.178437E-14  2.025233E-05 -4.055763E-17 -6.901777E-09
      7075   1  6.942374E-14 -2.041423E-14 -2.430331E-14  1.894418E-05 -1.278681E-16 -2.905389E-09
      7076   1  6.768002E-14 -1.818684E-14 -2.183466E-14  1.796588E-05 -1.424066E-16 -1.836791E-08
      7077   1  6.786629E-14 -1.616068E-14 -2.401477E-14  1.729130E-05 -1.475722E-16 -1.126730E-09
      7078   1  6.661815E-14 -1.486311E-14 -2.185434E-14  1.690023E-05 -4.440168E-17 -7.630984E-09
      7079   1  6.724851E-14 -1.456474E-14 -2.397797E-14  1.677112E-05 -2.402185E-17  3.751094E-16
      7080   1  6.653445E-14 -1.475903E-14 -2.184081E-14  1.690023E-05  6.500639E-17  7.630984E-09
      7081   1  6.759881E-14 -1.565414E-14 -2.404171E-14  1.729130E-05  1.182407E-16  1.126730E-09
      7082   1  6.714713E-14 -1.700723E-14 -2.175289E-14  1.796588E-05  1.185075E-16  1.836791E-08
      7083   1  6.865385E-14 -1.862399E-14 -2.424544E-14  1.894418E-05  1.173590E-16  2.905389E-09
      7084   1  6.782584E-14 -2.010198E-14 -2.172019E-14  2.025233E-05  2.993669E-17  6.901777E-09
      7085   1 -6.361520E-05  2.100153E-05  2.098410E-05  1.962261E-05  2.573133E-08 -1.173737E-09
      7086   1 -6.361521E-05  2.099350E-05  2.099582E-05  1.832412E-05  6.642274E-08 -1.717778E-08
      7087   1 -6.361520E-05  2.099128E-05  2.099257E-05  1.735703E-05  8.711334E-08 -1.195388E-09
      7088   1 -6.361520E-05  2.099309E-05  2.099134E-05  1.669890E-05  7.935228E-08 -1.335027E-08
      7089   1 -6.361520E-05  2.099005E-05  2.099346E-05  1.631658E-05  4.673583E-08  2.299195E-10
      7090   1 -6.361520E-05  2.099408E-05  2.098875E-05  1.619261E-05  4.512614E-15  6.257710E-17
      7091   1 -6.361520E-05  2.099005E-05  2.099346E-05  1.631658E-05 -4.673582E-08 -2.299189E-10
      7092   1 -6.361520E-05  2.099309E-05  2.099134E-05  1.669890E-05 -7.935228E-08  1.335027E-08
      7093   1 -6.361520E-05  2.099128E-05  2.099257E-05  1.735703E-05 -8.711334E-08  1.195388E-09
      7094   1 -6.361521E-05  2.099350E-05  2.099582E-05  1.832412E-05 -6.642274E-08  1.717778E-08
      7095   1 -6.361520E-05  2.100153E-05  2.098410E-05  1.962261E-05 -2.573133E-08  1.173737E-09
      7096   1 -1.272304E-04  4.199111E-05  4.199416E-05  1.772536E-05  5.843258E-08 -8.880422E-09
      7097   1 -1.272304E-04  4.199057E-05  4.197782E-05  1.645285E-05  1.613806E-07  7.135121E-10
      7098   1 -1.272304E-04  4.198568E-05  4.198639E-05  1.553576E-05  2.068042E-07 -1.692663E-08
      7099   1 -1.272304E-04  4.197931E-05  4.198767E-05  1.492194E-05  1.868179E-07  2.620980E-09
      7100   1 -1.272304E-04  4.198824E-05  4.197737E-05  1.457597E-05  1.104245E-07 -2.565669E-09
      7101   1 -1.272304E-04  4.198519E-05  4.198193E-05  1.446381E-05  9.312508E-15  3.716687E-16
      7102   1 -1.272304E-04  4.198824E-05  4.197737E-05  1.457597E-05 -1.104245E-07  2.565669E-09
      7103   1 -1.272304E-04  4.197931E-05  4.198767E-05  1.492194E-05 -1.868179E-07 -2.620980E-09
      7104   1 -1.272304E-04  4.198568E-05  4.198639E-05  1.553576E-05 -2.068042E-07  1.692663E-08
      7105   1 -1.272304E-04  4.199057E-05  4.197782E-05  1.645285E-05 -1.613806E-07 -7.135122E-10
      7106   1 -1.272304E-04  4.199111E-05  4.199416E-05  1.772536E-05 -5.843258E-08  8.880422E-09
      7107   1 -1.908456E-04  6.300785E-05  6.294605E-05  1.452033E-05  1.261998E-07  2.230228E-09
      7108   1 -1.908456E-04  6.297909E-05  6.298740E-05  1.331918E-05  3.183518E-07 -2.231165E-08
      7109   1 -1.908456E-04  6.296734E-05  6.298235E-05  1.249380E-05  4.059896E-07  8.842587E-09
      7110   1 -1.908456E-04  6.298252E-05  6.296585E-05  1.198339E-05  3.623540E-07  2.371377E-09
      7111   1 -1.908456E-04  6.298240E-05  6.296830E-05  1.170197E-05  2.069266E-07  1.923187E-09
      7112   1 -1.908456E-04  6.298334E-05  6.296358E-05  1.161084E-05  1.468216E-14 -1.058884E-16
      7113   1 -1.908456E-04  6.298240E-05  6.296830E-05  1.170197E-05 -2.069266E-07 -1.923187E-09
      7114   1 -1.908456E-04  6.298252E-05  6.296585E-05  1.198339E-05 -3.623540E-07 -2.371378E-09
      7115   1 -1.908456E-04  6.296734E-05  6.298235E-05  1.249380E-05 -4.059896E-07 -8.842587E-09
      7116   1 -1.908456E-04  6.297909E-05  6.298740E-05  1.331918E-05 -3.183518E-07  2.231165E-08
      7117   1 -1.908456E-04  6.300785E-05  6.294605E-05  1.452033E-05 -1.261998E-07 -2.230228E-09
      7118   1 -2.544608E-04  8.397900E-05  8.400248E-05  9.932604E-06  2.312782E-07 -2.093074E-08
      7119   1 -2.544608E-04  8.396000E-05  8.396937E-05  8.856099E-06  6.334115E-07  2.039872E-08
      7120   1 -2.544608E-04  8.397729E-05  8.395015E-05  8.266722E-06  7.743514E-07  1.458231E-08
      7121   1 -2.544608E-04  8.398340E-05  8.395073E-05  7.924963E-06  6.407624E-07  4.284542E-09
      7122   1 -2.544608E-04  8.397772E-05  8.395033E-05  7.736566E-06  3.580887E-07  3.574821E-09
      7123   1 -2.544608E-04  8.398596E-05  8.394894E-05  7.679060E-06  2.090131E-14  8.060789E-17
      7124   1 -2.544608E-04  8.397772E-05  8.395033E-05  7.736566E-06 -3.580887E-07 -3.574821E-09
      7125   1 -2.544608E-04  8.398340E-05  8.395073E-05  7.924963E-06 -6.407623E-07 -4.284541E-09
      7126   1 -2.544608E-04  8.397729E-05  8.395015E-05  8.266722E-06 -7.743513E-07 -1.458231E-08
      7127   1 -2.544608E-04  8.396000E-05  8.396937E-05  8.856099E-06 -6.334115E-07 -2.039873E-08
      7128   1 -2.544608E-04  8.397900E-05  8.400248E-05  9.932604E-06 -2.312782E-07  2.093074E-08
      7129   1 -3.180760E-04  1.050278E-04  1.048684E-04  3.648022E-06  6.234951E-07  3.220632E-08
      7130   1 -3.180760E-04  1.049675E-04  1.049209E-04  3.134942E-06  1.347983E-06  1.982940E-08
      7131   1 -3.180760E-04  1.049976E-04  1.049194E-04  2.938751E-06  1.372504E-06  3.881397E-09
      7132   1 -3.180760E-04  1.049704E-04  1.049363E-04  2.809205E-06  1.070266E-06  4.636543E-09
      7133   1 -3.180760E-04  1.049885E-04  1.049306E-04  2.747208E-06  5.776151E-07  6.533239E-10
      7134   1 -3.180760E-04  1.049714E-04  1.049389E-04  2.724423E-06  2.819884E-14 -2.803933E-17
      7135   1 -3.180760E-04  1.049885E-04  1.049306E-04  2.747208E-06 -5.776150E-07 -6.533239E-10
      7136   1 -3.180760E-04  1.049704E-04  1.049363E-04  2.809205E-06 -1.070266E-06 -4.636544E-09
      7137   1 -3.180760E-04  1.049976E-04  1.049194E-04  2.938751E-06 -1.372504E-06 -3.881397E-09
      7138   1 -3.180760E-04  1.049675E-04  1.049209E-04  3.134942E-06 -1.347983E-06 -1.982940E-08
      7139   1 -3.180760E-04  1.050278E-04  1.048684E-04  3.648022E-06 -6.234951E-07 -3.220632E-08
      7140   1  3.135321E-04 -1.035274E-04 -1.033704E-04  3.648019E-06 -6.234946E-07  3.174453E-08
      7141   1  3.135320E-04 -1.034679E-04 -1.034219E-04  3.134944E-06 -1.347984E-06  1.954713E-08
      7142   1  3.135321E-04 -1.034977E-04 -1.034206E-04  2.938749E-06 -1.372502E-06  3.825295E-09
      7143   1  3.135320E-04 -1.034708E-04 -1.034371E-04  2.809207E-06 -1.070267E-06  4.570698E-09
      7144   1  3.135321E-04 -1.034886E-04 -1.034316E-04  2.747208E-06 -5.776143E-07  6.438069E-10
      7145   1  3.135321E-04 -1.034718E-04 -1.034397E-04  2.724424E-06 -2.829330E-14  2.736340E-17
      7146   1  3.135321E-04 -1.034886E-04 -1.034316E-04  2.747208E-06  5.776142E-07 -6.438068E-10
      7147   1  3.135320E-04 -1.034708E-04 -1.034371E-04  2.809207E-06  1.070267E-06 -4.570698E-09
      7148   1  3.135321E-04 -1.034977E-04 -1.034206E-04  2.938749E-06  1.372502E-06 -3.825294E-09
      7149   1  3.135320E-04 -1.034679E-04 -1.034219E-04  3.134944E-06  1.347984E-06 -1.954713E-08
      7150   1  3.135321E-04 -1.035274E-04 -1.033704E-04  3.648019E-06  6.234946E-07 -3.174453E-08
      7151   1  2.508257E-04 -8.277930E-05 -8.280252E-05  9.932607E-06 -2.312774E-07 -2.063130E-08
      7152   1  2.508256E-04 -8.276057E-05 -8.276974E-05  8.856098E-06 -6.334131E-07  2.010730E-08
      7153   1  2.508257E-04 -8.277762E-05 -8.275093E-05  8.266722E-06 -7.743497E-07  1.437396E-08
      7154   1  2.508256E-04 -8.278364E-05 -8.275137E-05  7.924963E-06 -6.407637E-07  4.223372E-09
      7155   1  2.508257E-04 -8.277804E-05 -8.275111E-05  7.736566E-06 -3.580880E-07  3.523729E-09
      7156   1  2.508256E-04 -8.278617E-05 -8.274960E-05  7.679059E-06 -2.104729E-14  2.217388E-16
      7157   1  2.508257E-04 -8.277804E-05 -8.275111E-05  7.736566E-06  3.580879E-07 -3.523729E-09
      7158   1  2.508256E-04 -8.278364E-05 -8.275137E-05  7.924963E-06  6.407637E-07 -4.223372E-09
      7159   1  2.508257E-04 -8.277762E-05 -8.275093E-05  8.266722E-06  7.743497E-07 -1.437396E-08
      7160   1  2.508256E-04 -8.276057E-05 -8.276974E-05  8.856098E-06  6.334131E-07 -2.010730E-08
      7161   1  2.508257E-04 -8.277930E-05 -8.280252E-05  9.932607E-06  2.312774E-07  2.063130E-08
      7162   1  1.881192E-04 -6.210774E-05 -6.204688E-05  1.452033E-05 -1.261994E-07  2.198148E-09
      7163   1  1.881192E-04 -6.207939E-05 -6.208753E-05  1.331918E-05 -3.183529E-07 -2.199302E-08
      7164   1  1.881192E-04 -6.206781E-05 -6.208265E-05  1.249380E-05 -4.059883E-07  8.716339E-09
      7165   1  1.881192E-04 -6.208277E-05 -6.206628E-05  1.198339E-05 -3.623551E-07  2.337449E-09
      7166   1  1.881192E-04 -6.208265E-05 -6.206881E-05  1.170197E-05 -2.069260E-07  1.895739E-09
      7167   1  1.881192E-04 -6.208358E-05 -6.206405E-05  1.161084E-05 -1.485978E-14  9.054952E-17
      7168   1  1.881192E-04 -6.208265E-05 -6.206881E-05  1.170197E-05  2.069260E-07 -1.895738E-09
      7169   1  1.881192E-04 -6.208277E-05 -6.206628E-05  1.198339E-05  3.623551E-07 -2.337449E-09
      7170   1  1.881192E-04 -6.206781E-05 -6.208265E-05  1.249380E-05  4.059883E-07 -8.716340E-09
      7171   1  1.881192E-04 -6.207939E-05 -6.208753E-05  1.331918E-05  3.183529E-07  2.199302E-08
      7172   1  1.881192E-04 -6.210774E-05 -6.204688E-05  1.452033E-05  1.261994E-07 -2.198148E-09
      7173   1  1.254128E-04 -4.139123E-05 -4.139428E-05  1.772536E-05 -5.843218E-08 -8.753389E-09
      7174   1  1.254128E-04 -4.139071E-05 -4.137810E-05  1.645285E-05 -1.613814E-07  7.033921E-10
      7175   1  1.254128E-04 -4.138589E-05 -4.138662E-05  1.553576E-05 -2.068034E-07 -1.668483E-08
      7176   1  1.254128E-04 -4.137961E-05 -4.138781E-05  1.492193E-05 -1.868186E-07  2.583533E-09
      7177   1  1.254128E-04 -4.138841E-05 -4.137773E-05  1.457597E-05 -1.104241E-07 -2.529011E-09
      7178   1  1.254128E-04 -4.138540E-05 -4.138216E-05  1.446381E-05 -9.455015E-15  6.440102E-16
      7179   1  1.254128E-04 -4.138841E-05 -4.137773E-05  1.457597E-05  1.104241E-07  2.529012E-09
      7180   1  1.254128E-04 -4.137961E-05 -4.138781E-05  1.492193E-05  1.868186E-07 -2.583532E-09
      7181   1  1.254128E-04 -4.138589E-05 -4.138662E-05  1.553576E-05  2.068034E-07  1.668483E-08
      7182   1  1.254128E-04 -4.139071E-05 -4.137810E-05  1.645285E-05  1.613814E-07 -7.033921E-10
      7183   1  1.254128E-04 -4.139123E-05 -4.139428E-05  1.772536E-05  5.843217E-08  8.753389E-09
      7184   1  6.270642E-05 -2.070151E-05 -2.068434E-05  1.962261E-05 -2.573120E-08 -1.157091E-09
      7185   1  6.270641E-05 -2.069359E-05 -2.069586E-05  1.832412E-05 -6.642312E-08 -1.693250E-08
      7186   1  6.270642E-05 -2.069140E-05 -2.069269E-05  1.735703E-05 -8.711291E-08 -1.178271E-09
      7187   1  6.270641E-05 -2.069319E-05 -2.069145E-05  1.669890E-05 -7.935264E-08 -1.315957E-08
      7188   1  6.270641E-05 -2.069019E-05 -2.069357E-05  1.631658E-05 -4.673563E-08  2.266439E-10
      7189   1  6.270641E-05 -2.069417E-05 -2.068889E-05  1.619261E-05 -4.605274E-15  3.597257E-16
      7190   1  6.270641E-05 -2.069019E-05 -2.069357E-05  1.631658E-05  4.673562E-08 -2.266426E-10
      7191   1  6.270641E-05 -2.069319E-05 -2.069145E-05  1.669890E-05  7.935263E-08  1.315957E-08
      7192   1  6.270642E-05 -2.069140E-05 -2.069269E-05  1.735703E-05  8.711290E-08  1.178271E-09
      7193   1  6.270641E-05 -2.069359E-05 -2.069586E-05  1.832412E-05  6.642311E-08  1.693250E-08
      7194   1  6.270642E-05 -2.070151E-05 -2.068434E-05  1.962261E-05  2.573120E-08  1.157091E-09
      7195   1  6.991163E-14 -2.354367E-14 -2.411998E-14  2.025233E-05 -2.666375E-17 -6.803049E-09
      7196   1  6.915085E-14 -2.572942E-14 -2.140684E-14  1.894418E-05 -2.831292E-17 -2.863811E-09
      7197   1  7.118470E-14 -2.880335E-14 -2.396472E-14  1.796588E-05 -8.820408E-17 -1.810550E-08
      7198   1  7.092027E-14 -3.132217E-14 -2.128865E-14  1.729130E-05 -6.814719E-17 -1.110652E-09
      7199   1  7.229124E-14 -3.267525E-14 -2.386892E-14  1.690023E-05 -7.407568E-17 -7.521958E-09
      7200   1  7.148416E-14 -3.312628E-14 -2.129164E-14  1.677111E-05 -2.739728E-18  6.423814E-16
      7201   1  7.229113E-14 -3.275852E-14 -2.385873E-14  1.690023E-05  3.036698E-17  7.521959E-09
      7202   1  7.095637E-14 -3.166911E-14 -2.128069E-14  1.729130E-05  8.505651E-17  1.110653E-09
      7203   1  7.144285E-14 -2.996908E-14 -2.390037E-14  1.796588E-05  1.103167E-16  1.810550E-08
      7204   1  6.960253E-14 -2.772782E-14 -2.135245E-14  1.894418E-05  5.807427E-17  2.863811E-09
      7205   1  7.052941E-14 -2.627759E-14 -2.409541E-14  2.025233E-05 -6.532318E-18  6.803049E-09
      7206   1 -6.270642E-05  2.070151E-05  2.068434E-05  1.962261E-05  2.573120E-08 -1.157091E-09
      7207   1 -6.270641E-05  2.069359E-05  2.069586E-05  1.832412E-05  6.642312E-08 -1.693250E-08
      7208   1 -6.270642E-05  2.069140E-05  2.069269E-05  1.735703E-05  8.711291E-08 -1.178271E-09
      7209   1 -6.270641E-05  2.069319E-05  2.069145E-05  1.669890E-05  7.935264E-08 -1.315957E-08
      7210   1 -6.270641E-05  2.069019E-05  2.069357E-05  1.631658E-05  4.673563E-08  2.266439E-10
      7211   1 -6.270641E-05  2.069417E-05  2.068889E-05  1.619261E-05  4.572998E-15  3.914872E-16
      7212   1 -6.270641E-05  2.069019E-05  2.069357E-05  1.631658E-05 -4.673562E-08 -2.266426E-10
      7213   1 -6.270641E-05  2.069319E-05  2.069145E-05  1.669890E-05 -7.935263E-08  1.315957E-08
      7214   1 -6.270642E-05  2.069140E-05  2.069269E-05  1.735703E-05 -8.711290E-08  1.178271E-09
      7215   1 -6.270641E-05  2.069359E-05  2.069586E-05  1.832412E-05 -6.642311E-08  1.693250E-08
      7216   1 -6.270642E-05  2.070151E-05  2.068434E-05  1.962261E-05 -2.573120E-08  1.157091E-09
      7217   1 -1.254128E-04  4.139123E-05  4.139428E-05  1.772536E-05  5.843218E-08 -8.753389E-09
      7218   1 -1.254128E-04  4.139071E-05  4.137810E-05  1.645285E-05  1.613814E-07  7.033922E-10
      7219   1 -1.254128E-04  4.138589E-05  4.138662E-05  1.553576E-05  2.068034E-07 -1.668483E-08
      7220   1 -1.254128E-04  4.137961E-05  4.138781E-05  1.492193E-05  1.868186E-07  2.583533E-09
      7221   1 -1.254128E-04  4.138841E-05  4.137773E-05  1.457597E-05  1.104241E-07 -2.529011E-09
      7222   1 -1.254128E-04  4.138540E-05  4.138216E-05  1.446381E-05  9.445613E-15  6.618593E-16
      7223   1 -1.254128E-04  4.138841E-05  4.137773E-05  1.457597E-05 -1.104241E-07  2.529012E-09
      7224   1 -1.254128E-04  4.137961E-05  4.138781E-05  1.492193E-05 -1.868186E-07 -2.583532E-09
      7225   1 -1.254128E-04  4.138589E-05  4.138662E-05  1.553576E-05 -2.068034E-07  1.668483E-08
      7226   1 -1.254128E-04  4.139071E-05  4.137810E-05  1.645285E-05 -1.613814E-07 -7.033922E-10
      7227   1 -1.254128E-04  4.139123E-05  4.139428E-05  1.772536E-05 -5.843217E-08  8.753389E-09
      7228   1 -1.881192E-04  6.210774E-05  6.204688E-05  1.452033E-05  1.261994E-07  2.198149E-09
      7229   1 -1.881192E-04  6.207939E-05  6.208753E-05  1.331918E-05  3.183529E-07 -2.199302E-08
      7230   1 -1.881192E-04  6.206781E-05  6.208265E-05  1.249380E-05  4.059883E-07  8.716340E-09
      7231   1 -1.881192E-04  6.208277E-05  6.206628E-05  1.198339E-05  3.623551E-07  2.337449E-09
      7232   1 -1.881192E-04  6.208265E-05  6.206881E-05  1.170197E-05  2.069260E-07  1.895739E-09
      7233   1 -1.881192E-04  6.208357E-05  6.206405E-05  1.161084E-05  1.489824E-14  1.028688E-16
      7234   1 -1.881192E-04  6.208265E-05  6.206881E-05  1.170197E-05 -2.069260E-07 -1.895738E-09
      7235   1 -1.881192E-04  6.208277E-05  6.206628E-05  1.198339E-05 -3.623551E-07 -2.337449E-09
      7236   1 -1.881192E-04  6.206781E-05  6.208265E-05  1.249380E-05 -4.059883E-07 -8.716339E-09
      7237   1 -1.881192E-04  6.207939E-05  6.208753E-05  1.331918E-05 -3.183529E-07  2.199302E-08
      7238   1 -1.881192E-04  6.210774E-05  6.204688E-05  1.452033E-05 -1.261994E-07 -2.198149E-09
      7239   1 -2.508257E-04  8.277930E-05  8.280252E-05  9.932607E-06  2.312774E-07 -2.063130E-08
      7240   1 -2.508256E-04  8.276057E-05  8.276974E-05  8.856098E-06  6.334131E-07  2.010730E-08
      7241   1 -2.508257E-04  8.277762E-05  8.275093E-05  8.266722E-06  7.743497E-07  1.437396E-08
      7242   1 -2.508256E-04  8.278364E-05  8.275137E-05  7.924963E-06  6.407637E-07  4.223372E-09
      7243   1 -2.508257E-04  8.277804E-05  8.275111E-05  7.736566E-06  3.580880E-07  3.523729E-09
      7244   1 -2.508256E-04  8.278617E-05  8.274960E-05  7.679059E-06  2.108094E-14  3.114828E-16
      7245   1 -2.508257E-04  8.277804E-05  8.275111E-05  7.736566E-06 -3.580879E-07 -3.523729E-09
      7246   1 -2.508256E-04  8.278364E-05  8.275137E-05  7.924963E-06 -6.407637E-07 -4.223372E-09
      7247   1 -2.508257E-04  8.277762E-05  8.275093E-05  8.266722E-06 -7.743497E-07 -1.437396E-08
      7248   1 -2.508256E-04  8.276057E-05  8.276974E-05  8.856098E-06 -6.334131E-07 -2.010730E-08
      7249   1 -2.508257E-04  8.277930E-05  8.280252E-05  9.932607E-06 -2.312774E-07  2.063130E-08
      7250   1 -3.135321E-04  1.035274E-04  1.033704E-04  3.648019E-06  6.234946E-07  3.174453E-08
      7251   1 -3.135320E-04  1.034679E-04  1.034219E-04  3.134944E-06  1.347984E-06  1.954713E-08
      7252   1 -3.135321E-04  1.034977E-04  1.034206E-04  2.938749E-06  1.372502E-06  3.825295E-09
      7253   1 -3.135320E-04  1.034708E-04  1.034371E-04  2.809207E-06  1.070267E-06  4.570698E-09
      7254   1 -3.135321E-04  1.034886E-04  1.034316E-04  2.747208E-06  5.776143E-07  6.438070E-10
      7255   1 -3.135321E-04  1.034718E-04  1.034397E-04  2.724424E-06  2.824127E-14  6.530031E-17
      7256   1 -3.135321E-04  1.034886E-04  1.034316E-04  2.747208E-06 -5.776142E-07 -6.438068E-10
      7257   1 -3.135320E-04  1.034708E-04  1.034371E-04  2.809207E-06 -1.070267E-06 -4.570698E-09
      7258   1 -3.135321E-04  1.034977E-04  1.034206E-04  2.938749E-06 -1.372502E-06 -3.825294E-09
      7259   1 -3.135320E-04  1.034679E-04  1.034219E-04  3.134944E-06 -1.347984E-06 -1.954713E-08
      7260   1 -3.135321E-04  1.035274E-04  1.033704E-04  3.648019E-06 -6.234946E-07 -3.174453E-08
      7261   1  3.089881E-04 -1.020270E-04 -1.018722E-04  3.648021E-06 -6.234950E-07  3.128585E-08
      7262   1  3.089881E-04 -1.019684E-04 -1.019231E-04  3.134943E-06 -1.347983E-06  1.926301E-08
      7263   1  3.089881E-04 -1.019977E-04 -1.019217E-04  2.938751E-06 -1.372504E-06  3.770388E-09
      7264   1  3.089881E-04 -1.019713E-04 -1.019381E-04  2.809206E-06 -1.070266E-06  4.504136E-09
      7265   1  3.089881E-04 -1.019888E-04 -1.019326E-04  2.747208E-06 -5.776149E-07  6.346262E-10
      7266   1  3.089881E-04 -1.019722E-04 -1.019407E-04  2.724423E-06 -2.827298E-14  1.123301E-16
      7267   1  3.089881E-04 -1.019888E-04 -1.019326E-04  2.747208E-06  5.776149E-07 -6.346260E-10
      7268   1  3.089881E-04 -1.019713E-04 -1.019381E-04  2.809206E-06  1.070266E-06 -4.504136E-09
      7269   1  3.089881E-04 -1.019977E-04 -1.019217E-04  2.938751E-06  1.372504E-06 -3.770388E-09
      7270   1  3.089881E-04 -1.019684E-04 -1.019231E-04  3.134943E-06  1.347983E-06 -1.926301E-08
      7271   1  3.089881E-04 -1.020270E-04 -1.018722E-04  3.648021E-06  6.234950E-07 -3.128585E-08
      7272   1  2.471905E-04 -8.157960E-05 -8.160242E-05  9.932605E-06 -2.312781E-07 -2.033264E-08
      7273   1  2.471905E-04 -8.156114E-05 -8.157024E-05  8.856099E-06 -6.334118E-07  1.981590E-08
      7274   1  2.471905E-04 -8.157794E-05 -8.155159E-05  8.266722E-06 -7.743511E-07  1.416567E-08
      7275   1  2.471905E-04 -8.158387E-05 -8.155213E-05  7.924963E-06 -6.407626E-07  4.162133E-09
      7276   1  2.471905E-04 -8.157835E-05 -8.155176E-05  7.736566E-06 -3.580886E-07  3.472679E-09
      7277   1  2.471905E-04 -8.158637E-05 -8.155038E-05  7.679059E-06 -2.116773E-14  4.129277E-16
      7278   1  2.471905E-04 -8.157835E-05 -8.155176E-05  7.736566E-06  3.580885E-07 -3.472679E-09
      7279   1  2.471905E-04 -8.158387E-05 -8.155213E-05  7.924963E-06  6.407626E-07 -4.162132E-09
      7280   1  2.471905E-04 -8.157794E-05 -8.155159E-05  8.266722E-06  7.743510E-07 -1.416567E-08
      7281   1  2.471905E-04 -8.156114E-05 -8.157024E-05  8.856098E-06  6.334118E-07 -1.981590E-08
      7282   1  2.471905E-04 -8.157960E-05 -8.160242E-05  9.932605E-06  2.312781E-07  2.033264E-08
      7283   1  1.853929E-04 -6.120763E-05 -6.114760E-05  1.452033E-05 -1.261997E-07  2.166471E-09
      7284   1  1.853929E-04 -6.117969E-05 -6.118776E-05  1.331918E-05 -3.183520E-07 -2.167420E-08
      7285   1  1.853929E-04 -6.116828E-05 -6.118286E-05  1.249380E-05 -4.059893E-07  8.589955E-09
      7286   1  1.853929E-04 -6.118302E-05 -6.116682E-05  1.198339E-05 -3.623542E-07  2.303615E-09
      7287   1  1.853929E-04 -6.118290E-05 -6.116922E-05  1.170197E-05 -2.069265E-07  1.868244E-09
      7288   1  1.853929E-04 -6.118381E-05 -6.116461E-05  1.161084E-05 -1.506113E-14  4.879977E-16
      7289   1  1.853929E-04 -6.118290E-05 -6.116922E-05  1.170197E-05  2.069265E-07 -1.868243E-09
      7290   1  1.853929E-04 -6.118302E-05 -6.116682E-05  1.198339E-05  3.623542E-07 -2.303615E-09
      7291   1  1.853929E-04 -6.116828E-05 -6.118286E-05  1.249380E-05  4.059893E-07 -8.589954E-09
      7292   1  1.853929E-04 -6.117969E-05 -6.118776E-05  1.331918E-05  3.183520E-07  2.167420E-08
      7293   1  1.853929E-04 -6.120763E-05 -6.114760E-05  1.452033E-05  1.261997E-07 -2.166472E-09
      7294   1  1.235952E-04 -4.079136E-05 -4.079433E-05  1.772536E-05 -5.843251E-08 -8.626664E-09
      7295   1  1.235953E-04 -4.079084E-05 -4.077844E-05  1.645285E-05 -1.613807E-07  6.931385E-10
      7296   1  1.235952E-04 -4.078609E-05 -4.078679E-05  1.553576E-05 -2.068041E-07 -1.644301E-08
      7297   1  1.235953E-04 -4.077990E-05 -4.078801E-05  1.492194E-05 -1.868180E-07  2.546095E-09
      7298   1  1.235952E-04 -4.078858E-05 -4.077802E-05  1.457597E-05 -1.104244E-07 -2.492363E-09
      7299   1  1.235953E-04 -4.078562E-05 -4.078244E-05  1.446381E-05 -9.608051E-15  1.090931E-15
      7300   1  1.235952E-04 -4.078858E-05 -4.077802E-05  1.457597E-05  1.104244E-07  2.492364E-09
      7301   1  1.235953E-04 -4.077990E-05 -4.078801E-05  1.492193E-05  1.868180E-07 -2.546093E-09
      7302   1  1.235952E-04 -4.078609E-05 -4.078679E-05  1.553576E-05  2.068041E-07  1.644302E-08
      7303   1  1.235953E-04 -4.079084E-05 -4.077844E-05  1.645285E-05  1.613807E-07 -6.931381E-10
      7304   1  1.235952E-04 -4.079136E-05 -4.079433E-05  1.772536E-05  5.843250E-08  8.626664E-09
      7305   1  6.179762E-05 -2.040148E-05 -2.038455E-05  1.962261E-05 -2.573131E-08 -1.140221E-09
      7306   1  6.179763E-05 -2.039368E-05 -2.039594E-05  1.832412E-05 -6.642281E-08 -1.668701E-08
      7307   1  6.179762E-05 -2.039152E-05 -2.039278E-05  1.735703E-05 -8.711326E-08 -1.161227E-09
      7308   1  6.179763E-05 -2.039329E-05 -2.039159E-05  1.669890E-05 -7.935235E-08 -1.296883E-08
      7309   1  6.179762E-05 -2.039033E-05 -2.039365E-05  1.631658E-05 -4.673579E-08  2.233527E-10
      7310   1  6.179763E-05 -2.039425E-05 -2.038907E-05  1.619261E-05 -4.679511E-15  9.326864E-16
      7311   1  6.179762E-05 -2.039033E-05 -2.039365E-05  1.631658E-05  4.673579E-08 -2.233504E-10
      7312   1  6.179763E-05 -2.039329E-05 -2.039159E-05  1.669890E-05  7.935234E-08  1.296884E-08
      7313   1  6.179762E-05 -2.039152E-05 -2.039278E-05  1.735703E-05  8.711326E-08  1.161227E-09
      7314   1  6.179763E-05 -2.039368E-05 -2.039594E-05  1.832412E-05  6.642281E-08  1.668701E-08
      7315   1  6.179762E-05 -2.040148E-05 -2.038455E-05  1.962261E-05  2.573130E-08  1.140221E-09
      7316   1  6.647547E-14 -2.156608E-14 -2.073706E-14  2.025233E-05 -1.677125E-17 -6.704558E-09
      7317   1  6.724948E-14 -1.858930E-14 -2.410083E-14  1.894418E-05 -1.673974E-16 -2.822365E-09
      7318   1  6.471115E-14 -1.504352E-14 -2.067918E-14  1.796588E-05 -1.801402E-16 -1.784311E-08
      7319   1  6.490967E-14 -1.193490E-14 -2.382409E-14  1.729130E-05 -1.618464E-16 -1.094540E-09
      7320   1  6.317386E-14 -1.024875E-14 -2.071653E-14  1.690023E-05 -1.016899E-16 -7.412953E-09
      7321   1  6.400436E-14 -9.568735E-15 -2.370766E-14  1.677112E-05 -8.130458E-18  1.295251E-15
      7322   1  6.301947E-14 -9.971191E-15 -2.072511E-14  1.690023E-05  9.806566E-17  7.412955E-09
      7323   1  6.462842E-14 -1.141448E-14 -2.376460E-14  1.729130E-05  1.570882E-16  1.094542E-09
      7324   1  6.408350E-14 -1.341982E-14 -2.066832E-14  1.796588E-05  1.582512E-16  1.784311E-08
      7325   1  6.623565E-14 -1.593170E-14 -2.404541E-14  1.894418E-05  1.206200E-16  2.822366E-09
      7326   1  6.514624E-14 -1.797867E-14 -2.058774E-14  2.025233E-05  9.423496E-17  6.704559E-09
      7327   1 -6.179762E-05  2.040148E-05  2.038455E-05  1.962261E-05  2.573131E-08 -1.140221E-09
      7328   1 -6.179763E-05  2.039368E-05  2.039594E-05  1.832412E-05  6.642281E-08 -1.668701E-08
      7329   1 -6.179762E-05  2.039152E-05  2.039278E-05  1.735703E-05  8.711326E-08 -1.161226E-09
      7330   1 -6.179763E-05  2.039329E-05  2.039159E-05  1.669890E-05  7.935235E-08 -1.296883E-08
      7331   1 -6.179762E-05  2.039033E-05  2.039365E-05  1.631658E-05  4.673579E-08  2.233527E-10
      7332   1 -6.179763E-05  2.039425E-05  2.038907E-05  1.619261E-05  4.667141E-15  1.001712E-15
      7333   1 -6.179762E-05  2.039033E-05  2.039365E-05  1.631658E-05 -4.673578E-08 -2.233504E-10
      7334   1 -6.179763E-05  2.039329E-05  2.039159E-05  1.669890E-05 -7.935234E-08  1.296884E-08
      7335   1 -6.179762E-05  2.039152E-05  2.039278E-05  1.735703E-05 -8.711326E-08  1.161227E-09
      7336   1 -6.179763E-05  2.039368E-05  2.039594E-05  1.832412E-05 -6.642281E-08  1.668701E-08
      7337   1 -6.179762E-05  2.040148E-05  2.038455E-05  1.962261E-05 -2.573130E-08  1.140221E-09
      7338   1 -1.235952E-04  4.079136E-05  4.079433E-05  1.772536E-05  5.843251E-08 -8.626664E-09
      7339   1 -1.235953E-04  4.079084E-05  4.077844E-05  1.645285E-05  1.613807E-07  6.931386E-10
      7340   1 -1.235952E-04  4.078609E-05  4.078679E-05  1.553576E-05  2.068041E-07 -1.644301E-08
      7341   1 -1.235953E-04  4.077990E-05  4.078801E-05  1.492194E-05  1.868180E-07  2.546095E-09
      7342   1 -1.235952E-04  4.078858E-05  4.077802E-05  1.457597E-05  1.104244E-07 -2.492363E-09
      7343   1 -1.235953E-04  4.078562E-05  4.078244E-05  1.446381E-05  9.550872E-15  1.147593E-15
      7344   1 -1.235952E-04  4.078858E-05  4.077802E-05  1.457597E-05 -1.104244E-07  2.492364E-09
      7345   1 -1.235953E-04  4.077990E-05  4.078801E-05  1.492193E-05 -1.868180E-07 -2.546093E-09
      7346   1 -1.235952E-04  4.078609E-05  4.078679E-05  1.553576E-05 -2.068041E-07  1.644302E-08
      7347   1 -1.235953E-04  4.079084E-05  4.077844E-05  1.645285E-05 -1.613807E-07 -6.931382E-10
      7348   1 -1.235952E-04  4.079136E-05  4.079433E-05  1.772536E-05 -5.843250E-08  8.626664E-09
      7349   1 -1.853929E-04  6.120763E-05  6.114760E-05  1.452033E-05  1.261997E-07  2.166472E-09
      7350   1 -1.853929E-04  6.117969E-05  6.118776E-05  1.331918E-05  3.183520E-07 -2.167420E-08
      7351   1 -1.853929E-04  6.116828E-05  6.118286E-05  1.249380E-05  4.059893E-07  8.589955E-09
      7352   1 -1.853929E-04  6.118302E-05  6.116682E-05  1.198339E-05  3.623542E-07  2.303615E-09
      7353   1 -1.853929E-04  6.118290E-05  6.116922E-05  1.170197E-05  2.069265E-07  1.868244E-09
      7354   1 -1.853929E-04  6.118381E-05  6.116461E-05  1.161084E-05  1.497043E-14  4.773632E-16
      7355   1 -1.853929E-04  6.118290E-05  6.116922E-05  1.170197E-05 -2.069265E-07 -1.868242E-09
      7356   1 -1.853929E-04  6.118302E-05  6.116682E-05  1.198339E-05 -3.623542E-07 -2.303615E-09
      7357   1 -1.853929E-04  6.116828E-05  6.118286E-05  1.249380E-05 -4.059893E-07 -8.589954E-09
      7358   1 -1.853929E-04  6.117969E-05  6.118776E-05  1.331918E-05 -3.183520E-07  2.167420E-08
      7359   1 -1.853929E-04  6.120763E-05  6.114760E-05  1.452033E-05 -1.261997E-07 -2.166472E-09
      7360   1 -2.471905E-04  8.157960E-05  8.160242E-05  9.932605E-06  2.312781E-07 -2.033264E-08
      7361   1 -2.471905E-04  8.156114E-05  8.157024E-05  8.856099E-06  6.334118E-07  1.981590E-08
      7362   1 -2.471905E-04  8.157794E-05  8.155159E-05  8.266722E-06  7.743511E-07  1.416567E-08
      7363   1 -2.471905E-04  8.158387E-05  8.155213E-05  7.924963E-06  6.407626E-07  4.162133E-09
      7364   1 -2.471905E-04  8.157835E-05  8.155176E-05  7.736566E-06  3.580886E-07  3.472679E-09
      7365   1 -2.471905E-04  8.158637E-05  8.155038E-05  7.679059E-06  2.109313E-14  5.702920E-16
      7366   1 -2.471905E-04  8.157835E-05  8.155176E-05  7.736566E-06 -3.580885E-07 -3.472679E-09
      7367   1 -2.471905E-04  8.158387E-05  8.155213E-05  7.924963E-06 -6.407626E-07 -4.162132E-09
      7368   1 -2.471905E-04  8.157794E-05  8.155159E-05  8.266722E-06 -7.743510E-07 -1.416567E-08
      7369   1 -2.471905E-04  8.156114E-05  8.157024E-05  8.856098E-06 -6.334118E-07 -1.981590E-08
      7370   1 -2.471905E-04  8.157960E-05  8.160242E-05  9.932605E-06 -2.312781E-07  2.033264E-08
      7371   1 -3.089881E-04  1.020270E-04  1.018722E-04  3.648021E-06  6.234950E-07  3.128585E-08
      7372   1 -3.089881E-04  1.019684E-04  1.019231E-04  3.134943E-06  1.347983E-06  1.926302E-08
      7373   1 -3.089881E-04  1.019977E-04  1.019217E-04  2.938751E-06  1.372504E-06  3.770388E-09
      7374   1 -3.089881E-04  1.019713E-04  1.019381E-04  2.809206E-06  1.070266E-06  4.504136E-09
      7375   1 -3.089881E-04  1.019888E-04  1.019326E-04  2.747208E-06  5.776149E-07  6.346260E-10
      7376   1 -3.089881E-04  1.019722E-04  1.019407E-04  2.724423E-06  2.825770E-14  1.438762E-16
      7377   1 -3.089881E-04  1.019888E-04  1.019326E-04  2.747208E-06 -5.776149E-07 -6.346258E-10
      7378   1 -3.089881E-04  1.019713E-04  1.019381E-04  2.809206E-06 -1.070266E-06 -4.504137E-09
      7379   1 -3.089881E-04  1.019977E-04  1.019217E-04  2.938751E-06 -1.372504E-06 -3.770388E-09
      7380   1 -3.089881E-04  1.019684E-04  1.019231E-04  3.134943E-06 -1.347983E-06 -1.926301E-08
      7381   1 -3.089881E-04  1.020270E-04  1.018722E-04  3.648021E-06 -6.234950E-07 -3.128585E-08
      7382   1  3.044442E-04 -1.005266E-04 -1.003742E-04  3.648019E-06 -6.234947E-07  3.082464E-08
      7383   1  3.044442E-04 -1.004689E-04 -1.004242E-04  3.134944E-06 -1.347984E-06  1.898041E-08
      7384   1  3.044442E-04 -1.004977E-04 -1.004229E-04  2.938750E-06 -1.372503E-06  3.714507E-09
      7385   1  3.044442E-04 -1.004717E-04 -1.004390E-04  2.809206E-06 -1.070267E-06  4.438160E-09
      7386   1  3.044442E-04 -1.004890E-04 -1.004336E-04  2.747208E-06 -5.776144E-07  6.251713E-10
      7387   1  3.044442E-04 -1.004726E-04 -1.004415E-04  2.724424E-06 -2.862204E-14  2.615206E-16
      7388   1  3.044442E-04 -1.004890E-04 -1.004336E-04  2.747208E-06  5.776143E-07 -6.251709E-10
      7389   1  3.044442E-04 -1.004717E-04 -1.004390E-04  2.809206E-06  1.070267E-06 -4.438160E-09
      7390   1  3.044442E-04 -1.004977E-04 -1.004229E-04  2.938750E-06  1.372503E-06 -3.714506E-09
      7391   1  3.044442E-04 -1.004689E-04 -1.004242E-04  3.134944E-06  1.347984E-06 -1.898041E-08
      7392   1  3.044442E-04 -1.005266E-04 -1.003742E-04  3.648019E-06  6.234946E-07 -3.082464E-08
      7393   1  2.435553E-04 -8.037990E-05 -8.040243E-05  9.932607E-06 -2.312776E-07 -2.003335E-08
      7394   1  2.435553E-04 -8.036171E-05 -8.037063E-05  8.856098E-06 -6.334129E-07  1.952448E-08
      7395   1  2.435553E-04 -8.037827E-05 -8.035235E-05  8.266722E-06 -7.743499E-07  1.395733E-08
      7396   1  2.435553E-04 -8.038411E-05 -8.035279E-05  7.924963E-06 -6.407635E-07  4.100950E-09
      7397   1  2.435553E-04 -8.037867E-05 -8.035251E-05  7.736566E-06 -3.580881E-07  3.421596E-09
      7398   1  2.435553E-04 -8.038657E-05 -8.035107E-05  7.679059E-06 -2.164951E-14  8.835257E-16
      7399   1  2.435553E-04 -8.037867E-05 -8.035251E-05  7.736566E-06  3.580880E-07 -3.421595E-09
      7400   1  2.435553E-04 -8.038411E-05 -8.035279E-05  7.924963E-06  6.407635E-07 -4.100949E-09
      7401   1  2.435553E-04 -8.037827E-05 -8.035235E-05  8.266722E-06  7.743499E-07 -1.395733E-08
      7402   1  2.435553E-04 -8.036171E-05 -8.037063E-05  8.856098E-06  6.334129E-07 -1.952448E-08
      7403   1  2.435553E-04 -8.037990E-05 -8.040243E-05  9.932607E-06  2.312775E-07  2.003336E-08
      7404   1  1.826665E-04 -6.030752E-05 -6.024841E-05  1.452033E-05 -1.261995E-07  2.134465E-09
      7405   1  1.826665E-04 -6.027999E-05 -6.028790E-05  1.331918E-05 -3.183528E-07 -2.135553E-08
      7406   1  1.826665E-04 -6.026874E-05 -6.028315E-05  1.249380E-05 -4.059885E-07  8.463682E-09
      7407   1  1.826665E-04 -6.028327E-05 -6.026727E-05  1.198339E-05 -3.623549E-07  2.269705E-09
      7408   1  1.826665E-04 -6.028315E-05 -6.026970E-05  1.170197E-05 -2.069261E-07  1.840788E-09
      7409   1  1.826665E-04 -6.028405E-05 -6.026510E-05  1.161084E-05 -1.550850E-14  1.048942E-15
      7410   1  1.826665E-04 -6.028315E-05 -6.026970E-05  1.170197E-05  2.069261E-07 -1.840785E-09
      7411   1  1.826665E-04 -6.028327E-05 -6.026727E-05  1.198339E-05  3.623549E-07 -2.269703E-09
      7412   1  1.826665E-04 -6.026874E-05 -6.028315E-05  1.249380E-05  4.059885E-07 -8.463681E-09
      7413   1  1.826665E-04 -6.027999E-05 -6.028790E-05  1.331918E-05  3.183527E-07  2.135553E-08
      7414   1  1.826665E-04 -6.030752E-05 -6.024841E-05  1.452033E-05  1.261995E-07 -2.134465E-09
      7415   1  1.217777E-04 -4.019149E-05 -4.019444E-05  1.772536E-05 -5.843224E-08 -8.499692E-09
      7416   1  1.217777E-04 -4.019098E-05 -4.017874E-05  1.645285E-05 -1.613813E-07  6.829951E-10
      7417   1  1.217777E-04 -4.018630E-05 -4.018700E-05  1.553576E-05 -2.068035E-07 -1.620121E-08
      7418   1  1.217777E-04 -4.018020E-05 -4.018816E-05  1.492193E-05 -1.868185E-07  2.508650E-09
      7419   1  1.217777E-04 -4.018875E-05 -4.017837E-05  1.457597E-05 -1.104242E-07 -2.455706E-09
      7420   1  1.217777E-04 -4.018583E-05 -4.018268E-05  1.446381E-05 -9.999471E-15  1.804523E-15
      7421   1  1.217777E-04 -4.018875E-05 -4.017837E-05  1.457597E-05  1.104241E-07  2.455709E-09
      7422   1  1.217777E-04 -4.018020E-05 -4.018816E-05  1.492193E-05  1.868185E-07 -2.508647E-09
      7423   1  1.217777E-04 -4.018630E-05 -4.018700E-05  1.553576E-05  2.068035E-07  1.620122E-08
      7424   1  1.217777E-04 -4.019098E-05 -4.017874E-05  1.645285E-05  1.613812E-07 -6.829941E-10
      7425   1  1.217777E-04 -4.019149E-05 -4.019444E-05  1.772536E-05  5.843223E-08  8.499692E-09
      7426   1  6.088884E-05 -2.010146E-05 -2.008479E-05  1.962261E-05 -2.573122E-08 -1.123535E-09
      7427   1  6.088883E-05 -2.009377E-05 -2.009598E-05  1.832412E-05 -6.642306E-08 -1.644168E-08
      7428   1  6.088884E-05 -2.009165E-05 -2.009290E-05  1.735703E-05 -8.711297E-08 -1.144122E-09
      7429   1  6.088883E-05 -2.009339E-05 -2.009170E-05  1.669890E-05 -7.935259E-08 -1.277813E-08
      7430   1  6.088884E-05 -2.009047E-05 -2.009375E-05  1.631658E-05 -4.673566E-08  2.200748E-10
      7431   1  6.088883E-05 -2.009434E-05 -2.008922E-05  1.619261E-05 -4.896392E-15  1.787865E-15
      7432   1  6.088884E-05 -2.009047E-05 -2.009375E-05  1.631658E-05  4.673565E-08 -2.200708E-10
      7433   1  6.088883E-05 -2.009339E-05 -2.009170E-05  1.669890E-05  7.935258E-08  1.277813E-08
      7434   1  6.088884E-05 -2.009165E-05 -2.009290E-05  1.735703E-05  8.711296E-08  1.144124E-09
      7435   1  6.088883E-05 -2.009377E-05 -2.009598E-05  1.832412E-05  6.642306E-08  1.644168E-08
      7436   1  6.088884E-05 -2.010146E-05 -2.008479E-05  1.962261E-05  2.573122E-08  1.123535E-09
      7437   1  6.842909E-14 -2.312733E-14 -2.406981E-14  2.025233E-05 -5.736361E-17 -6.605878E-09
      7438   1  6.747012E-14 -2.649964E-14 -2.024237E-14  1.894418E-05 -2.743031E-17 -2.780811E-09
      7439   1  7.040592E-14 -3.114176E-14 -2.377696E-14  1.796588E-05 -8.504295E-17 -1.758071E-08
      7440   1  7.010896E-14 -3.489570E-14 -2.012116E-14  1.729130E-05 -8.330781E-17 -1.078455E-09
      7441   1  7.207689E-14 -3.693573E-14 -2.368360E-14  1.690023E-05 -6.821749E-17 -7.303930E-09
      7442   1  7.101199E-14 -3.785861E-14 -2.006997E-14  1.677111E-05 -2.959184E-17  2.208372E-15
      7443   1  7.213089E-14 -3.713696E-14 -2.368696E-14  1.690023E-05  6.492804E-17  7.303934E-09
      7444   1  7.020860E-14 -3.544387E-14 -2.008036E-14  1.729130E-05  7.642609E-17  1.078459E-09
      7445   1  7.080610E-14 -3.278627E-14 -2.376185E-14  1.796588E-05  1.191962E-16  1.758071E-08
      7446   1  6.829205E-14 -2.967071E-14 -2.016074E-14  1.894418E-05  7.372151E-17  2.780812E-09
      7447   1  6.954365E-14 -2.734618E-14 -2.400161E-14  2.025233E-05 -1.810787E-17  6.605879E-09
      7448   1 -6.088884E-05  2.010146E-05  2.008479E-05  1.962261E-05  2.573122E-08 -1.123535E-09
      7449   1 -6.088883E-05  2.009377E-05  2.009598E-05  1.832412E-05  6.642306E-08 -1.644168E-08
      7450   1 -6.088884E-05  2.009165E-05  2.009290E-05  1.735703E-05  8.711297E-08 -1.144122E-09
      7451   1 -6.088883E-05  2.009339E-05  2.009170E-05  1.669890E-05  7.935259E-08 -1.277813E-08
      7452   1 -6.088884E-05  2.009047E-05  2.009375E-05  1.631658E-05  4.673566E-08  2.200748E-10
      7453   1 -6.088883E-05  2.009434E-05  2.008922E-05  1.619261E-05  4.877361E-15  1.763563E-15
      7454   1 -6.088884E-05  2.009047E-05  2.009375E-05  1.631658E-05 -4.673565E-08 -2.200708E-10
      7455   1 -6.088883E-05  2.009339E-05  2.009170E-05  1.669890E-05 -7.935258E-08  1.277813E-08
      7456   1 -6.088884E-05  2.009165E-05  2.009290E-05  1.735703E-05 -8.711296E-08  1.144124E-09
      7457   1 -6.088883E-05  2.009377E-05  2.009598E-05  1.832412E-05 -6.642306E-08  1.644168E-08
      7458   1 -6.088884E-05  2.010146E-05  2.008479E-05  1.962261E-05 -2.573122E-08  1.123535E-09
      7459   1 -1.217777E-04  4.019149E-05  4.019444E-05  1.772536E-05  5.843224E-08 -8.499692E-09
      7460   1 -1.217777E-04  4.019098E-05  4.017874E-05  1.645285E-05  1.613813E-07  6.829952E-10
      7461   1 -1.217777E-04  4.018630E-05  4.018700E-05  1.553576E-05  2.068035E-07 -1.620121E-08
      7462   1 -1.217777E-04  4.018020E-05  4.018816E-05  1.492193E-05  1.868185E-07  2.508650E-09
      7463   1 -1.217777E-04  4.018875E-05  4.017837E-05  1.457597E-05  1.104242E-07 -2.455706E-09
      7464   1 -1.217777E-04  4.018583E-05  4.018268E-05  1.446381E-05  1.000577E-14  1.936992E-15
      7465   1 -1.217777E-04  4.018875E-05  4.017837E-05  1.457597E-05 -1.104241E-07  2.455709E-09
      7466   1 -1.217777E-04  4.018020E-05  4.018816E-05  1.492193E-05 -1.868185E-07 -2.508647E-09
      7467   1 -1.217777E-04  4.018630E-05  4.018700E-05  1.553576E-05 -2.068035E-07  1.620122E-08
      7468   1 -1.217777E-04  4.019098E-05  4.017874E-05  1.645285E-05 -1.613812E-07 -6.829942E-10
      7469   1 -1.217777E-04  4.019149E-05  4.019444E-05  1.772536E-05 -5.843223E-08  8.499692E-09
      7470   1 -1.826665E-04  6.030752E-05  6.024841E-05  1.452033E-05  1.261995E-07  2.134466E-09
      7471   1 -1.826665E-04  6.027999E-05  6.028790E-05  1.331918E-05  3.183528E-07 -2.135553E-08
      7472   1 -1.826665E-04  6.026874E-05  6.028315E-05  1.249380E-05  4.059885E-07  8.463682E-09
      7473   1 -1.826665E-04  6.028327E-05  6.026727E-05  1.198339E-05  3.623549E-07  2.269705E-09
      7474   1 -1.826665E-04  6.028315E-05  6.026970E-05  1.170197E-05  2.069261E-07  1.840788E-09
      7475   1 -1.826665E-04  6.028405E-05  6.026510E-05  1.161084E-05  1.558326E-14  9.931072E-16
      7476   1 -1.826665E-04  6.028315E-05  6.026970E-05  1.170197E-05 -2.069261E-07 -1.840785E-09
      7477   1 -1.826665E-04  6.028327E-05  6.026727E-05  1.198339E-05 -3.623549E-07 -2.269704E-09
      7478   1 -1.826665E-04  6.026874E-05  6.028315E-05  1.249380E-05 -4.059885E-07 -8.463681E-09
      7479   1 -1.826665E-04  6.027999E-05  6.028790E-05  1.331918E-05 -3.183527E-07  2.135553E-08
      7480   1 -1.826665E-04  6.030752E-05  6.024841E-05  1.452033E-05 -1.261995E-07 -2.134466E-09
      7481   1 -2.435553E-04  8.037990E-05  8.040243E-05  9.932607E-06  2.312776E-07 -2.003336E-08
      7482   1 -2.435553E-04  8.036171E-05  8.037063E-05  8.856098E-06  6.334129E-07  1.952448E-08
      7483   1 -2.435553E-04  8.037827E-05  8.035235E-05  8.266722E-06  7.743499E-07  1.395733E-08
      7484   1 -2.435553E-04  8.038411E-05  8.035279E-05  7.924963E-06  6.407635E-07  4.100951E-09
      7485   1 -2.435553E-04  8.037867E-05  8.035251E-05  7.736566E-06  3.580881E-07  3.421596E-09
      7486   1 -2.435553E-04  8.038657E-05  8.035107E-05  7.679059E-06  2.172539E-14  7.578853E-16
      7487   1 -2.435553E-04  8.037867E-05  8.035251E-05  7.736566E-06 -3.580880E-07 -3.421595E-09
      7488   1 -2.435553E-04  8.038411E-05  8.035279E-05  7.924963E-06 -6.407635E-07 -4.100949E-09
      7489   1 -2.435553E-04  8.037827E-05  8.035235E-05  8.266722E-06 -7.743499E-07 -1.395733E-08
      7490   1 -2.435553E-04  8.036171E-05  8.037063E-05  8.856098E-06 -6.334129E-07 -1.952448E-08
      7491   1 -2.435553E-04  8.037990E-05  8.040243E-05  9.932607E-06 -2.312775E-07  2.003336E-08
      7492   1 -3.044442E-04  1.005266E-04  1.003742E-04  3.648019E-06  6.234947E-07  3.082464E-08
      7493   1 -3.044442E-04  1.004689E-04  1.004242E-04  3.134944E-06  1.347984E-06  1.898041E-08
      7494   1 -3.044442E-04  1.004977E-04  1.004229E-04  2.938750E-06  1.372503E-06  3.714507E-09
      7495   1 -3.044442E-04  1.004717E-04  1.004390E-04  2.809206E-06  1.070267E-06  4.438160E-09
      7496   1 -3.044442E-04  1.004890E-04  1.004336E-04  2.747208E-06  5.776144E-07  6.251715E-10
      7497   1 -3.044442E-04  1.004726E-04  1.004415E-04  2.724424E-06  2.860684E-14  1.661464E-16
      7498   1 -3.044442E-04  1.004890E-04  1.004336E-04  2.747208E-06 -5.776143E-07 -6.251709E-10
      7499   1 -3.044442E-04  1.004717E-04  1.004390E-04  2.809206E-06 -1.070267E-06 -4.438160E-09
      7500   1 -3.044442E-04  1.004977E-04  1.004229E-04  2.938750E-06 -1.372503E-06 -3.714506E-09
      7501   1 -3.044442E-04  1.004689E-04  1.004242E-04  3.134944E-06 -1.347984E-06 -1.898041E-08
      7502   1 -3.044442E-04  1.005266E-04  1.003742E-04  3.648019E-06 -6.234946E-07 -3.082464E-08
      7503   1  2.999002E-04 -9.902617E-05 -9.887599E-05  3.648021E-06 -6.234949E-07  3.036549E-08
      7504   1  2.999002E-04 -9.896933E-05 -9.892540E-05  3.134943E-06 -1.347983E-06  1.869657E-08
      7505   1  2.999002E-04 -9.899775E-05 -9.892401E-05  2.938750E-06 -1.372504E-06  3.659421E-09
      7506   1  2.999002E-04 -9.897210E-05 -9.893990E-05  2.809206E-06 -1.070266E-06  4.371706E-09
      7507   1  2.999002E-04 -9.898914E-05 -9.893457E-05  2.747208E-06 -5.776148E-07  6.159404E-10
      7508   1  2.999002E-04 -9.897300E-05 -9.894239E-05  2.724423E-06 -2.891929E-14  4.679620E-16
      7509   1  2.999002E-04 -9.898914E-05 -9.893457E-05  2.747208E-06  5.776148E-07 -6.159396E-10
      7510   1  2.999002E-04 -9.897210E-05 -9.893990E-05  2.809206E-06  1.070266E-06 -4.371706E-09
      7511   1  2.999002E-04 -9.899775E-05 -9.892401E-05  2.938750E-06  1.372504E-06 -3.659421E-09
      7512   1  2.999002E-04 -9.896933E-05 -9.892540E-05  3.134943E-06  1.347983E-06 -1.869657E-08
      7513   1  2.999002E-04 -9.902617E-05 -9.887599E-05  3.648021E-06  6.234949E-07 -3.036549E-08
      7514   1  2.399202E-04 -7.918020E-05 -7.920236E-05  9.932605E-06 -2.312780E-07 -1.973458E-08
      7515   1  2.399202E-04 -7.916229E-05 -7.917110E-05  8.856098E-06 -6.334120E-07  1.923308E-08
      7516   1  2.399202E-04 -7.917859E-05 -7.915302E-05  8.266722E-06 -7.743509E-07  1.374903E-08
      7517   1  2.399202E-04 -7.918435E-05 -7.915353E-05  7.924963E-06 -6.407628E-07  4.039722E-09
      7518   1  2.399202E-04 -7.917899E-05 -7.915319E-05  7.736566E-06 -3.580885E-07  3.370540E-09
      7519   1  2.399202E-04 -7.918677E-05 -7.915184E-05  7.679059E-06 -2.224996E-14  1.474613E-15
      7520   1  2.399202E-04 -7.917899E-05 -7.915319E-05  7.736566E-06  3.580884E-07 -3.370538E-09
      7521   1  2.399202E-04 -7.918435E-05 -7.915353E-05  7.924963E-06  6.407628E-07 -4.039720E-09
      7522   1  2.399202E-04 -7.917859E-05 -7.915302E-05  8.266722E-06  7.743508E-07 -1.374903E-08
      7523   1  2.399202E-04 -7.916229E-05 -7.917110E-05  8.856098E-06  6.334120E-07 -1.923308E-08
      7524   1  2.399202E-04 -7.918020E-05 -7.920236E-05  9.932605E-06  2.312780E-07  1.973458E-08
      7525   1  1.799401E-04 -5.940740E-05 -5.934915E-05  1.452033E-05 -1.261997E-07  2.102725E-09
      7526   1  1.799401E-04 -5.938029E-05 -5.938811E-05  1.331918E-05 -3.183522E-07 -2.103673E-08
      7527   1  1.799401E-04 -5.936921E-05 -5.938337E-05  1.249380E-05 -4.059892E-07  8.337318E-09
      7528   1  1.799401E-04 -5.938352E-05 -5.936779E-05  1.198339E-05 -3.623544E-07  2.235857E-09
      7529   1  1.799401E-04 -5.938340E-05 -5.937013E-05  1.170197E-05 -2.069264E-07  1.813300E-09
      7530   1  1.799401E-04 -5.938429E-05 -5.936565E-05  1.161084E-05 -1.613131E-14  1.955517E-15
      7531   1  1.799401E-04 -5.938340E-05 -5.937013E-05  1.170197E-05  2.069264E-07 -1.813295E-09
      7532   1  1.799401E-04 -5.938352E-05 -5.936779E-05  1.198339E-05  3.623543E-07 -2.235854E-09
      7533   1  1.799401E-04 -5.936921E-05 -5.938337E-05  1.249380E-05  4.059892E-07 -8.337316E-09
      7534   1  1.799401E-04 -5.938029E-05 -5.938811E-05  1.331918E-05  3.183522E-07  2.103673E-08
      7535   1  1.799401E-04 -5.940740E-05 -5.934915E-05  1.452033E-05  1.261997E-07 -2.102725E-09
      7536   1  1.199601E-04 -3.959161E-05 -3.959450E-05  1.772536E-05 -5.843246E-08 -8.372920E-09
      7537   1  1.199601E-04 -3.959111E-05 -3.957907E-05  1.645285E-05 -1.613808E-07  6.727609E-10
      7538   1  1.199601E-04 -3.958650E-05 -3.958718E-05  1.553576E-05 -2.068040E-07 -1.595940E-08
      7539   1  1.199601E-04 -3.958050E-05 -3.958836E-05  1.492193E-05 -1.868181E-07  2.471211E-09
      7540   1  1.199601E-04 -3.958891E-05 -3.957867E-05  1.457597E-05 -1.104244E-07 -2.419056E-09
      7541   1  1.199601E-04 -3.958604E-05 -3.958296E-05  1.446381E-05 -1.045315E-14  3.124850E-15
      7542   1  1.199601E-04 -3.958891E-05 -3.957867E-05  1.457597E-05  1.104244E-07  2.419061E-09
      7543   1  1.199601E-04 -3.958050E-05 -3.958836E-05  1.492193E-05  1.868181E-07 -2.471206E-09
      7544   1  1.199601E-04 -3.958650E-05 -3.958718E-05  1.553576E-05  2.068040E-07  1.595940E-08
      7545   1  1.199601E-04 -3.959111E-05 -3.957907E-05  1.645285E-05  1.613808E-07 -6.727591E-10
      7546   1  1.199601E-04 -3.959161E-05 -3.959450E-05  1.772536E-05  5.843245E-08  8.372921E-09
      7547   1  5.998004E-05 -1.980144E-05 -1.978501E-05  1.962261E-05 -2.573129E-08 -1.106700E-09
      7548   1  5.998005E-05 -1.979387E-05 -1.979606E-05  1.832412E-05 -6.642286E-08 -1.619622E-08
      7549   1  5.998004E-05 -1.979177E-05 -1.979300E-05  1.735703E-05 -8.711321E-08 -1.127067E-09
      7550   1  5.998005E-05 -1.979349E-05 -1.979183E-05  1.669890E-05 -7.935239E-08 -1.258740E-08
      7551   1  5.998005E-05 -1.979062E-05 -1.979384E-05  1.631658E-05 -4.673577E-08  2.167867E-10
      7552   1  5.998005E-05 -1.979442E-05 -1.978939E-05  1.619261E-05 -5.186573E-15  3.227829E-15
      7553   1  5.998005E-05 -1.979062E-05 -1.979384E-05  1.631658E-05  4.673576E-08 -2.167801E-10
      7554   1  5.998005E-05 -1.979349E-05 -1.979183E-05  1.669890E-05  7.935238E-08  1.258740E-08
      7555   1  5.998004E-05 -1.979177E-05 -1.979300E-05  1.735703E-05  8.711320E-08  1.127071E-09
      7556   1  5.998005E-05 -1.979387E-05 -1.979606E-05  1.832412E-05  6.642285E-08  1.619623E-08
      7557   1  5.998004E-05 -1.980144E-05 -1.978501E-05  1.962261E-05  2.573129E-08  1.106701E-09
      7558   1  6.421621E-14 -2.090689E-14 -1.939958E-14  2.025233E-05 -6.261183E-17 -6.507351E-09
      7559   1  6.510786E-14 -1.634110E-14 -2.404761E-14  1.894418E-05 -2.530054E-16 -2.739345E-09
      7560   1  6.139251E-14 -1.072059E-14 -1.946040E-14  1.796588E-05 -2.475318E-16 -1.731831E-08
      7561   1  6.148239E-14 -6.127043E-15 -2.366312E-14  1.729130E-05 -2.482721E-16 -1.062348E-09
      7562   1  5.898060E-14 -3.379241E-15 -1.950107E-14  1.690023E-05 -1.301541E-16 -7.194922E-09
      7563   1  6.020423E-14 -2.609024E-15 -2.357005E-14  1.677112E-05 -2.270673E-17  3.662421E-15
      7564   1  5.885440E-14 -3.205769E-15 -1.945817E-14  1.690023E-05  9.062617E-17  7.194928E-09
      7565   1  6.114412E-14 -5.315193E-15 -2.365770E-14  1.729130E-05  2.096423E-16  1.062354E-09
      7566   1  6.055237E-14 -8.548717E-15 -1.939258E-14  1.796588E-05  2.179500E-16  1.731831E-08
      7567   1  6.359973E-14 -1.223327E-14 -2.400240E-14  1.894418E-05  1.976789E-16  2.739348E-09
      7568   1  6.223461E-14 -1.530720E-14 -1.939861E-14  2.025233E-05  1.064966E-16  6.507352E-09
      7569   1 -5.998004E-05  1.980144E-05  1.978501E-05  1.962261E-05  2.573129E-08 -1.106700E-09
      7570   1 -5.998005E-05  1.979387E-05  1.979605E-05  1.832412E-05  6.642286E-08 -1.619622E-08
      7571   1 -5.998004E-05  1.979177E-05  1.979300E-05  1.735703E-05  8.711321E-08 -1.127067E-09
      7572   1 -5.998005E-05  1.979349E-05  1.979183E-05  1.669890E-05  7.935239E-08 -1.258740E-08
      7573   1 -5.998004E-05  1.979062E-05  1.979384E-05  1.631658E-05  4.673577E-08  2.167866E-10
      7574   1 -5.998005E-05  1.979442E-05  1.978939E-05  1.619261E-05  5.133082E-15  3.248611E-15
      7575   1 -5.998004E-05  1.979062E-05  1.979384E-05  1.631658E-05 -4.673576E-08 -2.167801E-10
      7576   1 -5.998005E-05  1.979349E-05  1.979183E-05  1.669890E-05 -7.935238E-08  1.258740E-08
      7577   1 -5.998004E-05  1.979177E-05  1.979300E-05  1.735703E-05 -8.711320E-08  1.127071E-09
      7578   1 -5.998005E-05  1.979387E-05  1.979605E-05  1.832412E-05 -6.642285E-08  1.619623E-08
      7579   1 -5.998004E-05  1.980144E-05  1.978501E-05  1.962261E-05 -2.573129E-08  1.106701E-09
      7580   1 -1.199601E-04  3.959161E-05  3.959450E-05  1.772536E-05  5.843246E-08 -8.372920E-09
      7581   1 -1.199601E-04  3.959111E-05  3.957907E-05  1.645285E-05  1.613808E-07  6.727611E-10
      7582   1 -1.199601E-04  3.958650E-05  3.958718E-05  1.553576E-05  2.068040E-07 -1.595940E-08
      7583   1 -1.199601E-04  3.958050E-05  3.958836E-05  1.492193E-05  1.868181E-07  2.471211E-09
      7584   1 -1.199601E-04  3.958891E-05  3.957867E-05  1.457597E-05  1.104244E-07 -2.419056E-09
      7585   1 -1.199601E-04  3.958604E-05  3.958296E-05  1.446381E-05  1.039581E-14  3.054181E-15
      7586   1 -1.199601E-04  3.958891E-05  3.957867E-05  1.457597E-05 -1.104244E-07  2.419061E-09
      7587   1 -1.199601E-04  3.958050E-05  3.958836E-05  1.492193E-05 -1.868181E-07 -2.471206E-09
      7588   1 -1.199601E-04  3.958650E-05  3.958718E-05  1.553576E-05 -2.068040E-07  1.595940E-08
      7589   1 -1.199601E-04  3.959111E-05  3.957907E-05  1.645285E-05 -1.613808E-07 -6.727592E-10
      7590   1 -1.199601E-04  3.959161E-05  3.959450E-05  1.772536E-05 -5.843245E-08  8.372921E-09
      7591   1 -1.799401E-04  5.940740E-05  5.934915E-05  1.452033E-05  1.261997E-07  2.102725E-09
      7592   1 -1.799401E-04  5.938029E-05  5.938811E-05  1.331918E-05  3.183522E-07 -2.103673E-08
      7593   1 -1.799401E-04  5.936921E-05  5.938337E-05  1.249380E-05  4.059892E-07  8.337318E-09
      7594   1 -1.799401E-04  5.938352E-05  5.936779E-05  1.198339E-05  3.623544E-07  2.235857E-09
      7595   1 -1.799401E-04  5.938340E-05  5.937013E-05  1.170197E-05  2.069264E-07  1.813300E-09
      7596   1 -1.799401E-04  5.938429E-05  5.936565E-05  1.161084E-05  1.601075E-14  1.949987E-15
      7597   1 -1.799401E-04  5.938340E-05  5.937013E-05  1.170197E-05 -2.069264E-07 -1.813296E-09
      7598   1 -1.799401E-04  5.938352E-05  5.936779E-05  1.198339E-05 -3.623543E-07 -2.235854E-09
      7599   1 -1.799401E-04  5.936921E-05  5.938337E-05  1.249380E-05 -4.059892E-07 -8.337316E-09
      7600   1 -1.799401E-04  5.938029E-05  5.938811E-05  1.331918E-05 -3.183522E-07  2.103673E-08
      7601   1 -1.799401E-04  5.940740E-05  5.934915E-05  1.452033E-05 -1.261997E-07 -2.102725E-09
      7602   1 -2.399202E-04  7.918020E-05  7.920236E-05  9.932605E-06  2.312780E-07 -1.973458E-08
      7603   1 -2.399202E-04  7.916229E-05  7.917110E-05  8.856098E-06  6.334120E-07  1.923308E-08
      7604   1 -2.399202E-04  7.917859E-05  7.915302E-05  8.266722E-06  7.743509E-07  1.374903E-08
      7605   1 -2.399202E-04  7.918435E-05  7.915353E-05  7.924963E-06  6.407628E-07  4.039722E-09
      7606   1 -2.399202E-04  7.917899E-05  7.915319E-05  7.736566E-06  3.580885E-07  3.370540E-09
      7607   1 -2.399202E-04  7.918677E-05  7.915184E-05  7.679059E-06  2.211135E-14  1.398163E-15
      7608   1 -2.399202E-04  7.917899E-05  7.915319E-05  7.736566E-06 -3.580884E-07 -3.370538E-09
      7609   1 -2.399202E-04  7.918435E-05  7.915353E-05  7.924963E-06 -6.407628E-07 -4.039720E-09
      7610   1 -2.399202E-04  7.917859E-05  7.915302E-05  8.266722E-06 -7.743508E-07 -1.374903E-08
      7611   1 -2.399202E-04  7.916229E-05  7.917110E-05  8.856098E-06 -6.334120E-07 -1.923308E-08
      7612   1 -2.399202E-04  7.918020E-05  7.920236E-05  9.932605E-06 -2.312780E-07  1.973458E-08
      7613   1 -2.999002E-04  9.902617E-05  9.887599E-05  3.648021E-06  6.234949E-07  3.036549E-08
      7614   1 -2.999002E-04  9.896933E-05  9.892540E-05  3.134943E-06  1.347983E-06  1.869657E-08
      7615   1 -2.999002E-04  9.899775E-05  9.892401E-05  2.938750E-06  1.372504E-06  3.659421E-09
      7616   1 -2.999002E-04  9.897210E-05  9.893990E-05  2.809206E-06  1.070266E-06  4.371707E-09
      7617   1 -2.999002E-04  9.898914E-05  9.893457E-05  2.747208E-06  5.776148E-07  6.159402E-10
      7618   1 -2.999002E-04  9.897300E-05  9.894239E-05  2.724423E-06  2.888597E-14  4.308526E-16
      7619   1 -2.999002E-04  9.898914E-05  9.893457E-05  2.747208E-06 -5.776148E-07 -6.159395E-10
      7620   1 -2.999002E-04  9.897210E-05  9.893990E-05  2.809206E-06 -1.070266E-06 -4.371706E-09
      7621   1 -2.999002E-04  9.899775E-05  9.892401E-05  2.938750E-06 -1.372504E-06 -3.659420E-09
      7622   1 -2.999002E-04  9.896933E-05  9.892540E-05  3.134943E-06 -1.347983E-06 -1.869657E-08
      7623   1 -2.999002E-04  9.902617E-05  9.887599E-05  3.648021E-06 -6.234949E-07 -3.036549E-08
      7624   1  2.953563E-04 -9.752578E-05 -9.737791E-05  3.648020E-06 -6.234947E-07  2.990466E-08
      7625   1  2.953563E-04 -9.746979E-05 -9.742649E-05  3.134944E-06 -1.347984E-06  1.841374E-08
      7626   1  2.953563E-04 -9.749779E-05 -9.742520E-05  2.938750E-06 -1.372503E-06  3.603686E-09
      7627   1  2.953563E-04 -9.747252E-05 -9.744078E-05  2.809206E-06 -1.070267E-06  4.305642E-09
      7628   1  2.953563E-04 -9.748931E-05 -9.743559E-05  2.747208E-06 -5.776145E-07  6.065269E-10
      7629   1  2.953563E-04 -9.747341E-05 -9.744323E-05  2.724424E-06 -2.995989E-14  6.706333E-16
      7630   1  2.953563E-04 -9.748931E-05 -9.743559E-05  2.747208E-06  5.776144E-07 -6.065253E-10
      7631   1  2.953563E-04 -9.747252E-05 -9.744078E-05  2.809206E-06  1.070267E-06 -4.305641E-09
      7632   1  2.953563E-04 -9.749779E-05 -9.742520E-05  2.938750E-06  1.372503E-06 -3.603685E-09
      7633   1  2.953563E-04 -9.746979E-05 -9.742649E-05  3.134944E-06  1.347984E-06 -1.841374E-08
      7634   1  2.953563E-04 -9.752578E-05 -9.737791E-05  3.648020E-06  6.234947E-07 -2.990466E-08
      7635   1  2.362850E-04 -7.798050E-05 -7.800235E-05  9.932606E-06 -2.312776E-07 -1.943538E-08
      7636   1  2.362850E-04 -7.796286E-05 -7.797151E-05  8.856098E-06 -6.334127E-07  1.894166E-08
      7637   1  2.362850E-04 -7.797892E-05 -7.795376E-05  8.266722E-06 -7.743501E-07  1.354070E-08
      7638   1  2.362850E-04 -7.798458E-05 -7.795421E-05  7.924963E-06 -6.407634E-07  3.978532E-09
      7639   1  2.362850E-04 -7.797931E-05 -7.795393E-05  7.736566E-06 -3.580882E-07  3.319462E-09
      7640   1  2.362850E-04 -7.798697E-05 -7.795254E-05  7.679059E-06 -2.347719E-14  2.277858E-15
      7641   1  2.362850E-04 -7.797931E-05 -7.795393E-05  7.736566E-06  3.580881E-07 -3.319458E-09
      7642   1  2.362850E-04 -7.798458E-05 -7.795421E-05  7.924963E-06  6.407634E-07 -3.978528E-09
      7643   1  2.362850E-04 -7.797892E-05 -7.795376E-05  8.266722E-06  7.743501E-07 -1.354069E-08
      7644   1  2.362850E-04 -7.796286E-05 -7.797151E-05  8.856098E-06  6.334127E-07 -1.894166E-08
      7645   1  2.362850E-04 -7.798050E-05 -7.800235E-05  9.932606E-06  2.312776E-07  1.943538E-08
      7646   1  1.772138E-04 -5.850729E-05 -5.844995E-05  1.452033E-05 -1.261995E-07  2.070770E-09
      7647   1  1.772138E-04 -5.848058E-05 -5.848826E-05  1.331918E-05 -3.183526E-07 -2.071804E-08
      7648   1  1.772138E-04 -5.846968E-05 -5.848365E-05  1.249380E-05 -4.059886E-07  8.211029E-09
      7649   1  1.772138E-04 -5.848377E-05 -5.846825E-05  1.198339E-05 -3.623548E-07  2.201959E-09
      7650   1  1.772138E-04 -5.848365E-05 -5.847060E-05  1.170197E-05 -2.069262E-07  1.785839E-09
      7651   1  1.772138E-04 -5.848453E-05 -5.846615E-05  1.161084E-05 -1.733327E-14  3.333284E-15
      7652   1  1.772138E-04 -5.848365E-05 -5.847060E-05  1.170197E-05  2.069262E-07 -1.785831E-09
      7653   1  1.772138E-04 -5.848377E-05 -5.846825E-05  1.198339E-05  3.623548E-07 -2.201954E-09
      7654   1  1.772138E-04 -5.846968E-05 -5.848365E-05  1.249380E-05  4.059886E-07 -8.211026E-09
      7655   1  1.772138E-04 -5.848058E-05 -5.848826E-05  1.331918E-05  3.183526E-07  2.071804E-08
      7656   1  1.772138E-04 -5.850729E-05 -5.844995E-05  1.452033E-05  1.261995E-07 -2.070770E-09
      7657   1  1.181425E-04 -3.899174E-05 -3.899461E-05  1.772536E-05 -5.843228E-08 -8.245985E-09
      7658   1  1.181425E-04 -3.899125E-05 -3.897937E-05  1.645285E-05 -1.613812E-07  6.626007E-10
      7659   1  1.181425E-04 -3.898671E-05 -3.898739E-05  1.553576E-05 -2.068036E-07 -1.571759E-08
      7660   1  1.181425E-04 -3.898079E-05 -3.898852E-05  1.492193E-05 -1.868184E-07  2.433768E-09
      7661   1  1.181425E-04 -3.898908E-05 -3.897901E-05  1.457597E-05 -1.104242E-07 -2.382399E-09
      7662   1  1.181425E-04 -3.898625E-05 -3.898320E-05  1.446381E-05 -1.141888E-14  4.851412E-15
      7663   1  1.181425E-04 -3.898908E-05 -3.897901E-05  1.457597E-05  1.104242E-07  2.382408E-09
      7664   1  1.181425E-04 -3.898079E-05 -3.898852E-05  1.492193E-05  1.868184E-07 -2.433760E-09
      7665   1  1.181425E-04 -3.898671E-05 -3.898739E-05  1.553576E-05  2.068036E-07  1.571760E-08
      7666   1  1.181425E-04 -3.899125E-05 -3.897937E-05  1.645285E-05  1.613812E-07 -6.625977E-10
      7667   1  1.181425E-04 -3.899174E-05 -3.899461E-05  1.772536E-05  5.843227E-08  8.245986E-09
      7668   1  5.907126E-05 -1.950142E-05 -1.948525E-05  1.962261E-05 -2.573123E-08 -1.089984E-09
      7669   1  5.907126E-05 -1.949396E-05 -1.949611E-05  1.832412E-05 -6.642303E-08 -1.595088E-08
      7670   1  5.907126E-05 -1.949190E-05 -1.949311E-05  1.735703E-05 -8.711302E-08 -1.109971E-09
      7671   1  5.907126E-05 -1.949359E-05 -1.949195E-05  1.669890E-05 -7.935255E-08 -1.239669E-08
      7672   1  5.907126E-05 -1.949076E-05 -1.949394E-05  1.631658E-05 -4.673568E-08  2.135079E-10
      7673   1  5.907126E-05 -1.949450E-05 -1.948954E-05  1.619261E-05 -5.660186E-15  5.300542E-15
      7674   1  5.907126E-05 -1.949076E-05 -1.949394E-05  1.631658E-05  4.673567E-08 -2.134974E-10
      7675   1  5.907126E-05 -1.949359E-05 -1.949195E-05  1.669890E-05  7.935254E-08  1.239670E-08
      7676   1  5.907126E-05 -1.949190E-05 -1.949311E-05  1.735703E-05  8.711301E-08  1.109977E-09
      7677   1  5.907126E-05 -1.949396E-05 -1.949611E-05  1.832412E-05  6.642302E-08  1.595088E-08
      7678   1  5.907126E-05 -1.950142E-05 -1.948525E-05  1.962261E-05  2.573123E-08  1.089985E-09
      7679   1  6.725902E-14 -2.292611E-14 -2.415721E-14  2.025233E-05 -5.149960E-17 -6.408699E-09
      7680   1  6.606261E-14 -2.810946E-14 -1.890947E-14  1.894418E-05 -8.204276E-17 -2.697807E-09
      7681   1  7.025392E-14 -3.520795E-14 -2.377827E-14  1.796588E-05 -1.346367E-16 -1.705591E-08
      7682   1  6.997809E-14 -4.073825E-14 -1.875588E-14  1.729130E-05 -1.196923E-16 -1.046258E-09
      7683   1  7.280559E-14 -4.377748E-14 -2.366897E-14  1.690023E-05 -6.871650E-17 -7.085900E-09
      7684   1  7.128358E-14 -4.492934E-14 -1.875174E-14  1.677111E-05  1.965858E-18  5.767616E-15
      7685   1  7.285242E-14 -4.409667E-14 -2.363846E-14  1.690023E-05  6.642411E-17  7.085911E-09
      7686   1  7.018745E-14 -4.167500E-14 -1.873035E-14  1.729130E-05  1.130988E-16  1.046268E-09
      7687   1  7.094184E-14 -3.759493E-14 -2.376865E-14  1.796588E-05  1.364375E-16  1.705591E-08
      7688   1  6.742675E-14 -3.289730E-14 -1.884383E-14  1.894418E-05  6.517326E-17  2.697812E-09
      7689   1  6.905880E-14 -2.943479E-14 -2.408515E-14  2.025233E-05  2.592344E-17  6.408700E-09
      7690   1 -5.907126E-05  1.950142E-05  1.948525E-05  1.962261E-05  2.573123E-08 -1.089984E-09
      7691   1 -5.907126E-05  1.949396E-05  1.949611E-05  1.832412E-05  6.642302E-08 -1.595088E-08
      7692   1 -5.907126E-05  1.949190E-05  1.949311E-05  1.735703E-05  8.711301E-08 -1.109971E-09
      7693   1 -5.907126E-05  1.949359E-05  1.949195E-05  1.669890E-05  7.935255E-08 -1.239669E-08
      7694   1 -5.907126E-05  1.949076E-05  1.949394E-05  1.631658E-05  4.673568E-08  2.135079E-10
      7695   1 -5.907126E-05  1.949450E-05  1.948954E-05  1.619261E-05  5.689740E-15  5.229363E-15
      7696   1 -5.907126E-05  1.949076E-05  1.949394E-05  1.631658E-05 -4.673567E-08 -2.134974E-10
      7697   1 -5.907126E-05  1.949359E-05  1.949195E-05  1.669890E-05 -7.935254E-08  1.239670E-08
      7698   1 -5.907126E-05  1.949190E-05  1.949311E-05  1.735703E-05 -8.711301E-08  1.109977E-09
      7699   1 -5.907126E-05  1.949396E-05  1.949611E-05  1.832412E-05 -6.642302E-08  1.595088E-08
      7700   1 -5.907126E-05  1.950142E-05  1.948525E-05  1.962261E-05 -2.573123E-08  1.089986E-09
      7701   1 -1.181425E-04  3.899174E-05  3.899461E-05  1.772536E-05  5.843228E-08 -8.245985E-09
      7702   1 -1.181425E-04  3.899124E-05  3.897937E-05  1.645285E-05  1.613812E-07  6.626008E-10
      7703   1 -1.181425E-04  3.898671E-05  3.898739E-05  1.553576E-05  2.068036E-07 -1.571759E-08
      7704   1 -1.181425E-04  3.898079E-05  3.898852E-05  1.492193E-05  1.868184E-07  2.433768E-09
      7705   1 -1.181425E-04  3.898908E-05  3.897901E-05  1.457597E-05  1.104242E-07 -2.382399E-09
      7706   1 -1.181425E-04  3.898625E-05  3.898320E-05  1.446381E-05  1.148282E-14  4.789848E-15
      7707   1 -1.181425E-04  3.898908E-05  3.897901E-05  1.457597E-05 -1.104242E-07  2.382408E-09
      7708   1 -1.181425E-04  3.898079E-05  3.898852E-05  1.492193E-05 -1.868184E-07 -2.433760E-09
      7709   1 -1.181425E-04  3.898671E-05  3.898739E-05  1.553576E-05 -2.068036E-07  1.571760E-08
      7710   1 -1.181425E-04  3.899124E-05  3.897937E-05  1.645285E-05 -1.613812E-07 -6.625977E-10
      7711   1 -1.181425E-04  3.899174E-05  3.899461E-05  1.772536E-05 -5.843227E-08  8.245986E-09
      7712   1 -1.772138E-04  5.850729E-05  5.844995E-05  1.452033E-05  1.261995E-07  2.070771E-09
      7713   1 -1.772138E-04  5.848058E-05  5.848826E-05  1.331918E-05  3.183526E-07 -2.071804E-08
      7714   1 -1.772138E-04  5.846968E-05  5.848365E-05  1.249380E-05  4.059886E-07  8.211029E-09
      7715   1 -1.772138E-04  5.848377E-05  5.846825E-05  1.198339E-05  3.623548E-07  2.201959E-09
      7716   1 -1.772138E-04  5.848365E-05  5.847060E-05  1.170197E-05  2.069262E-07  1.785838E-09
      7717   1 -1.772138E-04  5.848453E-05  5.846615E-05  1.161084E-05  1.750950E-14  3.308965E-15
      7718   1 -1.772138E-04  5.848365E-05  5.847060E-05  1.170197E-05 -2.069262E-07 -1.785831E-09
      7719   1 -1.772138E-04  5.848377E-05  5.846825E-05  1.198339E-05 -3.623548E-07 -2.201954E-09
      7720   1 -1.772138E-04  5.846968E-05  5.848365E-05  1.249380E-05 -4.059886E-07 -8.211026E-09
      7721   1 -1.772138E-04  5.848058E-05  5.848826E-05  1.331918E-05 -3.183526E-07  2.071804E-08
      7722   1 -1.772138E-04  5.850729E-05  5.844995E-05  1.452033E-05 -1.261995E-07 -2.070770E-09
      7723   1 -2.362850E-04  7.798050E-05  7.800235E-05  9.932606E-06  2.312776E-07 -1.943538E-08
      7724   1 -2.362850E-04  7.796286E-05  7.797151E-05  8.856098E-06  6.334127E-07  1.894166E-08
      7725   1 -2.362850E-04  7.797892E-05  7.795376E-05  8.266722E-06  7.743501E-07  1.354070E-08
      7726   1 -2.362850E-04  7.798458E-05  7.795421E-05  7.924963E-06  6.407634E-07  3.978532E-09
      7727   1 -2.362850E-04  7.797931E-05  7.795393E-05  7.736566E-06  3.580882E-07  3.319462E-09
      7728   1 -2.362850E-04  7.798697E-05  7.795254E-05  7.679059E-06  2.363253E-14  2.163254E-15
      7729   1 -2.362850E-04  7.797931E-05  7.795393E-05  7.736566E-06 -3.580881E-07 -3.319458E-09
      7730   1 -2.362850E-04  7.798458E-05  7.795421E-05  7.924963E-06 -6.407634E-07 -3.978528E-09
      7731   1 -2.362850E-04  7.797892E-05  7.795376E-05  8.266722E-06 -7.743501E-07 -1.354069E-08
      7732   1 -2.362850E-04  7.796286E-05  7.797151E-05  8.856098E-06 -6.334127E-07 -1.894166E-08
      7733   1 -2.362850E-04  7.798050E-05  7.800235E-05  9.932606E-06 -2.312776E-07  1.943538E-08
      7734   1 -2.953563E-04  9.752578E-05  9.737791E-05  3.648020E-06  6.234947E-07  2.990466E-08
      7735   1 -2.953563E-04  9.746979E-05  9.742649E-05  3.134944E-06  1.347984E-06  1.841373E-08
      7736   1 -2.953563E-04  9.749779E-05  9.742520E-05  2.938750E-06  1.372503E-06  3.603687E-09
      7737   1 -2.953563E-04  9.747252E-05  9.744078E-05  2.809206E-06  1.070267E-06  4.305642E-09
      7738   1 -2.953563E-04  9.748931E-05  9.743559E-05  2.747208E-06  5.776145E-07  6.065270E-10
      7739   1 -2.953563E-04  9.747341E-05  9.744323E-05  2.724424E-06  3.000799E-14  6.671477E-16
      7740   1 -2.953563E-04  9.748931E-05  9.743559E-05  2.747208E-06 -5.776144E-07 -6.065255E-10
      7741   1 -2.953563E-04  9.747252E-05  9.744078E-05  2.809206E-06 -1.070267E-06 -4.305641E-09
      7742   1 -2.953563E-04  9.749779E-05  9.742520E-05  2.938750E-06 -1.372503E-06 -3.603686E-09
      7743   1 -2.953563E-04  9.746979E-05  9.742649E-05  3.134944E-06 -1.347984E-06 -1.841373E-08
      7744   1 -2.953563E-04  9.752578E-05  9.737791E-05  3.648020E-06 -6.234947E-07 -2.990466E-08
      7745   1  2.908123E-04 -9.602538E-05 -9.587975E-05  3.648021E-06 -6.234949E-07  2.944520E-08
      7746   1  2.908124E-04 -9.597026E-05 -9.592765E-05  3.134943E-06 -1.347983E-06  1.813008E-08
      7747   1  2.908123E-04 -9.599782E-05 -9.592632E-05  2.938750E-06 -1.372503E-06  3.548481E-09
      7748   1  2.908124E-04 -9.597295E-05 -9.594172E-05  2.809206E-06 -1.070266E-06  4.239260E-09
      7749   1  2.908123E-04 -9.598947E-05 -9.593656E-05  2.747208E-06 -5.776148E-07  5.972625E-10
      7750   1  2.908124E-04 -9.597382E-05 -9.594413E-05  2.724423E-06 -3.125228E-14  1.199075E-15
      7751   1  2.908123E-04 -9.598947E-05 -9.593656E-05  2.747208E-06  5.776147E-07 -5.972603E-10
      7752   1  2.908124E-04 -9.597295E-05 -9.594172E-05  2.809206E-06  1.070266E-06 -4.239259E-09
      7753   1  2.908123E-04 -9.599782E-05 -9.592632E-05  2.938750E-06  1.372503E-06 -3.548480E-09
      7754   1  2.908124E-04 -9.597026E-05 -9.592765E-05  3.134943E-06  1.347983E-06 -1.813008E-08
      7755   1  2.908123E-04 -9.602538E-05 -9.587975E-05  3.648021E-06  6.234949E-07 -2.944520E-08
      7756   1  2.326499E-04 -7.678080E-05 -7.680229E-05  9.932605E-06 -2.312779E-07 -1.913653E-08
      7757   1  2.326499E-04 -7.676343E-05 -7.677197E-05  8.856098E-06 -6.334121E-07  1.865026E-08
      7758   1  2.326499E-04 -7.677924E-05 -7.675445E-05  8.266722E-06 -7.743507E-07  1.333239E-08
      7759   1  2.326499E-04 -7.678482E-05 -7.675493E-05  7.924963E-06 -6.407629E-07  3.917311E-09
      7760   1  2.326499E-04 -7.677963E-05 -7.675461E-05  7.736566E-06 -3.580884E-07  3.268403E-09
      7761   1  2.326499E-04 -7.678717E-05 -7.675329E-05  7.679059E-06 -2.511851E-14  3.636624E-15
      7762   1  2.326499E-04 -7.677963E-05 -7.675461E-05  7.736566E-06  3.580884E-07 -3.268397E-09
      7763   1  2.326499E-04 -7.678482E-05 -7.675493E-05  7.924963E-06  6.407629E-07 -3.917305E-09
      7764   1  2.326499E-04 -7.677924E-05 -7.675445E-05  8.266722E-06  7.743507E-07 -1.333239E-08
      7765   1  2.326499E-04 -7.676343E-05 -7.677197E-05  8.856098E-06  6.334121E-07 -1.865026E-08
      7766   1  2.326499E-04 -7.678080E-05 -7.680229E-05  9.932605E-06  2.312779E-07  1.913653E-08
      7767   1  1.744874E-04 -5.760718E-05 -5.755069E-05  1.452033E-05 -1.261996E-07  2.038990E-09
      7768   1  1.744874E-04 -5.758088E-05 -5.758847E-05  1.331918E-05 -3.183523E-07 -2.039926E-08
      7769   1  1.744874E-04 -5.757014E-05 -5.758388E-05  1.249380E-05 -4.059891E-07  8.084680E-09
      7770   1  1.744874E-04 -5.758402E-05 -5.756876E-05  1.198339E-05 -3.623545E-07  2.168103E-09
      7771   1  1.744874E-04 -5.758390E-05 -5.757104E-05  1.170197E-05 -2.069264E-07  1.758357E-09
      7772   1  1.744874E-04 -5.758477E-05 -5.756669E-05  1.161084E-05 -1.891881E-14  5.406450E-15
      7773   1  1.744874E-04 -5.758390E-05 -5.757104E-05  1.170197E-05  2.069264E-07 -1.758346E-09
      7774   1  1.744874E-04 -5.758402E-05 -5.756876E-05  1.198339E-05  3.623544E-07 -2.168094E-09
      7775   1  1.744874E-04 -5.757014E-05 -5.758388E-05  1.249380E-05  4.059891E-07 -8.084674E-09
      7776   1  1.744874E-04 -5.758088E-05 -5.758847E-05  1.331918E-05  3.183522E-07  2.039926E-08
      7777   1  1.744874E-04 -5.760718E-05 -5.755069E-05  1.452033E-05  1.261996E-07 -2.038989E-09
      7778   1  1.163249E-04 -3.839187E-05 -3.839467E-05  1.772536E-05 -5.843242E-08 -8.119183E-09
      7779   1  1.163249E-04 -3.839138E-05 -3.837970E-05  1.645285E-05 -1.613809E-07  6.523816E-10
      7780   1  1.163249E-04 -3.838691E-05 -3.838757E-05  1.553576E-05 -2.068039E-07 -1.547578E-08
      7781   1  1.163249E-04 -3.838109E-05 -3.838871E-05  1.492193E-05 -1.868182E-07  2.396329E-09
      7782   1  1.163249E-04 -3.838925E-05 -3.837932E-05  1.457597E-05 -1.104243E-07 -2.345746E-09
      7783   1  1.163249E-04 -3.838646E-05 -3.838347E-05  1.446381E-05 -1.264026E-14  7.442497E-15
      7784   1  1.163249E-04 -3.838925E-05 -3.837932E-05  1.457597E-05  1.104243E-07  2.345760E-09
      7785   1  1.163249E-04 -3.838109E-05 -3.838871E-05  1.492193E-05  1.868182E-07 -2.396317E-09
      7786   1  1.163249E-04 -3.838691E-05 -3.838757E-05  1.553576E-05  2.068039E-07  1.547579E-08
      7787   1  1.163249E-04 -3.839138E-05 -3.837970E-05  1.645285E-05  1.613809E-07 -6.523764E-10
      7788   1  1.163249E-04 -3.839187E-05 -3.839467E-05  1.772536E-05  5.843242E-08  8.119184E-09
      7789   1  5.816247E-05 -1.920140E-05 -1.918547E-05  1.962261E-05 -2.573128E-08 -1.073172E-09
      7790   1  5.816247E-05 -1.919405E-05 -1.919617E-05  1.832412E-05 -6.642289E-08 -1.570544E-08
      7791   1  5.816247E-05 -1.919202E-05 -1.919321E-05  1.735703E-05 -8.711318E-08 -1.092907E-09
      7792   1  5.816247E-05 -1.919368E-05 -1.919208E-05  1.669890E-05 -7.935242E-08 -1.220596E-08
      7793   1  5.816247E-05 -1.919090E-05 -1.919402E-05  1.631658E-05 -4.673576E-08  2.102228E-10
      7794   1  5.816247E-05 -1.919459E-05 -1.918971E-05  1.619261E-05 -6.364746E-15  8.189283E-15
      7795   1  5.816247E-05 -1.919090E-05 -1.919402E-05  1.631658E-05  4.673574E-08 -2.102067E-10
      7796   1  5.816247E-05 -1.919368E-05 -1.919208E-05  1.669890E-05  7.935241E-08  1.220597E-08
      7797   1  5.816247E-05 -1.919202E-05 -1.919321E-05  1.735703E-05  8.711317E-08  1.092918E-09
      7798   1  5.816247E-05 -1.919405E-05 -1.919617E-05  1.832412E-05  6.642288E-08  1.570544E-08
      7799   1  5.816247E-05 -1.920140E-05 -1.918547E-05  1.962261E-05  2.573128E-08  1.073174E-09
      7800   1  6.180776E-14 -1.999789E-14 -1.800052E-14  2.025233E-05 -9.900375E-17 -6.310149E-09
      7801   1  6.282648E-14 -1.305206E-14 -2.425366E-14  1.894418E-05 -3.853771E-16 -2.656327E-09
      7802   1  5.743550E-14 -4.586609E-15 -1.801000E-14  1.796588E-05 -3.884756E-16 -1.679351E-08
      7803   1  5.737067E-14  2.234324E-15 -2.375451E-14  1.729130E-05 -3.890670E-16 -1.030152E-09
      7804   1  5.376407E-14  6.335210E-15 -1.803424E-14  1.690023E-05 -1.960980E-16 -6.976888E-09
      7805   1  5.542637E-14  7.500944E-15 -2.366685E-14  1.677112E-05 -3.257329E-17  8.825845E-15
      7806   1  5.359829E-14  6.571133E-15 -1.802792E-14  1.690023E-05  1.463872E-16  6.976904E-09
      7807   1  5.685871E-14  3.420875E-15 -2.373376E-14  1.729130E-05  2.890017E-16  1.030167E-09
      7808   1  5.620645E-14 -1.325329E-15 -1.798697E-14  1.796588E-05  3.402150E-16  1.679352E-08
      7809   1  6.065179E-14 -7.140122E-15 -2.416981E-14  1.894418E-05  3.250082E-16  2.656334E-09
      7810   1  5.898439E-14 -1.176143E-14 -1.790141E-14  2.025233E-05  1.429309E-16  6.310151E-09
      7811   1 -5.816247E-05  1.920140E-05  1.918547E-05  1.962261E-05  2.573128E-08 -1.073172E-09
      7812   1 -5.816247E-05  1.919405E-05  1.919617E-05  1.832412E-05  6.642289E-08 -1.570544E-08
      7813   1 -5.816247E-05  1.919202E-05  1.919321E-05  1.735703E-05  8.711318E-08 -1.092907E-09
      7814   1 -5.816247E-05  1.919368E-05  1.919208E-05  1.669890E-05  7.935242E-08 -1.220596E-08
      7815   1 -5.816247E-05  1.919090E-05  1.919402E-05  1.631658E-05  4.673576E-08  2.102228E-10
      7816   1 -5.816247E-05  1.919459E-05  1.918971E-05  1.619261E-05  6.311878E-15  8.198446E-15
      7817   1 -5.816247E-05  1.919090E-05  1.919402E-05  1.631658E-05 -4.673574E-08 -2.102067E-10
      7818   1 -5.816247E-05  1.919368E-05  1.919208E-05  1.669890E-05 -7.935241E-08  1.220597E-08
      7819   1 -5.816247E-05  1.919202E-05  1.919321E-05  1.735703E-05 -8.711317E-08  1.092918E-09
      7820   1 -5.816247E-05  1.919405E-05  1.919617E-05  1.832412E-05 -6.642288E-08  1.570544E-08
      7821   1 -5.816247E-05  1.920140E-05  1.918547E-05  1.962261E-05 -2.573128E-08  1.073174E-09
      7822   1 -1.163249E-04  3.839187E-05  3.839467E-05  1.772536E-05  5.843242E-08 -8.119183E-09
      7823   1 -1.163249E-04  3.839138E-05  3.837970E-05  1.645285E-05  1.613809E-07  6.523817E-10
      7824   1 -1.163249E-04  3.838691E-05  3.838757E-05  1.553576E-05  2.068039E-07 -1.547578E-08
      7825   1 -1.163249E-04  3.838109E-05  3.838871E-05  1.492193E-05  1.868182E-07  2.396329E-09
      7826   1 -1.163249E-04  3.838925E-05  3.837932E-05  1.457597E-05  1.104243E-07 -2.345746E-09
      7827   1 -1.163249E-04  3.838646E-05  3.838347E-05  1.446381E-05  1.253477E-14  7.516271E-15
      7828   1 -1.163249E-04  3.838925E-05  3.837932E-05  1.457597E-05 -1.104243E-07  2.345760E-09
      7829   1 -1.163249E-04  3.838109E-05  3.838871E-05  1.492193E-05 -1.868182E-07 -2.396317E-09
      7830   1 -1.163249E-04  3.838691E-05  3.838757E-05  1.553576E-05 -2.068039E-07  1.547579E-08
      7831   1 -1.163249E-04  3.839138E-05  3.837970E-05  1.645285E-05 -1.613809E-07 -6.523764E-10
      7832   1 -1.163249E-04  3.839187E-05  3.839467E-05  1.772536E-05 -5.843242E-08  8.119185E-09
      7833   1 -1.744874E-04  5.760718E-05  5.755069E-05  1.452033E-05  1.261996E-07  2.038990E-09
      7834   1 -1.744874E-04  5.758088E-05  5.758847E-05  1.331918E-05  3.183523E-07 -2.039926E-08
      7835   1 -1.744874E-04  5.757014E-05  5.758388E-05  1.249380E-05  4.059891E-07  8.084680E-09
      7836   1 -1.744874E-04  5.758402E-05  5.756876E-05  1.198339E-05  3.623544E-07  2.168103E-09
      7837   1 -1.744874E-04  5.758390E-05  5.757104E-05  1.170197E-05  2.069264E-07  1.758357E-09
      7838   1 -1.744874E-04  5.758477E-05  5.756669E-05  1.161084E-05  1.866999E-14  5.420864E-15
      7839   1 -1.744874E-04  5.758390E-05  5.757104E-05  1.170197E-05 -2.069264E-07 -1.758346E-09
      7840   1 -1.744874E-04  5.758402E-05  5.756876E-05  1.198339E-05 -3.623544E-07 -2.168095E-09
      7841   1 -1.744874E-04  5.757014E-05  5.758388E-05  1.249380E-05 -4.059891E-07 -8.084674E-09
      7842   1 -1.744874E-04  5.758088E-05  5.758847E-05  1.331918E-05 -3.183522E-07  2.039926E-08
      7843   1 -1.744874E-04  5.760718E-05  5.755069E-05  1.452033E-05 -1.261996E-07 -2.038990E-09
      7844   1 -2.326499E-04  7.678080E-05  7.680229E-05  9.932605E-06  2.312779E-07 -1.913653E-08
      7845   1 -2.326499E-04  7.676343E-05  7.677197E-05  8.856098E-06  6.334121E-07  1.865026E-08
      7846   1 -2.326499E-04  7.677924E-05  7.675445E-05  8.266722E-06  7.743507E-07  1.333239E-08
      7847   1 -2.326499E-04  7.678482E-05  7.675493E-05  7.924963E-06  6.407629E-07  3.917311E-09
      7848   1 -2.326499E-04  7.677963E-05  7.675461E-05  7.736566E-06  3.580884E-07  3.268403E-09
      7849   1 -2.326499E-04  7.678717E-05  7.675329E-05  7.679059E-06  2.489797E-14  3.704445E-15
      7850   1 -2.326499E-04  7.677963E-05  7.675461E-05  7.736566E-06 -3.580884E-07 -3.268397E-09
      7851   1 -2.326499E-04  7.678482E-05  7.675493E-05  7.924963E-06 -6.407629E-07 -3.917305E-09
      7852   1 -2.326499E-04  7.677924E-05  7.675445E-05  8.266722E-06 -7.743507E-07 -1.333239E-08
      7853   1 -2.326499E-04  7.676343E-05  7.677197E-05  8.856098E-06 -6.334121E-07 -1.865026E-08
      7854   1 -2.326499E-04  7.678080E-05  7.680229E-05  9.932605E-06 -2.312779E-07  1.913653E-08
      7855   1 -2.908123E-04  9.602538E-05  9.587975E-05  3.648021E-06  6.234949E-07  2.944520E-08
      7856   1 -2.908124E-04  9.597026E-05  9.592765E-05  3.134943E-06  1.347983E-06  1.813008E-08
      7857   1 -2.908123E-04  9.599782E-05  9.592632E-05  2.938750E-06  1.372503E-06  3.548480E-09
      7858   1 -2.908124E-04  9.597295E-05  9.594172E-05  2.809206E-06  1.070266E-06  4.239261E-09
      7859   1 -2.908123E-04  9.598947E-05  9.593656E-05  2.747208E-06  5.776148E-07  5.972622E-10
      7860   1 -2.908124E-04  9.597382E-05  9.594413E-05  2.724423E-06  3.116968E-14  1.242037E-15
      7861   1 -2.908123E-04  9.598947E-05  9.593656E-05  2.747208E-06 -5.776147E-07 -5.972601E-10
      7862   1 -2.908124E-04  9.597295E-05  9.594172E-05  2.809206E-06 -1.070266E-06 -4.239259E-09
      7863   1 -2.908123E-04  9.599782E-05  9.592632E-05  2.938750E-06 -1.372503E-06 -3.548479E-09
      7864   1 -2.908124E-04  9.597026E-05  9.592765E-05  3.134943E-06 -1.347983E-06 -1.813008E-08
      7865   1 -2.908123E-04  9.602538E-05  9.587975E-05  3.648021E-06 -6.234949E-07 -2.944520E-08
      7866   1  2.862684E-04 -9.452498E-05 -9.438166E-05  3.648020E-06 -6.234947E-07  2.898462E-08
      7867   1  2.862684E-04 -9.447072E-05 -9.442876E-05  3.134944E-06 -1.347984E-06  1.784710E-08
      7868   1  2.862684E-04 -9.449786E-05 -9.442749E-05  2.938750E-06 -1.372503E-06  3.492844E-09
      7869   1  2.862684E-04 -9.447337E-05 -9.444261E-05  2.809206E-06 -1.070267E-06  4.173138E-09
      7870   1  2.862684E-04 -9.448964E-05 -9.443757E-05  2.747208E-06 -5.776145E-07  5.878768E-10
      7871   1  2.862684E-04 -9.447423E-05 -9.444498E-05  2.724423E-06 -3.380062E-14  1.751617E-15
      7872   1  2.862684E-04 -9.448964E-05 -9.443757E-05  2.747208E-06  5.776145E-07 -5.878730E-10
      7873   1  2.862684E-04 -9.447337E-05 -9.444261E-05  2.809206E-06  1.070267E-06 -4.173136E-09
      7874   1  2.862684E-04 -9.449786E-05 -9.442749E-05  2.938750E-06  1.372503E-06 -3.492841E-09
      7875   1  2.862684E-04 -9.447072E-05 -9.442876E-05  3.134943E-06  1.347983E-06 -1.784710E-08
      7876   1  2.862684E-04 -9.452498E-05 -9.438166E-05  3.648020E-06  6.234947E-07 -2.898462E-08
      7877   1  2.290147E-04 -7.558110E-05 -7.560228E-05  9.932606E-06 -2.312777E-07 -1.883740E-08
      7878   1  2.290147E-04 -7.556400E-05 -7.557239E-05  8.856098E-06 -6.334126E-07  1.835885E-08
      7879   1  2.290147E-04 -7.557957E-05 -7.555518E-05  8.266722E-06 -7.743502E-07  1.312406E-08
      7880   1  2.290147E-04 -7.558506E-05 -7.555562E-05  7.924963E-06 -6.407633E-07  3.856116E-09
      7881   1  2.290147E-04 -7.557995E-05 -7.555534E-05  7.736566E-06 -3.580882E-07  3.217329E-09
      7882   1  2.290147E-04 -7.558737E-05 -7.555400E-05  7.679059E-06 -2.801711E-14  5.457771E-15
      7883   1  2.290147E-04 -7.557995E-05 -7.555534E-05  7.736566E-06  3.580882E-07 -3.217319E-09
      7884   1  2.290147E-04 -7.558506E-05 -7.555562E-05  7.924963E-06  6.407633E-07 -3.856107E-09
      7885   1  2.290147E-04 -7.557957E-05 -7.555518E-05  8.266722E-06  7.743502E-07 -1.312406E-08
      7886   1  2.290147E-04 -7.556400E-05 -7.557239E-05  8.856098E-06  6.334126E-07 -1.835884E-08
      7887   1  2.290147E-04 -7.558110E-05 -7.560228E-05  9.932606E-06  2.312777E-07  1.883740E-08
      7888   1  1.717610E-04 -5.670707E-05 -5.665148E-05  1.452033E-05 -1.261995E-07  2.007069E-09
      7889   1  1.717610E-04 -5.668118E-05 -5.668863E-05  1.331918E-05 -3.183526E-07 -2.008055E-08
      7890   1  1.717610E-04 -5.667061E-05 -5.668415E-05  1.249380E-05 -4.059887E-07  7.958381E-09
      7891   1  1.717610E-04 -5.668427E-05 -5.666923E-05  1.198339E-05 -3.623548E-07  2.134214E-09
      7892   1  1.717610E-04 -5.668416E-05 -5.667151E-05  1.170197E-05 -2.069262E-07  1.730893E-09
      7893   1  1.717610E-04 -5.668500E-05 -5.666719E-05  1.161084E-05 -2.167628E-14  8.324788E-15
      7894   1  1.717610E-04 -5.668416E-05 -5.667151E-05  1.170197E-05  2.069262E-07 -1.730876E-09
      7895   1  1.717610E-04 -5.668427E-05 -5.666923E-05  1.198339E-05  3.623547E-07 -2.134201E-09
      7896   1  1.717610E-04 -5.667061E-05 -5.668415E-05  1.249380E-05  4.059887E-07 -7.958371E-09
      7897   1  1.717610E-04 -5.668118E-05 -5.668863E-05  1.331918E-05  3.183526E-07  2.008056E-08
      7898   1  1.717610E-04 -5.670707E-05 -5.665148E-05  1.452033E-05  1.261995E-07 -2.007067E-09
      7899   1  1.145074E-04 -3.779199E-05 -3.779477E-05  1.772536E-05 -5.843230E-08 -7.992271E-09
      7900   1  1.145074E-04 -3.779151E-05 -3.778001E-05  1.645285E-05 -1.613811E-07  6.422110E-10
      7901   1  1.145074E-04 -3.778712E-05 -3.778777E-05  1.553576E-05 -2.068037E-07 -1.523397E-08
      7902   1  1.145074E-04 -3.778138E-05 -3.778888E-05  1.492193E-05 -1.868184E-07  2.358888E-09
      7903   1  1.145074E-04 -3.778942E-05 -3.777965E-05  1.457597E-05 -1.104242E-07 -2.309089E-09
      7904   1  1.145074E-04 -3.778667E-05 -3.778372E-05  1.446381E-05 -1.476111E-14  1.123304E-14
      7905   1  1.145074E-04 -3.778942E-05 -3.777965E-05  1.457597E-05  1.104242E-07  2.309109E-09
      7906   1  1.145074E-04 -3.778138E-05 -3.778888E-05  1.492193E-05  1.868184E-07 -2.358870E-09
      7907   1  1.145074E-04 -3.778712E-05 -3.778777E-05  1.553576E-05  2.068036E-07  1.523398E-08
      7908   1  1.145074E-04 -3.779151E-05 -3.778001E-05  1.645285E-05  1.613811E-07 -6.422031E-10
      7909   1  1.145074E-04 -3.779199E-05 -3.779477E-05  1.772536E-05  5.843230E-08  7.992274E-09
      7910   1  5.725368E-05 -1.890137E-05 -1.888570E-05  1.962261E-05 -2.573124E-08 -1.056437E-09
      7911   1  5.725368E-05 -1.889415E-05 -1.889623E-05  1.832412E-05 -6.642300E-08 -1.546007E-08
      7912   1  5.725368E-05 -1.889215E-05 -1.889332E-05  1.735703E-05 -8.711305E-08 -1.075815E-09
      7913   1  5.725368E-05 -1.889378E-05 -1.889220E-05  1.669890E-05 -7.935253E-08 -1.201524E-08
      7914   1  5.725368E-05 -1.889104E-05 -1.889412E-05  1.631658E-05 -4.673570E-08  2.069451E-10
      7915   1  5.725368E-05 -1.889467E-05 -1.888986E-05  1.619261E-05 -7.463269E-15  1.246315E-14
      7916   1  5.725368E-05 -1.889104E-05 -1.889412E-05  1.631658E-05  4.673568E-08 -2.069206E-10
      7917   1  5.725368E-05 -1.889378E-05 -1.889220E-05  1.669890E-05  7.935252E-08  1.201526E-08
      7918   1  5.725368E-05 -1.889215E-05 -1.889332E-05  1.735703E-05  8.711304E-08  1.075832E-09
      7919   1  5.725368E-05 -1.889415E-05 -1.889623E-05  1.832412E-05  6.642300E-08  1.546008E-08
      7920   1  5.725368E-05 -1.890137E-05 -1.888570E-05  1.962261E-05  2.573124E-08  1.056441E-09
      7921   1  6.641801E-14 -2.271794E-14 -2.463217E-14  2.025233E-05 -9.642792E-17 -6.211514E-09
      7922   1  6.488495E-14 -3.074624E-14 -1.733429E-14  1.894418E-05 -9.565712E-17 -2.614799E-09
      7923   1  7.095138E-14 -4.134887E-14 -2.411786E-14  1.796588E-05 -1.661252E-16 -1.653110E-08
      7924   1  7.078008E-14 -4.976575E-14 -1.721707E-14  1.729130E-05 -1.350103E-16 -1.014058E-09
      7925   1  7.480518E-14 -5.459522E-14 -2.387929E-14  1.690023E-05 -1.336872E-16 -6.867866E-09
      7926   1  7.269326E-14 -5.596218E-14 -1.716148E-14  1.677111E-05  1.093562E-17  1.325117E-14
      7927   1  7.482795E-14 -5.458828E-14 -2.390837E-14  1.690023E-05  1.141822E-16  6.867891E-09
      7928   1  7.113516E-14 -5.099393E-14 -1.718730E-14  1.729130E-05  1.743029E-16  1.014080E-09
      7929   1  7.207744E-14 -4.506812E-14 -2.404800E-14  1.796588E-05  1.821417E-16  1.653112E-08
      7930   1  6.705921E-14 -3.801820E-14 -1.729234E-14  1.894418E-05  1.420703E-16  2.614810E-09
      7931   1  6.929234E-14 -3.250872E-14 -2.459201E-14  2.025233E-05  3.799790E-18  6.211518E-09
      7932   1 -5.725368E-05  1.890137E-05  1.888570E-05  1.962261E-05  2.573124E-08 -1.056437E-09
      7933   1 -5.725368E-05  1.889415E-05  1.889623E-05  1.832412E-05  6.642300E-08 -1.546007E-08
      7934   1 -5.725368E-05  1.889215E-05  1.889332E-05  1.735703E-05  8.711304E-08 -1.075815E-09
      7935   1 -5.725368E-05  1.889378E-05  1.889220E-05  1.669890E-05  7.935253E-08 -1.201524E-08
      7936   1 -5.725368E-05  1.889104E-05  1.889412E-05  1.631658E-05  4.673570E-08  2.069450E-10
      7937   1 -5.725368E-05  1.889467E-05  1.888986E-05  1.619261E-05  7.484061E-15  1.253186E-14
      7938   1 -5.725368E-05  1.889104E-05  1.889412E-05  1.631658E-05 -4.673568E-08 -2.069206E-10
      7939   1 -5.725368E-05  1.889378E-05  1.889220E-05  1.669890E-05 -7.935252E-08  1.201526E-08
      7940   1 -5.725368E-05  1.889215E-05  1.889332E-05  1.735703E-05 -8.711303E-08  1.075831E-09
      7941   1 -5.725368E-05  1.889415E-05  1.889623E-05  1.832412E-05 -6.642299E-08  1.546008E-08
      7942   1 -5.725368E-05  1.890137E-05  1.888570E-05  1.962261E-05 -2.573124E-08  1.056441E-09
      7943   1 -1.145074E-04  3.779199E-05  3.779477E-05  1.772536E-05  5.843230E-08 -7.992271E-09
      7944   1 -1.145074E-04  3.779151E-05  3.778001E-05  1.645285E-05  1.613811E-07  6.422111E-10
      7945   1 -1.145074E-04  3.778712E-05  3.778777E-05  1.553576E-05  2.068036E-07 -1.523397E-08
      7946   1 -1.145074E-04  3.778138E-05  3.778888E-05  1.492193E-05  1.868184E-07  2.358888E-09
      7947   1 -1.145074E-04  3.778942E-05  3.777965E-05  1.457597E-05  1.104242E-07 -2.309089E-09
      7948   1 -1.145074E-04  3.778667E-05  3.778372E-05  1.446381E-05  1.483443E-14  1.126789E-14
      7949   1 -1.145074E-04  3.778942E-05  3.777965E-05  1.457597E-05 -1.104242E-07  2.309109E-09
      7950   1 -1.145074E-04  3.778138E-05  3.778888E-05  1.492193E-05 -1.868184E-07 -2.358870E-09
      7951   1 -1.145074E-04  3.778712E-05  3.778777E-05  1.553576E-05 -2.068036E-07  1.523398E-08
      7952   1 -1.145074E-04  3.779151E-05  3.778001E-05  1.645285E-05 -1.613811E-07 -6.422030E-10
      7953   1 -1.145074E-04  3.779199E-05  3.779477E-05  1.772536E-05 -5.843230E-08  7.992274E-09
      7954   1 -1.717610E-04  5.670707E-05  5.665148E-05  1.452033E-05  1.261995E-07  2.007069E-09
      7955   1 -1.717610E-04  5.668118E-05  5.668863E-05  1.331918E-05  3.183526E-07 -2.008055E-08
      7956   1 -1.717610E-04  5.667061E-05  5.668415E-05  1.249380E-05  4.059887E-07  7.958381E-09
      7957   1 -1.717610E-04  5.668427E-05  5.666923E-05  1.198339E-05  3.623548E-07  2.134214E-09
      7958   1 -1.717610E-04  5.668416E-05  5.667151E-05  1.170197E-05  2.069262E-07  1.730893E-09
      7959   1 -1.717610E-04  5.668500E-05  5.666719E-05  1.161084E-05  2.196200E-14  8.382591E-15
      7960   1 -1.717610E-04  5.668416E-05  5.667151E-05  1.170197E-05 -2.069262E-07 -1.730876E-09
      7961   1 -1.717610E-04  5.668427E-05  5.666923E-05  1.198339E-05 -3.623547E-07 -2.134201E-09
      7962   1 -1.717610E-04  5.667061E-05  5.668415E-05  1.249380E-05 -4.059887E-07 -7.958371E-09
      7963   1 -1.717610E-04  5.668118E-05  5.668863E-05  1.331918E-05 -3.183526E-07  2.008056E-08
      7964   1 -1.717610E-04  5.670707E-05  5.665148E-05  1.452033E-05 -1.261995E-07 -2.007067E-09
      7965   1 -2.290147E-04  7.558110E-05  7.560228E-05  9.932606E-06  2.312777E-07 -1.883740E-08
      7966   1 -2.290147E-04  7.556400E-05  7.557239E-05  8.856098E-06  6.334126E-07  1.835885E-08
      7967   1 -2.290147E-04  7.557957E-05  7.555518E-05  8.266722E-06  7.743502E-07  1.312406E-08
      7968   1 -2.290147E-04  7.558506E-05  7.555562E-05  7.924963E-06  6.407633E-07  3.856116E-09
      7969   1 -2.290147E-04  7.557995E-05  7.555534E-05  7.736566E-06  3.580882E-07  3.217329E-09
      7970   1 -2.290147E-04  7.558737E-05  7.555400E-05  7.679059E-06  2.832527E-14  5.524686E-15
      7971   1 -2.290147E-04  7.557995E-05  7.555534E-05  7.736566E-06 -3.580882E-07 -3.217320E-09
      7972   1 -2.290147E-04  7.558506E-05  7.555562E-05  7.924963E-06 -6.407633E-07 -3.856107E-09
      7973   1 -2.290147E-04  7.557957E-05  7.555518E-05  8.266722E-06 -7.743502E-07 -1.312406E-08
      7974   1 -2.290147E-04  7.556400E-05  7.557239E-05  8.856098E-06 -6.334126E-07 -1.835884E-08
      7975   1 -2.290147E-04  7.558110E-05  7.560228E-05  9.932606E-06 -2.312777E-07  1.883740E-08
      7976   1 -2.862684E-04  9.452498E-05  9.438166E-05  3.648020E-06  6.234947E-07  2.898462E-08
      7977   1 -2.862684E-04  9.447072E-05  9.442876E-05  3.134944E-06  1.347984E-06  1.784710E-08
      7978   1 -2.862684E-04  9.449786E-05  9.442749E-05  2.938750E-06  1.372503E-06  3.492845E-09
      7979   1 -2.862684E-04  9.447337E-05  9.444261E-05  2.809206E-06  1.070267E-06  4.173137E-09
      7980   1 -2.862684E-04  9.448964E-05  9.443757E-05  2.747208E-06  5.776145E-07  5.878770E-10
      7981   1 -2.862684E-04  9.447423E-05  9.444498E-05  2.724423E-06  3.389566E-14  1.804026E-15
      7982   1 -2.862684E-04  9.448964E-05  9.443757E-05  2.747208E-06 -5.776145E-07 -5.878733E-10
      7983   1 -2.862684E-04  9.447337E-05  9.444261E-05  2.809206E-06 -1.070267E-06 -4.173135E-09
      7984   1 -2.862684E-04  9.449786E-05  9.442749E-05  2.938750E-06 -1.372503E-06 -3.492843E-09
      7985   1 -2.862684E-04  9.447072E-05  9.442876E-05  3.134944E-06 -1.347983E-06 -1.784709E-08
      7986   1 -2.862684E-04  9.452498E-05  9.438166E-05  3.648020E-06 -6.234947E-07 -2.898462E-08
      7987   1  2.817245E-04 -9.302459E-05 -9.288352E-05  3.648021E-06 -6.234949E-07  2.852495E-08
      7988   1  2.817245E-04 -9.297119E-05 -9.292991E-05  3.134943E-06 -1.347983E-06  1.756357E-08
      7989   1  2.817245E-04 -9.299789E-05 -9.292863E-05  2.938750E-06 -1.372503E-06  3.437560E-09
      7990   1  2.817245E-04 -9.297379E-05 -9.294354E-05  2.809206E-06 -1.070266E-06  4.106805E-09
      7991   1  2.817245E-04 -9.298980E-05 -9.293854E-05  2.747208E-06 -5.776147E-07  5.785907E-10
      7992   1  2.817245E-04 -9.297464E-05 -9.294587E-05  2.724423E-06 -3.726640E-14  2.877858E-15
      7993   1  2.817245E-04 -9.298980E-05 -9.293854E-05  2.747208E-06  5.776146E-07 -5.785855E-10
      7994   1  2.817245E-04 -9.297379E-05 -9.294354E-05  2.809206E-06  1.070266E-06 -4.106801E-09
      7995   1  2.817245E-04 -9.299789E-05 -9.292863E-05  2.938750E-06  1.372503E-06 -3.437558E-09
      7996   1  2.817245E-04 -9.297119E-05 -9.292991E-05  3.134943E-06  1.347983E-06 -1.756357E-08
      7997   1  2.817245E-04 -9.302459E-05 -9.288352E-05  3.648021E-06  6.234949E-07 -2.852495E-08
      7998   1  2.253796E-04 -7.438140E-05 -7.440222E-05  9.932605E-06 -2.312779E-07 -1.853849E-08
      7999   1  2.253796E-04 -7.436457E-05 -7.437285E-05  8.856098E-06 -6.334122E-07  1.806744E-08
      8000   1  2.253796E-04 -7.437989E-05 -7.435588E-05  8.266722E-06 -7.743506E-07  1.291575E-08
      8001   1  2.253796E-04 -7.438530E-05 -7.435634E-05  7.924963E-06 -6.407630E-07  3.794901E-09
      8002   1  2.253796E-04 -7.438026E-05 -7.435603E-05  7.736566E-06 -3.580884E-07  3.166269E-09
      8003   1  2.253796E-04 -7.438757E-05 -7.435475E-05  7.679059E-06 -3.200106E-14  8.444942E-15
      8004   1  2.253796E-04 -7.438026E-05 -7.435603E-05  7.736566E-06  3.580883E-07 -3.166254E-09
      8005   1  2.253796E-04 -7.438530E-05 -7.435634E-05  7.924963E-06  6.407629E-07 -3.794887E-09
      8006   1  2.253796E-04 -7.437989E-05 -7.435588E-05  8.266722E-06  7.743506E-07 -1.291575E-08
      8007   1  2.253796E-04 -7.436457E-05 -7.437285E-05  8.856098E-06  6.334122E-07 -1.806744E-08
      8008   1  2.253796E-04 -7.438140E-05 -7.440222E-05  9.932605E-06  2.312779E-07  1.853849E-08
      8009   1  1.690347E-04 -5.580696E-05 -5.575224E-05  1.452033E-05 -1.261996E-07  1.975261E-09
      8010   1  1.690347E-04 -5.578148E-05 -5.578882E-05  1.331918E-05 -3.183523E-07 -1.976179E-08
      8011   1  1.690347E-04 -5.577108E-05 -5.578438E-05  1.249380E-05 -4.059890E-07  7.832042E-09
      8012   1  1.690347E-04 -5.578452E-05 -5.576973E-05  1.198339E-05 -3.623545E-07  2.100353E-09
      8013   1  1.690347E-04 -5.578441E-05 -5.577195E-05  1.170197E-05 -2.069264E-07  1.703416E-09
      8014   1  1.690347E-04 -5.578524E-05 -5.576772E-05  1.161084E-05 -2.530407E-14  1.275927E-14
      8015   1  1.690347E-04 -5.578441E-05 -5.577195E-05  1.170197E-05  2.069263E-07 -1.703392E-09
      8016   1  1.690347E-04 -5.578452E-05 -5.576973E-05  1.198339E-05  3.623545E-07 -2.100333E-09
      8017   1  1.690347E-04 -5.577108E-05 -5.578438E-05  1.249380E-05  4.059890E-07 -7.832027E-09
      8018   1  1.690347E-04 -5.578148E-05 -5.578882E-05  1.331918E-05  3.183523E-07  1.976179E-08
      8019   1  1.690347E-04 -5.580696E-05 -5.575224E-05  1.452033E-05  1.261996E-07 -1.975259E-09
      8020   1  1.126898E-04 -3.719212E-05 -3.719484E-05  1.772536E-05 -5.843240E-08 -7.865450E-09
      8021   1  1.126898E-04 -3.719165E-05 -3.718034E-05  1.645285E-05 -1.613809E-07  6.320026E-10
      8022   1  1.126898E-04 -3.718732E-05 -3.718796E-05  1.553576E-05 -2.068039E-07 -1.499215E-08
      8023   1  1.126898E-04 -3.718168E-05 -3.718906E-05  1.492193E-05 -1.868182E-07  2.321451E-09
      8024   1  1.126898E-04 -3.718959E-05 -3.717997E-05  1.457597E-05 -1.104243E-07 -2.272433E-09
      8025   1  1.126898E-04 -3.718688E-05 -3.718398E-05  1.446381E-05 -1.753572E-14  1.676060E-14
      8026   1  1.126898E-04 -3.718959E-05 -3.717997E-05  1.457597E-05  1.104243E-07  2.272463E-09
      8027   1  1.126898E-04 -3.718168E-05 -3.718906E-05  1.492193E-05  1.868182E-07 -2.321424E-09
      8028   1  1.126898E-04 -3.718732E-05 -3.718796E-05  1.553576E-05  2.068038E-07  1.499217E-08
      8029   1  1.126898E-04 -3.719165E-05 -3.718034E-05  1.645285E-05  1.613809E-07 -6.319897E-10
      8030   1  1.126898E-04 -3.719212E-05 -3.719484E-05  1.772536E-05  5.843240E-08  7.865454E-09
      8031   1  5.634489E-05 -1.860135E-05 -1.858592E-05  1.962261E-05 -2.573127E-08 -1.039641E-09
      8032   1  5.634489E-05 -1.859424E-05 -1.859629E-05  1.832412E-05 -6.642291E-08 -1.521464E-08
      8033   1  5.634489E-05 -1.859227E-05 -1.859342E-05  1.735703E-05 -8.711315E-08 -1.058745E-09
      8034   1  5.634489E-05 -1.859388E-05 -1.859232E-05  1.669890E-05 -7.935245E-08 -1.182451E-08
      8035   1  5.634489E-05 -1.859118E-05 -1.859421E-05  1.631658E-05 -4.673575E-08  2.036640E-10
      8036   1  5.634489E-05 -1.859476E-05 -1.859003E-05  1.619261E-05 -8.996242E-15  1.890041E-14
      8037   1  5.634489E-05 -1.859118E-05 -1.859421E-05  1.631658E-05  4.673573E-08 -2.036280E-10
      8038   1  5.634489E-05 -1.859388E-05 -1.859232E-05  1.669890E-05  7.935243E-08  1.182455E-08
      8039   1  5.634489E-05 -1.859227E-05 -1.859342E-05  1.735703E-05  8.711314E-08  1.058769E-09
      8040   1  5.634489E-05 -1.859424E-05 -1.859629E-05  1.832412E-05  6.642290E-08  1.521466E-08
      8041   1  5.634489E-05 -1.860135E-05 -1.858592E-05  1.962261E-05  2.573127E-08  1.039646E-09
      8042   1  5.920655E-14 -1.886685E-14 -1.638034E-14  2.025233E-05 -8.117456E-17 -6.112950E-09
      8043   1  6.031753E-14 -8.576473E-15 -2.486370E-14  1.894418E-05 -5.006143E-16 -2.573308E-09
      8044   1  5.241109E-14  4.496403E-15 -1.635105E-14  1.796588E-05 -5.561390E-16 -1.626870E-08
      8045   1  5.200235E-14  1.489087E-14 -2.423004E-14  1.729130E-05 -4.544425E-16 -9.979514E-10
      8046   1  4.690996E-14  2.083750E-14 -1.636515E-14  1.690023E-05 -2.135279E-16 -6.758849E-09
      8047   1  4.921649E-14  2.262773E-14 -2.409404E-14  1.677112E-05 -3.532498E-17  1.998661E-14
      8048   1  4.678712E-14  2.113587E-14 -1.637994E-14  1.690023E-05  2.074464E-16  6.758886E-09
      8049   1  5.136690E-14  1.661171E-14 -2.423064E-14  1.729130E-05  4.029912E-16  9.979846E-10
      8050   1  5.072537E-14  9.277301E-15 -1.631748E-14  1.796588E-05  4.802152E-16  1.626873E-08
      8051   1  5.720999E-14  3.816392E-16 -2.473654E-14  1.894418E-05  4.251902E-16  2.573325E-09
      8052   1  5.511086E-14 -6.487866E-15 -1.634554E-14  2.025233E-05  2.295595E-16  6.112955E-09
      8053   1 -5.634489E-05  1.860135E-05  1.858592E-05  1.962261E-05  2.573127E-08 -1.039641E-09
      8054   1 -5.634489E-05  1.859424E-05  1.859629E-05  1.832412E-05  6.642291E-08 -1.521464E-08
      8055   1 -5.634489E-05  1.859227E-05  1.859342E-05  1.735703E-05  8.711315E-08 -1.058745E-09
      8056   1 -5.634489E-05  1.859388E-05  1.859232E-05  1.669890E-05  7.935244E-08 -1.182451E-08
      8057   1 -5.634489E-05  1.859118E-05  1.859421E-05  1.631658E-05  4.673575E-08  2.036641E-10
      8058   1 -5.634489E-05  1.859476E-05  1.859003E-05  1.619261E-05  8.913369E-15  1.881428E-14
      8059   1 -5.634489E-05  1.859118E-05  1.859421E-05  1.631658E-05 -4.673573E-08 -2.036280E-10
      8060   1 -5.634489E-05  1.859388E-05  1.859232E-05  1.669890E-05 -7.935243E-08  1.182455E-08
      8061   1 -5.634489E-05  1.859227E-05  1.859342E-05  1.735703E-05 -8.711314E-08  1.058769E-09
      8062   1 -5.634489E-05  1.859424E-05  1.859629E-05  1.832412E-05 -6.642290E-08  1.521466E-08
      8063   1 -5.634489E-05  1.860135E-05  1.858592E-05  1.962261E-05 -2.573127E-08  1.039646E-09
      8064   1 -1.126898E-04  3.719212E-05  3.719484E-05  1.772536E-05  5.843240E-08 -7.865450E-09
      8065   1 -1.126898E-04  3.719165E-05  3.718034E-05  1.645285E-05  1.613809E-07  6.320025E-10
      8066   1 -1.126898E-04  3.718732E-05  3.718796E-05  1.553576E-05  2.068039E-07 -1.499215E-08
      8067   1 -1.126898E-04  3.718168E-05  3.718906E-05  1.492193E-05  1.868182E-07  2.321451E-09
      8068   1 -1.126898E-04  3.718959E-05  3.717997E-05  1.457597E-05  1.104243E-07 -2.272432E-09
      8069   1 -1.126898E-04  3.718688E-05  3.718398E-05  1.446381E-05  1.731775E-14  1.667251E-14
      8070   1 -1.126898E-04  3.718959E-05  3.717997E-05  1.457597E-05 -1.104243E-07  2.272463E-09
      8071   1 -1.126898E-04  3.718168E-05  3.718906E-05  1.492193E-05 -1.868182E-07 -2.321424E-09
      8072   1 -1.126898E-04  3.718732E-05  3.718796E-05  1.553576E-05 -2.068038E-07  1.499217E-08
      8073   1 -1.126898E-04  3.719165E-05  3.718034E-05  1.645285E-05 -1.613809E-07 -6.319898E-10
      8074   1 -1.126898E-04  3.719212E-05  3.719484E-05  1.772536E-05 -5.843240E-08  7.865454E-09
      8075   1 -1.690347E-04  5.580696E-05  5.575224E-05  1.452033E-05  1.261996E-07  1.975261E-09
      8076   1 -1.690347E-04  5.578148E-05  5.578882E-05  1.331918E-05  3.183523E-07 -1.976179E-08
      8077   1 -1.690347E-04  5.577108E-05  5.578438E-05  1.249380E-05  4.059890E-07  7.832042E-09
      8078   1 -1.690347E-04  5.578452E-05  5.576973E-05  1.198339E-05  3.623545E-07  2.100353E-09
      8079   1 -1.690347E-04  5.578441E-05  5.577195E-05  1.170197E-05  2.069264E-07  1.703416E-09
      8080   1 -1.690347E-04  5.578524E-05  5.576772E-05  1.161084E-05  2.488992E-14  1.266414E-14
      8081   1 -1.690347E-04  5.578441E-05  5.577195E-05  1.170197E-05 -2.069263E-07 -1.703392E-09
      8082   1 -1.690347E-04  5.578452E-05  5.576973E-05  1.198339E-05 -3.623545E-07 -2.100333E-09
      8083   1 -1.690347E-04  5.577108E-05  5.578438E-05  1.249380E-05 -4.059890E-07 -7.832027E-09
      8084   1 -1.690347E-04  5.578148E-05  5.578882E-05  1.331918E-05 -3.183523E-07  1.976179E-08
      8085   1 -1.690347E-04  5.580696E-05  5.575224E-05  1.452033E-05 -1.261996E-07 -1.975259E-09
      8086   1 -2.253796E-04  7.438140E-05  7.440222E-05  9.932605E-06  2.312779E-07 -1.853849E-08
      8087   1 -2.253796E-04  7.436457E-05  7.437285E-05  8.856098E-06  6.334122E-07  1.806744E-08
      8088   1 -2.253796E-04  7.437989E-05  7.435588E-05  8.266722E-06  7.743506E-07  1.291575E-08
      8089   1 -2.253796E-04  7.438530E-05  7.435634E-05  7.924963E-06  6.407630E-07  3.794901E-09
      8090   1 -2.253796E-04  7.438026E-05  7.435603E-05  7.736566E-06  3.580884E-07  3.166269E-09
      8091   1 -2.253796E-04  7.438757E-05  7.435475E-05  7.679059E-06  3.158980E-14  8.349255E-15
      8092   1 -2.253796E-04  7.438026E-05  7.435603E-05  7.736566E-06 -3.580883E-07 -3.166254E-09
      8093   1 -2.253796E-04  7.438530E-05  7.435634E-05  7.924963E-06 -6.407629E-07 -3.794888E-09
      8094   1 -2.253796E-04  7.437989E-05  7.435588E-05  8.266722E-06 -7.743506E-07 -1.291575E-08
      8095   1 -2.253796E-04  7.436457E-05  7.437285E-05  8.856098E-06 -6.334122E-07 -1.806744E-08
      8096   1 -2.253796E-04  7.438140E-05  7.440222E-05  9.932605E-06 -2.312779E-07  1.853849E-08
      8097   1 -2.817245E-04  9.302459E-05  9.288352E-05  3.648021E-06  6.234949E-07  2.852495E-08
      8098   1 -2.817245E-04  9.297119E-05  9.292991E-05  3.134943E-06  1.347983E-06  1.756357E-08
      8099   1 -2.817245E-04  9.299789E-05  9.292863E-05  2.938750E-06  1.372503E-06  3.437559E-09
      8100   1 -2.817245E-04  9.297379E-05  9.294354E-05  2.809206E-06  1.070266E-06  4.106805E-09
      8101   1 -2.817245E-04  9.298980E-05  9.293854E-05  2.747208E-06  5.776147E-07  5.785903E-10
      8102   1 -2.817245E-04  9.297464E-05  9.294587E-05  2.724423E-06  3.706342E-14  3.018221E-15
      8103   1 -2.817245E-04  9.298980E-05  9.293854E-05  2.747208E-06 -5.776146E-07 -5.785853E-10
      8104   1 -2.817245E-04  9.297379E-05  9.294354E-05  2.809206E-06 -1.070266E-06 -4.106801E-09
      8105   1 -2.817245E-04  9.299789E-05  9.292863E-05  2.938750E-06 -1.372503E-06 -3.437557E-09
      8106   1 -2.817245E-04  9.297119E-05  9.292991E-05  3.134943E-06 -1.347983E-06 -1.756357E-08
      8107   1 -2.817245E-04  9.302459E-05  9.288352E-05  3.648021E-06 -6.234949E-07 -2.852495E-08
      8108   1  2.771805E-04 -9.152419E-05 -9.138541E-05  3.648020E-06 -6.234948E-07  2.806454E-08
      8109   1  2.771805E-04 -9.147165E-05 -9.143102E-05  3.134943E-06 -1.347983E-06  1.728048E-08
      8110   1  2.771805E-04 -9.149792E-05 -9.142979E-05  2.938750E-06 -1.372503E-06  3.381988E-09
      8111   1  2.771805E-04 -9.147421E-05 -9.144443E-05  2.809206E-06 -1.070267E-06  4.040643E-09
      8112   1  2.771805E-04 -9.148996E-05 -9.143955E-05  2.747208E-06 -5.776146E-07  5.692239E-10
      8113   1  2.771805E-04 -9.147505E-05 -9.144673E-05  2.724423E-06 -4.293863E-14  3.976079E-15
      8114   1  2.771805E-04 -9.148996E-05 -9.143955E-05  2.747208E-06  5.776145E-07 -5.692156E-10
      8115   1  2.771805E-04 -9.147421E-05 -9.144443E-05  2.809206E-06  1.070266E-06 -4.040637E-09
      8116   1  2.771805E-04 -9.149792E-05 -9.142979E-05  2.938750E-06  1.372503E-06 -3.381983E-09
      8117   1  2.771805E-04 -9.147165E-05 -9.143102E-05  3.134943E-06  1.347983E-06 -1.728048E-08
      8118   1  2.771805E-04 -9.152419E-05 -9.138541E-05  3.648020E-06  6.234947E-07 -2.806454E-08
      8119   1  2.217444E-04 -7.318170E-05 -7.320220E-05  9.932606E-06 -2.312777E-07 -1.823940E-08
      8120   1  2.217444E-04 -7.316514E-05 -7.317327E-05  8.856098E-06 -6.334126E-07  1.777603E-08
      8121   1  2.217444E-04 -7.318021E-05 -7.315660E-05  8.266722E-06 -7.743503E-07  1.270743E-08
      8122   1  2.217444E-04 -7.318553E-05 -7.315703E-05  7.924963E-06 -6.407633E-07  3.733703E-09
      8123   1  2.217444E-04 -7.318058E-05 -7.315675E-05  7.736566E-06 -3.580883E-07  3.115199E-09
      8124   1  2.217444E-04 -7.318777E-05 -7.315546E-05  7.679059E-06 -3.839187E-14  1.199888E-14
      8125   1  2.217444E-04 -7.318058E-05 -7.315675E-05  7.736566E-06  3.580882E-07 -3.115176E-09
      8126   1  2.217444E-04 -7.318553E-05 -7.315703E-05  7.924963E-06  6.407632E-07 -3.733684E-09
      8127   1  2.217444E-04 -7.318021E-05 -7.315660E-05  8.266722E-06  7.743503E-07 -1.270742E-08
      8128   1  2.217444E-04 -7.316514E-05 -7.317327E-05  8.856098E-06  6.334125E-07 -1.777602E-08
      8129   1  2.217444E-04 -7.318170E-05 -7.320220E-05  9.932606E-06  2.312777E-07  1.823940E-08
      8130   1  1.663083E-04 -5.490684E-05 -5.485302E-05  1.452033E-05 -1.261995E-07  1.943361E-09
      8131   1  1.663083E-04 -5.488178E-05 -5.488899E-05  1.331918E-05 -3.183525E-07 -1.944306E-08
      8132   1  1.663083E-04 -5.487154E-05 -5.488465E-05  1.249380E-05 -4.059888E-07  7.705737E-09
      8133   1  1.663083E-04 -5.488477E-05 -5.487021E-05  1.198339E-05 -3.623547E-07  2.066471E-09
      8134   1  1.663083E-04 -5.488466E-05 -5.487241E-05  1.170197E-05 -2.069263E-07  1.675953E-09
      8135   1  1.663083E-04 -5.488548E-05 -5.486823E-05  1.161084E-05 -3.125302E-14  1.859531E-14
      8136   1  1.663083E-04 -5.488466E-05 -5.487241E-05  1.170197E-05  2.069262E-07 -1.675917E-09
      8137   1  1.663083E-04 -5.488477E-05 -5.487021E-05  1.198339E-05  3.623547E-07 -2.066442E-09
      8138   1  1.663083E-04 -5.487154E-05 -5.488465E-05  1.249380E-05  4.059887E-07 -7.705715E-09
      8139   1  1.663083E-04 -5.488178E-05 -5.488899E-05  1.331918E-05  3.183525E-07  1.944308E-08
      8140   1  1.663083E-04 -5.490684E-05 -5.485302E-05  1.452033E-05  1.261995E-07 -1.943357E-09
      8141   1  1.108722E-04 -3.659225E-05 -3.659493E-05  1.772536E-05 -5.843232E-08 -7.738553E-09
      8142   1  1.108722E-04 -3.659178E-05 -3.658065E-05  1.645285E-05 -1.613811E-07  6.218254E-10
      8143   1  1.108722E-04 -3.658752E-05 -3.658816E-05  1.553576E-05 -2.068037E-07 -1.475034E-08
      8144   1  1.108722E-04 -3.658197E-05 -3.658923E-05  1.492193E-05 -1.868184E-07  2.284014E-09
      8145   1  1.108722E-04 -3.658975E-05 -3.658030E-05  1.457597E-05 -1.104243E-07 -2.235772E-09
      8146   1  1.108722E-04 -3.658710E-05 -3.658424E-05  1.446381E-05 -2.197876E-14  2.424056E-14
      8147   1  1.108722E-04 -3.658975E-05 -3.658030E-05  1.457597E-05  1.104242E-07  2.235817E-09
      8148   1  1.108722E-04 -3.658197E-05 -3.658923E-05  1.492193E-05  1.868183E-07 -2.283974E-09
      8149   1  1.108722E-04 -3.658752E-05 -3.658816E-05  1.553576E-05  2.068037E-07  1.475037E-08
      8150   1  1.108722E-04 -3.659178E-05 -3.658065E-05  1.645285E-05  1.613811E-07 -6.218072E-10
      8151   1  1.108722E-04 -3.659225E-05 -3.659493E-05  1.772536E-05  5.843232E-08  7.738559E-09
      8152   1  5.543610E-05 -1.830133E-05 -1.828615E-05  1.962261E-05 -2.573125E-08 -1.022893E-09
      8153   1  5.543610E-05 -1.829433E-05 -1.829635E-05  1.832412E-05 -6.642299E-08 -1.496926E-08
      8154   1  5.543610E-05 -1.829240E-05 -1.829353E-05  1.735703E-05 -8.711307E-08 -1.041654E-09
      8155   1  5.543610E-05 -1.829398E-05 -1.829245E-05  1.669890E-05 -7.935252E-08 -1.163379E-08
      8156   1  5.543610E-05 -1.829133E-05 -1.829431E-05  1.631658E-05 -4.673571E-08  2.003897E-10
      8157   1  5.543610E-05 -1.829484E-05 -1.829019E-05  1.619261E-05 -1.137387E-14  2.735390E-14
      8158   1  5.543610E-05 -1.829133E-05 -1.829431E-05  1.631658E-05  4.673569E-08 -2.003365E-10
      8159   1  5.543610E-05 -1.829398E-05 -1.829245E-05  1.669890E-05  7.935250E-08  1.163384E-08
      8160   1  5.543610E-05 -1.829240E-05 -1.829353E-05  1.735703E-05  8.711305E-08  1.041690E-09
      8161   1  5.543610E-05 -1.829433E-05 -1.829635E-05  1.832412E-05  6.642298E-08  1.496928E-08
      8162   1  5.543610E-05 -1.830133E-05 -1.828615E-05  1.962261E-05  2.573125E-08  1.022901E-09
      8163   1  6.595581E-14 -2.241263E-14 -2.554377E-14  2.025233E-05 -1.383467E-16 -6.014326E-09
      8164   1  6.399005E-14 -3.446549E-14 -1.563083E-14  1.894418E-05 -9.391647E-17 -2.531786E-09
      8165   1  7.280591E-14 -5.076495E-14 -2.484304E-14  1.796588E-05 -1.114378E-16 -1.600630E-08
      8166   1  7.298502E-14 -6.351170E-14 -1.550217E-14  1.729130E-05 -7.897566E-17 -9.818514E-10
      8167   1  7.873270E-14 -7.063794E-14 -2.459223E-14  1.690023E-05 -1.402344E-16 -6.649823E-09
      8168   1  7.593752E-14 -7.271267E-14 -1.553173E-14  1.677111E-05  3.789943E-18  2.881430E-14
      8169   1  7.877217E-14 -7.083223E-14 -2.455828E-14  1.690023E-05  7.986060E-17  6.649878E-09
      8170   1  7.353829E-14 -6.523254E-14 -1.548351E-14  1.729130E-05  1.645942E-16  9.818997E-10
      8171   1  7.456568E-14 -5.622586E-14 -2.482366E-14  1.796588E-05  1.938621E-16  1.600633E-08
      8172   1  6.740257E-14 -4.542200E-14 -1.558225E-14  1.894418E-05  1.399154E-16  2.531810E-09
      8173   1  7.046262E-14 -3.748390E-14 -2.542546E-14  2.025233E-05 -1.361944E-17  6.014335E-09
      8174   1 -5.543610E-05  1.830133E-05  1.828615E-05  1.962261E-05  2.573125E-08 -1.022893E-09
      8175   1 -5.543610E-05  1.829433E-05  1.829635E-05  1.832412E-05  6.642299E-08 -1.496926E-08
      8176   1 -5.543610E-05  1.829240E-05  1.829353E-05  1.735703E-05  8.711307E-08 -1.041654E-09
      8177   1 -5.543610E-05  1.829398E-05  1.829244E-05  1.669890E-05  7.935252E-08 -1.163379E-08
      8178   1 -5.543610E-05  1.829133E-05  1.829431E-05  1.631658E-05  4.673571E-08  2.003898E-10
      8179   1 -5.543610E-05  1.829484E-05  1.829019E-05  1.619261E-05  1.139663E-14  2.720616E-14
      8180   1 -5.543610E-05  1.829133E-05  1.829431E-05  1.631658E-05 -4.673569E-08 -2.003364E-10
      8181   1 -5.543610E-05  1.829398E-05  1.829244E-05  1.669890E-05 -7.935250E-08  1.163384E-08
      8182   1 -5.543610E-05  1.829240E-05  1.829353E-05  1.735703E-05 -8.711305E-08  1.041690E-09
      8183   1 -5.543610E-05  1.829433E-05  1.829635E-05  1.832412E-05 -6.642298E-08  1.496928E-08
      8184   1 -5.543610E-05  1.830133E-05  1.828615E-05  1.962261E-05 -2.573124E-08  1.022901E-09
      8185   1 -1.108722E-04  3.659225E-05  3.659493E-05  1.772536E-05  5.843232E-08 -7.738553E-09
      8186   1 -1.108722E-04  3.659178E-05  3.658065E-05  1.645285E-05  1.613811E-07  6.218254E-10
      8187   1 -1.108722E-04  3.658752E-05  3.658816E-05  1.553576E-05  2.068037E-07 -1.475034E-08
      8188   1 -1.108722E-04  3.658197E-05  3.658923E-05  1.492193E-05  1.868184E-07  2.284014E-09
      8189   1 -1.108722E-04  3.658975E-05  3.658030E-05  1.457597E-05  1.104243E-07 -2.235772E-09
      8190   1 -1.108722E-04  3.658710E-05  3.658424E-05  1.446381E-05  2.220301E-14  2.421493E-14
      8191   1 -1.108722E-04  3.658975E-05  3.658030E-05  1.457597E-05 -1.104242E-07  2.235817E-09
      8192   1 -1.108722E-04  3.658197E-05  3.658923E-05  1.492193E-05 -1.868183E-07 -2.283974E-09
      8193   1 -1.108722E-04  3.658752E-05  3.658816E-05  1.553576E-05 -2.068037E-07  1.475037E-08
      8194   1 -1.108722E-04  3.659178E-05  3.658065E-05  1.645285E-05 -1.613811E-07 -6.218072E-10
      8195   1 -1.108722E-04  3.659225E-05  3.659493E-05  1.772536E-05 -5.843232E-08  7.738559E-09
      8196   1 -1.663083E-04  5.490684E-05  5.485302E-05  1.452033E-05  1.261995E-07  1.943361E-09
      8197   1 -1.663083E-04  5.488178E-05  5.488899E-05  1.331918E-05  3.183525E-07 -1.944306E-08
      8198   1 -1.663083E-04  5.487154E-05  5.488465E-05  1.249380E-05  4.059888E-07  7.705737E-09
      8199   1 -1.663083E-04  5.488477E-05  5.487021E-05  1.198339E-05  3.623547E-07  2.066472E-09
      8200   1 -1.663083E-04  5.488466E-05  5.487241E-05  1.170197E-05  2.069263E-07  1.675953E-09
      8201   1 -1.663083E-04  5.488548E-05  5.486823E-05  1.161084E-05  3.169839E-14  1.854245E-14
      8202   1 -1.663083E-04  5.488466E-05  5.487241E-05  1.170197E-05 -2.069262E-07 -1.675917E-09
      8203   1 -1.663083E-04  5.488477E-05  5.487021E-05  1.198339E-05 -3.623547E-07 -2.066442E-09
      8204   1 -1.663083E-04  5.487154E-05  5.488465E-05  1.249380E-05 -4.059887E-07 -7.705715E-09
      8205   1 -1.663083E-04  5.488178E-05  5.488899E-05  1.331918E-05 -3.183525E-07  1.944308E-08
      8206   1 -1.663083E-04  5.490684E-05  5.485302E-05  1.452033E-05 -1.261995E-07 -1.943357E-09
      8207   1 -2.217444E-04  7.318170E-05  7.320220E-05  9.932606E-06  2.312777E-07 -1.823940E-08
      8208   1 -2.217444E-04  7.316514E-05  7.317327E-05  8.856098E-06  6.334126E-07  1.777603E-08
      8209   1 -2.217444E-04  7.318021E-05  7.315660E-05  8.266722E-06  7.743503E-07  1.270743E-08
      8210   1 -2.217444E-04  7.318553E-05  7.315703E-05  7.924963E-06  6.407633E-07  3.733703E-09
      8211   1 -2.217444E-04  7.318058E-05  7.315675E-05  7.736566E-06  3.580883E-07  3.115199E-09
      8212   1 -2.217444E-04  7.318777E-05  7.315546E-05  7.679059E-06  3.887708E-14  1.205522E-14
      8213   1 -2.217444E-04  7.318058E-05  7.315675E-05  7.736566E-06 -3.580882E-07 -3.115177E-09
      8214   1 -2.217444E-04  7.318553E-05  7.315703E-05  7.924963E-06 -6.407632E-07 -3.733684E-09
      8215   1 -2.217444E-04  7.318021E-05  7.315660E-05  8.266722E-06 -7.743503E-07 -1.270742E-08
      8216   1 -2.217444E-04  7.316514E-05  7.317327E-05  8.856098E-06 -6.334125E-07 -1.777602E-08
      8217   1 -2.217444E-04  7.318170E-05  7.320220E-05  9.932606E-06 -2.312777E-07  1.823940E-08
      8218   1 -2.771805E-04  9.152419E-05  9.138541E-05  3.648020E-06  6.234948E-07  2.806454E-08
      8219   1 -2.771805E-04  9.147165E-05  9.143102E-05  3.134943E-06  1.347983E-06  1.728048E-08
      8220   1 -2.771805E-04  9.149792E-05  9.142979E-05  2.938750E-06  1.372503E-06  3.381989E-09
      8221   1 -2.771805E-04  9.147421E-05  9.144443E-05  2.809206E-06  1.070267E-06  4.040642E-09
      8222   1 -2.771805E-04  9.148996E-05  9.143955E-05  2.747208E-06  5.776146E-07  5.692243E-10
      8223   1 -2.771805E-04  9.147505E-05  9.144673E-05  2.724423E-06  4.321153E-14  3.951280E-15
      8224   1 -2.771805E-04  9.148996E-05  9.143955E-05  2.747208E-06 -5.776145E-07 -5.692159E-10
      8225   1 -2.771805E-04  9.147421E-05  9.144443E-05  2.809206E-06 -1.070266E-06 -4.040637E-09
      8226   1 -2.771805E-04  9.149792E-05  9.142979E-05  2.938750E-06 -1.372503E-06 -3.381985E-09
      8227   1 -2.771805E-04  9.147165E-05  9.143102E-05  3.134943E-06 -1.347983E-06 -1.728048E-08
      8228   1 -2.771805E-04  9.152419E-05  9.138541E-05  3.648020E-06 -6.234947E-07 -2.806454E-08
      8229   1  2.726366E-04 -9.002379E-05 -8.988728E-05  3.648020E-06 -6.234949E-07  2.760473E-08
      8230   1  2.726366E-04 -8.997211E-05 -8.993217E-05  3.134943E-06 -1.347983E-06  1.699703E-08
      8231   1  2.726366E-04 -8.999796E-05 -8.993093E-05  2.938750E-06 -1.372503E-06  3.326650E-09
      8232   1  2.726366E-04 -8.997464E-05 -8.994536E-05  2.809206E-06 -1.070266E-06  3.974341E-09
      8233   1  2.726366E-04 -8.999013E-05 -8.994053E-05  2.747208E-06 -5.776147E-07  5.599232E-10
      8234   1  2.726366E-04 -8.997545E-05 -8.994762E-05  2.724423E-06 -5.125822E-14  6.383271E-15
      8235   1  2.726366E-04 -8.999013E-05 -8.994053E-05  2.747208E-06  5.776146E-07 -5.599119E-10
      8236   1  2.726366E-04 -8.997464E-05 -8.994536E-05  2.809206E-06  1.070266E-06 -3.974332E-09
      8237   1  2.726366E-04 -8.999796E-05 -8.993093E-05  2.938750E-06  1.372503E-06 -3.326644E-09
      8238   1  2.726366E-04 -8.997211E-05 -8.993217E-05  3.134943E-06  1.347983E-06 -1.699703E-08
      8239   1  2.726366E-04 -9.002379E-05 -8.988728E-05  3.648020E-06  6.234948E-07 -2.760473E-08
      8240   1  2.181093E-04 -7.198200E-05 -7.200215E-05  9.932606E-06 -2.312779E-07 -1.794046E-08
      8241   1  2.181093E-04 -7.196571E-05 -7.197372E-05  8.856098E-06 -6.334123E-07  1.748462E-08
      8242   1  2.181093E-04 -7.198054E-05 -7.195730E-05  8.266722E-06 -7.743506E-07  1.249912E-08
      8243   1  2.181093E-04 -7.198577E-05 -7.195775E-05  7.924963E-06 -6.407630E-07  3.672494E-09
      8244   1  2.181093E-04 -7.198090E-05 -7.195745E-05  7.736566E-06 -3.580884E-07  3.064139E-09
      8245   1  2.181093E-04 -7.198797E-05 -7.195620E-05  7.679059E-06 -4.706422E-14  1.795818E-14
      8246   1  2.181093E-04 -7.198090E-05 -7.195745E-05  7.736566E-06  3.580883E-07 -3.064107E-09
      8247   1  2.181093E-04 -7.198577E-05 -7.195775E-05  7.924963E-06  6.407630E-07 -3.672465E-09
      8248   1  2.181093E-04 -7.198054E-05 -7.195730E-05  8.266722E-06  7.743505E-07 -1.249910E-08
      8249   1  2.181093E-04 -7.196571E-05 -7.197372E-05  8.856098E-06  6.334123E-07 -1.748461E-08
      8250   1  2.181093E-04 -7.198200E-05 -7.200215E-05  9.932606E-06  2.312779E-07  1.794046E-08
      8251   1  1.635819E-04 -5.400673E-05 -5.395378E-05  1.452033E-05 -1.261996E-07  1.911540E-09
      8252   1  1.635819E-04 -5.398208E-05 -5.398918E-05  1.331918E-05 -3.183524E-07 -1.912431E-08
      8253   1  1.635819E-04 -5.397201E-05 -5.398489E-05  1.249380E-05 -4.059890E-07  7.579406E-09
      8254   1  1.635819E-04 -5.398502E-05 -5.397071E-05  1.198339E-05 -3.623546E-07  2.032610E-09
      8255   1  1.635819E-04 -5.398491E-05 -5.397285E-05  1.170197E-05 -2.069264E-07  1.648482E-09
      8256   1  1.635819E-04 -5.398572E-05 -5.396876E-05  1.161084E-05 -3.890780E-14  2.731915E-14
      8257   1  1.635819E-04 -5.398491E-05 -5.397285E-05  1.170197E-05  2.069263E-07 -1.648430E-09
      8258   1  1.635819E-04 -5.398502E-05 -5.397071E-05  1.198339E-05  3.623545E-07 -2.032566E-09
      8259   1  1.635819E-04 -5.397201E-05 -5.398489E-05  1.249380E-05  4.059889E-07 -7.579375E-09
      8260   1  1.635819E-04 -5.398208E-05 -5.398918E-05  1.331918E-05  3.183523E-07  1.912433E-08
      8261   1  1.635819E-04 -5.400673E-05 -5.395378E-05  1.452033E-05  1.261996E-07 -1.911534E-09
      8262   1  1.090546E-04 -3.599238E-05 -3.599501E-05  1.772536E-05 -5.843239E-08 -7.611715E-09
      8263   1  1.090546E-04 -3.599192E-05 -3.598097E-05  1.645285E-05 -1.613810E-07  6.116255E-10
      8264   1  1.090546E-04 -3.598773E-05 -3.598835E-05  1.553576E-05 -2.068038E-07 -1.450852E-08
      8265   1  1.090546E-04 -3.598227E-05 -3.598941E-05  1.492193E-05 -1.868183E-07  2.246582E-09
      8266   1  1.090546E-04 -3.598992E-05 -3.598062E-05  1.457597E-05 -1.104243E-07 -2.199110E-09
      8267   1  1.090546E-04 -3.598731E-05 -3.598450E-05  1.446381E-05 -2.774154E-14  3.529024E-14
      8268   1  1.090546E-04 -3.598992E-05 -3.598062E-05  1.457597E-05  1.104243E-07  2.199176E-09
      8269   1  1.090546E-04 -3.598227E-05 -3.598941E-05  1.492193E-05  1.868182E-07 -2.246523E-09
      8270   1  1.090546E-04 -3.598773E-05 -3.598835E-05  1.553576E-05  2.068038E-07  1.450857E-08
      8271   1  1.090546E-04 -3.599192E-05 -3.598097E-05  1.645285E-05  1.613809E-07 -6.115975E-10
      8272   1  1.090546E-04 -3.599238E-05 -3.599501E-05  1.772536E-05  5.843238E-08  7.611724E-09
      8273   1  5.452731E-05 -1.800131E-05 -1.798638E-05  1.962261E-05 -2.573127E-08 -1.006103E-09
      8274   1  5.452732E-05 -1.799442E-05 -1.799641E-05  1.832412E-05 -6.642293E-08 -1.472384E-08
      8275   1  5.452731E-05 -1.799252E-05 -1.799364E-05  1.735703E-05 -8.711314E-08 -1.024576E-09
      8276   1  5.452732E-05 -1.799408E-05 -1.799257E-05  1.669890E-05 -7.935246E-08 -1.144306E-08
      8277   1  5.452731E-05 -1.799147E-05 -1.799440E-05  1.631658E-05 -4.673575E-08  1.971151E-10
      8278   1  5.452732E-05 -1.799493E-05 -1.799035E-05  1.619261E-05 -1.443085E-14  3.982591E-14
      8279   1  5.452731E-05 -1.799147E-05 -1.799440E-05  1.631658E-05  4.673572E-08 -1.970390E-10
      8280   1  5.452732E-05 -1.799408E-05 -1.799257E-05  1.669890E-05  7.935244E-08  1.144313E-08
      8281   1  5.452731E-05 -1.799252E-05 -1.799364E-05  1.735703E-05  8.711312E-08  1.024628E-09
      8282   1  5.452732E-05 -1.799442E-05 -1.799641E-05  1.832412E-05  6.642291E-08  1.472387E-08
      8283   1  5.452731E-05 -1.800131E-05 -1.798638E-05  1.962261E-05  2.573127E-08  1.006114E-09
      8284   1  5.613804E-14 -1.715295E-14 -1.462709E-14  2.025233E-05 -1.035379E-16 -5.915747E-09
      8285   1  5.717627E-14 -1.713907E-15 -2.594112E-14  1.894418E-05 -5.871319E-16 -2.490286E-09
      8286   1  4.583584E-14  1.790235E-14 -1.451687E-14  1.796588E-05 -5.910541E-16 -1.574389E-08
      8287   1  4.489074E-14  3.372302E-14 -2.525753E-14  1.729130E-05 -4.248567E-16 -9.657411E-10
      8288   1  3.774964E-14  4.268114E-14 -1.477837E-14  1.690023E-05 -1.742176E-16 -6.540799E-09
      8289   1  4.084070E-14  4.517914E-14 -2.515421E-14  1.677112E-05 -2.528171E-17  4.174123E-14
      8290   1  3.757671E-14  4.284767E-14 -1.471223E-14  1.690023E-05  1.782130E-16  6.540878E-09
      8291   1  4.398673E-14  3.585326E-14 -2.522092E-14  1.729130E-05  3.766222E-16  9.658112E-10
      8292   1  4.338999E-14  2.500083E-14 -1.458754E-14  1.796588E-05  4.966976E-16  1.574395E-08
      8293   1  5.261557E-14  1.174755E-14 -2.579241E-14  1.894418E-05  4.993784E-16  2.490322E-09
      8294   1  5.007897E-14  1.339207E-15 -1.446550E-14  2.025233E-05  3.235200E-16  5.915760E-09
      8295   1 -5.452731E-05  1.800131E-05  1.798638E-05  1.962261E-05  2.573127E-08 -1.006103E-09
      8296   1 -5.452732E-05  1.799442E-05  1.799641E-05  1.832412E-05  6.642292E-08 -1.472384E-08
      8297   1 -5.452731E-05  1.799252E-05  1.799364E-05  1.735703E-05  8.711314E-08 -1.024576E-09
      8298   1 -5.452732E-05  1.799408E-05  1.799257E-05  1.669890E-05  7.935246E-08 -1.144306E-08
      8299   1 -5.452731E-05  1.799147E-05  1.799440E-05  1.631658E-05  4.673575E-08  1.971151E-10
      8300   1 -5.452732E-05  1.799493E-05  1.799035E-05  1.619261E-05  1.435492E-14  3.968749E-14
      8301   1 -5.452731E-05  1.799147E-05  1.799440E-05  1.631658E-05 -4.673572E-08 -1.970390E-10
      8302   1 -5.452732E-05  1.799408E-05  1.799257E-05  1.669890E-05 -7.935244E-08  1.144313E-08
      8303   1 -5.452731E-05  1.799252E-05  1.799364E-05  1.735703E-05 -8.711312E-08  1.024628E-09
      8304   1 -5.452732E-05  1.799442E-05  1.799641E-05  1.832412E-05 -6.642291E-08  1.472387E-08
      8305   1 -5.452731E-05  1.800131E-05  1.798638E-05  1.962261E-05 -2.573127E-08  1.006114E-09
      8306   1 -1.090546E-04  3.599238E-05  3.599501E-05  1.772536E-05  5.843239E-08 -7.611715E-09
      8307   1 -1.090546E-04  3.599192E-05  3.598097E-05  1.645285E-05  1.613810E-07  6.116255E-10
      8308   1 -1.090546E-04  3.598773E-05  3.598835E-05  1.553576E-05  2.068038E-07 -1.450852E-08
      8309   1 -1.090546E-04  3.598227E-05  3.598941E-05  1.492193E-05  1.868183E-07  2.246582E-09
      8310   1 -1.090546E-04  3.598992E-05  3.598062E-05  1.457597E-05  1.104243E-07 -2.199110E-09
      8311   1 -1.090546E-04  3.598731E-05  3.598450E-05  1.446381E-05  2.739417E-14  3.520779E-14
      8312   1 -1.090546E-04  3.598992E-05  3.598062E-05  1.457597E-05 -1.104243E-07  2.199176E-09
      8313   1 -1.090546E-04  3.598227E-05  3.598941E-05  1.492193E-05 -1.868182E-07 -2.246523E-09
      8314   1 -1.090546E-04  3.598773E-05  3.598835E-05  1.553576E-05 -2.068038E-07  1.450857E-08
      8315   1 -1.090546E-04  3.599192E-05  3.598097E-05  1.645285E-05 -1.613809E-07 -6.115975E-10
      8316   1 -1.090546E-04  3.599238E-05  3.599501E-05  1.772536E-05 -5.843238E-08  7.611724E-09
      8317   1 -1.635819E-04  5.400673E-05  5.395378E-05  1.452033E-05  1.261996E-07  1.911539E-09
      8318   1 -1.635819E-04  5.398208E-05  5.398918E-05  1.331918E-05  3.183524E-07 -1.912431E-08
      8319   1 -1.635819E-04  5.397201E-05  5.398489E-05  1.249380E-05  4.059890E-07  7.579407E-09
      8320   1 -1.635819E-04  5.398502E-05  5.397071E-05  1.198339E-05  3.623546E-07  2.032610E-09
      8321   1 -1.635819E-04  5.398491E-05  5.397285E-05  1.170197E-05  2.069264E-07  1.648483E-09
      8322   1 -1.635819E-04  5.398572E-05  5.396876E-05  1.161084E-05  3.826156E-14  2.719616E-14
      8323   1 -1.635819E-04  5.398491E-05  5.397285E-05  1.170197E-05 -2.069263E-07 -1.648430E-09
      8324   1 -1.635819E-04  5.398502E-05  5.397071E-05  1.198339E-05 -3.623545E-07 -2.032566E-09
      8325   1 -1.635819E-04  5.397201E-05  5.398489E-05  1.249380E-05 -4.059889E-07 -7.579375E-09
      8326   1 -1.635819E-04  5.398208E-05  5.398918E-05  1.331918E-05 -3.183523E-07  1.912433E-08
      8327   1 -1.635819E-04  5.400673E-05  5.395378E-05  1.452033E-05 -1.261996E-07 -1.911535E-09
      8328   1 -2.181093E-04  7.198200E-05  7.200215E-05  9.932606E-06  2.312779E-07 -1.794046E-08
      8329   1 -2.181093E-04  7.196571E-05  7.197372E-05  8.856098E-06  6.334123E-07  1.748462E-08
      8330   1 -2.181093E-04  7.198054E-05  7.195730E-05  8.266722E-06  7.743506E-07  1.249912E-08
      8331   1 -2.181093E-04  7.198577E-05  7.195775E-05  7.924963E-06  6.407630E-07  3.672494E-09
      8332   1 -2.181093E-04  7.198090E-05  7.195745E-05  7.736566E-06  3.580884E-07  3.064139E-09
      8333   1 -2.181093E-04  7.198797E-05  7.195620E-05  7.679059E-06  4.635237E-14  1.796108E-14
      8334   1 -2.181093E-04  7.198090E-05  7.195745E-05  7.736566E-06 -3.580883E-07 -3.064107E-09
      8335   1 -2.181093E-04  7.198577E-05  7.195775E-05  7.924963E-06 -6.407630E-07 -3.672465E-09
      8336   1 -2.181093E-04  7.198054E-05  7.195730E-05  8.266722E-06 -7.743505E-07 -1.249910E-08
      8337   1 -2.181093E-04  7.196571E-05  7.197372E-05  8.856098E-06 -6.334123E-07 -1.748461E-08
      8338   1 -2.181093E-04  7.198200E-05  7.200215E-05  9.932606E-06 -2.312779E-07  1.794046E-08
      8339   1 -2.726366E-04  9.002379E-05  8.988728E-05  3.648020E-06  6.234949E-07  2.760473E-08
      8340   1 -2.726366E-04  8.997211E-05  8.993217E-05  3.134943E-06  1.347983E-06  1.699704E-08
      8341   1 -2.726366E-04  8.999796E-05  8.993093E-05  2.938750E-06  1.372503E-06  3.326648E-09
      8342   1 -2.726366E-04  8.997464E-05  8.994536E-05  2.809206E-06  1.070266E-06  3.974343E-09
      8343   1 -2.726366E-04  8.999013E-05  8.994053E-05  2.747208E-06  5.776147E-07  5.599226E-10
      8344   1 -2.726366E-04  8.997545E-05  8.994762E-05  2.724423E-06  5.083539E-14  6.437448E-15
      8345   1 -2.726366E-04  8.999013E-05  8.994053E-05  2.747208E-06 -5.776146E-07 -5.599115E-10
      8346   1 -2.726366E-04  8.997464E-05  8.994536E-05  2.809206E-06 -1.070266E-06 -3.974333E-09
      8347   1 -2.726366E-04  8.999796E-05  8.993093E-05  2.938750E-06 -1.372503E-06 -3.326643E-09
      8348   1 -2.726366E-04  8.997211E-05  8.993217E-05  3.134943E-06 -1.347983E-06 -1.699703E-08
      8349   1 -2.726366E-04  9.002379E-05  8.988728E-05  3.648020E-06 -6.234948E-07 -2.760473E-08
      8350   1  2.680926E-04 -8.852340E-05 -8.838917E-05  3.648020E-06 -6.234948E-07  2.714444E-08
      8351   1  2.680926E-04 -8.847258E-05 -8.843329E-05  3.134943E-06 -1.347983E-06  1.671388E-08
      8352   1  2.680926E-04 -8.849799E-05 -8.843209E-05  2.938750E-06 -1.372503E-06  3.271123E-09
      8353   1  2.680926E-04 -8.847506E-05 -8.844626E-05  2.809206E-06 -1.070267E-06  3.908156E-09
      8354   1  2.680926E-04 -8.849029E-05 -8.844153E-05  2.747208E-06 -5.776146E-07  5.505704E-10
      8355   1  2.680926E-04 -8.847586E-05 -8.844848E-05  2.724423E-06 -6.302302E-14  8.587550E-15
      8356   1  2.680926E-04 -8.849029E-05 -8.844153E-05  2.747208E-06  5.776145E-07 -5.505530E-10
      8357   1  2.680926E-04 -8.847506E-05 -8.844626E-05  2.809206E-06  1.070266E-06 -3.908144E-09
      8358   1  2.680926E-04 -8.849799E-05 -8.843209E-05  2.938750E-06  1.372503E-06 -3.271113E-09
      8359   1  2.680926E-04 -8.847258E-05 -8.843329E-05  3.134943E-06  1.347983E-06 -1.671388E-08
      8360   1  2.680926E-04 -8.852340E-05 -8.838917E-05  3.648020E-06  6.234948E-07 -2.714443E-08
      8361   1  2.144741E-04 -7.078230E-05 -7.080213E-05  9.932606E-06 -2.312778E-07 -1.764140E-08
      8362   1  2.144741E-04 -7.076629E-05 -7.077415E-05  8.856098E-06 -6.334125E-07  1.719321E-08
      8363   1  2.144741E-04 -7.078086E-05 -7.075802E-05  8.266722E-06 -7.743504E-07  1.229080E-08
      8364   1  2.144741E-04 -7.078601E-05 -7.075844E-05  7.924963E-06 -6.407632E-07  3.611296E-09
      8365   1  2.144741E-04 -7.078122E-05 -7.075817E-05  7.736566E-06 -3.580883E-07  3.013075E-09
      8366   1  2.144741E-04 -7.078817E-05 -7.075693E-05  7.679059E-06 -6.012203E-14  2.518209E-14
      8367   1  2.144741E-04 -7.078122E-05 -7.075817E-05  7.736566E-06  3.580882E-07 -3.013027E-09
      8368   1  2.144741E-04 -7.078601E-05 -7.075844E-05  7.924963E-06  6.407631E-07 -3.611257E-09
      8369   1  2.144741E-04 -7.078086E-05 -7.075802E-05  8.266722E-06  7.743503E-07 -1.229077E-08
      8370   1  2.144741E-04 -7.076629E-05 -7.077415E-05  8.856098E-06  6.334125E-07 -1.719320E-08
      8371   1  2.144741E-04 -7.078230E-05 -7.080213E-05  9.932606E-06  2.312777E-07  1.764140E-08
      8372   1  1.608556E-04 -5.310662E-05 -5.305456E-05  1.452033E-05 -1.261996E-07  1.879654E-09
      8373   1  1.608556E-04 -5.308238E-05 -5.308935E-05  1.331918E-05 -3.183525E-07 -1.880558E-08
      8374   1  1.608556E-04 -5.307248E-05 -5.308515E-05  1.249380E-05 -4.059888E-07  7.453101E-09
      8375   1  1.608556E-04 -5.308527E-05 -5.307119E-05  1.198339E-05 -3.623547E-07  1.998737E-09
      8376   1  1.608556E-04 -5.308516E-05 -5.307331E-05  1.170197E-05 -2.069263E-07  1.621023E-09
      8377   1  1.608556E-04 -5.308596E-05 -5.306928E-05  1.161084E-05 -5.092331E-14  3.864994E-14
      8378   1  1.608556E-04 -5.308516E-05 -5.307331E-05  1.170197E-05  2.069262E-07 -1.620948E-09
      8379   1  1.608556E-04 -5.308527E-05 -5.307119E-05  1.198339E-05  3.623546E-07 -1.998674E-09
      8380   1  1.608556E-04 -5.307248E-05 -5.308515E-05  1.249380E-05  4.059888E-07 -7.453054E-09
      8381   1  1.608556E-04 -5.308238E-05 -5.308935E-05  1.331918E-05  3.183525E-07  1.880560E-08
      8382   1  1.608556E-04 -5.310662E-05 -5.305456E-05  1.452033E-05  1.261995E-07 -1.879644E-09
      8383   1  1.072371E-04 -3.539250E-05 -3.539510E-05  1.772536E-05 -5.843234E-08 -7.484832E-09
      8384   1  1.072371E-04 -3.539205E-05 -3.538128E-05  1.645285E-05 -1.613811E-07  6.014470E-10
      8385   1  1.072371E-04 -3.538793E-05 -3.538855E-05  1.553576E-05 -2.068037E-07 -1.426671E-08
      8386   1  1.072371E-04 -3.538256E-05 -3.538959E-05  1.492193E-05 -1.868184E-07  2.209150E-09
      8387   1  1.072371E-04 -3.539009E-05 -3.538094E-05  1.457597E-05 -1.104243E-07 -2.162442E-09
      8388   1  1.072371E-04 -3.538752E-05 -3.538475E-05  1.446381E-05 -3.670514E-14  4.973831E-14
      8389   1  1.072371E-04 -3.539009E-05 -3.538094E-05  1.457597E-05  1.104242E-07  2.162538E-09
      8390   1  1.072371E-04 -3.538256E-05 -3.538959E-05  1.492193E-05  1.868183E-07 -2.209068E-09
      8391   1  1.072371E-04 -3.538793E-05 -3.538855E-05  1.553576E-05  2.068037E-07  1.426677E-08
      8392   1  1.072371E-04 -3.539205E-05 -3.538128E-05  1.645285E-05  1.613810E-07 -6.014083E-10
      8393   1  1.072371E-04 -3.539250E-05 -3.539510E-05  1.772536E-05  5.843233E-08  7.484845E-09
      8394   1  5.361853E-05 -1.770129E-05 -1.768661E-05  1.962261E-05 -2.573125E-08 -9.893472E-10
      8395   1  5.361853E-05 -1.769452E-05 -1.769647E-05  1.832412E-05 -6.642298E-08 -1.447845E-08
      8396   1  5.361853E-05 -1.769265E-05 -1.769375E-05  1.735703E-05 -8.711309E-08 -1.007482E-09
      8397   1  5.361853E-05 -1.769418E-05 -1.769269E-05  1.669890E-05 -7.935252E-08 -1.125233E-08
      8398   1  5.361853E-05 -1.769161E-05 -1.769449E-05  1.631658E-05 -4.673572E-08  1.938482E-10
      8399   1  5.361853E-05 -1.769501E-05 -1.769051E-05  1.619261E-05 -1.918390E-14  5.618710E-14
      8400   1  5.361853E-05 -1.769161E-05 -1.769449E-05  1.631658E-05  4.673569E-08 -1.937391E-10
      8401   1  5.361853E-05 -1.769418E-05 -1.769269E-05  1.669890E-05  7.935248E-08  1.125243E-08
      8402   1  5.361853E-05 -1.769265E-05 -1.769375E-05  1.735703E-05  8.711306E-08  1.007557E-09
      8403   1  5.361853E-05 -1.769452E-05 -1.769647E-05  1.832412E-05  6.642296E-08  1.447850E-08
      8404   1  5.361853E-05 -1.770129E-05 -1.768661E-05  1.962261E-05  2.573125E-08  9.893649E-10
      8405   1  6.541816E-14 -2.128853E-14 -2.703387E-14  2.025233E-05 -1.144282E-16 -5.817135E-09
      8406   1  6.340924E-14 -4.018313E-14 -1.365419E-14  1.894418E-05  1.625956E-16 -2.448765E-09
      8407   1  7.625432E-14 -6.498274E-14 -2.622691E-14  1.796588E-05  2.670737E-16 -1.548148E-08
      8408   1  7.717362E-14 -8.393286E-14 -1.380749E-14  1.729130E-05  1.574151E-16 -9.496328E-10
      8409   1  8.540087E-14 -9.429957E-14 -2.620068E-14  1.690023E-05  4.977017E-17 -6.431767E-09
      8410   1  8.176641E-14 -9.758860E-14 -1.403404E-14  1.677112E-05  8.394838E-18  5.868391E-14
      8411   1  8.553791E-14 -9.472284E-14 -2.614347E-14  1.690023E-05 -8.229942E-17  6.431880E-09
      8412   1  7.801279E-14 -8.645862E-14 -1.380375E-14  1.729130E-05 -1.669642E-16  9.497317E-10
      8413   1  7.879342E-14 -7.278206E-14 -2.618397E-14  1.796588E-05 -9.223088E-17  1.548156E-08
      8414   1  6.846726E-14 -5.639239E-14 -1.367239E-14  1.894418E-05 -1.088886E-16  2.448814E-09
      8415   1  7.231097E-14 -4.411749E-14 -2.684217E-14  2.025233E-05 -1.189277E-16  5.817153E-09
      8416   1 -5.361853E-05  1.770129E-05  1.768661E-05  1.962261E-05  2.573125E-08 -9.893472E-10
      8417   1 -5.361853E-05  1.769452E-05  1.769647E-05  1.832412E-05  6.642298E-08 -1.447845E-08
      8418   1 -5.361853E-05  1.769265E-05  1.769374E-05  1.735703E-05  8.711308E-08 -1.007482E-09
      8419   1 -5.361853E-05  1.769418E-05  1.769269E-05  1.669890E-05  7.935252E-08 -1.125233E-08
      8420   1 -5.361853E-05  1.769161E-05  1.769449E-05  1.631658E-05  4.673572E-08  1.938483E-10
      8421   1 -5.361853E-05  1.769501E-05  1.769051E-05  1.619261E-05  1.925270E-14  5.608682E-14
      8422   1 -5.361853E-05  1.769161E-05  1.769449E-05  1.631658E-05 -4.673569E-08 -1.937390E-10
      8423   1 -5.361853E-05  1.769418E-05  1.769269E-05  1.669890E-05 -7.935248E-08  1.125243E-08
      8424   1 -5.361853E-05  1.769265E-05  1.769374E-05  1.735703E-05 -8.711306E-08  1.007557E-09
      8425   1 -5.361853E-05  1.769452E-05  1.769647E-05  1.832412E-05 -6.642296E-08  1.447850E-08
      8426   1 -5.361853E-05  1.770129E-05  1.768661E-05  1.962261E-05 -2.573125E-08  9.893651E-10
      8427   1 -1.072371E-04  3.539250E-05  3.539510E-05  1.772536E-05  5.843234E-08 -7.484832E-09
      8428   1 -1.072371E-04  3.539205E-05  3.538128E-05  1.645285E-05  1.613811E-07  6.014470E-10
      8429   1 -1.072371E-04  3.538793E-05  3.538855E-05  1.553576E-05  2.068037E-07 -1.426671E-08
      8430   1 -1.072371E-04  3.538256E-05  3.538959E-05  1.492193E-05  1.868184E-07  2.209150E-09
      8431   1 -1.072371E-04  3.539009E-05  3.538094E-05  1.457597E-05  1.104243E-07 -2.162442E-09
      8432   1 -1.072371E-04  3.538752E-05  3.538475E-05  1.446381E-05  3.708904E-14  4.975170E-14
      8433   1 -1.072371E-04  3.539009E-05  3.538094E-05  1.457597E-05 -1.104242E-07  2.162538E-09
      8434   1 -1.072371E-04  3.538256E-05  3.538959E-05  1.492193E-05 -1.868183E-07 -2.209068E-09
      8435   1 -1.072371E-04  3.538793E-05  3.538855E-05  1.553576E-05 -2.068037E-07  1.426677E-08
      8436   1 -1.072371E-04  3.539205E-05  3.538128E-05  1.645285E-05 -1.613810E-07 -6.014083E-10
      8437   1 -1.072371E-04  3.539250E-05  3.539510E-05  1.772536E-05 -5.843233E-08  7.484845E-09
      8438   1 -1.608556E-04  5.310662E-05  5.305456E-05  1.452033E-05  1.261996E-07  1.879655E-09
      8439   1 -1.608556E-04  5.308238E-05  5.308935E-05  1.331918E-05  3.183525E-07 -1.880558E-08
      8440   1 -1.608556E-04  5.307248E-05  5.308515E-05  1.249380E-05  4.059888E-07  7.453101E-09
      8441   1 -1.608556E-04  5.308527E-05  5.307119E-05  1.198339E-05  3.623547E-07  1.998737E-09
      8442   1 -1.608556E-04  5.308516E-05  5.307331E-05  1.170197E-05  2.069263E-07  1.621023E-09
      8443   1 -1.608556E-04  5.308596E-05  5.306928E-05  1.161084E-05  5.172969E-14  3.881081E-14
      8444   1 -1.608556E-04  5.308516E-05  5.307331E-05  1.170197E-05 -2.069262E-07 -1.620948E-09
      8445   1 -1.608556E-04  5.308527E-05  5.307119E-05  1.198339E-05 -3.623546E-07 -1.998674E-09
      8446   1 -1.608556E-04  5.307248E-05  5.308515E-05  1.249380E-05 -4.059888E-07 -7.453054E-09
      8447   1 -1.608556E-04  5.308238E-05  5.308935E-05  1.331918E-05 -3.183525E-07  1.880560E-08
      8448   1 -1.608556E-04  5.310662E-05  5.305456E-05  1.452033E-05 -1.261995E-07 -1.879645E-09
      8449   1 -2.144741E-04  7.078230E-05  7.080213E-05  9.932606E-06  2.312778E-07 -1.764140E-08
      8450   1 -2.144741E-04  7.076629E-05  7.077415E-05  8.856098E-06  6.334125E-07  1.719321E-08
      8451   1 -2.144741E-04  7.078086E-05  7.075802E-05  8.266722E-06  7.743504E-07  1.229080E-08
      8452   1 -2.144741E-04  7.078601E-05  7.075844E-05  7.924963E-06  6.407632E-07  3.611296E-09
      8453   1 -2.144741E-04  7.078122E-05  7.075817E-05  7.736566E-06  3.580883E-07  3.013075E-09
      8454   1 -2.144741E-04  7.078817E-05  7.075693E-05  7.679059E-06  6.096269E-14  2.511742E-14
      8455   1 -2.144741E-04  7.078122E-05  7.075817E-05  7.736566E-06 -3.580882E-07 -3.013027E-09
      8456   1 -2.144741E-04  7.078601E-05  7.075844E-05  7.924963E-06 -6.407631E-07 -3.611257E-09
      8457   1 -2.144741E-04  7.078086E-05  7.075802E-05  8.266722E-06 -7.743503E-07 -1.229077E-08
      8458   1 -2.144741E-04  7.076629E-05  7.077415E-05  8.856098E-06 -6.334125E-07 -1.719320E-08
      8459   1 -2.144741E-04  7.078230E-05  7.080213E-05  9.932606E-06 -2.312777E-07  1.764140E-08
      8460   1 -2.680926E-04  8.852340E-05  8.838917E-05  3.648020E-06  6.234948E-07  2.714444E-08
      8461   1 -2.680926E-04  8.847258E-05  8.843329E-05  3.134943E-06  1.347983E-06  1.671388E-08
      8462   1 -2.680926E-04  8.849799E-05  8.843209E-05  2.938750E-06  1.372503E-06  3.271125E-09
      8463   1 -2.680926E-04  8.847506E-05  8.844626E-05  2.809206E-06  1.070267E-06  3.908155E-09
      8464   1 -2.680926E-04  8.849029E-05  8.844153E-05  2.747208E-06  5.776146E-07  5.505710E-10
      8465   1 -2.680926E-04  8.847586E-05  8.844848E-05  2.724423E-06  6.359055E-14  8.523959E-15
      8466   1 -2.680926E-04  8.849029E-05  8.844153E-05  2.747208E-06 -5.776145E-07 -5.505536E-10
      8467   1 -2.680926E-04  8.847506E-05  8.844626E-05  2.809206E-06 -1.070266E-06 -3.908143E-09
      8468   1 -2.680926E-04  8.849799E-05  8.843209E-05  2.938750E-06 -1.372503E-06 -3.271116E-09
      8469   1 -2.680926E-04  8.847258E-05  8.843329E-05  3.134943E-06 -1.347983E-06 -1.671388E-08
      8470   1 -2.680926E-04  8.852340E-05  8.838917E-05  3.648020E-06 -6.234948E-07 -2.714444E-08
      8471   1  2.635487E-04 -8.702300E-05 -8.689104E-05  3.648020E-06 -6.234948E-07  2.668454E-08
      8472   1  2.635487E-04 -8.697304E-05 -8.693443E-05  3.134943E-06 -1.347983E-06  1.643049E-08
      8473   1  2.635487E-04 -8.699803E-05 -8.693323E-05  2.938750E-06 -1.372503E-06  3.215751E-09
      8474   1  2.635487E-04 -8.697548E-05 -8.694718E-05  2.809206E-06 -1.070266E-06  3.841878E-09
      8475   1  2.635487E-04 -8.699046E-05 -8.694251E-05  2.747208E-06 -5.776147E-07  5.412611E-10
      8476   1  2.635487E-04 -8.697627E-05 -8.694936E-05  2.724423E-06 -8.114522E-14  1.311747E-14
      8477   1  2.635487E-04 -8.699046E-05 -8.694251E-05  2.747208E-06  5.776146E-07 -5.412382E-10
      8478   1  2.635487E-04 -8.697548E-05 -8.694718E-05  2.809206E-06  1.070266E-06 -3.841858E-09
      8479   1  2.635487E-04 -8.699803E-05 -8.693323E-05  2.938750E-06  1.372503E-06 -3.215739E-09
      8480   1  2.635487E-04 -8.697304E-05 -8.693443E-05  3.134943E-06  1.347983E-06 -1.643048E-08
      8481   1  2.635487E-04 -8.702300E-05 -8.689104E-05  3.648020E-06  6.234948E-07 -2.668454E-08
      8482   1  2.108389E-04 -6.958260E-05 -6.960208E-05  9.932606E-06 -2.312778E-07 -1.734243E-08
      8483   1  2.108390E-04 -6.956686E-05 -6.957459E-05  8.856098E-06 -6.334124E-07  1.690181E-08
      8484   1  2.108389E-04 -6.958119E-05 -6.955873E-05  8.266722E-06 -7.743506E-07  1.208249E-08
      8485   1  2.108390E-04 -6.958624E-05 -6.955915E-05  7.924963E-06 -6.407631E-07  3.550093E-09
      8486   1  2.108389E-04 -6.958154E-05 -6.955887E-05  7.736566E-06 -3.580884E-07  2.962018E-09
      8487   1  2.108390E-04 -6.958837E-05 -6.955766E-05  7.679059E-06 -7.810899E-14  3.643049E-14
      8488   1  2.108389E-04 -6.958154E-05 -6.955887E-05  7.736566E-06  3.580882E-07 -2.961952E-09
      8489   1  2.108390E-04 -6.958624E-05 -6.955915E-05  7.924963E-06  6.407630E-07 -3.550035E-09
      8490   1  2.108389E-04 -6.958119E-05 -6.955873E-05  8.266722E-06  7.743505E-07 -1.208245E-08
      8491   1  2.108390E-04 -6.956686E-05 -6.957459E-05  8.856098E-06  6.334123E-07 -1.690179E-08
      8492   1  2.108389E-04 -6.958260E-05 -6.960208E-05  9.932606E-06  2.312778E-07  1.734244E-08
      8493   1  1.581292E-04 -5.220651E-05 -5.215532E-05  1.452033E-05 -1.261996E-07  1.847818E-09
      8494   1  1.581292E-04 -5.218268E-05 -5.218954E-05  1.331918E-05 -3.183524E-07 -1.848682E-08
      8495   1  1.581292E-04 -5.217294E-05 -5.218539E-05  1.249380E-05 -4.059890E-07  7.326778E-09
      8496   1  1.581292E-04 -5.218552E-05 -5.217168E-05  1.198339E-05 -3.623546E-07  1.964879E-09
      8497   1  1.581292E-04 -5.218541E-05 -5.217376E-05  1.170197E-05 -2.069264E-07  1.593561E-09
      8498   1  1.581292E-04 -5.218619E-05 -5.216980E-05  1.161084E-05 -6.633752E-14  5.544551E-14
      8499   1  1.581292E-04 -5.218541E-05 -5.217376E-05  1.170197E-05  2.069263E-07 -1.593456E-09
      8500   1  1.581292E-04 -5.218552E-05 -5.217168E-05  1.198339E-05  3.623545E-07 -1.964789E-09
      8501   1  1.581292E-04 -5.217294E-05 -5.218539E-05  1.249380E-05  4.059889E-07 -7.326713E-09
      8502   1  1.581292E-04 -5.218268E-05 -5.218954E-05  1.331918E-05  3.183523E-07  1.848686E-08
      8503   1  1.581292E-04 -5.220651E-05 -5.215532E-05  1.452033E-05  1.261996E-07 -1.847807E-09
      8504   1  1.054195E-04 -3.479263E-05 -3.479518E-05  1.772536E-05 -5.843238E-08 -7.357983E-09
      8505   1  1.054195E-04 -3.479219E-05 -3.478160E-05  1.645285E-05 -1.613810E-07  5.912549E-10
      8506   1  1.054195E-04 -3.478814E-05 -3.478874E-05  1.553576E-05 -2.068038E-07 -1.402488E-08
      8507   1  1.054195E-04 -3.478286E-05 -3.478977E-05  1.492193E-05 -1.868183E-07  2.171726E-09
      8508   1  1.054195E-04 -3.479026E-05 -3.478126E-05  1.457597E-05 -1.104243E-07 -2.125772E-09
      8509   1  1.054195E-04 -3.478773E-05 -3.478502E-05  1.446381E-05 -4.811755E-14  7.054883E-14
      8510   1  1.054195E-04 -3.479026E-05 -3.478126E-05  1.457597E-05  1.104242E-07  2.125905E-09
      8511   1  1.054195E-04 -3.478286E-05 -3.478977E-05  1.492193E-05  1.868182E-07 -2.171609E-09
      8512   1  1.054195E-04 -3.478814E-05 -3.478874E-05  1.553576E-05  2.068038E-07  1.402497E-08
      8513   1  1.054195E-04 -3.479219E-05 -3.478160E-05  1.645285E-05  1.613810E-07 -5.911973E-10
      8514   1  1.054195E-04 -3.479263E-05 -3.479518E-05  1.772536E-05  5.843237E-08  7.358002E-09
      8515   1  5.270974E-05 -1.740127E-05 -1.738683E-05  1.962261E-05 -2.573127E-08 -9.725642E-10
      8516   1  5.270974E-05 -1.739461E-05 -1.739653E-05  1.832412E-05 -6.642294E-08 -1.423303E-08
      8517   1  5.270974E-05 -1.739277E-05 -1.739385E-05  1.735703E-05 -8.711314E-08 -9.903956E-10
      8518   1  5.270974E-05 -1.739428E-05 -1.739282E-05  1.669890E-05 -7.935248E-08 -1.106159E-08
      8519   1  5.270974E-05 -1.739175E-05 -1.739459E-05  1.631658E-05 -4.673575E-08  1.905842E-10
      8520   1  5.270974E-05 -1.739510E-05 -1.739067E-05  1.619261E-05 -2.529068E-14  7.972758E-14
      8521   1  5.270974E-05 -1.739175E-05 -1.739459E-05  1.631658E-05  4.673570E-08 -1.904320E-10
      8522   1  5.270974E-05 -1.739428E-05 -1.739282E-05  1.669890E-05  7.935244E-08  1.106173E-08
      8523   1  5.270974E-05 -1.739277E-05 -1.739385E-05  1.735703E-05  8.711310E-08  9.904995E-10
      8524   1  5.270974E-05 -1.739461E-05 -1.739653E-05  1.832412E-05  6.642292E-08  1.423310E-08
      8525   1  5.270974E-05 -1.740127E-05 -1.738683E-05  1.962261E-05  2.573126E-08  9.725865E-10
      8526   1  5.177683E-14 -1.450923E-14 -1.249015E-14  2.025233E-05  1.940214E-17 -5.718547E-09
      8527   1  5.240773E-14  9.027501E-15 -2.760011E-14  1.894418E-05 -3.720220E-16 -2.407255E-09
      8528   1  3.627903E-14  3.925332E-14 -1.271447E-14  1.796588E-05 -3.313741E-16 -1.521907E-08
      8529   1  3.463907E-14  6.251250E-14 -2.729899E-14  1.729130E-05 -5.733524E-17 -9.335134E-10
      8530   1  2.497698E-14  7.533557E-14 -1.343218E-14  1.690023E-05  4.963444E-17 -6.322732E-09
      8531   1  2.915810E-14  7.923523E-14 -2.744338E-14  1.677112E-05 -2.628439E-17  8.316043E-14
      8532   1  2.470756E-14  7.591844E-14 -1.346216E-14  1.690023E-05 -6.427498E-17  6.322890E-09
      8533   1  3.346520E-14  6.557949E-14 -2.722352E-14  1.729130E-05 -4.927487E-17  9.336545E-10
      8534   1  3.284796E-14  4.916900E-14 -1.274726E-14  1.796588E-05  1.048771E-16  1.521918E-08
      8535   1  4.569598E-14  2.915723E-14 -2.746619E-14  1.894418E-05  2.675447E-16  2.407329E-09
      8536   1  4.264156E-14  1.375289E-14 -1.247233E-14  2.025233E-05  2.456531E-16  5.718572E-09
      8537   1 -5.270974E-05  1.740127E-05  1.738683E-05  1.962261E-05  2.573127E-08 -9.725646E-10
      8538   1 -5.270974E-05  1.739461E-05  1.739653E-05  1.832412E-05  6.642294E-08 -1.423303E-08
      8539   1 -5.270974E-05  1.739277E-05  1.739385E-05  1.735703E-05  8.711314E-08 -9.903956E-10
      8540   1 -5.270974E-05  1.739428E-05  1.739282E-05  1.669890E-05  7.935248E-08 -1.106159E-08
      8541   1 -5.270974E-05  1.739175E-05  1.739459E-05  1.631658E-05  4.673575E-08  1.905842E-10
      8542   1 -5.270974E-05  1.739510E-05  1.739067E-05  1.619261E-05  2.511554E-14  7.979005E-14
      8543   1 -5.270974E-05  1.739175E-05  1.739459E-05  1.631658E-05 -4.673570E-08 -1.904320E-10
      8544   1 -5.270974E-05  1.739428E-05  1.739282E-05  1.669890E-05 -7.935244E-08  1.106173E-08
      8545   1 -5.270974E-05  1.739277E-05  1.739385E-05  1.735703E-05 -8.711310E-08  9.904995E-10
      8546   1 -5.270974E-05  1.739461E-05  1.739653E-05  1.832412E-05 -6.642292E-08  1.423310E-08
      8547   1 -5.270974E-05  1.740127E-05  1.738683E-05  1.962261E-05 -2.573126E-08  9.725867E-10
      8548   1 -1.054195E-04  3.479263E-05  3.479518E-05  1.772536E-05  5.843238E-08 -7.357983E-09
      8549   1 -1.054195E-04  3.479219E-05  3.478160E-05  1.645285E-05  1.613810E-07  5.912547E-10
      8550   1 -1.054195E-04  3.478814E-05  3.478874E-05  1.553576E-05  2.068038E-07 -1.402488E-08
      8551   1 -1.054195E-04  3.478286E-05  3.478977E-05  1.492193E-05  1.868183E-07  2.171726E-09
      8552   1 -1.054195E-04  3.479026E-05  3.478126E-05  1.457597E-05  1.104243E-07 -2.125772E-09
      8553   1 -1.054195E-04  3.478773E-05  3.478502E-05  1.446381E-05  4.751074E-14  7.055609E-14
      8554   1 -1.054195E-04  3.479026E-05  3.478126E-05  1.457597E-05 -1.104242E-07  2.125905E-09
      8555   1 -1.054195E-04  3.478286E-05  3.478977E-05  1.492193E-05 -1.868182E-07 -2.171609E-09
      8556   1 -1.054195E-04  3.478814E-05  3.478874E-05  1.553576E-05 -2.068038E-07  1.402497E-08
      8557   1 -1.054195E-04  3.479219E-05  3.478160E-05  1.645285E-05 -1.613809E-07 -5.911973E-10
      8558   1 -1.054195E-04  3.479263E-05  3.479518E-05  1.772536E-05 -5.843237E-08  7.358002E-09
      8559   1 -1.581292E-04  5.220651E-05  5.215532E-05  1.452033E-05  1.261996E-07  1.847818E-09
      8560   1 -1.581292E-04  5.218268E-05  5.218954E-05  1.331918E-05  3.183524E-07 -1.848682E-08
      8561   1 -1.581292E-04  5.217294E-05  5.218539E-05  1.249380E-05  4.059890E-07  7.326779E-09
      8562   1 -1.581292E-04  5.218552E-05  5.217168E-05  1.198339E-05  3.623546E-07  1.964879E-09
      8563   1 -1.581292E-04  5.218541E-05  5.217376E-05  1.170197E-05  2.069264E-07  1.593561E-09
      8564   1 -1.581292E-04  5.218619E-05  5.216980E-05  1.161084E-05  6.522910E-14  5.537075E-14
      8565   1 -1.581292E-04  5.218541E-05  5.217376E-05  1.170197E-05 -2.069263E-07 -1.593456E-09
      8566   1 -1.581292E-04  5.218552E-05  5.217168E-05  1.198339E-05 -3.623545E-07 -1.964789E-09
      8567   1 -1.581292E-04  5.217294E-05  5.218539E-05  1.249380E-05 -4.059889E-07 -7.326714E-09
      8568   1 -1.581292E-04  5.218268E-05  5.218954E-05  1.331918E-05 -3.183523E-07  1.848686E-08
      8569   1 -1.581292E-04  5.220651E-05  5.215532E-05  1.452033E-05 -1.261996E-07 -1.847807E-09
      8570   1 -2.108389E-04  6.958260E-05  6.960208E-05  9.932606E-06  2.312779E-07 -1.734243E-08
      8571   1 -2.108390E-04  6.956686E-05  6.957459E-05  8.856098E-06  6.334123E-07  1.690181E-08
      8572   1 -2.108389E-04  6.958119E-05  6.955873E-05  8.266722E-06  7.743506E-07  1.208249E-08
      8573   1 -2.108390E-04  6.958625E-05  6.955915E-05  7.924963E-06  6.407631E-07  3.550093E-09
      8574   1 -2.108389E-04  6.958154E-05  6.955887E-05  7.736566E-06  3.580884E-07  2.962018E-09
      8575   1 -2.108390E-04  6.958837E-05  6.955766E-05  7.679059E-06  7.698292E-14  3.645240E-14
      8576   1 -2.108389E-04  6.958154E-05  6.955887E-05  7.736566E-06 -3.580882E-07 -2.961952E-09
      8577   1 -2.108390E-04  6.958624E-05  6.955915E-05  7.924963E-06 -6.407630E-07 -3.550036E-09
      8578   1 -2.108389E-04  6.958119E-05  6.955873E-05  8.266722E-06 -7.743505E-07 -1.208245E-08
      8579   1 -2.108390E-04  6.956686E-05  6.957459E-05  8.856098E-06 -6.334123E-07 -1.690179E-08
      8580   1 -2.108389E-04  6.958260E-05  6.960208E-05  9.932606E-06 -2.312778E-07  1.734244E-08
      8581   1 -2.635487E-04  8.702300E-05  8.689104E-05  3.648020E-06  6.234948E-07  2.668453E-08
      8582   1 -2.635487E-04  8.697304E-05  8.693443E-05  3.134943E-06  1.347983E-06  1.643050E-08
      8583   1 -2.635487E-04  8.699803E-05  8.693323E-05  2.938750E-06  1.372503E-06  3.215748E-09
      8584   1 -2.635487E-04  8.697548E-05  8.694718E-05  2.809206E-06  1.070266E-06  3.841880E-09
      8585   1 -2.635487E-04  8.699046E-05  8.694251E-05  2.747208E-06  5.776147E-07  5.412604E-10
      8586   1 -2.635487E-04  8.697627E-05  8.694936E-05  2.724423E-06  8.037421E-14  1.314202E-14
      8587   1 -2.635487E-04  8.699046E-05  8.694251E-05  2.747208E-06 -5.776146E-07 -5.412376E-10
      8588   1 -2.635487E-04  8.697548E-05  8.694718E-05  2.809206E-06 -1.070266E-06 -3.841860E-09
      8589   1 -2.635487E-04  8.699803E-05  8.693323E-05  2.938750E-06 -1.372503E-06 -3.215737E-09
      8590   1 -2.635487E-04  8.697304E-05  8.693443E-05  3.134943E-06 -1.347983E-06 -1.643049E-08
      8591   1 -2.635487E-04  8.702300E-05  8.689104E-05  3.648020E-06 -6.234948E-07 -2.668453E-08
      8592   1  2.590047E-04 -8.552260E-05 -8.539292E-05  3.648020E-06 -6.234948E-07  2.622432E-08
      8593   1  2.590047E-04 -8.547351E-05 -8.543555E-05  3.134943E-06 -1.347983E-06  1.614730E-08
      8594   1  2.590047E-04 -8.549806E-05 -8.543439E-05  2.938750E-06 -1.372503E-06  3.160254E-09
      8595   1  2.590047E-04 -8.547591E-05 -8.544808E-05  2.809206E-06 -1.070267E-06  3.775676E-09
      8596   1  2.590047E-04 -8.549062E-05 -8.544351E-05  2.747208E-06 -5.776147E-07  5.319194E-10
      8597   1  2.590047E-04 -8.547668E-05 -8.545023E-05  2.724423E-06 -1.045240E-13  1.702661E-14
      8598   1  2.590047E-04 -8.549062E-05 -8.544351E-05  2.747208E-06  5.776145E-07 -5.318844E-10
      8599   1  2.590047E-04 -8.547590E-05 -8.544808E-05  2.809206E-06  1.070266E-06 -3.775650E-09
      8600   1  2.590047E-04 -8.549806E-05 -8.543439E-05  2.938750E-06  1.372503E-06 -3.160235E-09
      8601   1  2.590047E-04 -8.547351E-05 -8.543555E-05  3.134943E-06  1.347983E-06 -1.614729E-08
      8602   1  2.590047E-04 -8.552260E-05 -8.539292E-05  3.648020E-06  6.234948E-07 -2.622431E-08
      8603   1  2.072038E-04 -6.838290E-05 -6.840205E-05  9.932606E-06 -2.312778E-07 -1.704339E-08
      8604   1  2.072038E-04 -6.836743E-05 -6.837503E-05  8.856098E-06 -6.334125E-07  1.661040E-08
      8605   1  2.072038E-04 -6.838151E-05 -6.835944E-05  8.266722E-06 -7.743504E-07  1.187418E-08
      8606   1  2.072038E-04 -6.838648E-05 -6.835985E-05  7.924963E-06 -6.407632E-07  3.488899E-09
      8607   1  2.072038E-04 -6.838186E-05 -6.835959E-05  7.736566E-06 -3.580884E-07  2.910962E-09
      8608   1  2.072038E-04 -6.838857E-05 -6.835839E-05  7.679059E-06 -1.036435E-13  4.988604E-14
      8609   1  2.072038E-04 -6.838186E-05 -6.835959E-05  7.736566E-06  3.580882E-07 -2.910866E-09
      8610   1  2.072038E-04 -6.838648E-05 -6.835985E-05  7.924963E-06  6.407631E-07 -3.488820E-09
      8611   1  2.072038E-04 -6.838151E-05 -6.835944E-05  8.266722E-06  7.743503E-07 -1.187412E-08
      8612   1  2.072038E-04 -6.836743E-05 -6.837503E-05  8.856098E-06  6.334124E-07 -1.661037E-08
      8613   1  2.072038E-04 -6.838290E-05 -6.840205E-05  9.932606E-06  2.312777E-07  1.704340E-08
      8614   1  1.554028E-04 -5.130640E-05 -5.125610E-05  1.452033E-05 -1.261996E-07  1.815946E-09
      8615   1  1.554028E-04 -5.128297E-05 -5.128972E-05  1.331918E-05 -3.183525E-07 -1.816808E-08
      8616   1  1.554028E-04 -5.127341E-05 -5.128565E-05  1.249380E-05 -4.059889E-07  7.200477E-09
      8617   1  1.554028E-04 -5.128577E-05 -5.127217E-05  1.198339E-05 -3.623547E-07  1.931016E-09
      8618   1  1.554028E-04 -5.128567E-05 -5.127422E-05  1.170197E-05 -2.069264E-07  1.566111E-09
      8619   1  1.554028E-04 -5.128643E-05 -5.127032E-05  1.161084E-05 -8.967266E-14  7.658179E-14
      8620   1  1.554028E-04 -5.128567E-05 -5.127422E-05  1.170197E-05  2.069262E-07 -1.565962E-09
      8621   1  1.554028E-04 -5.128577E-05 -5.127217E-05  1.198339E-05  3.623546E-07 -1.930891E-09
      8622   1  1.554028E-04 -5.127341E-05 -5.128565E-05  1.249380E-05  4.059888E-07 -7.200382E-09
      8623   1  1.554028E-04 -5.128297E-05 -5.128972E-05  1.331918E-05  3.183524E-07  1.816814E-08
      8624   1  1.554028E-04 -5.130640E-05 -5.125610E-05  1.452033E-05  1.261995E-07 -1.815927E-09
      8625   1  1.036019E-04 -3.419276E-05 -3.419526E-05  1.772536E-05 -5.843235E-08 -7.231105E-09
      8626   1  1.036019E-04 -3.419232E-05 -3.418192E-05  1.645285E-05 -1.613811E-07  5.810770E-10
      8627   1  1.036019E-04 -3.418834E-05 -3.418894E-05  1.553576E-05 -2.068038E-07 -1.378306E-08
      8628   1  1.036019E-04 -3.418316E-05 -3.418994E-05  1.492193E-05 -1.868184E-07  2.134305E-09
      8629   1  1.036019E-04 -3.419043E-05 -3.418159E-05  1.457597E-05 -1.104243E-07 -2.089092E-09
      8630   1  1.036019E-04 -3.418794E-05 -3.418527E-05  1.446381E-05 -6.530635E-14  9.742460E-14
      8631   1  1.036019E-04 -3.419043E-05 -3.418159E-05  1.457597E-05  1.104242E-07  2.089279E-09
      8632   1  1.036019E-04 -3.418316E-05 -3.418994E-05  1.492193E-05  1.868183E-07 -2.134143E-09
      8633   1  1.036019E-04 -3.418834E-05 -3.418894E-05  1.553576E-05  2.068037E-07  1.378318E-08
      8634   1  1.036019E-04 -3.419232E-05 -3.418192E-05  1.645285E-05  1.613810E-07 -5.809994E-10
      8635   1  1.036019E-04 -3.419276E-05 -3.419526E-05  1.772536E-05  5.843233E-08  7.231132E-09
      8636   1  5.180095E-05 -1.710124E-05 -1.708706E-05  1.962261E-05 -2.573126E-08 -9.557980E-10
      8637   1  5.180095E-05 -1.709470E-05 -1.709659E-05  1.832412E-05 -6.642298E-08 -1.398763E-08
      8638   1  5.180095E-05 -1.709290E-05 -1.709396E-05  1.735703E-05 -8.711310E-08 -9.732932E-10
      8639   1  5.180095E-05 -1.709438E-05 -1.709294E-05  1.669890E-05 -7.935252E-08 -1.087085E-08
      8640   1  5.180095E-05 -1.709190E-05 -1.709468E-05  1.631658E-05 -4.673574E-08  1.873312E-10
      8641   1  5.180095E-05 -1.709518E-05 -1.709083E-05  1.619261E-05 -3.432565E-14  1.099906E-13
      8642   1  5.180095E-05 -1.709190E-05 -1.709468E-05  1.631658E-05  4.673568E-08 -1.871172E-10
      8643   1  5.180095E-05 -1.709438E-05 -1.709294E-05  1.669890E-05  7.935246E-08  1.087103E-08
      8644   1  5.180095E-05 -1.709290E-05 -1.709396E-05  1.735703E-05  8.711306E-08  9.734413E-10
      8645   1  5.180095E-05 -1.709470E-05 -1.709659E-05  1.832412E-05  6.642295E-08  1.398772E-08
      8646   1  5.180095E-05 -1.710124E-05 -1.708706E-05  1.962261E-05  2.573125E-08  9.558336E-10
      8647   1  6.350877E-14 -1.807582E-14 -2.907739E-14  2.025233E-05  1.462961E-16 -5.619937E-09
      8648   1  6.209464E-14 -4.738571E-14 -1.141695E-14  1.894418E-05  1.067675E-15 -2.365732E-09
      8649   1  8.134791E-14 -8.518186E-14 -2.861005E-14  1.796588E-05  1.386683E-15 -1.495664E-08
      8650   1  8.423720E-14 -1.141240E-13 -1.254522E-14  1.729130E-05  1.186346E-15 -9.173922E-10
      8651   1  9.621514E-14 -1.297573E-13 -2.921895E-14  1.690023E-05  6.089516E-16 -6.213684E-09
      8652   1  9.160066E-14 -1.343509E-13 -1.326926E-14  1.677112E-05  1.309852E-17  1.147893E-13
      8653   1  9.636541E-14 -1.300279E-13 -2.919310E-14  1.690023E-05 -6.635667E-16  6.213907E-09
      8654   1  8.532964E-14 -1.173159E-13 -1.256866E-14  1.729130E-05 -1.084546E-15  9.175865E-10
      8655   1  8.509155E-14 -9.671430E-14 -2.846923E-14  1.796588E-05 -1.207648E-15  1.495680E-08
      8656   1  6.978814E-14 -7.178980E-14 -1.152784E-14  1.894418E-05 -9.034691E-16  2.365831E-09
      8657   1  7.409871E-14 -5.290213E-14 -2.886599E-14  2.025233E-05 -4.735058E-16  5.619972E-09
      8658   1 -5.180095E-05  1.710124E-05  1.708706E-05  1.962261E-05  2.573126E-08 -9.557980E-10
      8659   1 -5.180095E-05  1.709470E-05  1.709659E-05  1.832412E-05  6.642298E-08 -1.398763E-08
      8660   1 -5.180095E-05  1.709290E-05  1.709396E-05  1.735703E-05  8.711310E-08 -9.732934E-10
      8661   1 -5.180095E-05  1.709438E-05  1.709294E-05  1.669890E-05  7.935252E-08 -1.087085E-08
      8662   1 -5.180095E-05  1.709190E-05  1.709468E-05  1.631658E-05  4.673574E-08  1.873311E-10
      8663   1 -5.180095E-05  1.709518E-05  1.709083E-05  1.619261E-05  3.454010E-14  1.100722E-13
      8664   1 -5.180095E-05  1.709190E-05  1.709468E-05  1.631658E-05 -4.673568E-08 -1.871172E-10
      8665   1 -5.180095E-05  1.709438E-05  1.709294E-05  1.669890E-05 -7.935246E-08  1.087103E-08
      8666   1 -5.180095E-05  1.709290E-05  1.709396E-05  1.735703E-05 -8.711306E-08  9.734415E-10
      8667   1 -5.180095E-05  1.709470E-05  1.709659E-05  1.832412E-05 -6.642295E-08  1.398772E-08
      8668   1 -5.180095E-05  1.710124E-05  1.708706E-05  1.962261E-05 -2.573125E-08  9.558336E-10
      8669   1 -1.036019E-04  3.419276E-05  3.419526E-05  1.772536E-05  5.843235E-08 -7.231105E-09
      8670   1 -1.036019E-04  3.419232E-05  3.418192E-05  1.645285E-05  1.613811E-07  5.810769E-10
      8671   1 -1.036019E-04  3.418834E-05  3.418894E-05  1.553576E-05  2.068038E-07 -1.378306E-08
      8672   1 -1.036019E-04  3.418315E-05  3.418994E-05  1.492193E-05  1.868184E-07  2.134305E-09
      8673   1 -1.036019E-04  3.419043E-05  3.418159E-05  1.457597E-05  1.104243E-07 -2.089092E-09
      8674   1 -1.036019E-04  3.418794E-05  3.418527E-05  1.446381E-05  6.604066E-14  9.735526E-14
      8675   1 -1.036019E-04  3.419043E-05  3.418159E-05  1.457597E-05 -1.104242E-07  2.089279E-09
      8676   1 -1.036019E-04  3.418315E-05  3.418994E-05  1.492193E-05 -1.868183E-07 -2.134143E-09
      8677   1 -1.036019E-04  3.418834E-05  3.418894E-05  1.553576E-05 -2.068037E-07  1.378318E-08
      8678   1 -1.036019E-04  3.419232E-05  3.418192E-05  1.645285E-05 -1.613810E-07 -5.809994E-10
      8679   1 -1.036019E-04  3.419276E-05  3.419526E-05  1.772536E-05 -5.843233E-08  7.231132E-09
      8680   1 -1.554028E-04  5.130640E-05  5.125610E-05  1.452033E-05  1.261996E-07  1.815947E-09
      8681   1 -1.554028E-04  5.128297E-05  5.128972E-05  1.331918E-05  3.183525E-07 -1.816808E-08
      8682   1 -1.554028E-04  5.127341E-05  5.128565E-05  1.249380E-05  4.059889E-07  7.200476E-09
      8683   1 -1.554028E-04  5.128577E-05  5.127217E-05  1.198339E-05  3.623547E-07  1.931016E-09
      8684   1 -1.554028E-04  5.128567E-05  5.127422E-05  1.170197E-05  2.069263E-07  1.566110E-09
      8685   1 -1.554028E-04  5.128643E-05  5.127032E-05  1.161084E-05  9.103946E-14  7.649292E-14
      8686   1 -1.554028E-04  5.128567E-05  5.127421E-05  1.170197E-05 -2.069262E-07 -1.565962E-09
      8687   1 -1.554028E-04  5.128577E-05  5.127217E-05  1.198339E-05 -3.623546E-07 -1.930892E-09
      8688   1 -1.554028E-04  5.127341E-05  5.128565E-05  1.249380E-05 -4.059888E-07 -7.200382E-09
      8689   1 -1.554028E-04  5.128297E-05  5.128972E-05  1.331918E-05 -3.183524E-07  1.816814E-08
      8690   1 -1.554028E-04  5.130640E-05  5.125610E-05  1.452033E-05 -1.261995E-07 -1.815927E-09
      8691   1 -2.072038E-04  6.838290E-05  6.840205E-05  9.932606E-06  2.312778E-07 -1.704339E-08
      8692   1 -2.072038E-04  6.836743E-05  6.837503E-05  8.856098E-06  6.334125E-07  1.661040E-08
      8693   1 -2.072038E-04  6.838151E-05  6.835944E-05  8.266722E-06  7.743504E-07  1.187418E-08
      8694   1 -2.072038E-04  6.838648E-05  6.835985E-05  7.924963E-06  6.407633E-07  3.488899E-09
      8695   1 -2.072038E-04  6.838186E-05  6.835959E-05  7.736566E-06  3.580884E-07  2.910963E-09
      8696   1 -2.072038E-04  6.838857E-05  6.835839E-05  7.679059E-06  1.050900E-13  4.974225E-14
      8697   1 -2.072038E-04  6.838186E-05  6.835959E-05  7.736566E-06 -3.580882E-07 -2.910866E-09
      8698   1 -2.072038E-04  6.838648E-05  6.835985E-05  7.924963E-06 -6.407631E-07 -3.488820E-09
      8699   1 -2.072038E-04  6.838151E-05  6.835944E-05  8.266722E-06 -7.743503E-07 -1.187412E-08
      8700   1 -2.072038E-04  6.836743E-05  6.837503E-05  8.856098E-06 -6.334124E-07 -1.661037E-08
      8701   1 -2.072038E-04  6.838290E-05  6.840205E-05  9.932606E-06 -2.312777E-07  1.704340E-08
      8702   1 -2.590047E-04  8.552260E-05  8.539292E-05  3.648020E-06  6.234948E-07  2.622433E-08
      8703   1 -2.590047E-04  8.547351E-05  8.543555E-05  3.134943E-06  1.347983E-06  1.614729E-08
      8704   1 -2.590047E-04  8.549806E-05  8.543439E-05  2.938750E-06  1.372503E-06  3.160258E-09
      8705   1 -2.590047E-04  8.547591E-05  8.544808E-05  2.809206E-06  1.070267E-06  3.775674E-09
      8706   1 -2.590047E-04  8.549062E-05  8.544351E-05  2.747208E-06  5.776147E-07  5.319203E-10
      8707   1 -2.590047E-04  8.547668E-05  8.545023E-05  2.724423E-06  1.054958E-13  1.706344E-14
      8708   1 -2.590047E-04  8.549062E-05  8.544351E-05  2.747208E-06 -5.776145E-07 -5.318853E-10
      8709   1 -2.590047E-04  8.547591E-05  8.544808E-05  2.809206E-06 -1.070266E-06 -3.775649E-09
      8710   1 -2.590047E-04  8.549806E-05  8.543439E-05  2.938750E-06 -1.372503E-06 -3.160238E-09
      8711   1 -2.590047E-04  8.547351E-05  8.543555E-05  3.134943E-06 -1.347983E-06 -1.614728E-08
      8712   1 -2.590047E-04  8.552260E-05  8.539292E-05  3.648020E-06 -6.234948E-07 -2.622432E-08
      8713   1  2.544608E-04 -8.402221E-05 -8.389479E-05  3.648020E-06 -6.234948E-07  2.576436E-08
      8714   1  2.544608E-04 -8.397397E-05 -8.393669E-05  3.134943E-06 -1.347983E-06  1.586394E-08
      8715   1  2.544608E-04 -8.399809E-05 -8.393554E-05  2.938750E-06 -1.372503E-06  3.104859E-09
      8716   1  2.544608E-04 -8.397633E-05 -8.394900E-05  2.809206E-06 -1.070266E-06  3.709416E-09
      8717   1  2.544608E-04 -8.399079E-05 -8.394450E-05  2.747208E-06 -5.776148E-07  5.226055E-10
      8718   1  2.544608E-04 -8.397709E-05 -8.395111E-05  2.724423E-06 -1.416749E-13  2.569404E-14
      8719   1  2.544608E-04 -8.399079E-05 -8.394450E-05  2.747208E-06  5.776145E-07 -5.225609E-10
      8720   1  2.544608E-04 -8.397633E-05 -8.394900E-05  2.809206E-06  1.070266E-06 -3.709376E-09
      8721   1  2.544608E-04 -8.399809E-05 -8.393554E-05  2.938750E-06  1.372503E-06 -3.104836E-09
      8722   1  2.544608E-04 -8.397397E-05 -8.393669E-05  3.134943E-06  1.347983E-06 -1.586393E-08
      8723   1  2.544608E-04 -8.402221E-05 -8.389479E-05  3.648020E-06  6.234948E-07 -2.576436E-08
      8724   1  2.035686E-04 -6.718320E-05 -6.720201E-05  9.932606E-06 -2.312778E-07 -1.674441E-08
      8725   1  2.035686E-04 -6.716800E-05 -6.717547E-05  8.856098E-06 -6.334124E-07  1.631900E-08
      8726   1  2.035686E-04 -6.718184E-05 -6.716015E-05  8.266722E-06 -7.743506E-07  1.166587E-08
      8727   1  2.035686E-04 -6.718672E-05 -6.716056E-05  7.924963E-06 -6.407632E-07  3.427705E-09
      8728   1  2.035686E-04 -6.718217E-05 -6.716029E-05  7.736566E-06 -3.580884E-07  2.859912E-09
      8729   1  2.035686E-04 -6.718877E-05 -6.715912E-05  7.679059E-06 -1.390534E-13  7.080609E-14
      8730   1  2.035686E-04 -6.718217E-05 -6.716029E-05  7.736566E-06  3.580882E-07 -2.859782E-09
      8731   1  2.035686E-04 -6.718672E-05 -6.716056E-05  7.924963E-06  6.407629E-07 -3.427592E-09
      8732   1  2.035686E-04 -6.718184E-05 -6.716015E-05  8.266722E-06  7.743504E-07 -1.166580E-08
      8733   1  2.035686E-04 -6.716800E-05 -6.717547E-05  8.856098E-06  6.334123E-07 -1.631895E-08
      8734   1  2.035686E-04 -6.718320E-05 -6.720201E-05  9.932606E-06  2.312778E-07  1.674442E-08
      8735   1  1.526765E-04 -5.040628E-05 -5.035686E-05  1.452033E-05 -1.261996E-07  1.784102E-09
      8736   1  1.526765E-04 -5.038327E-05 -5.038990E-05  1.331918E-05 -3.183524E-07 -1.784933E-08
      8737   1  1.526765E-04 -5.037388E-05 -5.038590E-05  1.249380E-05 -4.059890E-07  7.074164E-09
      8738   1  1.526765E-04 -5.038602E-05 -5.037266E-05  1.198339E-05 -3.623547E-07  1.897168E-09
      8739   1  1.526765E-04 -5.038592E-05 -5.037466E-05  1.170197E-05 -2.069264E-07  1.538661E-09
      8740   1  1.526765E-04 -5.038667E-05 -5.037084E-05  1.161084E-05 -1.192393E-13  1.071526E-13
      8741   1  1.526765E-04 -5.038592E-05 -5.037466E-05  1.170197E-05  2.069262E-07 -1.538459E-09
      8742   1  1.526765E-04 -5.038602E-05 -5.037266E-05  1.198339E-05  3.623545E-07 -1.896993E-09
      8743   1  1.526765E-04 -5.037388E-05 -5.038590E-05  1.249380E-05  4.059888E-07 -7.074036E-09
      8744   1  1.526765E-04 -5.038327E-05 -5.038990E-05  1.331918E-05  3.183523E-07  1.784941E-08
      8745   1  1.526765E-04 -5.040628E-05 -5.035686E-05  1.452033E-05  1.261996E-07 -1.784080E-09
      8746   1  1.017843E-04 -3.359288E-05 -3.359534E-05  1.772536E-05 -5.843238E-08 -7.104247E-09
      8747   1  1.017843E-04 -3.359246E-05 -3.358224E-05  1.645285E-05 -1.613810E-07  5.708972E-10
      8748   1  1.017843E-04 -3.358855E-05 -3.358913E-05  1.553576E-05 -2.068038E-07 -1.354122E-08
      8749   1  1.017843E-04 -3.358345E-05 -3.359012E-05  1.492193E-05 -1.868183E-07  2.096896E-09
      8750   1  1.017843E-04 -3.359059E-05 -3.358191E-05  1.457597E-05 -1.104244E-07 -2.052405E-09
      8751   1  1.017843E-04 -3.358815E-05 -3.358553E-05  1.446381E-05 -8.702509E-14  1.356450E-13
      8752   1  1.017843E-04 -3.359059E-05 -3.358191E-05  1.457597E-05  1.104242E-07  2.052661E-09
      8753   1  1.017843E-04 -3.358345E-05 -3.359012E-05  1.492193E-05  1.868182E-07 -2.096669E-09
      8754   1  1.017843E-04 -3.358855E-05 -3.358913E-05  1.553576E-05  2.068037E-07  1.354140E-08
      8755   1  1.017843E-04 -3.359246E-05 -3.358224E-05  1.645285E-05  1.613809E-07 -5.707840E-10
      8756   1  1.017843E-04 -3.359288E-05 -3.359534E-05  1.772536E-05  5.843236E-08  7.104285E-09
      8757   1  5.089216E-05 -1.680122E-05 -1.678729E-05  1.962261E-05 -2.573127E-08 -9.390188E-10
      8758   1  5.089216E-05 -1.679480E-05 -1.679665E-05  1.832412E-05 -6.642295E-08 -1.374221E-08
      8759   1  5.089216E-05 -1.679302E-05 -1.679406E-05  1.735703E-05 -8.711314E-08 -9.561933E-10
      8760   1  5.089216E-05 -1.679447E-05 -1.679307E-05  1.669890E-05 -7.935250E-08 -1.068009E-08
      8761   1  5.089216E-05 -1.679204E-05 -1.679477E-05  1.631658E-05 -4.673577E-08  1.840847E-10
      8762   1  5.089216E-05 -1.679527E-05 -1.679099E-05  1.619261E-05 -4.585493E-14  1.531916E-13
      8763   1  5.089216E-05 -1.679204E-05 -1.679477E-05  1.631658E-05  4.673568E-08 -1.837931E-10
      8764   1  5.089216E-05 -1.679447E-05 -1.679307E-05  1.669890E-05  7.935242E-08  1.068035E-08
      8765   1  5.089216E-05 -1.679302E-05 -1.679406E-05  1.735703E-05  8.711308E-08  9.563945E-10
      8766   1  5.089216E-05 -1.679480E-05 -1.679665E-05  1.832412E-05  6.642291E-08  1.374234E-08
      8767   1  5.089216E-05 -1.680122E-05 -1.678729E-05  1.962261E-05  2.573125E-08  9.390624E-10
      8768   1  4.387614E-14 -9.145462E-15 -9.844756E-15  2.025233E-05  4.848578E-16 -5.521341E-09
      8769   1  4.414047E-14  2.654821E-14 -3.005326E-14  1.894418E-05  6.094669E-16 -2.324209E-09
      8770   1  2.192474E-14  7.204654E-14 -1.095687E-14  1.796588E-05  1.044654E-15 -1.469422E-08
      8771   1  1.951445E-14  1.067063E-13 -3.093280E-14  1.729130E-05  1.276401E-15 -9.012559E-10
      8772   1  6.653423E-15  1.254691E-13 -1.306378E-14  1.690023E-05  8.819512E-16 -6.104631E-09
      8773   1  1.239297E-14  1.310965E-13 -3.180753E-14  1.677112E-05 -4.736269E-17  1.594821E-13
      8774   1  6.321549E-15  1.260728E-13 -1.307441E-14  1.690023E-05 -8.917652E-16  6.104934E-09
      8775   1  1.789020E-14  1.107933E-13 -3.084456E-14  1.729130E-05 -1.417662E-15  9.015270E-10
      8776   1  1.700701E-14  8.620882E-14 -1.104892E-14  1.796588E-05 -1.273444E-15  1.469443E-08
      8777   1  3.423282E-14  5.648954E-14 -2.978478E-14  1.894418E-05 -8.004504E-16  2.324352E-09
      8778   1  3.016261E-14  3.369527E-14 -9.862769E-15  2.025233E-05 -4.320884E-17  5.521391E-09
      8779   1 -5.089216E-05  1.680122E-05  1.678729E-05  1.962261E-05  2.573127E-08 -9.390193E-10
      8780   1 -5.089216E-05  1.679480E-05  1.679665E-05  1.832412E-05  6.642296E-08 -1.374221E-08
      8781   1 -5.089216E-05  1.679302E-05  1.679406E-05  1.735703E-05  8.711315E-08 -9.561931E-10
      8782   1 -5.089216E-05  1.679447E-05  1.679307E-05  1.669890E-05  7.935251E-08 -1.068009E-08
      8783   1 -5.089216E-05  1.679204E-05  1.679477E-05  1.631658E-05  4.673577E-08  1.840849E-10
      8784   1 -5.089216E-05  1.679527E-05  1.679099E-05  1.619261E-05  4.556814E-14  1.531602E-13
      8785   1 -5.089216E-05  1.679204E-05  1.679477E-05  1.631658E-05 -4.673568E-08 -1.837931E-10
      8786   1 -5.089216E-05  1.679447E-05  1.679307E-05  1.669890E-05 -7.935243E-08  1.068035E-08
      8787   1 -5.089216E-05  1.679302E-05  1.679406E-05  1.735703E-05 -8.711309E-08  9.563943E-10
      8788   1 -5.089216E-05  1.679480E-05  1.679665E-05  1.832412E-05 -6.642292E-08  1.374234E-08
      8789   1 -5.089216E-05  1.680122E-05  1.678729E-05  1.962261E-05 -2.573126E-08  9.390626E-10
      8790   1 -1.017843E-04  3.359288E-05  3.359534E-05  1.772536E-05  5.843239E-08 -7.104247E-09
      8791   1 -1.017843E-04  3.359246E-05  3.358224E-05  1.645285E-05  1.613810E-07  5.708970E-10
      8792   1 -1.017843E-04  3.358855E-05  3.358913E-05  1.553576E-05  2.068038E-07 -1.354122E-08
      8793   1 -1.017843E-04  3.358345E-05  3.359012E-05  1.492193E-05  1.868183E-07  2.096895E-09
      8794   1 -1.017843E-04  3.359059E-05  3.358191E-05  1.457597E-05  1.104244E-07 -2.052405E-09
      8795   1 -1.017843E-04  3.358815E-05  3.358553E-05  1.446381E-05  8.612328E-14  1.355624E-13
      8796   1 -1.017843E-04  3.359059E-05  3.358191E-05  1.457597E-05 -1.104242E-07  2.052661E-09
      8797   1 -1.017843E-04  3.358345E-05  3.359012E-05  1.492193E-05 -1.868182E-07 -2.096669E-09
      8798   1 -1.017843E-04  3.358855E-05  3.358913E-05  1.553576E-05 -2.068037E-07  1.354140E-08
      8799   1 -1.017843E-04  3.359246E-05  3.358224E-05  1.645285E-05 -1.613809E-07 -5.707840E-10
      8800   1 -1.017843E-04  3.359288E-05  3.359534E-05  1.772536E-05 -5.843236E-08  7.104286E-09
      8801   1 -1.526765E-04  5.040628E-05  5.035686E-05  1.452033E-05  1.261996E-07  1.784101E-09
      8802   1 -1.526765E-04  5.038327E-05  5.038990E-05  1.331918E-05  3.183524E-07 -1.784933E-08
      8803   1 -1.526765E-04  5.037388E-05  5.038590E-05  1.249380E-05  4.059890E-07  7.074165E-09
      8804   1 -1.526765E-04  5.038602E-05  5.037266E-05  1.198339E-05  3.623547E-07  1.897168E-09
      8805   1 -1.526765E-04  5.038592E-05  5.037466E-05  1.170197E-05  2.069264E-07  1.538662E-09
      8806   1 -1.526765E-04  5.038667E-05  5.037084E-05  1.161084E-05  1.174432E-13  1.073192E-13
      8807   1 -1.526765E-04  5.038592E-05  5.037466E-05  1.170197E-05 -2.069262E-07 -1.538459E-09
      8808   1 -1.526765E-04  5.038602E-05  5.037266E-05  1.198339E-05 -3.623545E-07 -1.896993E-09
      8809   1 -1.526765E-04  5.037388E-05  5.038590E-05  1.249380E-05 -4.059888E-07 -7.074037E-09
      8810   1 -1.526765E-04  5.038327E-05  5.038990E-05  1.331918E-05 -3.183523E-07  1.784941E-08
      8811   1 -1.526765E-04  5.040628E-05  5.035686E-05  1.452033E-05 -1.261996E-07 -1.784080E-09
      8812   1 -2.035686E-04  6.718320E-05  6.720201E-05  9.932606E-06  2.312779E-07 -1.674441E-08
      8813   1 -2.035686E-04  6.716800E-05  6.717547E-05  8.856098E-06  6.334124E-07  1.631900E-08
      8814   1 -2.035686E-04  6.718184E-05  6.716015E-05  8.266722E-06  7.743506E-07  1.166587E-08
      8815   1 -2.035686E-04  6.718672E-05  6.716056E-05  7.924963E-06  6.407632E-07  3.427706E-09
      8816   1 -2.035686E-04  6.718217E-05  6.716029E-05  7.736566E-06  3.580884E-07  2.859912E-09
      8817   1 -2.035686E-04  6.718877E-05  6.715912E-05  7.679059E-06  1.371584E-13  7.101119E-14
      8818   1 -2.035686E-04  6.718217E-05  6.716029E-05  7.736566E-06 -3.580882E-07 -2.859782E-09
      8819   1 -2.035686E-04  6.718672E-05  6.716056E-05  7.924963E-06 -6.407629E-07 -3.427593E-09
      8820   1 -2.035686E-04  6.718184E-05  6.716015E-05  8.266722E-06 -7.743504E-07 -1.166580E-08
      8821   1 -2.035686E-04  6.716800E-05  6.717547E-05  8.856098E-06 -6.334123E-07 -1.631895E-08
      8822   1 -2.035686E-04  6.718320E-05  6.720201E-05  9.932606E-06 -2.312778E-07  1.674442E-08
      8823   1 -2.544608E-04  8.402221E-05  8.389479E-05  3.648020E-06  6.234949E-07  2.576435E-08
      8824   1 -2.544608E-04  8.397397E-05  8.393669E-05  3.134943E-06  1.347983E-06  1.586395E-08
      8825   1 -2.544608E-04  8.399809E-05  8.393554E-05  2.938750E-06  1.372503E-06  3.104855E-09
      8826   1 -2.544608E-04  8.397633E-05  8.394900E-05  2.809206E-06  1.070266E-06  3.709418E-09
      8827   1 -2.544608E-04  8.399079E-05  8.394450E-05  2.747208E-06  5.776148E-07  5.226044E-10
      8828   1 -2.544608E-04  8.397709E-05  8.395111E-05  2.724423E-06  1.404120E-13  2.572283E-14
      8829   1 -2.544608E-04  8.399079E-05  8.394450E-05  2.747208E-06 -5.776145E-07 -5.225599E-10
      8830   1 -2.544608E-04  8.397633E-05  8.394900E-05  2.809206E-06 -1.070266E-06 -3.709378E-09
      8831   1 -2.544608E-04  8.399809E-05  8.393554E-05  2.938750E-06 -1.372503E-06 -3.104832E-09
      8832   1 -2.544608E-04  8.397397E-05  8.393669E-05  3.134943E-06 -1.347983E-06 -1.586393E-08
      8833   1 -2.544608E-04  8.402221E-05  8.389479E-05  3.648020E-06 -6.234948E-07 -2.576435E-08
      8834   1  2.499169E-04 -8.252181E-05 -8.239668E-05  3.648020E-06 -6.234948E-07  2.530419E-08
      8835   1  2.499169E-04 -8.247444E-05 -8.243781E-05  3.134943E-06 -1.347983E-06  1.558071E-08
      8836   1  2.499169E-04 -8.249813E-05 -8.243669E-05  2.938750E-06 -1.372503E-06  3.049386E-09
      8837   1  2.499169E-04 -8.247675E-05 -8.244990E-05  2.809206E-06 -1.070267E-06  3.643204E-09
      8838   1  2.499169E-04 -8.249095E-05 -8.244549E-05  2.747208E-06 -5.776148E-07  5.132743E-10
      8839   1  2.499169E-04 -8.247750E-05 -8.245197E-05  2.724423E-06 -1.859909E-13  3.259165E-14
      8840   1  2.499169E-04 -8.249095E-05 -8.244549E-05  2.747208E-06  5.776144E-07 -5.132072E-10
      8841   1  2.499169E-04 -8.247675E-05 -8.244990E-05  2.809206E-06  1.070266E-06 -3.643154E-09
      8842   1  2.499169E-04 -8.249813E-05 -8.243669E-05  2.938750E-06  1.372503E-06 -3.049347E-09
      8843   1  2.499169E-04 -8.247444E-05 -8.243781E-05  3.134943E-06  1.347983E-06 -1.558070E-08
      8844   1  2.499169E-04 -8.252181E-05 -8.239668E-05  3.648020E-06  6.234948E-07 -2.530418E-08
      8845   1  1.999335E-04 -6.598350E-05 -6.600198E-05  9.932606E-06 -2.312778E-07 -1.644538E-08
      8846   1  1.999335E-04 -6.596857E-05 -6.597590E-05  8.856098E-06 -6.334125E-07  1.602759E-08
      8847   1  1.999335E-04 -6.598216E-05 -6.596087E-05  8.266722E-06 -7.743505E-07  1.145757E-08
      8848   1  1.999335E-04 -6.598696E-05 -6.596126E-05  7.924963E-06 -6.407633E-07  3.366518E-09
      8849   1  1.999335E-04 -6.598249E-05 -6.596100E-05  7.736566E-06 -3.580884E-07  2.808869E-09
      8850   1  1.999335E-04 -6.598897E-05 -6.595985E-05  7.679059E-06 -1.869838E-13  9.457027E-14
      8851   1  1.999335E-04 -6.598249E-05 -6.596100E-05  7.736566E-06  3.580881E-07 -2.808685E-09
      8852   1  1.999335E-04 -6.598696E-05 -6.596126E-05  7.924963E-06  6.407630E-07 -3.366368E-09
      8853   1  1.999335E-04 -6.598216E-05 -6.596087E-05  8.266722E-06  7.743503E-07 -1.145746E-08
      8854   1  1.999335E-04 -6.596857E-05 -6.597590E-05  8.856098E-06  6.334124E-07 -1.602754E-08
      8855   1  1.999335E-04 -6.598350E-05 -6.600198E-05  9.932606E-06  2.312777E-07  1.644539E-08
      8856   1  1.499501E-04 -4.950617E-05 -4.945764E-05  1.452033E-05 -1.261996E-07  1.752242E-09
      8857   1  1.499501E-04 -4.948357E-05 -4.949008E-05  1.331918E-05 -3.183525E-07 -1.753058E-08
      8858   1  1.499501E-04 -4.947434E-05 -4.948615E-05  1.249380E-05 -4.059889E-07  6.947873E-09
      8859   1  1.499501E-04 -4.948627E-05 -4.947314E-05  1.198339E-05 -3.623548E-07  1.863320E-09
      8860   1  1.499501E-04 -4.948617E-05 -4.947512E-05  1.170197E-05 -2.069264E-07  1.511228E-09
      8861   1  1.499501E-04 -4.948691E-05 -4.947136E-05  1.161084E-05 -1.628711E-13  1.449378E-13
      8862   1  1.499501E-04 -4.948617E-05 -4.947512E-05  1.170197E-05  2.069261E-07 -1.510947E-09
      8863   1  1.499501E-04 -4.948627E-05 -4.947314E-05  1.198339E-05  3.623545E-07 -1.863083E-09
      8864   1  1.499501E-04 -4.947434E-05 -4.948615E-05  1.249380E-05  4.059887E-07 -6.947691E-09
      8865   1  1.499501E-04 -4.948357E-05 -4.949008E-05  1.331918E-05  3.183524E-07  1.753069E-08
      8866   1  1.499501E-04 -4.950617E-05 -4.945764E-05  1.452033E-05  1.261995E-07 -1.752203E-09
      8867   1  9.996674E-05 -3.299301E-05 -3.299543E-05  1.772536E-05 -5.843236E-08 -6.977370E-09
      8868   1  9.996674E-05 -3.299259E-05 -3.298255E-05  1.645285E-05 -1.613811E-07  5.607240E-10
      8869   1  9.996674E-05 -3.298875E-05 -3.298932E-05  1.553576E-05 -2.068038E-07 -1.329938E-08
      8870   1  9.996674E-05 -3.298375E-05 -3.299029E-05  1.492193E-05 -1.868184E-07  2.059492E-09
      8871   1  9.996674E-05 -3.299076E-05 -3.298223E-05  1.457597E-05 -1.104244E-07 -2.015703E-09
      8872   1  9.996674E-05 -3.298837E-05 -3.298579E-05  1.446381E-05 -1.189031E-13  1.831574E-13
      8873   1  9.996674E-05 -3.299076E-05 -3.298223E-05  1.457597E-05  1.104241E-07  2.016058E-09
      8874   1  9.996674E-05 -3.298375E-05 -3.299029E-05  1.492193E-05  1.868182E-07 -2.059186E-09
      8875   1  9.996674E-05 -3.298875E-05 -3.298932E-05  1.553576E-05  2.068036E-07  1.329962E-08
      8876   1  9.996674E-05 -3.299259E-05 -3.298255E-05  1.645285E-05  1.613810E-07 -5.605754E-10
      8877   1  9.996674E-05 -3.299301E-05 -3.299543E-05  1.772536E-05  5.843232E-08  6.977423E-09
      8878   1  4.998337E-05 -1.650120E-05 -1.648751E-05  1.962261E-05 -2.573126E-08 -9.222419E-10
      8879   1  4.998337E-05 -1.649489E-05 -1.649671E-05  1.832412E-05 -6.642298E-08 -1.349679E-08
      8880   1  4.998337E-05 -1.649314E-05 -1.649417E-05  1.735703E-05 -8.711313E-08 -9.390733E-10
      8881   1  4.998337E-05 -1.649457E-05 -1.649319E-05  1.669890E-05 -7.935254E-08 -1.048933E-08
      8882   1  4.998337E-05 -1.649218E-05 -1.649487E-05  1.631658E-05 -4.673577E-08  1.808560E-10
      8883   1  4.998337E-05 -1.649535E-05 -1.649115E-05  1.619261E-05 -6.255715E-14  2.067289E-13
      8884   1  4.998337E-05 -1.649218E-05 -1.649487E-05  1.631658E-05  4.673565E-08 -1.804539E-10
      8885   1  4.998337E-05 -1.649457E-05 -1.649319E-05  1.669890E-05  7.935243E-08  1.048968E-08
      8886   1  4.998337E-05 -1.649314E-05 -1.649417E-05  1.735703E-05  8.711304E-08  9.393545E-10
      8887   1  4.998337E-05 -1.649489E-05 -1.649671E-05  1.832412E-05  6.642293E-08  1.349697E-08
      8888   1  4.998337E-05 -1.650120E-05 -1.648751E-05  1.962261E-05  2.573124E-08  9.223104E-10
      8889   1  5.737327E-14 -1.069977E-14 -3.125602E-14  2.025233E-05  8.234922E-16 -5.422731E-09
      8890   1  5.853738E-14 -5.644096E-14 -8.667908E-15  1.894418E-05  3.351641E-15 -2.282679E-09
      8891   1  8.800805E-14 -1.145750E-13 -3.219106E-14  1.796588E-05  4.325009E-15 -1.443178E-08
      8892   1  9.503032E-14 -1.583456E-13 -1.206555E-14  1.729130E-05  3.621459E-15 -8.851134E-10
      8893   1  1.128978E-13 -1.815492E-13 -3.468722E-14  1.690023E-05  1.985506E-15 -5.995559E-09
      8894   1  1.073312E-13 -1.885297E-13 -1.397007E-14  1.677112E-05  7.283425E-17  2.152355E-13
      8895   1  1.131934E-13 -1.821321E-13 -3.470684E-14  1.690023E-05 -2.084182E-15  5.995977E-09
      8896   1  9.673718E-14 -1.631612E-13 -1.202888E-14  1.729130E-05 -3.460842E-15  8.854792E-10
      8897   1  9.359809E-14 -1.314365E-13 -3.204906E-14  1.796588E-05 -4.017599E-15  1.443207E-08
      8898   1  7.020697E-14 -9.313383E-14 -8.821691E-15  1.894418E-05 -3.094449E-15  2.282867E-09
      8899   1  7.366536E-14 -6.361578E-14 -3.101332E-14  2.025233E-05 -1.414194E-15  5.422799E-09
      8900   1 -4.998337E-05  1.650120E-05  1.648751E-05  1.962261E-05  2.573127E-08 -9.222419E-10
      8901   1 -4.998337E-05  1.649489E-05  1.649671E-05  1.832412E-05  6.642299E-08 -1.349679E-08
      8902   1 -4.998337E-05  1.649314E-05  1.649417E-05  1.735703E-05  8.711313E-08 -9.390737E-10
      8903   1 -4.998337E-05  1.649457E-05  1.649319E-05  1.669890E-05  7.935254E-08 -1.048933E-08
      8904   1 -4.998337E-05  1.649218E-05  1.649487E-05  1.631658E-05  4.673577E-08  1.808558E-10
      8905   1 -4.998337E-05  1.649535E-05  1.649115E-05  1.619261E-05  6.296536E-14  2.068982E-13
      8906   1 -4.998337E-05  1.649218E-05  1.649487E-05  1.631658E-05 -4.673565E-08 -1.804539E-10
      8907   1 -4.998337E-05  1.649457E-05  1.649319E-05  1.669890E-05 -7.935244E-08  1.048968E-08
      8908   1 -4.998337E-05  1.649314E-05  1.649417E-05  1.735703E-05 -8.711305E-08  9.393548E-10
      8909   1 -4.998337E-05  1.649489E-05  1.649671E-05  1.832412E-05 -6.642293E-08  1.349697E-08
      8910   1 -4.998337E-05  1.650120E-05  1.648751E-05  1.962261E-05 -2.573125E-08  9.223106E-10
      8911   1 -9.996674E-05  3.299301E-05  3.299543E-05  1.772536E-05  5.843236E-08 -6.977371E-09
      8912   1 -9.996674E-05  3.299259E-05  3.298255E-05  1.645285E-05  1.613811E-07  5.607239E-10
      8913   1 -9.996674E-05  3.298875E-05  3.298932E-05  1.553576E-05  2.068038E-07 -1.329938E-08
      8914   1 -9.996674E-05  3.298375E-05  3.299029E-05  1.492193E-05  1.868184E-07  2.059492E-09
      8915   1 -9.996674E-05  3.299076E-05  3.298223E-05  1.457597E-05  1.104244E-07 -2.015703E-09
      8916   1 -9.996674E-05  3.298837E-05  3.298579E-05  1.446381E-05  1.200464E-13  1.832646E-13
      8917   1 -9.996674E-05  3.299076E-05  3.298223E-05  1.457597E-05 -1.104241E-07  2.016058E-09
      8918   1 -9.996674E-05  3.298375E-05  3.299029E-05  1.492193E-05 -1.868182E-07 -2.059186E-09
      8919   1 -9.996674E-05  3.298875E-05  3.298932E-05  1.553576E-05 -2.068037E-07  1.329962E-08
      8920   1 -9.996674E-05  3.299259E-05  3.298255E-05  1.645285E-05 -1.613810E-07 -5.605753E-10
      8921   1 -9.996674E-05  3.299301E-05  3.299543E-05  1.772536E-05 -5.843233E-08  6.977423E-09
      8922   1 -1.499501E-04  4.950617E-05  4.945764E-05  1.452033E-05  1.261996E-07  1.752244E-09
      8923   1 -1.499501E-04  4.948357E-05  4.949008E-05  1.331918E-05  3.183525E-07 -1.753058E-08
      8924   1 -1.499501E-04  4.947434E-05  4.948615E-05  1.249380E-05  4.059889E-07  6.947872E-09
      8925   1 -1.499501E-04  4.948627E-05  4.947314E-05  1.198339E-05  3.623548E-07  1.863321E-09
      8926   1 -1.499501E-04  4.948617E-05  4.947512E-05  1.170197E-05  2.069264E-07  1.511228E-09
      8927   1 -1.499501E-04  4.948691E-05  4.947136E-05  1.161084E-05  1.650326E-13  1.450241E-13
      8928   1 -1.499501E-04  4.948617E-05  4.947512E-05  1.170197E-05 -2.069261E-07 -1.510947E-09
      8929   1 -1.499501E-04  4.948627E-05  4.947314E-05  1.198339E-05 -3.623545E-07 -1.863084E-09
      8930   1 -1.499501E-04  4.947434E-05  4.948615E-05  1.249380E-05 -4.059887E-07 -6.947691E-09
      8931   1 -1.499501E-04  4.948357E-05  4.949008E-05  1.331918E-05 -3.183524E-07  1.753069E-08
      8932   1 -1.499501E-04  4.950617E-05  4.945764E-05  1.452033E-05 -1.261995E-07 -1.752204E-09
      8933   1 -1.999335E-04  6.598350E-05  6.600198E-05  9.932606E-06  2.312778E-07 -1.644538E-08
      8934   1 -1.999335E-04  6.596857E-05  6.597590E-05  8.856098E-06  6.334125E-07  1.602759E-08
      8935   1 -1.999335E-04  6.598216E-05  6.596087E-05  8.266722E-06  7.743505E-07  1.145757E-08
      8936   1 -1.999335E-04  6.598696E-05  6.596126E-05  7.924963E-06  6.407633E-07  3.366518E-09
      8937   1 -1.999335E-04  6.598249E-05  6.596100E-05  7.736566E-06  3.580884E-07  2.808870E-09
      8938   1 -1.999335E-04  6.598897E-05  6.595985E-05  7.679059E-06  1.893478E-13  9.480925E-14
      8939   1 -1.999335E-04  6.598249E-05  6.596100E-05  7.736566E-06 -3.580881E-07 -2.808686E-09
      8940   1 -1.999335E-04  6.598696E-05  6.596126E-05  7.924963E-06 -6.407630E-07 -3.366368E-09
      8941   1 -1.999335E-04  6.598216E-05  6.596087E-05  8.266722E-06 -7.743503E-07 -1.145746E-08
      8942   1 -1.999335E-04  6.596857E-05  6.597590E-05  8.856098E-06 -6.334124E-07 -1.602754E-08
      8943   1 -1.999335E-04  6.598350E-05  6.600198E-05  9.932606E-06 -2.312777E-07  1.644540E-08
      8944   1 -2.499169E-04  8.252181E-05  8.239668E-05  3.648020E-06  6.234948E-07  2.530420E-08
      8945   1 -2.499169E-04  8.247444E-05  8.243781E-05  3.134943E-06  1.347983E-06  1.558071E-08
      8946   1 -2.499169E-04  8.249813E-05  8.243669E-05  2.938750E-06  1.372503E-06  3.049391E-09
      8947   1 -2.499169E-04  8.247675E-05  8.244990E-05  2.809206E-06  1.070267E-06  3.643201E-09
      8948   1 -2.499169E-04  8.249095E-05  8.244549E-05  2.747208E-06  5.776148E-07  5.132760E-10
      8949   1 -2.499169E-04  8.247750E-05  8.245198E-05  2.724423E-06  1.876055E-13  3.245798E-14
      8950   1 -2.499169E-04  8.249095E-05  8.244549E-05  2.747208E-06 -5.776144E-07 -5.132085E-10
      8951   1 -2.499169E-04  8.247675E-05  8.244990E-05  2.809206E-06 -1.070266E-06 -3.643151E-09
      8952   1 -2.499169E-04  8.249813E-05  8.243669E-05  2.938750E-06 -1.372503E-06 -3.049352E-09
      8953   1 -2.499169E-04  8.247444E-05  8.243781E-05  3.134943E-06 -1.347983E-06 -1.558069E-08
      8954   1 -2.499169E-04  8.252181E-05  8.239668E-05  3.648020E-06 -6.234948E-07 -2.530419E-08
      8955   1  2.453729E-04 -8.102141E-05 -8.089855E-05  3.648020E-06 -6.234949E-07  2.484418E-08
      8956   1  2.453729E-04 -8.097490E-05 -8.093895E-05  3.134943E-06 -1.347983E-06  1.529739E-08
      8957   1  2.453729E-04 -8.099816E-05 -8.093784E-05  2.938750E-06 -1.372503E-06  2.993976E-09
      8958   1  2.453729E-04 -8.097717E-05 -8.095082E-05  2.809206E-06 -1.070267E-06  3.576959E-09
      8959   1  2.453729E-04 -8.099112E-05 -8.094648E-05  2.747208E-06 -5.776148E-07  5.039597E-10
      8960   1  2.453729E-04 -8.097791E-05 -8.095285E-05  2.724423E-06 -2.589455E-13  4.840547E-14
      8961   1  2.453729E-04 -8.099112E-05 -8.094648E-05  2.747208E-06  5.776144E-07 -5.038761E-10
      8962   1  2.453729E-04 -8.097717E-05 -8.095082E-05  2.809206E-06  1.070266E-06 -3.576883E-09
      8963   1  2.453729E-04 -8.099816E-05 -8.093784E-05  2.938750E-06  1.372503E-06 -2.993932E-09
      8964   1  2.453729E-04 -8.097490E-05 -8.093895E-05  3.134943E-06  1.347983E-06 -1.529736E-08
      8965   1  2.453729E-04 -8.102141E-05 -8.089855E-05  3.648020E-06  6.234948E-07 -2.484419E-08
      8966   1  1.962983E-04 -6.478380E-05 -6.480194E-05  9.932606E-06 -2.312779E-07 -1.614639E-08
      8967   1  1.962983E-04 -6.476914E-05 -6.477634E-05  8.856098E-06 -6.334125E-07  1.573620E-08
      8968   1  1.962983E-04 -6.478248E-05 -6.476157E-05  8.266722E-06 -7.743506E-07  1.124927E-08
      8969   1  1.962983E-04 -6.478719E-05 -6.476197E-05  7.924963E-06 -6.407633E-07  3.305340E-09
      8970   1  1.962983E-04 -6.478281E-05 -6.476171E-05  7.736566E-06 -3.580885E-07  2.757831E-09
      8971   1  1.962983E-04 -6.478917E-05 -6.476058E-05  7.679059E-06 -2.538752E-13  1.325835E-13
      8972   1  1.962983E-04 -6.478281E-05 -6.476171E-05  7.736566E-06  3.580881E-07 -2.757588E-09
      8973   1  1.962983E-04 -6.478719E-05 -6.476197E-05  7.924963E-06  6.407629E-07 -3.305127E-09
      8974   1  1.962983E-04 -6.478248E-05 -6.476157E-05  8.266722E-06  7.743503E-07 -1.124913E-08
      8975   1  1.962983E-04 -6.476914E-05 -6.477634E-05  8.856098E-06  6.334122E-07 -1.573611E-08
      8976   1  1.962983E-04 -6.478380E-05 -6.480194E-05  9.932606E-06  2.312778E-07  1.614641E-08
      8977   1  1.472237E-04 -4.860606E-05 -4.855841E-05  1.452033E-05 -1.261996E-07  1.720392E-09
      8978   1  1.472238E-04 -4.858387E-05 -4.859026E-05  1.331918E-05 -3.183525E-07 -1.721182E-08
      8979   1  1.472238E-04 -4.857481E-05 -4.858640E-05  1.249380E-05 -4.059890E-07  6.821575E-09
      8980   1  1.472238E-04 -4.858652E-05 -4.857363E-05  1.198339E-05 -3.623548E-07  1.829491E-09
      8981   1  1.472237E-04 -4.858642E-05 -4.857557E-05  1.170197E-05 -2.069265E-07  1.483800E-09
      8982   1  1.472238E-04 -4.858715E-05 -4.857189E-05  1.161084E-05 -2.172440E-13  1.994449E-13
      8983   1  1.472237E-04 -4.858642E-05 -4.857557E-05  1.170197E-05  2.069261E-07 -1.483424E-09
      8984   1  1.472238E-04 -4.858652E-05 -4.857363E-05  1.198339E-05  3.623544E-07 -1.829164E-09
      8985   1  1.472237E-04 -4.857481E-05 -4.858640E-05  1.249380E-05  4.059887E-07 -6.821334E-09
      8986   1  1.472238E-04 -4.858387E-05 -4.859026E-05  1.331918E-05  3.183523E-07  1.721196E-08
      8987   1  1.472237E-04 -4.860606E-05 -4.855841E-05  1.452033E-05  1.261995E-07 -1.720349E-09
      8988   1  9.814917E-05 -3.239314E-05 -3.239551E-05  1.772536E-05 -5.843239E-08 -6.850505E-09
      8989   1  9.814917E-05 -3.239273E-05 -3.238287E-05  1.645285E-05 -1.613811E-07  5.505620E-10
      8990   1  9.814917E-05 -3.238896E-05 -3.238952E-05  1.553576E-05 -2.068039E-07 -1.305753E-08
      8991   1  9.814917E-05 -3.238404E-05 -3.239047E-05  1.492193E-05 -1.868184E-07  2.022108E-09
      8992   1  9.814917E-05 -3.239093E-05 -3.238256E-05  1.457597E-05 -1.104244E-07 -1.978991E-09
      8993   1  9.814917E-05 -3.238858E-05 -3.238605E-05  1.446381E-05 -1.584909E-13  2.504757E-13
      8994   1  9.814917E-05 -3.239093E-05 -3.238256E-05  1.457597E-05  1.104241E-07  1.979465E-09
      8995   1  9.814917E-05 -3.238404E-05 -3.239047E-05  1.492193E-05  1.868181E-07 -2.021687E-09
      8996   1  9.814917E-05 -3.238896E-05 -3.238952E-05  1.553576E-05  2.068037E-07  1.305785E-08
      8997   1  9.814917E-05 -3.239273E-05 -3.238287E-05  1.645285E-05  1.613809E-07 -5.503486E-10
      8998   1  9.814917E-05 -3.239314E-05 -3.239551E-05  1.772536E-05  5.843234E-08  6.850578E-09
      8999   1  4.907458E-05 -1.620118E-05 -1.618774E-05  1.962261E-05 -2.573127E-08 -9.054650E-10
      9000   1  4.907458E-05 -1.619498E-05 -1.619677E-05  1.832412E-05 -6.642297E-08 -1.325135E-08
      9001   1  4.907458E-05 -1.619327E-05 -1.619427E-05  1.735703E-05 -8.711316E-08 -9.219531E-10
      9002   1  4.907458E-05 -1.619467E-05 -1.619331E-05  1.669890E-05 -7.935254E-08 -1.029855E-08
      9003   1  4.907458E-05 -1.619232E-05 -1.619496E-05  1.631658E-05 -4.673580E-08  1.776385E-10
      9004   1  4.907458E-05 -1.619543E-05 -1.619131E-05  1.619261E-05 -8.350445E-14  2.823496E-13
      9005   1  4.907458E-05 -1.619232E-05 -1.619496E-05  1.631658E-05  4.673564E-08 -1.771013E-10
      9006   1  4.907458E-05 -1.619467E-05 -1.619331E-05  1.669890E-05  7.935239E-08  1.029903E-08
      9007   1  4.907458E-05 -1.619327E-05 -1.619427E-05  1.735703E-05  8.711304E-08  9.223269E-10
      9008   1  4.907458E-05 -1.619498E-05 -1.619677E-05  1.832412E-05  6.642290E-08  1.325160E-08
      9009   1  4.907458E-05 -1.620118E-05 -1.618774E-05  1.962261E-05  2.573125E-08  9.055467E-10
      9010   1  2.824455E-14  5.967449E-16 -5.577986E-15  2.025233E-05  1.757279E-15 -5.324127E-09
      9011   1  2.886059E-14  5.387357E-14 -3.269959E-14  1.894418E-05  3.408509E-15 -2.241135E-09
      9012   1 -6.845653E-16  1.227907E-13 -9.383947E-15  1.796588E-05  4.449452E-15 -1.416933E-08
      9013   1 -3.637932E-15  1.743050E-13 -3.666696E-14  1.729130E-05  4.425536E-15 -8.689482E-10
      9014   1 -1.993295E-14  2.013806E-13 -1.429657E-14  1.690023E-05  2.794497E-15 -5.886475E-09
      9015   1 -1.195116E-14  2.092077E-13 -3.914822E-14  1.677112E-05 -1.215362E-16  2.936238E-13
      9016   1 -2.041856E-14  2.020883E-13 -1.437361E-14  1.690023E-05 -2.706738E-15  5.887033E-09
      9017   1 -5.898168E-15  1.800782E-13 -3.657085E-14  1.729130E-05 -4.716462E-15  8.694495E-10
      9018   1 -7.838999E-15  1.433992E-13 -9.441449E-15  1.796588E-05 -4.799234E-15  1.416972E-08
      9019   1  1.407967E-14  9.904577E-14 -3.240616E-14  1.894418E-05 -3.712921E-15  2.241402E-09
      9020   1  7.603944E-15  6.578071E-14 -5.718916E-15  2.025233E-05 -1.084913E-15  5.324220E-09
      9021   1 -4.907458E-05  1.620118E-05  1.618774E-05  1.962261E-05  2.573128E-08 -9.054657E-10
      9022   1 -4.907458E-05  1.619498E-05  1.619677E-05  1.832412E-05  6.642298E-08 -1.325135E-08
      9023   1 -4.907458E-05  1.619327E-05  1.619427E-05  1.735703E-05  8.711318E-08 -9.219529E-10
      9024   1 -4.907458E-05  1.619467E-05  1.619331E-05  1.669890E-05  7.935255E-08 -1.029855E-08
      9025   1 -4.907458E-05  1.619232E-05  1.619496E-05  1.631658E-05  4.673581E-08  1.776386E-10
      9026   1 -4.907458E-05  1.619543E-05  1.619131E-05  1.619261E-05  8.283337E-14  2.823658E-13
      9027   1 -4.907458E-05  1.619232E-05  1.619496E-05  1.631658E-05 -4.673564E-08 -1.771014E-10
      9028   1 -4.907458E-05  1.619467E-05  1.619331E-05  1.669890E-05 -7.935240E-08  1.029903E-08
      9029   1 -4.907458E-05  1.619327E-05  1.619427E-05  1.735703E-05 -8.711306E-08  9.223268E-10
      9030   1 -4.907458E-05  1.619498E-05  1.619677E-05  1.832412E-05 -6.642291E-08  1.325160E-08
      9031   1 -4.907458E-05  1.620118E-05  1.618774E-05  1.962261E-05 -2.573125E-08  9.055469E-10
      9032   1 -9.814917E-05  3.239314E-05  3.239551E-05  1.772536E-05  5.843239E-08 -6.850505E-09
      9033   1 -9.814917E-05  3.239273E-05  3.238287E-05  1.645285E-05  1.613811E-07  5.505619E-10
      9034   1 -9.814917E-05  3.238896E-05  3.238952E-05  1.553576E-05  2.068039E-07 -1.305753E-08
      9035   1 -9.814917E-05  3.238404E-05  3.239047E-05  1.492193E-05  1.868184E-07  2.022108E-09
      9036   1 -9.814917E-05  3.239093E-05  3.238256E-05  1.457597E-05  1.104244E-07 -1.978991E-09
      9037   1 -9.814917E-05  3.238858E-05  3.238605E-05  1.446381E-05  1.569181E-13  2.505050E-13
      9038   1 -9.814917E-05  3.239093E-05  3.238256E-05  1.457597E-05 -1.104241E-07  1.979465E-09
      9039   1 -9.814917E-05  3.238404E-05  3.239047E-05  1.492193E-05 -1.868181E-07 -2.021687E-09
      9040   1 -9.814917E-05  3.238896E-05  3.238952E-05  1.553576E-05 -2.068037E-07  1.305785E-08
      9041   1 -9.814917E-05  3.239273E-05  3.238287E-05  1.645285E-05 -1.613809E-07 -5.503483E-10
      9042   1 -9.814917E-05  3.239314E-05  3.239551E-05  1.772536E-05 -5.843234E-08  6.850577E-09
      9043   1 -1.472237E-04  4.860606E-05  4.855841E-05  1.452033E-05  1.261996E-07  1.720391E-09
      9044   1 -1.472238E-04  4.858387E-05  4.859026E-05  1.331918E-05  3.183525E-07 -1.721182E-08
      9045   1 -1.472237E-04  4.857481E-05  4.858640E-05  1.249380E-05  4.059891E-07  6.821576E-09
      9046   1 -1.472238E-04  4.858652E-05  4.857363E-05  1.198339E-05  3.623548E-07  1.829491E-09
      9047   1 -1.472237E-04  4.858642E-05  4.857557E-05  1.170197E-05  2.069265E-07  1.483800E-09
      9048   1 -1.472238E-04  4.858715E-05  4.857188E-05  1.161084E-05  2.145440E-13  1.993203E-13
      9049   1 -1.472237E-04  4.858642E-05  4.857557E-05  1.170197E-05 -2.069261E-07 -1.483425E-09
      9050   1 -1.472238E-04  4.858652E-05  4.857363E-05  1.198339E-05 -3.623544E-07 -1.829163E-09
      9051   1 -1.472237E-04  4.857481E-05  4.858640E-05  1.249380E-05 -4.059888E-07 -6.821335E-09
      9052   1 -1.472238E-04  4.858387E-05  4.859026E-05  1.331918E-05 -3.183523E-07  1.721196E-08
      9053   1 -1.472237E-04  4.860606E-05  4.855841E-05  1.452033E-05 -1.261995E-07 -1.720349E-09
      9054   1 -1.962983E-04  6.478380E-05  6.480194E-05  9.932606E-06  2.312779E-07 -1.614638E-08
      9055   1 -1.962983E-04  6.476914E-05  6.477634E-05  8.856098E-06  6.334125E-07  1.573620E-08
      9056   1 -1.962983E-04  6.478248E-05  6.476158E-05  8.266722E-06  7.743507E-07  1.124927E-08
      9057   1 -1.962983E-04  6.478719E-05  6.476197E-05  7.924963E-06  6.407633E-07  3.305340E-09
      9058   1 -1.962983E-04  6.478281E-05  6.476171E-05  7.736566E-06  3.580886E-07  2.757832E-09
      9059   1 -1.962983E-04  6.478917E-05  6.476058E-05  7.679059E-06  2.509886E-13  1.324880E-13
      9060   1 -1.962983E-04  6.478281E-05  6.476171E-05  7.736566E-06 -3.580881E-07 -2.757588E-09
      9061   1 -1.962983E-04  6.478719E-05  6.476197E-05  7.924963E-06 -6.407629E-07 -3.305128E-09
      9062   1 -1.962983E-04  6.478248E-05  6.476158E-05  8.266722E-06 -7.743503E-07 -1.124913E-08
      9063   1 -1.962983E-04  6.476914E-05  6.477634E-05  8.856098E-06 -6.334122E-07 -1.573611E-08
      9064   1 -1.962983E-04  6.478380E-05  6.480194E-05  9.932606E-06 -2.312778E-07  1.614641E-08
      9065   1 -2.453729E-04  8.102141E-05  8.089855E-05  3.648020E-06  6.234949E-07  2.484417E-08
      9066   1 -2.453729E-04  8.097490E-05  8.093895E-05  3.134943E-06  1.347983E-06  1.529740E-08
      9067   1 -2.453729E-04  8.099816E-05  8.093784E-05  2.938750E-06  1.372503E-06  2.993970E-09
      9068   1 -2.453729E-04  8.097717E-05  8.095082E-05  2.809206E-06  1.070267E-06  3.576963E-09
      9069   1 -2.453729E-04  8.099112E-05  8.094648E-05  2.747208E-06  5.776149E-07  5.039580E-10
      9070   1 -2.453729E-04  8.097791E-05  8.095285E-05  2.724423E-06  2.570765E-13  4.858880E-14
      9071   1 -2.453729E-04  8.099112E-05  8.094648E-05  2.747208E-06 -5.776144E-07 -5.038748E-10
      9072   1 -2.453729E-04  8.097717E-05  8.095082E-05  2.809206E-06 -1.070266E-06 -3.576887E-09
      9073   1 -2.453729E-04  8.099816E-05  8.093784E-05  2.938750E-06 -1.372503E-06 -2.993927E-09
      9074   1 -2.453729E-04  8.097490E-05  8.093895E-05  3.134943E-06 -1.347983E-06 -1.529737E-08
      9075   1 -2.453729E-04  8.102141E-05  8.089855E-05  3.648020E-06 -6.234948E-07 -2.484417E-08
      9076   1  2.408290E-04 -7.952102E-05 -7.940043E-05  3.648020E-06 -6.234948E-07  2.438405E-08
      9077   1  2.408290E-04 -7.947537E-05 -7.944007E-05  3.134943E-06 -1.347983E-06  1.501414E-08
      9078   1  2.408290E-04 -7.949820E-05 -7.943899E-05  2.938750E-06 -1.372503E-06  2.938523E-09
      9079   1  2.408290E-04 -7.947760E-05 -7.945173E-05  2.809206E-06 -1.070267E-06  3.510743E-09
      9080   1  2.408290E-04 -7.949128E-05 -7.944747E-05  2.747208E-06 -5.776149E-07  4.946413E-10
      9081   1  2.408290E-04 -7.947832E-05 -7.945372E-05  2.724423E-06 -3.396595E-13  5.981455E-14
      9082   1  2.408290E-04 -7.949128E-05 -7.944747E-05  2.747208E-06  5.776142E-07 -4.945170E-10
      9083   1  2.408290E-04 -7.947760E-05 -7.945173E-05  2.809206E-06  1.070266E-06 -3.510651E-09
      9084   1  2.408290E-04 -7.949820E-05 -7.943899E-05  2.938750E-06  1.372503E-06 -2.938450E-09
      9085   1  2.408290E-04 -7.947537E-05 -7.944007E-05  3.134943E-06  1.347983E-06 -1.501412E-08
      9086   1  2.408290E-04 -7.952102E-05 -7.940043E-05  3.648020E-06  6.234947E-07 -2.438404E-08
      9087   1  1.926632E-04 -6.358410E-05 -6.360191E-05  9.932606E-06 -2.312778E-07 -1.584736E-08
      9088   1  1.926632E-04 -6.356971E-05 -6.357678E-05  8.856098E-06 -6.334126E-07  1.544479E-08
      9089   1  1.926632E-04 -6.358281E-05 -6.356229E-05  8.266722E-06 -7.743506E-07  1.104098E-08
      9090   1  1.926632E-04 -6.358743E-05 -6.356267E-05  7.924963E-06 -6.407634E-07  3.244165E-09
      9091   1  1.926632E-04 -6.358313E-05 -6.356242E-05  7.736566E-06 -3.580886E-07  2.706809E-09
      9092   1  1.926632E-04 -6.358937E-05 -6.356131E-05  7.679059E-06 -3.403442E-13  1.730840E-13
      9093   1  1.926632E-04 -6.358313E-05 -6.356242E-05  7.736566E-06  3.580879E-07 -2.706471E-09
      9094   1  1.926632E-04 -6.358743E-05 -6.356267E-05  7.924963E-06  6.407628E-07 -3.243889E-09
      9095   1  1.926632E-04 -6.358281E-05 -6.356229E-05  8.266722E-06  7.743502E-07 -1.104078E-08
      9096   1  1.926632E-04 -6.356971E-05 -6.357678E-05  8.856098E-06  6.334123E-07 -1.544469E-08
      9097   1  1.926632E-04 -6.358410E-05 -6.360191E-05  9.932606E-06  2.312777E-07  1.584739E-08
      9098   1  1.444974E-04 -4.770595E-05 -4.765918E-05  1.452033E-05 -1.261996E-07  1.688544E-09
      9099   1  1.444974E-04 -4.768417E-05 -4.769044E-05  1.331918E-05 -3.183526E-07 -1.689305E-08
      9100   1  1.444974E-04 -4.767528E-05 -4.768666E-05  1.249380E-05 -4.059890E-07  6.695303E-09
      9101   1  1.444974E-04 -4.768677E-05 -4.767412E-05  1.198339E-05 -3.623549E-07  1.795666E-09
      9102   1  1.444974E-04 -4.768667E-05 -4.767602E-05  1.170197E-05 -2.069266E-07  1.456395E-09
      9103   1  1.444974E-04 -4.768738E-05 -4.767240E-05  1.161084E-05 -2.955555E-13  2.638468E-13
      9104   1  1.444974E-04 -4.768667E-05 -4.767602E-05  1.170197E-05  2.069260E-07 -1.455883E-09
      9105   1  1.444974E-04 -4.768677E-05 -4.767412E-05  1.198339E-05  3.623544E-07 -1.795233E-09
      9106   1  1.444974E-04 -4.767528E-05 -4.768666E-05  1.249380E-05  4.059886E-07 -6.694968E-09
      9107   1  1.444974E-04 -4.768417E-05 -4.769044E-05  1.331918E-05  3.183523E-07  1.689325E-08
      9108   1  1.444974E-04 -4.770595E-05 -4.765918E-05  1.452033E-05  1.261995E-07 -1.688470E-09
      9109   1  9.633159E-05 -3.179327E-05 -3.179560E-05  1.772536E-05 -5.843238E-08 -6.723625E-09
      9110   1  9.633159E-05 -3.179286E-05 -3.178319E-05  1.645285E-05 -1.613811E-07  5.403979E-10
      9111   1  9.633159E-05 -3.178916E-05 -3.178971E-05  1.553576E-05 -2.068039E-07 -1.281566E-08
      9112   1  9.633159E-05 -3.178434E-05 -3.179065E-05  1.492193E-05 -1.868185E-07  1.984733E-09
      9113   1  9.633159E-05 -3.179110E-05 -3.178288E-05  1.457597E-05 -1.104245E-07 -1.942254E-09
      9114   1  9.633159E-05 -3.178879E-05 -3.178631E-05  1.446381E-05 -2.151997E-13  3.315487E-13
      9115   1  9.633159E-05 -3.179110E-05 -3.178288E-05  1.457597E-05  1.104241E-07  1.942897E-09
      9116   1  9.633159E-05 -3.178434E-05 -3.179065E-05  1.492193E-05  1.868181E-07 -1.984176E-09
      9117   1  9.633159E-05 -3.178916E-05 -3.178971E-05  1.553576E-05  2.068036E-07  1.281610E-08
      9118   1  9.633159E-05 -3.179286E-05 -3.178319E-05  1.645285E-05  1.613809E-07 -5.401244E-10
      9119   1  9.633159E-05 -3.179327E-05 -3.179560E-05  1.772536E-05  5.843231E-08  6.723724E-09
      9120   1  4.816580E-05 -1.590116E-05 -1.588797E-05  1.962261E-05 -2.573127E-08 -8.886740E-10
      9121   1  4.816579E-05 -1.589507E-05 -1.589683E-05  1.832412E-05 -6.642300E-08 -1.300591E-08
      9122   1  4.816580E-05 -1.589339E-05 -1.589438E-05  1.735703E-05 -8.711316E-08 -9.048039E-10
      9123   1  4.816579E-05 -1.589477E-05 -1.589344E-05  1.669890E-05 -7.935257E-08 -1.010775E-08
      9124   1  4.816579E-05 -1.589246E-05 -1.589505E-05  1.631658E-05 -4.673582E-08  1.744495E-10
      9125   1  4.816579E-05 -1.589552E-05 -1.589147E-05  1.619261E-05 -1.129875E-13  3.733208E-13
      9126   1  4.816579E-05 -1.589246E-05 -1.589505E-05  1.631658E-05  4.673560E-08 -1.737220E-10
      9127   1  4.816579E-05 -1.589477E-05 -1.589344E-05  1.669890E-05  7.935238E-08  1.010839E-08
      9128   1  4.816579E-05 -1.589339E-05 -1.589438E-05  1.735703E-05  8.711301E-08  9.053175E-10
      9129   1  4.816579E-05 -1.589507E-05 -1.589683E-05  1.832412E-05  6.642290E-08  1.300625E-08
      9130   1  4.816579E-05 -1.590116E-05 -1.588797E-05  1.962261E-05  2.573124E-08  8.888011E-10
      9131   1  4.211074E-14  3.233525E-15 -3.222400E-14  2.025233E-05  2.601087E-15 -5.225512E-09
      9132   1  4.977778E-14 -6.790402E-14 -4.436236E-15  1.894418E-05  8.290560E-15 -2.199593E-09
      9133   1  9.594506E-14 -1.573602E-13 -3.682807E-14  1.796588E-05  1.035049E-14 -1.390686E-08
      9134   1  1.113310E-13 -2.241124E-13 -1.263509E-14  1.729130E-05  8.751595E-15 -8.527725E-10
      9135   1  1.382244E-13 -2.589456E-13 -4.307529E-14  1.690023E-05  4.768144E-15 -5.777362E-09
      9136   1  1.318834E-13 -2.690209E-13 -1.678099E-14  1.677112E-05  6.539899E-17  3.881310E-13
      9137   1  1.385692E-13 -2.596812E-13 -4.299930E-14  1.690023E-05 -5.041767E-15  5.778117E-09
      9138   1  1.137164E-13 -2.306488E-13 -1.267183E-14  1.729130E-05 -8.374002E-15  8.534347E-10
      9139   1  1.042768E-13 -1.822015E-13 -3.653397E-14  1.796588E-05 -9.959803E-15  1.390739E-08
      9140   1  6.732928E-14 -1.227629E-13 -4.724718E-15  1.894418E-05 -7.876187E-15  2.199936E-09
      9141   1  6.678403E-14 -7.689682E-14 -3.180329E-14  2.025233E-05 -3.397443E-15  5.225638E-09
      9142   1 -4.816580E-05  1.590116E-05  1.588797E-05  1.962261E-05  2.573128E-08 -8.886737E-10
      9143   1 -4.816579E-05  1.589508E-05  1.589683E-05  1.832412E-05  6.642301E-08 -1.300591E-08
      9144   1 -4.816579E-05  1.589339E-05  1.589438E-05  1.735703E-05  8.711317E-08 -9.048043E-10
      9145   1 -4.816579E-05  1.589477E-05  1.589344E-05  1.669890E-05  7.935259E-08 -1.010775E-08
      9146   1 -4.816579E-05  1.589246E-05  1.589505E-05  1.631658E-05  4.673582E-08  1.744495E-10
      9147   1 -4.816579E-05  1.589552E-05  1.589147E-05  1.619261E-05  1.137760E-13  3.732607E-13
      9148   1 -4.816579E-05  1.589246E-05  1.589505E-05  1.631658E-05 -4.673561E-08 -1.737219E-10
      9149   1 -4.816579E-05  1.589477E-05  1.589344E-05  1.669890E-05 -7.935239E-08  1.010839E-08
      9150   1 -4.816579E-05  1.589339E-05  1.589438E-05  1.735703E-05 -8.711302E-08  9.053178E-10
      9151   1 -4.816579E-05  1.589507E-05  1.589683E-05  1.832412E-05 -6.642291E-08  1.300625E-08
      9152   1 -4.816579E-05  1.590116E-05  1.588797E-05  1.962261E-05 -2.573124E-08  8.888012E-10
      9153   1 -9.633159E-05  3.179327E-05  3.179560E-05  1.772536E-05  5.843238E-08 -6.723627E-09
      9154   1 -9.633159E-05  3.179286E-05  3.178319E-05  1.645285E-05  1.613811E-07  5.403977E-10
      9155   1 -9.633159E-05  3.178916E-05  3.178971E-05  1.553576E-05  2.068039E-07 -1.281566E-08
      9156   1 -9.633159E-05  3.178434E-05  3.179065E-05  1.492193E-05  1.868185E-07  1.984733E-09
      9157   1 -9.633159E-05  3.179110E-05  3.178288E-05  1.457597E-05  1.104245E-07 -1.942254E-09
      9158   1 -9.633159E-05  3.178879E-05  3.178631E-05  1.446381E-05  2.171328E-13  3.315149E-13
      9159   1 -9.633159E-05  3.179110E-05  3.178288E-05  1.457597E-05 -1.104241E-07  1.942897E-09
      9160   1 -9.633159E-05  3.178434E-05  3.179065E-05  1.492194E-05 -1.868181E-07 -1.984177E-09
      9161   1 -9.633159E-05  3.178916E-05  3.178971E-05  1.553576E-05 -2.068036E-07  1.281610E-08
      9162   1 -9.633159E-05  3.179286E-05  3.178319E-05  1.645285E-05 -1.613809E-07 -5.401243E-10
      9163   1 -9.633159E-05  3.179327E-05  3.179560E-05  1.772536E-05 -5.843232E-08  6.723725E-09
      9164   1 -1.444974E-04  4.770595E-05  4.765918E-05  1.452033E-05  1.261996E-07  1.688547E-09
      9165   1 -1.444974E-04  4.768417E-05  4.769044E-05  1.331918E-05  3.183526E-07 -1.689305E-08
      9166   1 -1.444974E-04  4.767528E-05  4.768666E-05  1.249380E-05  4.059890E-07  6.695302E-09
      9167   1 -1.444974E-04  4.768677E-05  4.767412E-05  1.198339E-05  3.623549E-07  1.795667E-09
      9168   1 -1.444974E-04  4.768667E-05  4.767602E-05  1.170197E-05  2.069266E-07  1.456395E-09
      9169   1 -1.444974E-04  4.768738E-05  4.767240E-05  1.161084E-05  2.988355E-13  2.638679E-13
      9170   1 -1.444974E-04  4.768667E-05  4.767602E-05  1.170197E-05 -2.069260E-07 -1.455883E-09
      9171   1 -1.444974E-04  4.768677E-05  4.767412E-05  1.198339E-05 -3.623544E-07 -1.795234E-09
      9172   1 -1.444974E-04  4.767528E-05  4.768666E-05  1.249380E-05 -4.059886E-07 -6.694967E-09
      9173   1 -1.444974E-04  4.768417E-05  4.769044E-05  1.331918E-05 -3.183523E-07  1.689325E-08
      9174   1 -1.444974E-04  4.770595E-05  4.765918E-05  1.452033E-05 -1.261995E-07 -1.688471E-09
      9175   1 -1.926632E-04  6.358410E-05  6.360191E-05  9.932606E-06  2.312778E-07 -1.584736E-08
      9176   1 -1.926632E-04  6.356971E-05  6.357678E-05  8.856098E-06  6.334126E-07  1.544479E-08
      9177   1 -1.926632E-04  6.358281E-05  6.356229E-05  8.266722E-06  7.743506E-07  1.104098E-08
      9178   1 -1.926632E-04  6.358743E-05  6.356267E-05  7.924963E-06  6.407634E-07  3.244165E-09
      9179   1 -1.926632E-04  6.358313E-05  6.356242E-05  7.736566E-06  3.580886E-07  2.706810E-09
      9180   1 -1.926632E-04  6.358937E-05  6.356131E-05  7.679059E-06  3.437481E-13  1.731174E-13
      9181   1 -1.926632E-04  6.358313E-05  6.356242E-05  7.736566E-06 -3.580879E-07 -2.706471E-09
      9182   1 -1.926632E-04  6.358743E-05  6.356267E-05  7.924963E-06 -6.407629E-07 -3.243889E-09
      9183   1 -1.926632E-04  6.358281E-05  6.356229E-05  8.266722E-06 -7.743502E-07 -1.104078E-08
      9184   1 -1.926632E-04  6.356971E-05  6.357678E-05  8.856098E-06 -6.334123E-07 -1.544469E-08
      9185   1 -1.926632E-04  6.358410E-05  6.360191E-05  9.932606E-06 -2.312777E-07  1.584739E-08
      9186   1 -2.408290E-04  7.952102E-05  7.940043E-05  3.648020E-06  6.234948E-07  2.438407E-08
      9187   1 -2.408290E-04  7.947537E-05  7.944007E-05  3.134943E-06  1.347984E-06  1.501413E-08
      9188   1 -2.408290E-04  7.949820E-05  7.943899E-05  2.938750E-06  1.372503E-06  2.938531E-09
      9189   1 -2.408290E-04  7.947760E-05  7.945173E-05  2.809206E-06  1.070267E-06  3.510739E-09
      9190   1 -2.408290E-04  7.949128E-05  7.944747E-05  2.747208E-06  5.776149E-07  4.946436E-10
      9191   1 -2.408290E-04  7.947832E-05  7.945372E-05  2.724423E-06  3.418062E-13  5.973950E-14
      9192   1 -2.408290E-04  7.949128E-05  7.944747E-05  2.747208E-06 -5.776142E-07 -4.945191E-10
      9193   1 -2.408290E-04  7.947760E-05  7.945173E-05  2.809206E-06 -1.070266E-06 -3.510646E-09
      9194   1 -2.408290E-04  7.949820E-05  7.943899E-05  2.938750E-06 -1.372503E-06 -2.938457E-09
      9195   1 -2.408290E-04  7.947537E-05  7.944007E-05  3.134943E-06 -1.347983E-06 -1.501411E-08
      9196   1 -2.408290E-04  7.952102E-05  7.940043E-05  3.648020E-06 -6.234947E-07 -2.438405E-08
      9197   1  2.362850E-04 -7.802062E-05 -7.790231E-05  3.648020E-06 -6.234949E-07  2.392401E-08
      9198   1  2.362850E-04 -7.797583E-05 -7.794121E-05  3.134943E-06 -1.347983E-06  1.473083E-08
      9199   1  2.362850E-04 -7.799823E-05 -7.794014E-05  2.938750E-06 -1.372503E-06  2.883101E-09
      9200   1  2.362850E-04 -7.797802E-05 -7.795264E-05  2.809206E-06 -1.070267E-06  3.444514E-09
      9201   1  2.362850E-04 -7.799145E-05 -7.794846E-05  2.747208E-06 -5.776150E-07  4.853277E-10
      9202   1  2.362850E-04 -7.797873E-05 -7.795460E-05  2.724423E-06 -4.771973E-13  8.769570E-14
      9203   1  2.362850E-04 -7.799145E-05 -7.794846E-05  2.747208E-06  5.776142E-07 -4.851775E-10
      9204   1  2.362850E-04 -7.797802E-05 -7.795264E-05  2.809206E-06  1.070266E-06 -3.444375E-09
      9205   1  2.362850E-04 -7.799823E-05 -7.794014E-05  2.938750E-06  1.372503E-06 -2.883021E-09
      9206   1  2.362850E-04 -7.797583E-05 -7.794121E-05  3.134943E-06  1.347983E-06 -1.473079E-08
      9207   1  2.362850E-04 -7.802062E-05 -7.790231E-05  3.648020E-06  6.234947E-07 -2.392402E-08
      9208   1  1.890280E-04 -6.238440E-05 -6.240187E-05  9.932606E-06 -2.312779E-07 -1.554835E-08
      9209   1  1.890280E-04 -6.237029E-05 -6.237722E-05  8.856098E-06 -6.334126E-07  1.515341E-08
      9210   1  1.890280E-04 -6.238313E-05 -6.236300E-05  8.266721E-06 -7.743508E-07  1.083269E-08
      9211   1  1.890280E-04 -6.238767E-05 -6.236338E-05  7.924963E-06 -6.407635E-07  3.183011E-09
      9212   1  1.890280E-04 -6.238345E-05 -6.236313E-05  7.736566E-06 -3.580887E-07  2.655791E-09
      9213   1  1.890280E-04 -6.238957E-05 -6.236204E-05  7.679059E-06 -4.617760E-13  2.382804E-13
      9214   1  1.890280E-04 -6.238345E-05 -6.236313E-05  7.736566E-06  3.580878E-07 -2.655353E-09
      9215   1  1.890280E-04 -6.238767E-05 -6.236338E-05  7.924963E-06  6.407627E-07 -3.182625E-09
      9216   1  1.890280E-04 -6.238313E-05 -6.236300E-05  8.266722E-06  7.743501E-07 -1.083243E-08
      9217   1  1.890280E-04 -6.237029E-05 -6.237722E-05  8.856098E-06  6.334122E-07 -1.515326E-08
      9218   1  1.890280E-04 -6.238440E-05 -6.240187E-05  9.932606E-06  2.312777E-07  1.554839E-08
      9219   1  1.417710E-04 -4.680583E-05 -4.675995E-05  1.452033E-05 -1.261996E-07  1.656692E-09
      9220   1  1.417710E-04 -4.678447E-05 -4.679062E-05  1.331918E-05 -3.183526E-07 -1.657428E-08
      9221   1  1.417710E-04 -4.677574E-05 -4.678691E-05  1.249380E-05 -4.059891E-07  6.569026E-09
      9222   1  1.417710E-04 -4.678702E-05 -4.677461E-05  1.198339E-05 -3.623549E-07  1.761868E-09
      9223   1  1.417710E-04 -4.678692E-05 -4.677647E-05  1.170197E-05 -2.069267E-07  1.428998E-09
      9224   1  1.417710E-04 -4.678762E-05 -4.677293E-05  1.161084E-05 -3.917476E-13  3.563630E-13
      9225   1  1.417710E-04 -4.678692E-05 -4.677647E-05  1.170197E-05  2.069259E-07 -1.428329E-09
      9226   1  1.417710E-04 -4.678702E-05 -4.677461E-05  1.198339E-05  3.623542E-07 -1.761280E-09
      9227   1  1.417710E-04 -4.677574E-05 -4.678691E-05  1.249380E-05  4.059886E-07 -6.568591E-09
      9228   1  1.417710E-04 -4.678447E-05 -4.679062E-05  1.331918E-05  3.183522E-07  1.657455E-08
      9229   1  1.417710E-04 -4.680583E-05 -4.675995E-05  1.452033E-05  1.261995E-07 -1.656614E-09
      9230   1  9.451401E-05 -3.119339E-05 -3.119568E-05  1.772536E-05 -5.843241E-08 -6.596747E-09
      9231   1  9.451401E-05 -3.119300E-05 -3.118351E-05  1.645285E-05 -1.613811E-07  5.302636E-10
      9232   1  9.451401E-05 -3.118937E-05 -3.118990E-05  1.553576E-05 -2.068040E-07 -1.257378E-08
      9233   1  9.451401E-05 -3.118463E-05 -3.119082E-05  1.492193E-05 -1.868185E-07  1.947388E-09
      9234   1  9.451401E-05 -3.119127E-05 -3.118320E-05  1.457597E-05 -1.104245E-07 -1.905502E-09
      9235   1  9.451401E-05 -3.118900E-05 -3.118656E-05  1.446381E-05 -2.843709E-13  4.450894E-13
      9236   1  9.451401E-05 -3.119127E-05 -3.118320E-05  1.457597E-05  1.104240E-07  1.906345E-09
      9237   1  9.451401E-05 -3.118463E-05 -3.119082E-05  1.492194E-05  1.868180E-07 -1.946637E-09
      9238   1  9.451401E-05 -3.118936E-05 -3.118990E-05  1.553576E-05  2.068036E-07  1.257436E-08
      9239   1  9.451401E-05 -3.119300E-05 -3.118351E-05  1.645285E-05  1.613809E-07 -5.298759E-10
      9240   1  9.451401E-05 -3.119339E-05 -3.119568E-05  1.772536E-05  5.843231E-08  6.596878E-09
      9241   1  4.725701E-05 -1.560113E-05 -1.558819E-05  1.962261E-05 -2.573128E-08 -8.718950E-10
      9242   1  4.725701E-05 -1.559517E-05 -1.559689E-05  1.832412E-05 -6.642300E-08 -1.276046E-08
      9243   1  4.725701E-05 -1.559352E-05 -1.559449E-05  1.735703E-05 -8.711320E-08 -8.876531E-10
      9244   1  4.725701E-05 -1.559487E-05 -1.559356E-05  1.669890E-05 -7.935259E-08 -9.916922E-09
      9245   1  4.725701E-05 -1.559261E-05 -1.559515E-05  1.631658E-05 -4.673586E-08  1.712765E-10
      9246   1  4.725701E-05 -1.559560E-05 -1.559164E-05  1.619261E-05 -1.493800E-13  5.004829E-13
      9247   1  4.725701E-05 -1.559261E-05 -1.559515E-05  1.631658E-05  4.673557E-08 -1.703253E-10
      9248   1  4.725701E-05 -1.559487E-05 -1.559356E-05  1.669890E-05  7.935233E-08  9.917776E-09
      9249   1  4.725701E-05 -1.559352E-05 -1.559449E-05  1.735703E-05  8.711299E-08  8.883198E-10
      9250   1  4.725701E-05 -1.559517E-05 -1.559689E-05  1.832412E-05  6.642286E-08  1.276091E-08
      9251   1  4.725701E-05 -1.560113E-05 -1.558819E-05  1.962261E-05  2.573123E-08  8.720412E-10
      9252   1 -1.428220E-15  1.580680E-14  2.519876E-15  2.025233E-05  4.310878E-15 -5.126894E-09
      9253   1  1.473105E-15  9.575674E-14 -3.423820E-14  1.894418E-05  9.218996E-15 -2.158016E-09
      9254   1 -3.622113E-14  1.991324E-13 -6.961047E-15  1.796588E-05  1.140829E-14 -1.364438E-08
      9255   1 -3.921581E-14  2.759459E-13 -4.422966E-14  1.729130E-05  1.056688E-14 -8.365605E-10
      9256   1 -5.915602E-14  3.152340E-13 -1.722547E-14  1.690023E-05  6.460396E-15 -5.668232E-09
      9257   1 -4.795426E-14  3.259892E-13 -4.946705E-14  1.677112E-05 -2.162180E-16  5.195492E-13
      9258   1 -5.958461E-14  3.157336E-13 -1.715766E-14  1.690023E-05 -6.160198E-15  5.669220E-09
      9259   1 -4.217861E-14  2.836481E-13 -4.414512E-14  1.729130E-05 -1.108264E-14  8.374516E-10
      9260   1 -4.670927E-14  2.291639E-13 -7.076377E-15  1.796588E-05 -1.190185E-14  1.364508E-08
      9261   1 -2.060895E-14  1.632305E-13 -3.375249E-14  1.894418E-05 -9.833609E-15  2.158497E-09
      9262   1 -3.255664E-14  1.147832E-13  2.325607E-15  2.025233E-05 -3.333585E-15  5.127061E-09
      9263   1 -4.725701E-05  1.560113E-05  1.558819E-05  1.962261E-05  2.573129E-08 -8.718958E-10
      9264   1 -4.725701E-05  1.559517E-05  1.559689E-05  1.832412E-05  6.642302E-08 -1.276046E-08
      9265   1 -4.725701E-05  1.559352E-05  1.559449E-05  1.735703E-05  8.711323E-08 -8.876526E-10
      9266   1 -4.725701E-05  1.559487E-05  1.559356E-05  1.669890E-05  7.935261E-08 -9.916922E-09
      9267   1 -4.725701E-05  1.559261E-05  1.559515E-05  1.631658E-05  4.673587E-08  1.712767E-10
      9268   1 -4.725701E-05  1.559560E-05  1.559164E-05  1.619261E-05  1.481918E-13  5.002565E-13
      9269   1 -4.725701E-05  1.559261E-05  1.559515E-05  1.631658E-05 -4.673558E-08 -1.703252E-10
      9270   1 -4.725701E-05  1.559487E-05  1.559356E-05  1.669890E-05 -7.935236E-08  9.917776E-09
      9271   1 -4.725701E-05  1.559352E-05  1.559449E-05  1.735703E-05 -8.711302E-08  8.883195E-10
      9272   1 -4.725701E-05  1.559517E-05  1.559689E-05  1.832412E-05 -6.642288E-08  1.276091E-08
      9273   1 -4.725701E-05  1.560113E-05  1.558819E-05  1.962261E-05 -2.573124E-08  8.720413E-10
      9274   1 -9.451401E-05  3.119339E-05  3.119568E-05  1.772536E-05  5.843242E-08 -6.596745E-09
      9275   1 -9.451401E-05  3.119300E-05  3.118351E-05  1.645285E-05  1.613811E-07  5.302634E-10
      9276   1 -9.451401E-05  3.118937E-05  3.118990E-05  1.553576E-05  2.068040E-07 -1.257378E-08
      9277   1 -9.451401E-05  3.118463E-05  3.119082E-05  1.492193E-05  1.868185E-07  1.947389E-09
      9278   1 -9.451401E-05  3.119127E-05  3.118320E-05  1.457597E-05  1.104246E-07 -1.905502E-09
      9279   1 -9.451401E-05  3.118900E-05  3.118656E-05  1.446381E-05  2.818517E-13  4.451784E-13
      9280   1 -9.451401E-05  3.119127E-05  3.118320E-05  1.457597E-05 -1.104240E-07  1.906344E-09
      9281   1 -9.451401E-05  3.118463E-05  3.119082E-05  1.492194E-05 -1.868180E-07 -1.946637E-09
      9282   1 -9.451401E-05  3.118937E-05  3.118990E-05  1.553576E-05 -2.068036E-07  1.257436E-08
      9283   1 -9.451401E-05  3.119300E-05  3.118351E-05  1.645285E-05 -1.613809E-07 -5.298754E-10
      9284   1 -9.451401E-05  3.119339E-05  3.119568E-05  1.772536E-05 -5.843232E-08  6.596878E-09
      9285   1 -1.417710E-04  4.680583E-05  4.675995E-05  1.452033E-05  1.261996E-07  1.656689E-09
      9286   1 -1.417710E-04  4.678447E-05  4.679062E-05  1.331918E-05  3.183526E-07 -1.657428E-08
      9287   1 -1.417710E-04  4.677574E-05  4.678691E-05  1.249380E-05  4.059892E-07  6.569028E-09
      9288   1 -1.417710E-04  4.678702E-05  4.677461E-05  1.198339E-05  3.623549E-07  1.761868E-09
      9289   1 -1.417710E-04  4.678692E-05  4.677647E-05  1.170197E-05  2.069267E-07  1.428999E-09
      9290   1 -1.417710E-04  4.678762E-05  4.677293E-05  1.161084E-05  3.877738E-13  3.562925E-13
      9291   1 -1.417710E-04  4.678692E-05  4.677647E-05  1.170197E-05 -2.069259E-07 -1.428329E-09
      9292   1 -1.417710E-04  4.678702E-05  4.677461E-05  1.198339E-05 -3.623543E-07 -1.761279E-09
      9293   1 -1.417710E-04  4.677574E-05  4.678691E-05  1.249380E-05 -4.059886E-07 -6.568593E-09
      9294   1 -1.417710E-04  4.678447E-05  4.679062E-05  1.331918E-05 -3.183522E-07  1.657455E-08
      9295   1 -1.417710E-04  4.680583E-05  4.675995E-05  1.452033E-05 -1.261995E-07 -1.656613E-09
      9296   1 -1.890280E-04  6.238440E-05  6.240187E-05  9.932606E-06  2.312779E-07 -1.554835E-08
      9297   1 -1.890280E-04  6.237029E-05  6.237722E-05  8.856098E-06  6.334126E-07  1.515341E-08
      9298   1 -1.890280E-04  6.238313E-05  6.236300E-05  8.266721E-06  7.743508E-07  1.083269E-08
      9299   1 -1.890280E-04  6.238767E-05  6.236338E-05  7.924963E-06  6.407635E-07  3.183011E-09
      9300   1 -1.890280E-04  6.238345E-05  6.236313E-05  7.736566E-06  3.580888E-07  2.655791E-09
      9301   1 -1.890280E-04  6.238957E-05  6.236204E-05  7.679059E-06  4.578703E-13  2.384495E-13
      9302   1 -1.890280E-04  6.238345E-05  6.236313E-05  7.736566E-06 -3.580879E-07 -2.655354E-09
      9303   1 -1.890280E-04  6.238767E-05  6.236338E-05  7.924963E-06 -6.407627E-07 -3.182626E-09
      9304   1 -1.890280E-04  6.238313E-05  6.236300E-05  8.266722E-06 -7.743502E-07 -1.083243E-08
      9305   1 -1.890280E-04  6.237029E-05  6.237722E-05  8.856098E-06 -6.334122E-07 -1.515326E-08
      9306   1 -1.890280E-04  6.238440E-05  6.240187E-05  9.932606E-06 -2.312777E-07  1.554839E-08
      9307   1 -2.362850E-04  7.802062E-05  7.790231E-05  3.648020E-06  6.234949E-07  2.392399E-08
      9308   1 -2.362850E-04  7.797583E-05  7.794121E-05  3.134943E-06  1.347984E-06  1.473085E-08
      9309   1 -2.362850E-04  7.799823E-05  7.794014E-05  2.938750E-06  1.372504E-06  2.883092E-09
      9310   1 -2.362850E-04  7.797802E-05  7.795264E-05  2.809206E-06  1.070267E-06  3.444520E-09
      9311   1 -2.362850E-04  7.799144E-05  7.794846E-05  2.747208E-06  5.776151E-07  4.853252E-10
      9312   1 -2.362850E-04  7.797873E-05  7.795460E-05  2.724423E-06  4.749801E-13  8.789978E-14
      9313   1 -2.362850E-04  7.799144E-05  7.794846E-05  2.747208E-06 -5.776142E-07 -4.851753E-10
      9314   1 -2.362850E-04  7.797802E-05  7.795264E-05  2.809206E-06 -1.070266E-06 -3.444380E-09
      9315   1 -2.362850E-04  7.799823E-05  7.794014E-05  2.938750E-06 -1.372503E-06 -2.883013E-09
      9316   1 -2.362850E-04  7.797583E-05  7.794121E-05  3.134943E-06 -1.347983E-06 -1.473080E-08
      9317   1 -2.362850E-04  7.802062E-05  7.790231E-05  3.648020E-06 -6.234948E-07 -2.392400E-08
      9318   1  2.317411E-04 -7.652022E-05 -7.640419E-05  3.648020E-06 -6.234949E-07  2.346392E-08
      9319   1  2.317411E-04 -7.647630E-05 -7.644234E-05  3.134943E-06 -1.347984E-06  1.444758E-08
      9320   1  2.317411E-04 -7.649826E-05 -7.644130E-05  2.938750E-06 -1.372504E-06  2.827672E-09
      9321   1  2.317411E-04 -7.647844E-05 -7.645355E-05  2.809206E-06 -1.070267E-06  3.378298E-09
      9322   1  2.317411E-04 -7.649161E-05 -7.644945E-05  2.747208E-06 -5.776152E-07  4.760278E-10
      9323   1  2.317411E-04 -7.647914E-05 -7.645547E-05  2.724423E-06 -6.178787E-13  1.050935E-13
      9324   1  2.317411E-04 -7.649161E-05 -7.644945E-05  2.747208E-06  5.776139E-07 -4.758061E-10
      9325   1  2.317411E-04 -7.647844E-05 -7.645355E-05  2.809206E-06  1.070266E-06 -3.378134E-09
      9326   1  2.317411E-04 -7.649826E-05 -7.644130E-05  2.938750E-06  1.372503E-06 -2.827537E-09
      9327   1  2.317411E-04 -7.647630E-05 -7.644234E-05  3.134943E-06  1.347983E-06 -1.444753E-08
      9328   1  2.317411E-04 -7.652022E-05 -7.640419E-05  3.648020E-06  6.234947E-07 -2.346389E-08
      9329   1  1.853929E-04 -6.118470E-05 -6.120184E-05  9.932606E-06 -2.312779E-07 -1.524934E-08
      9330   1  1.853929E-04 -6.117086E-05 -6.117766E-05  8.856098E-06 -6.334127E-07  1.486201E-08
      9331   1  1.853929E-04 -6.118346E-05 -6.116371E-05  8.266721E-06 -7.743508E-07  1.062442E-08
      9332   1  1.853929E-04 -6.118791E-05 -6.116408E-05  7.924963E-06 -6.407636E-07  3.121854E-09
      9333   1  1.853929E-04 -6.118377E-05 -6.116384E-05  7.736566E-06 -3.580889E-07  2.604802E-09
      9334   1  1.853929E-04 -6.118977E-05 -6.116277E-05  7.679059E-06 -6.115764E-13  3.038948E-13
      9335   1  1.853929E-04 -6.118377E-05 -6.116384E-05  7.736566E-06  3.580877E-07 -2.604203E-09
      9336   1  1.853929E-04 -6.118791E-05 -6.116408E-05  7.924963E-06  6.407626E-07 -3.121365E-09
      9337   1  1.853929E-04 -6.118346E-05 -6.116371E-05  8.266722E-06  7.743500E-07 -1.062406E-08
      9338   1  1.853929E-04 -6.117086E-05 -6.117766E-05  8.856098E-06  6.334121E-07 -1.486183E-08
      9339   1  1.853929E-04 -6.118470E-05 -6.120184E-05  9.932606E-06  2.312777E-07  1.524940E-08
      9340   1  1.390447E-04 -4.590572E-05 -4.586072E-05  1.452033E-05 -1.261996E-07  1.624862E-09
      9341   1  1.390447E-04 -4.588477E-05 -4.589080E-05  1.331918E-05 -3.183527E-07 -1.625549E-08
      9342   1  1.390447E-04 -4.587621E-05 -4.588716E-05  1.249380E-05 -4.059892E-07  6.442788E-09
      9343   1  1.390447E-04 -4.588727E-05 -4.587510E-05  1.198339E-05 -3.623551E-07  1.728079E-09
      9344   1  1.390447E-04 -4.588717E-05 -4.587693E-05  1.170197E-05 -2.069268E-07  1.401639E-09
      9345   1  1.390447E-04 -4.588786E-05 -4.587345E-05  1.161084E-05 -5.269495E-13  4.607451E-13
      9346   1  1.390447E-04 -4.588717E-05 -4.587693E-05  1.170197E-05  2.069258E-07 -1.400741E-09
      9347   1  1.390447E-04 -4.588726E-05 -4.587510E-05  1.198339E-05  3.623541E-07 -1.727316E-09
      9348   1  1.390447E-04 -4.587621E-05 -4.588716E-05  1.249380E-05  4.059885E-07 -6.442191E-09
      9349   1  1.390447E-04 -4.588477E-05 -4.589080E-05  1.331918E-05  3.183522E-07  1.625585E-08
      9350   1  1.390447E-04 -4.590572E-05 -4.586072E-05  1.452033E-05  1.261995E-07 -1.624725E-09
      9351   1  9.269644E-05 -3.059352E-05 -3.059576E-05  1.772536E-05 -5.843241E-08 -6.469867E-09
      9352   1  9.269644E-05 -3.059313E-05 -3.058382E-05  1.645285E-05 -1.613812E-07  5.201147E-10
      9353   1  9.269644E-05 -3.058957E-05 -3.059010E-05  1.553576E-05 -2.068040E-07 -1.233188E-08
      9354   1  9.269644E-05 -3.058493E-05 -3.059100E-05  1.492193E-05 -1.868186E-07  1.910055E-09
      9355   1  9.269644E-05 -3.059143E-05 -3.058353E-05  1.457597E-05 -1.104246E-07 -1.868710E-09
      9356   1  9.269644E-05 -3.058921E-05 -3.058682E-05  1.446381E-05 -3.813569E-13  5.759542E-13
      9357   1  9.269644E-05 -3.059143E-05 -3.058353E-05  1.457597E-05  1.104239E-07  1.869832E-09
      9358   1  9.269643E-05 -3.058493E-05 -3.059100E-05  1.492194E-05  1.868179E-07 -1.909084E-09
      9359   1  9.269644E-05 -3.058957E-05 -3.059010E-05  1.553576E-05  2.068035E-07  1.233265E-08
      9360   1  9.269643E-05 -3.059313E-05 -3.058382E-05  1.645285E-05  1.613808E-07 -5.196314E-10
      9361   1  9.269644E-05 -3.059352E-05 -3.059576E-05  1.772536E-05  5.843228E-08  6.470043E-09
      9362   1  4.634822E-05 -1.530111E-05 -1.528842E-05  1.962261E-05 -2.573128E-08 -8.550842E-10
      9363   1  4.634822E-05 -1.529526E-05 -1.529695E-05  1.832412E-05 -6.642303E-08 -1.251499E-08
      9364   1  4.634822E-05 -1.529364E-05 -1.529459E-05  1.735703E-05 -8.711321E-08 -8.704556E-10
      9365   1  4.634822E-05 -1.529497E-05 -1.529368E-05  1.669890E-05 -7.935264E-08 -9.726078E-09
      9366   1  4.634822E-05 -1.529275E-05 -1.529524E-05  1.631658E-05 -4.673590E-08  1.681488E-10
      9367   1  4.634822E-05 -1.529569E-05 -1.529180E-05  1.619261E-05 -1.995798E-13  6.467267E-13
      9368   1  4.634822E-05 -1.529275E-05 -1.529524E-05  1.631658E-05  4.673551E-08 -1.668845E-10
      9369   1  4.634822E-05 -1.529497E-05 -1.529368E-05  1.669890E-05  7.935229E-08  9.727183E-09
      9370   1  4.634822E-05 -1.529364E-05 -1.529459E-05  1.735703E-05  8.711294E-08  8.713571E-10
      9371   1  4.634822E-05 -1.529526E-05 -1.529695E-05  1.832412E-05  6.642284E-08  1.251558E-08
      9372   1  4.634822E-05 -1.530111E-05 -1.528842E-05  1.962261E-05  2.573122E-08  8.553116E-10
      9373   1  1.057834E-14  2.509104E-14 -2.851886E-14  2.025233E-05  5.976040E-15 -5.028275E-09
      9374   1  3.271645E-14 -8.613943E-14  3.681679E-15  1.894418E-05  1.735763E-14 -2.116455E-09
      9375   1  1.058648E-13 -2.239320E-13 -4.076880E-14  1.796588E-05  2.087627E-14 -1.338186E-08
      9376   1  1.361448E-13 -3.253231E-13 -1.281956E-14  1.729130E-05  1.738323E-14 -8.203357E-10
      9377   1  1.765243E-13 -3.773371E-13 -5.318031E-14  1.690023E-05  9.416362E-15 -5.559056E-09
      9378   1  1.699311E-13 -3.916312E-13 -2.041517E-14  1.677112E-05  3.021323E-16  6.712940E-13
      9379   1  1.769202E-13 -3.777811E-13 -5.314185E-14  1.690023E-05 -9.998502E-15  5.560368E-09
      9380   1  1.393023E-13 -3.342465E-13 -1.278945E-14  1.729130E-05 -1.671581E-14  8.214856E-10
      9381   1  1.181910E-13 -2.599726E-13 -4.043590E-14  1.796588E-05 -2.038569E-14  1.338280E-08
      9382   1  5.933329E-14 -1.686984E-13  3.256091E-15  1.894418E-05 -1.659943E-14  2.117056E-09
      9383   1  4.840312E-14 -9.721390E-14 -2.780828E-14  2.025233E-05 -7.209766E-15  5.028498E-09
      9384   1 -4.634822E-05  1.530111E-05  1.528842E-05  1.962261E-05  2.573130E-08 -8.550836E-10
      9385   1 -4.634822E-05  1.529526E-05  1.529695E-05  1.832412E-05  6.642306E-08 -1.251499E-08
      9386   1 -4.634822E-05  1.529364E-05  1.529459E-05  1.735703E-05  8.711325E-08 -8.704562E-10
      9387   1 -4.634822E-05  1.529497E-05  1.529368E-05  1.669890E-05  7.935267E-08 -9.726078E-09
      9388   1 -4.634822E-05  1.529275E-05  1.529524E-05  1.631658E-05  4.673591E-08  1.681487E-10
      9389   1 -4.634822E-05  1.529569E-05  1.529180E-05  1.619261E-05  2.010823E-13  6.467284E-13
      9390   1 -4.634822E-05  1.529275E-05  1.529524E-05  1.631658E-05 -4.673553E-08 -1.668845E-10
      9391   1 -4.634822E-05  1.529497E-05  1.529368E-05  1.669890E-05 -7.935232E-08  9.727183E-09
      9392   1 -4.634822E-05  1.529364E-05  1.529459E-05  1.735703E-05 -8.711297E-08  8.713574E-10
      9393   1 -4.634822E-05  1.529526E-05  1.529695E-05  1.832412E-05 -6.642287E-08  1.251558E-08
      9394   1 -4.634822E-05  1.530111E-05  1.528842E-05  1.962261E-05 -2.573123E-08  8.553116E-10
      9395   1 -9.269644E-05  3.059352E-05  3.059576E-05  1.772536E-05  5.843241E-08 -6.469869E-09
      9396   1 -9.269644E-05  3.059313E-05  3.058382E-05  1.645285E-05  1.613812E-07  5.201147E-10
      9397   1 -9.269644E-05  3.058957E-05  3.059010E-05  1.553576E-05  2.068040E-07 -1.233188E-08
      9398   1 -9.269644E-05  3.058493E-05  3.059100E-05  1.492193E-05  1.868186E-07  1.910055E-09
      9399   1 -9.269644E-05  3.059143E-05  3.058353E-05  1.457597E-05  1.104246E-07 -1.868710E-09
      9400   1 -9.269643E-05  3.058921E-05  3.058682E-05  1.446381E-05  3.844974E-13  5.757665E-13
      9401   1 -9.269643E-05  3.059143E-05  3.058353E-05  1.457597E-05 -1.104239E-07  1.869832E-09
      9402   1 -9.269643E-05  3.058493E-05  3.059100E-05  1.492194E-05 -1.868180E-07 -1.909084E-09
      9403   1 -9.269643E-05  3.058957E-05  3.059010E-05  1.553576E-05 -2.068035E-07  1.233265E-08
      9404   1 -9.269643E-05  3.059313E-05  3.058382E-05  1.645285E-05 -1.613809E-07 -5.196315E-10
      9405   1 -9.269643E-05  3.059352E-05  3.059576E-05  1.772536E-05 -5.843229E-08  6.470044E-09
      9406   1 -1.390447E-04  4.590572E-05  4.586072E-05  1.452033E-05  1.261996E-07  1.624866E-09
      9407   1 -1.390447E-04  4.588477E-05  4.589080E-05  1.331918E-05  3.183527E-07 -1.625549E-08
      9408   1 -1.390447E-04  4.587621E-05  4.588716E-05  1.249380E-05  4.059892E-07  6.442786E-09
      9409   1 -1.390447E-04  4.588727E-05  4.587510E-05  1.198339E-05  3.623551E-07  1.728080E-09
      9410   1 -1.390447E-04  4.588717E-05  4.587693E-05  1.170197E-05  2.069268E-07  1.401639E-09
      9411   1 -1.390447E-04  4.588786E-05  4.587345E-05  1.161084E-05  5.315310E-13  4.606636E-13
      9412   1 -1.390447E-04  4.588717E-05  4.587693E-05  1.170197E-05 -2.069258E-07 -1.400741E-09
      9413   1 -1.390447E-04  4.588727E-05  4.587510E-05  1.198339E-05 -3.623542E-07 -1.727318E-09
      9414   1 -1.390447E-04  4.587621E-05  4.588716E-05  1.249380E-05 -4.059885E-07 -6.442189E-09
      9415   1 -1.390447E-04  4.588477E-05  4.589080E-05  1.331918E-05 -3.183522E-07  1.625585E-08
      9416   1 -1.390447E-04  4.590572E-05  4.586072E-05  1.452033E-05 -1.261995E-07 -1.624726E-09
      9417   1 -1.853929E-04  6.118470E-05  6.120184E-05  9.932606E-06  2.312779E-07 -1.524935E-08
      9418   1 -1.853929E-04  6.117086E-05  6.117766E-05  8.856098E-06  6.334127E-07  1.486201E-08
      9419   1 -1.853929E-04  6.118346E-05  6.116371E-05  8.266721E-06  7.743508E-07  1.062443E-08
      9420   1 -1.853929E-04  6.118790E-05  6.116408E-05  7.924963E-06  6.407637E-07  3.121854E-09
      9421   1 -1.853929E-04  6.118377E-05  6.116384E-05  7.736566E-06  3.580889E-07  2.604803E-09
      9422   1 -1.853929E-04  6.118977E-05  6.116277E-05  7.679059E-06  6.156877E-13  3.037487E-13
      9423   1 -1.853929E-04  6.118377E-05  6.116384E-05  7.736566E-06 -3.580877E-07 -2.604204E-09
      9424   1 -1.853929E-04  6.118790E-05  6.116408E-05  7.924963E-06 -6.407626E-07 -3.121366E-09
      9425   1 -1.853929E-04  6.118346E-05  6.116371E-05  8.266722E-06 -7.743500E-07 -1.062406E-08
      9426   1 -1.853929E-04  6.117086E-05  6.117766E-05  8.856098E-06 -6.334122E-07 -1.486183E-08
      9427   1 -1.853929E-04  6.118470E-05  6.120183E-05  9.932606E-06 -2.312777E-07  1.524940E-08
      9428   1 -2.317411E-04  7.652022E-05  7.640419E-05  3.648020E-06  6.234949E-07  2.346395E-08
      9429   1 -2.317411E-04  7.647630E-05  7.644234E-05  3.134943E-06  1.347984E-06  1.444756E-08
      9430   1 -2.317411E-04  7.649826E-05  7.644129E-05  2.938750E-06  1.372504E-06  2.827684E-09
      9431   1 -2.317411E-04  7.647844E-05  7.645355E-05  2.809206E-06  1.070267E-06  3.378291E-09
      9432   1 -2.317411E-04  7.649161E-05  7.644945E-05  2.747208E-06  5.776152E-07  4.760312E-10
      9433   1 -2.317411E-04  7.647914E-05  7.645547E-05  2.724423E-06  6.198399E-13  1.050298E-13
      9434   1 -2.317411E-04  7.649161E-05  7.644945E-05  2.747208E-06 -5.776140E-07 -4.758092E-10
      9435   1 -2.317411E-04  7.647844E-05  7.645355E-05  2.809206E-06 -1.070266E-06 -3.378128E-09
      9436   1 -2.317411E-04  7.649826E-05  7.644129E-05  2.938750E-06 -1.372503E-06 -2.827548E-09
      9437   1 -2.317411E-04  7.647630E-05  7.644234E-05  3.134943E-06 -1.347983E-06 -1.444751E-08
      9438   1 -2.317411E-04  7.652022E-05  7.640419E-05  3.648020E-06 -6.234947E-07 -2.346391E-08
      9439   1  2.271971E-04 -7.501983E-05 -7.490607E-05  3.648020E-06 -6.234949E-07  2.300384E-08
      9440   1  2.271971E-04 -7.497676E-05 -7.494347E-05  3.134943E-06 -1.347984E-06  1.416429E-08
      9441   1  2.271971E-04 -7.499830E-05 -7.494245E-05  2.938750E-06 -1.372504E-06  2.772240E-09
      9442   1  2.271971E-04 -7.497886E-05 -7.495446E-05  2.809206E-06 -1.070267E-06  3.312091E-09
      9443   1  2.271971E-04 -7.499177E-05 -7.495044E-05  2.747208E-06 -5.776154E-07  4.667173E-10
      9444   1  2.271971E-04 -7.497955E-05 -7.495634E-05  2.724423E-06 -8.679629E-13  1.531665E-13
      9445   1  2.271971E-04 -7.499177E-05 -7.495044E-05  2.747208E-06  5.776138E-07 -4.664589E-10
      9446   1  2.271971E-04 -7.497886E-05 -7.495446E-05  2.809206E-06  1.070266E-06 -3.311845E-09
      9447   1  2.271971E-04 -7.499830E-05 -7.494245E-05  2.938750E-06  1.372503E-06 -2.772100E-09
      9448   1  2.271971E-04 -7.497676E-05 -7.494347E-05  3.134943E-06  1.347983E-06 -1.416420E-08
      9449   1  2.271971E-04 -7.501983E-05 -7.490607E-05  3.648020E-06  6.234947E-07 -2.300386E-08
      9450   1  1.817577E-04 -5.998500E-05 -6.000180E-05  9.932605E-06 -2.312779E-07 -1.495032E-08
      9451   1  1.817577E-04 -5.997143E-05 -5.997810E-05  8.856098E-06 -6.334127E-07  1.457066E-08
      9452   1  1.817577E-04 -5.998378E-05 -5.996442E-05  8.266721E-06 -7.743510E-07  1.041616E-08
      9453   1  1.817577E-04 -5.998814E-05 -5.996478E-05  7.924962E-06 -6.407638E-07  3.060738E-09
      9454   1  1.817577E-04 -5.998408E-05 -5.996455E-05  7.736566E-06 -3.580891E-07  2.553812E-09
      9455   1  1.817577E-04 -5.998997E-05 -5.996350E-05  7.679059E-06 -8.233113E-13  4.118716E-13
      9456   1  1.817577E-04 -5.998408E-05 -5.996455E-05  7.736566E-06  3.580875E-07 -2.553058E-09
      9457   1  1.817577E-04 -5.998814E-05 -5.996478E-05  7.924963E-06  6.407624E-07 -3.060067E-09
      9458   1  1.817577E-04 -5.998378E-05 -5.996442E-05  8.266722E-06  7.743499E-07 -1.041569E-08
      9459   1  1.817577E-04 -5.997143E-05 -5.997810E-05  8.856099E-06  6.334120E-07 -1.457038E-08
      9460   1  1.817577E-04 -5.998500E-05 -6.000180E-05  9.932606E-06  2.312777E-07  1.495039E-08
      9461   1  1.363183E-04 -4.500561E-05 -4.496149E-05  1.452033E-05 -1.261997E-07  1.592999E-09
      9462   1  1.363183E-04 -4.498507E-05 -4.499098E-05  1.331918E-05 -3.183527E-07 -1.593670E-08
      9463   1  1.363183E-04 -4.497668E-05 -4.498741E-05  1.249380E-05 -4.059893E-07  6.316538E-09
      9464   1  1.363183E-04 -4.498752E-05 -4.497559E-05  1.198339E-05 -3.623552E-07  1.694328E-09
      9465   1  1.363183E-04 -4.498743E-05 -4.497738E-05  1.170197E-05 -2.069270E-07  1.374288E-09
      9466   1  1.363183E-04 -4.498810E-05 -4.497397E-05  1.161084E-05 -6.896462E-13  6.109776E-13
      9467   1  1.363183E-04 -4.498743E-05 -4.497738E-05  1.170197E-05  2.069256E-07 -1.373142E-09
      9468   1  1.363183E-04 -4.498752E-05 -4.497559E-05  1.198339E-05  3.623540E-07 -1.693312E-09
      9469   1  1.363183E-04 -4.497667E-05 -4.498741E-05  1.249380E-05  4.059884E-07 -6.315785E-09
      9470   1  1.363183E-04 -4.498506E-05 -4.499098E-05  1.331918E-05  3.183521E-07  1.593718E-08
      9471   1  1.363183E-04 -4.500561E-05 -4.496149E-05  1.452033E-05  1.261994E-07 -1.592862E-09
      9472   1  9.087886E-05 -2.999365E-05 -2.999584E-05  1.772536E-05 -5.843244E-08 -6.342971E-09
      9473   1  9.087886E-05 -2.999327E-05 -2.998414E-05  1.645285E-05 -1.613812E-07  5.100239E-10
      9474   1  9.087886E-05 -2.998977E-05 -2.999029E-05  1.553576E-05 -2.068041E-07 -1.208995E-08
      9475   1  9.087886E-05 -2.998522E-05 -2.999118E-05  1.492193E-05 -1.868187E-07  1.872772E-09
      9476   1  9.087886E-05 -2.999160E-05 -2.998385E-05  1.457597E-05 -1.104247E-07 -1.831902E-09
      9477   1  9.087886E-05 -2.998942E-05 -2.998708E-05  1.446381E-05 -4.969434E-13  7.589020E-13
      9478   1  9.087886E-05 -2.999160E-05 -2.998385E-05  1.457597E-05  1.104238E-07  1.833335E-09
      9479   1  9.087886E-05 -2.998522E-05 -2.999118E-05  1.492194E-05  1.868178E-07 -1.871484E-09
      9480   1  9.087886E-05 -2.998977E-05 -2.999029E-05  1.553576E-05  2.068034E-07  1.209095E-08
      9481   1  9.087886E-05 -2.999326E-05 -2.998414E-05  1.645285E-05  1.613808E-07 -5.093464E-10
      9482   1  9.087886E-05 -2.999365E-05 -2.999584E-05  1.772536E-05  5.843227E-08  6.343201E-09
      9483   1  4.543943E-05 -1.500109E-05 -1.498865E-05  1.962261E-05 -2.573129E-08 -8.383095E-10
      9484   1  4.543943E-05 -1.499535E-05 -1.499701E-05  1.832412E-05 -6.642304E-08 -1.226951E-08
      9485   1  4.543943E-05 -1.499377E-05 -1.499470E-05  1.735703E-05 -8.711326E-08 -8.532638E-10
      9486   1  4.543943E-05 -1.499507E-05 -1.499381E-05  1.669890E-05 -7.935268E-08 -9.535184E-09
      9487   1  4.543943E-05 -1.499289E-05 -1.499533E-05  1.631658E-05 -4.673596E-08  1.650381E-10
      9488   1  4.543943E-05 -1.499577E-05 -1.499196E-05  1.619261E-05 -2.597959E-13  8.502964E-13
      9489   1  4.543943E-05 -1.499289E-05 -1.499533E-05  1.631658E-05  4.673545E-08 -1.634251E-10
      9490   1  4.543943E-05 -1.499507E-05 -1.499381E-05  1.669890E-05  7.935223E-08  9.536643E-09
      9491   1  4.543943E-05 -1.499377E-05 -1.499470E-05  1.735703E-05  8.711289E-08  8.544037E-10
      9492   1  4.543943E-05 -1.499535E-05 -1.499701E-05  1.832412E-05  6.642280E-08  1.227028E-08
      9493   1  4.543943E-05 -1.500109E-05 -1.498865E-05  1.962261E-05  2.573121E-08  8.385598E-10
      9494   1 -5.143108E-14  3.196055E-14  1.919534E-14  2.025233E-05  8.790200E-15 -4.929639E-09
      9495   1 -4.255309E-14  1.521561E-13 -3.104584E-14  1.894418E-05  1.876284E-14 -2.074827E-09
      9496   1 -8.948994E-14  3.085726E-13 -6.886979E-16  1.796588E-05  2.236378E-14 -1.311933E-08
      9497   1 -9.242390E-14  4.230782E-13 -5.044729E-14  1.729130E-05  1.963996E-14 -8.040530E-10
      9498   1 -1.164950E-13  4.801159E-13 -1.813904E-14  1.690023E-05  1.187810E-14 -5.449861E-09
      9499   1 -1.013549E-13  4.955480E-13 -5.937748E-14  1.677112E-05 -4.689726E-16  8.815110E-13
      9500   1 -1.170716E-13  4.806294E-13 -1.810675E-14  1.690023E-05 -1.101132E-14  5.451535E-09
      9501   1 -9.626935E-14  4.332229E-13 -5.035221E-14  1.729130E-05 -2.061177E-14  8.055729E-10
      9502   1 -1.047348E-13  3.518158E-13 -9.199066E-16  1.796588E-05 -2.281970E-14  1.312053E-08
      9503   1 -7.559264E-14  2.532557E-13 -3.029271E-14  1.894418E-05 -1.985293E-14  2.075660E-09
      9504   1 -9.860374E-14  1.827982E-13  1.863139E-14  2.025233E-05 -7.256645E-15  4.929927E-09
      9505   1 -4.543943E-05  1.500109E-05  1.498865E-05  1.962261E-05  2.573131E-08 -8.383108E-10
      9506   1 -4.543943E-05  1.499535E-05  1.499701E-05  1.832412E-05  6.642309E-08 -1.226951E-08
      9507   1 -4.543943E-05  1.499377E-05  1.499470E-05  1.735703E-05  8.711332E-08 -8.532630E-10
      9508   1 -4.543943E-05  1.499507E-05  1.499381E-05  1.669890E-05  7.935272E-08 -9.535184E-09
      9509   1 -4.543943E-05  1.499289E-05  1.499533E-05  1.631658E-05  4.673599E-08  1.650384E-10
      9510   1 -4.543943E-05  1.499577E-05  1.499196E-05  1.619261E-05  2.576301E-13  8.503270E-13
      9511   1 -4.543943E-05  1.499289E-05  1.499533E-05  1.631658E-05 -4.673548E-08 -1.634255E-10
      9512   1 -4.543943E-05  1.499507E-05  1.499381E-05  1.669890E-05 -7.935227E-08  9.536643E-09
      9513   1 -4.543943E-05  1.499377E-05  1.499470E-05  1.735703E-05 -8.711295E-08  8.544030E-10
      9514   1 -4.543943E-05  1.499535E-05  1.499701E-05  1.832412E-05 -6.642285E-08  1.227028E-08
      9515   1 -4.543943E-05  1.500109E-05  1.498865E-05  1.962261E-05 -2.573123E-08  8.385599E-10
      9516   1 -9.087886E-05  2.999365E-05  2.999584E-05  1.772536E-05  5.843246E-08 -6.342969E-09
      9517   1 -9.087886E-05  2.999327E-05  2.998414E-05  1.645285E-05  1.613812E-07  5.100241E-10
      9518   1 -9.087886E-05  2.998977E-05  2.999029E-05  1.553576E-05  2.068041E-07 -1.208995E-08
      9519   1 -9.087886E-05  2.998522E-05  2.999118E-05  1.492193E-05  1.868187E-07  1.872773E-09
      9520   1 -9.087886E-05  2.999160E-05  2.998385E-05  1.457597E-05  1.104248E-07 -1.831901E-09
      9521   1 -9.087886E-05  2.998942E-05  2.998708E-05  1.446381E-05  4.929498E-13  7.590127E-13
      9522   1 -9.087886E-05  2.999160E-05  2.998385E-05  1.457597E-05 -1.104238E-07  1.833335E-09
      9523   1 -9.087886E-05  2.998522E-05  2.999118E-05  1.492194E-05 -1.868179E-07 -1.871483E-09
      9524   1 -9.087886E-05  2.998977E-05  2.999029E-05  1.553576E-05 -2.068034E-07  1.209095E-08
      9525   1 -9.087886E-05  2.999327E-05  2.998414E-05  1.645285E-05 -1.613808E-07 -5.093464E-10
      9526   1 -9.087886E-05  2.999365E-05  2.999584E-05  1.772536E-05 -5.843229E-08  6.343201E-09
      9527   1 -1.363183E-04  4.500561E-05  4.496149E-05  1.452033E-05  1.261997E-07  1.592995E-09
      9528   1 -1.363183E-04  4.498506E-05  4.499098E-05  1.331918E-05  3.183527E-07 -1.593670E-08
      9529   1 -1.363183E-04  4.497667E-05  4.498741E-05  1.249380E-05  4.059894E-07  6.316541E-09
      9530   1 -1.363183E-04  4.498751E-05  4.497559E-05  1.198339E-05  3.623552E-07  1.694328E-09
      9531   1 -1.363183E-04  4.498743E-05  4.497738E-05  1.170197E-05  2.069270E-07  1.374289E-09
      9532   1 -1.363183E-04  4.498810E-05  4.497397E-05  1.161084E-05  6.844183E-13  6.111344E-13
      9533   1 -1.363183E-04  4.498742E-05  4.497738E-05  1.170197E-05 -2.069256E-07 -1.373143E-09
      9534   1 -1.363183E-04  4.498751E-05  4.497558E-05  1.198339E-05 -3.623540E-07 -1.693312E-09
      9535   1 -1.363183E-04  4.497667E-05  4.498741E-05  1.249380E-05 -4.059884E-07 -6.315788E-09
      9536   1 -1.363183E-04  4.498506E-05  4.499098E-05  1.331918E-05 -3.183521E-07  1.593718E-08
      9537   1 -1.363183E-04  4.500561E-05  4.496149E-05  1.452033E-05 -1.261995E-07 -1.592861E-09
      9538   1 -1.817577E-04  5.998500E-05  6.000180E-05  9.932605E-06  2.312780E-07 -1.495031E-08
      9539   1 -1.817577E-04  5.997143E-05  5.997809E-05  8.856098E-06  6.334127E-07  1.457066E-08
      9540   1 -1.817577E-04  5.998378E-05  5.996442E-05  8.266721E-06  7.743511E-07  1.041616E-08
      9541   1 -1.817577E-04  5.998814E-05  5.996478E-05  7.924963E-06  6.407638E-07  3.060739E-09
      9542   1 -1.817577E-04  5.998409E-05  5.996455E-05  7.736566E-06  3.580891E-07  2.553811E-09
      9543   1 -1.817577E-04  5.998998E-05  5.996350E-05  7.679059E-06  8.192208E-13  4.119314E-13
      9544   1 -1.817577E-04  5.998408E-05  5.996455E-05  7.736566E-06 -3.580875E-07 -2.553058E-09
      9545   1 -1.817577E-04  5.998814E-05  5.996478E-05  7.924963E-06 -6.407624E-07 -3.060068E-09
      9546   1 -1.817577E-04  5.998378E-05  5.996442E-05  8.266722E-06 -7.743500E-07 -1.041569E-08
      9547   1 -1.817577E-04  5.997143E-05  5.997809E-05  8.856099E-06 -6.334120E-07 -1.457037E-08
      9548   1 -1.817577E-04  5.998500E-05  6.000180E-05  9.932606E-06 -2.312777E-07  1.495039E-08
      9549   1 -2.271971E-04  7.501983E-05  7.490607E-05  3.648020E-06  6.234950E-07  2.300381E-08
      9550   1 -2.271971E-04  7.497676E-05  7.494347E-05  3.134943E-06  1.347984E-06  1.416431E-08
      9551   1 -2.271971E-04  7.499830E-05  7.494245E-05  2.938750E-06  1.372504E-06  2.772227E-09
      9552   1 -2.271971E-04  7.497886E-05  7.495446E-05  2.809206E-06  1.070267E-06  3.312100E-09
      9553   1 -2.271971E-04  7.499177E-05  7.495045E-05  2.747208E-06  5.776154E-07  4.667136E-10
      9554   1 -2.271971E-04  7.497955E-05  7.495634E-05  2.724423E-06  8.668744E-13  1.531491E-13
      9555   1 -2.271971E-04  7.499177E-05  7.495045E-05  2.747208E-06 -5.776138E-07 -4.664554E-10
      9556   1 -2.271971E-04  7.497886E-05  7.495446E-05  2.809206E-06 -1.070266E-06 -3.311853E-09
      9557   1 -2.271971E-04  7.499830E-05  7.494245E-05  2.938750E-06 -1.372503E-06 -2.772087E-09
      9558   1 -2.271971E-04  7.497676E-05  7.494347E-05  3.134943E-06 -1.347983E-06 -1.416422E-08
      9559   1 -2.271971E-04  7.501983E-05  7.490607E-05  3.648020E-06 -6.234947E-07 -2.300383E-08
      9560   1  2.226532E-04 -7.351943E-05 -7.340795E-05  3.648020E-06 -6.234950E-07  2.254380E-08
      9561   1  2.226532E-04 -7.347723E-05 -7.344460E-05  3.134943E-06 -1.347984E-06  1.388102E-08
      9562   1  2.226532E-04 -7.349833E-05 -7.344360E-05  2.938750E-06 -1.372504E-06  2.716842E-09
      9563   1  2.226532E-04 -7.347929E-05 -7.345537E-05  2.809206E-06 -1.070267E-06  3.245874E-09
      9564   1  2.226532E-04 -7.349194E-05 -7.345144E-05  2.747208E-06 -5.776157E-07  4.574446E-10
      9565   1  2.226532E-04 -7.347995E-05 -7.345721E-05  2.724423E-06 -1.101284E-12  1.763764E-13
      9566   1  2.226532E-04 -7.349194E-05 -7.345144E-05  2.747208E-06  5.776134E-07 -4.570645E-10
      9567   1  2.226532E-04 -7.347929E-05 -7.345537E-05  2.809206E-06  1.070265E-06 -3.245596E-09
      9568   1  2.226532E-04 -7.349833E-05 -7.344360E-05  2.938750E-06  1.372502E-06 -2.716602E-09
      9569   1  2.226532E-04 -7.347723E-05 -7.344460E-05  3.134943E-06  1.347983E-06 -1.388094E-08
      9570   1  2.226532E-04 -7.351943E-05 -7.340795E-05  3.648020E-06  6.234946E-07 -2.254373E-08
      9571   1  1.781226E-04 -5.878530E-05 -5.880176E-05  9.932605E-06 -2.312779E-07 -1.465131E-08
      9572   1  1.781226E-04 -5.877200E-05 -5.877853E-05  8.856098E-06 -6.334129E-07  1.427926E-08
      9573   1  1.781226E-04 -5.878411E-05 -5.876513E-05  8.266721E-06 -7.743511E-07  1.020792E-08
      9574   1  1.781226E-04 -5.878838E-05 -5.876549E-05  7.924962E-06 -6.407640E-07  2.999606E-09
      9575   1  1.781226E-04 -5.878440E-05 -5.876526E-05  7.736566E-06 -3.580893E-07  2.502873E-09
      9576   1  1.781226E-04 -5.879018E-05 -5.876423E-05  7.679059E-06 -1.070975E-12  5.101009E-13
      9577   1  1.781226E-04 -5.878440E-05 -5.876526E-05  7.736566E-06  3.580872E-07 -2.501858E-09
      9578   1  1.781226E-04 -5.878838E-05 -5.876549E-05  7.924963E-06  6.407622E-07 -2.998780E-09
      9579   1  1.781226E-04 -5.878411E-05 -5.876513E-05  8.266722E-06  7.743496E-07 -1.020728E-08
      9580   1  1.781226E-04 -5.877200E-05 -5.877853E-05  8.856099E-06  6.334119E-07 -1.427894E-08
      9581   1  1.781226E-04 -5.878530E-05 -5.880176E-05  9.932606E-06  2.312776E-07  1.465141E-08
      9582   1  1.335919E-04 -4.410550E-05 -4.406226E-05  1.452033E-05 -1.261997E-07  1.561203E-09
      9583   1  1.335919E-04 -4.408536E-05 -4.409116E-05  1.331918E-05 -3.183528E-07 -1.561788E-08
      9584   1  1.335919E-04 -4.407714E-05 -4.408766E-05  1.249380E-05 -4.059895E-07  6.190353E-09
      9585   1  1.335919E-04 -4.408776E-05 -4.407607E-05  1.198339E-05 -3.623554E-07  1.660586E-09
      9586   1  1.335919E-04 -4.408768E-05 -4.407783E-05  1.170197E-05 -2.069271E-07  1.346995E-09
      9587   1  1.335919E-04 -4.408834E-05 -4.407449E-05  1.161084E-05 -9.126761E-13  7.694699E-13
      9588   1  1.335919E-04 -4.408768E-05 -4.407783E-05  1.170197E-05  2.069254E-07 -1.345488E-09
      9589   1  1.335919E-04 -4.408776E-05 -4.407607E-05  1.198339E-05  3.623538E-07 -1.659304E-09
      9590   1  1.335919E-04 -4.407714E-05 -4.408766E-05  1.249380E-05  4.059882E-07 -6.189334E-09
      9591   1  1.335919E-04 -4.408536E-05 -4.409116E-05  1.331918E-05  3.183520E-07  1.561850E-08
      9592   1  1.335919E-04 -4.410550E-05 -4.406226E-05  1.452033E-05  1.261994E-07 -1.560958E-09
      9593   1  8.906128E-05 -2.939377E-05 -2.939593E-05  1.772536E-05 -5.843245E-08 -6.216084E-09
      9594   1  8.906128E-05 -2.939340E-05 -2.938446E-05  1.645285E-05 -1.613813E-07  4.998898E-10
      9595   1  8.906128E-05 -2.938998E-05 -2.939049E-05  1.553576E-05 -2.068042E-07 -1.184800E-08
      9596   1  8.906128E-05 -2.938552E-05 -2.939135E-05  1.492193E-05 -1.868188E-07  1.835494E-09
      9597   1  8.906128E-05 -2.939177E-05 -2.938417E-05  1.457597E-05 -1.104249E-07 -1.795030E-09
      9598   1  8.906128E-05 -2.938964E-05 -2.938734E-05  1.446381E-05 -6.551154E-13  9.560202E-13
      9599   1  8.906128E-05 -2.939177E-05 -2.938417E-05  1.457597E-05  1.104236E-07  1.796903E-09
      9600   1  8.906128E-05 -2.938552E-05 -2.939135E-05  1.492194E-05  1.868177E-07 -1.833873E-09
      9601   1  8.906128E-05 -2.938998E-05 -2.939049E-05  1.553577E-05  2.068033E-07  1.184930E-08
      9602   1  8.906128E-05 -2.939340E-05 -2.938446E-05  1.645285E-05  1.613807E-07 -4.990735E-10
      9603   1  8.906128E-05 -2.939377E-05 -2.939593E-05  1.772536E-05  5.843223E-08  6.216387E-09
      9604   1  4.453064E-05 -1.470107E-05 -1.468888E-05  1.962261E-05 -2.573130E-08 -8.214608E-10
      9605   1  4.453064E-05 -1.469545E-05 -1.469707E-05  1.832412E-05 -6.642308E-08 -1.202399E-08
      9606   1  4.453064E-05 -1.469389E-05 -1.469480E-05  1.735703E-05 -8.711330E-08 -8.359943E-10
      9607   1  4.453064E-05 -1.469516E-05 -1.469393E-05  1.669890E-05 -7.935275E-08 -9.344275E-09
      9608   1  4.453064E-05 -1.469303E-05 -1.469543E-05  1.631658E-05 -4.673603E-08  1.619979E-10
      9609   1  4.453064E-05 -1.469586E-05 -1.469212E-05  1.619261E-05 -3.412751E-13  1.069477E-12
      9610   1  4.453064E-05 -1.469303E-05 -1.469543E-05  1.631658E-05  4.673537E-08 -1.598965E-10
      9611   1  4.453064E-05 -1.469516E-05 -1.469393E-05  1.669890E-05  7.935216E-08  9.346113E-09
      9612   1  4.453064E-05 -1.469389E-05 -1.469480E-05  1.735703E-05  8.711283E-08  8.375099E-10
      9613   1  4.453064E-05 -1.469545E-05 -1.469707E-05  1.832412E-05  6.642276E-08  1.202498E-08
      9614   1  4.453064E-05 -1.470107E-05 -1.468888E-05  1.962261E-05  2.573119E-08  8.218528E-10
      9615   1 -4.077782E-14  4.739265E-14 -1.396785E-14  2.025233E-05  1.096415E-14 -4.831009E-09
      9616   1  8.882977E-15 -1.253719E-13  2.070429E-14  1.894418E-05  3.039893E-14 -2.033246E-09
      9617   1  1.230778E-13 -3.365919E-13 -3.875516E-14  1.796588E-05  3.478551E-14 -1.285675E-08
      9618   1  1.764417E-13 -4.892892E-13 -6.705269E-15  1.729130E-05  2.835587E-14 -7.877647E-10
      9619   1  2.350320E-13 -5.657835E-13 -5.796215E-14  1.690023E-05  1.471610E-14 -5.340595E-09
      9620   1  2.285500E-13 -5.864337E-13 -1.750093E-14  1.677112E-05  7.037639E-16  1.108782E-12
      9621   1  2.355850E-13 -5.659501E-13 -5.801328E-14  1.690023E-05 -1.607078E-14  5.342773E-09
      9622   1  1.806493E-13 -5.011547E-13 -6.542242E-15  1.729130E-05 -2.691953E-14  7.896729E-10
      9623   1  1.411336E-13 -3.881201E-13 -3.851167E-14  1.796588E-05 -3.441446E-14  1.285832E-08
      9624   1  4.873966E-14 -2.488149E-13  2.001911E-14  1.894418E-05 -2.899998E-14  2.034253E-09
      9625   1  1.666701E-14 -1.386391E-13 -1.283845E-14  2.025233E-05 -1.291437E-14  4.831388E-09
      9626   1 -4.453064E-05  1.470107E-05  1.468888E-05  1.962261E-05  2.573133E-08 -8.214593E-10
      9627   1 -4.453064E-05  1.469545E-05  1.469707E-05  1.832412E-05  6.642313E-08 -1.202399E-08
      9628   1 -4.453064E-05  1.469389E-05  1.469480E-05  1.735703E-05  8.711336E-08 -8.359945E-10
      9629   1 -4.453064E-05  1.469517E-05  1.469393E-05  1.669890E-05  7.935280E-08 -9.344275E-09
      9630   1 -4.453064E-05  1.469303E-05  1.469543E-05  1.631658E-05  4.673605E-08  1.619980E-10
      9631   1 -4.453064E-05  1.469586E-05  1.469212E-05  1.619261E-05  3.442025E-13  1.069469E-12
      9632   1 -4.453064E-05  1.469303E-05  1.469543E-05  1.631658E-05 -4.673540E-08 -1.598966E-10
      9633   1 -4.453064E-05  1.469517E-05  1.469393E-05  1.669890E-05 -7.935221E-08  9.346112E-09
      9634   1 -4.453064E-05  1.469389E-05  1.469480E-05  1.735703E-05 -8.711289E-08  8.375101E-10
      9635   1 -4.453064E-05  1.469545E-05  1.469707E-05  1.832412E-05 -6.642282E-08  1.202498E-08
      9636   1 -4.453064E-05  1.470107E-05  1.468888E-05  1.962261E-05 -2.573121E-08  8.218526E-10
      9637   1 -8.906128E-05  2.939377E-05  2.939593E-05  1.772536E-05  5.843246E-08 -6.216087E-09
      9638   1 -8.906128E-05  2.939340E-05  2.938446E-05  1.645285E-05  1.613814E-07  4.998903E-10
      9639   1 -8.906128E-05  2.938998E-05  2.939049E-05  1.553576E-05  2.068042E-07 -1.184799E-08
      9640   1 -8.906128E-05  2.938552E-05  2.939135E-05  1.492193E-05  1.868189E-07  1.835494E-09
      9641   1 -8.906128E-05  2.939177E-05  2.938417E-05  1.457597E-05  1.104249E-07 -1.795030E-09
      9642   1 -8.906128E-05  2.938963E-05  2.938734E-05  1.446381E-05  6.600470E-13  9.554136E-13
      9643   1 -8.906128E-05  2.939177E-05  2.938417E-05  1.457597E-05 -1.104237E-07  1.796903E-09
      9644   1 -8.906128E-05  2.938552E-05  2.939135E-05  1.492194E-05 -1.868177E-07 -1.833875E-09
      9645   1 -8.906128E-05  2.938998E-05  2.939049E-05  1.553577E-05 -2.068033E-07  1.184930E-08
      9646   1 -8.906128E-05  2.939340E-05  2.938446E-05  1.645285E-05 -1.613807E-07 -4.990747E-10
      9647   1 -8.906128E-05  2.939377E-05  2.939593E-05  1.772536E-05 -5.843225E-08  6.216387E-09
      9648   1 -1.335919E-04  4.410550E-05  4.406226E-05  1.452033E-05  1.261997E-07  1.561208E-09
      9649   1 -1.335919E-04  4.408536E-05  4.409116E-05  1.331918E-05  3.183529E-07 -1.561788E-08
      9650   1 -1.335919E-04  4.407714E-05  4.408766E-05  1.249380E-05  4.059895E-07  6.190351E-09
      9651   1 -1.335919E-04  4.408777E-05  4.407607E-05  1.198339E-05  3.623555E-07  1.660588E-09
      9652   1 -1.335919E-04  4.408768E-05  4.407783E-05  1.170197E-05  2.069272E-07  1.346995E-09
      9653   1 -1.335919E-04  4.408834E-05  4.407449E-05  1.161084E-05  9.181444E-13  7.688735E-13
      9654   1 -1.335919E-04  4.408768E-05  4.407783E-05  1.170197E-05 -2.069254E-07 -1.345487E-09
      9655   1 -1.335919E-04  4.408776E-05  4.407607E-05  1.198339E-05 -3.623539E-07 -1.659307E-09
      9656   1 -1.335919E-04  4.407714E-05  4.408766E-05  1.249380E-05 -4.059882E-07 -6.189332E-09
      9657   1 -1.335919E-04  4.408536E-05  4.409116E-05  1.331918E-05 -3.183521E-07  1.561850E-08
      9658   1 -1.335919E-04  4.410550E-05  4.406226E-05  1.452033E-05 -1.261994E-07 -1.560960E-09
      9659   1 -1.781226E-04  5.878530E-05  5.880176E-05  9.932605E-06  2.312780E-07 -1.465132E-08
      9660   1 -1.781226E-04  5.877200E-05  5.877853E-05  8.856098E-06  6.334130E-07  1.427926E-08
      9661   1 -1.781226E-04  5.878411E-05  5.876513E-05  8.266721E-06  7.743512E-07  1.020792E-08
      9662   1 -1.781226E-04  5.878838E-05  5.876549E-05  7.924962E-06  6.407641E-07  2.999606E-09
      9663   1 -1.781226E-04  5.878440E-05  5.876526E-05  7.736566E-06  3.580893E-07  2.502874E-09
      9664   1 -1.781226E-04  5.879017E-05  5.876423E-05  7.679059E-06  1.074231E-12  5.097987E-13
      9665   1 -1.781226E-04  5.878440E-05  5.876526E-05  7.736566E-06 -3.580872E-07 -2.501859E-09
      9666   1 -1.781226E-04  5.878838E-05  5.876549E-05  7.924963E-06 -6.407623E-07 -2.998780E-09
      9667   1 -1.781226E-04  5.878411E-05  5.876513E-05  8.266722E-06 -7.743497E-07 -1.020729E-08
      9668   1 -1.781226E-04  5.877200E-05  5.877853E-05  8.856099E-06 -6.334120E-07 -1.427894E-08
      9669   1 -1.781226E-04  5.878530E-05  5.880176E-05  9.932606E-06 -2.312776E-07  1.465141E-08
      9670   1 -2.226532E-04  7.351943E-05  7.340795E-05  3.648020E-06  6.234950E-07  2.254384E-08
      9671   1 -2.226532E-04  7.347723E-05  7.344460E-05  3.134943E-06  1.347984E-06  1.388099E-08
      9672   1 -2.226532E-04  7.349833E-05  7.344360E-05  2.938750E-06  1.372504E-06  2.716859E-09
      9673   1 -2.226532E-04  7.347929E-05  7.345537E-05  2.809206E-06  1.070267E-06  3.245864E-09
      9674   1 -2.226532E-04  7.349194E-05  7.345143E-05  2.747208E-06  5.776157E-07  4.574494E-10
      9675   1 -2.226532E-04  7.347996E-05  7.345722E-05  2.724423E-06  1.100391E-12  1.763581E-13
      9676   1 -2.226532E-04  7.349194E-05  7.345143E-05  2.747208E-06 -5.776135E-07 -4.570692E-10
      9677   1 -2.226532E-04  7.347929E-05  7.345537E-05  2.809206E-06 -1.070266E-06 -3.245587E-09
      9678   1 -2.226532E-04  7.349833E-05  7.344360E-05  2.938750E-06 -1.372502E-06 -2.716619E-09
      9679   1 -2.226532E-04  7.347723E-05  7.344460E-05  3.134943E-06 -1.347983E-06 -1.388091E-08
      9680   1 -2.226532E-04  7.351943E-05  7.340795E-05  3.648020E-06 -6.234946E-07 -2.254377E-08
      9681   1  2.181093E-04 -7.201903E-05 -7.190983E-05  3.648020E-06 -6.234950E-07  2.208367E-08
      9682   1  2.181093E-04 -7.197769E-05 -7.194573E-05  3.134943E-06 -1.347984E-06  1.359776E-08
      9683   1  2.181093E-04 -7.199837E-05 -7.194475E-05  2.938750E-06 -1.372504E-06  2.661395E-09
      9684   1  2.181093E-04 -7.197971E-05 -7.195628E-05  2.809206E-06 -1.070268E-06  3.179699E-09
      9685   1  2.181093E-04 -7.199210E-05 -7.195243E-05  2.747208E-06 -5.776160E-07  4.481352E-10
      9686   1  2.181093E-04 -7.198036E-05 -7.195809E-05  2.724423E-06 -1.539691E-12  2.560935E-13
      9687   1  2.181093E-04 -7.199210E-05 -7.195243E-05  2.747208E-06  5.776132E-07 -4.477120E-10
      9688   1  2.181093E-04 -7.197971E-05 -7.195628E-05  2.809206E-06  1.070265E-06 -3.179281E-09
      9689   1  2.181093E-04 -7.199837E-05 -7.194475E-05  2.938750E-06  1.372502E-06 -2.661163E-09
      9690   1  2.181093E-04 -7.197769E-05 -7.194573E-05  3.134943E-06  1.347983E-06 -1.359760E-08
      9691   1  2.181093E-04 -7.201903E-05 -7.190982E-05  3.648020E-06  6.234945E-07 -2.208370E-08
      9692   1  1.744874E-04 -5.758560E-05 -5.760173E-05  9.932605E-06 -2.312780E-07 -1.435227E-08
      9693   1  1.744874E-04 -5.757257E-05 -5.757897E-05  8.856098E-06 -6.334130E-07  1.398794E-08
      9694   1  1.744874E-04 -5.758443E-05 -5.756585E-05  8.266721E-06 -7.743514E-07  9.999680E-09
      9695   1  1.744874E-04 -5.758862E-05 -5.756619E-05  7.924962E-06 -6.407643E-07  2.938547E-09
      9696   1  1.744874E-04 -5.758472E-05 -5.756597E-05  7.736566E-06 -3.580896E-07  2.451916E-09
      9697   1  1.744874E-04 -5.759038E-05 -5.756496E-05  7.679059E-06 -1.424560E-12  6.800147E-13
      9698   1  1.744874E-04 -5.758472E-05 -5.756597E-05  7.736566E-06  3.580869E-07 -2.450679E-09
      9699   1  1.744874E-04 -5.758862E-05 -5.756619E-05  7.924963E-06  6.407618E-07 -2.937427E-09
      9700   1  1.744874E-04 -5.758443E-05 -5.756584E-05  8.266722E-06  7.743494E-07 -9.998901E-09
      9701   1  1.744874E-04 -5.757257E-05 -5.757897E-05  8.856099E-06  6.334117E-07 -1.398745E-08
      9702   1  1.744874E-04 -5.758560E-05 -5.760173E-05  9.932606E-06  2.312776E-07  1.435240E-08
      9703   1  1.308656E-04 -4.320539E-05 -4.316303E-05  1.452033E-05 -1.261997E-07  1.529320E-09
      9704   1  1.308656E-04 -4.318566E-05 -4.319134E-05  1.331918E-05 -3.183529E-07 -1.529906E-08
      9705   1  1.308656E-04 -4.317761E-05 -4.318791E-05  1.249380E-05 -4.059897E-07  6.064135E-09
      9706   1  1.308656E-04 -4.318802E-05 -4.317656E-05  1.198339E-05 -3.623556E-07  1.626903E-09
      9707   1  1.308656E-04 -4.318793E-05 -4.317828E-05  1.170197E-05 -2.069274E-07  1.319700E-09
      9708   1  1.308656E-04 -4.318857E-05 -4.317501E-05  1.161084E-05 -1.173700E-12  9.990677E-13
      9709   1  1.308656E-04 -4.318793E-05 -4.317828E-05  1.170197E-05  2.069251E-07 -1.317832E-09
      9710   1  1.308656E-04 -4.318801E-05 -4.317656E-05  1.198339E-05  3.623535E-07 -1.625229E-09
      9711   1  1.308656E-04 -4.317761E-05 -4.318791E-05  1.249380E-05  4.059880E-07 -6.062891E-09
      9712   1  1.308656E-04 -4.318566E-05 -4.319134E-05  1.331918E-05  3.183518E-07  1.529987E-08
      9713   1  1.308656E-04 -4.320539E-05 -4.316303E-05  1.452033E-05  1.261994E-07 -1.529095E-09
      9714   1  8.724370E-05 -2.879390E-05 -2.879601E-05  1.772536E-05 -5.843249E-08 -6.089166E-09
      9715   1  8.724370E-05 -2.879353E-05 -2.878477E-05  1.645285E-05 -1.613814E-07  4.898689E-10
      9716   1  8.724370E-05 -2.879018E-05 -2.879068E-05  1.553576E-05 -2.068043E-07 -1.160602E-08
      9717   1  8.724370E-05 -2.878581E-05 -2.879153E-05  1.492193E-05 -1.868190E-07  1.798297E-09
      9718   1  8.724370E-05 -2.879194E-05 -2.878449E-05  1.457597E-05 -1.104251E-07 -1.758153E-09
      9719   1  8.724370E-05 -2.878985E-05 -2.878760E-05  1.446381E-05 -8.376539E-13  1.232365E-12
      9720   1  8.724370E-05 -2.879194E-05 -2.878449E-05  1.457597E-05  1.104234E-07  1.760475E-09
      9721   1  8.724370E-05 -2.878581E-05 -2.879153E-05  1.492194E-05  1.868175E-07 -1.796189E-09
      9722   1  8.724370E-05 -2.879018E-05 -2.879068E-05  1.553577E-05  2.068031E-07  1.160765E-08
      9723   1  8.724370E-05 -2.879353E-05 -2.878477E-05  1.645285E-05  1.613806E-07 -4.887346E-10
      9724   1  8.724370E-05 -2.879390E-05 -2.879601E-05  1.772536E-05  5.843220E-08  6.089550E-09
      9725   1  4.362185E-05 -1.440105E-05 -1.438910E-05  1.962261E-05 -2.573132E-08 -8.046997E-10
      9726   1  4.362185E-05 -1.439554E-05 -1.439713E-05  1.832412E-05 -6.642311E-08 -1.177847E-08
      9727   1  4.362185E-05 -1.439402E-05 -1.439491E-05  1.735703E-05 -8.711337E-08 -8.187561E-10
      9728   1  4.362185E-05 -1.439526E-05 -1.439406E-05  1.669890E-05 -7.935282E-08 -9.153293E-09
      9729   1  4.362185E-05 -1.439318E-05 -1.439552E-05  1.631658E-05 -4.673612E-08  1.589618E-10
      9730   1  4.362185E-05 -1.439594E-05 -1.439228E-05  1.619261E-05 -4.353731E-13  1.375344E-12
      9731   1  4.362185E-05 -1.439318E-05 -1.439552E-05  1.631658E-05  4.673528E-08 -1.563614E-10
      9732   1  4.362185E-05 -1.439526E-05 -1.439406E-05  1.669890E-05  7.935207E-08  9.155665E-09
      9733   1  4.362185E-05 -1.439402E-05 -1.439491E-05  1.735703E-05  8.711275E-08  8.206112E-10
      9734   1  4.362185E-05 -1.439554E-05 -1.439713E-05  1.832412E-05  6.642270E-08  1.177974E-08
      9735   1  4.362185E-05 -1.440105E-05 -1.438910E-05  1.962261E-05  2.573117E-08  8.051055E-10
      9736   1 -1.191801E-13  2.976785E-14  5.202843E-14  2.025232E-05  1.441827E-14 -4.732349E-09
      9737   1 -1.002126E-13  2.133987E-13 -1.601758E-14  1.894418E-05  2.949390E-14 -1.991539E-09
      9738   1 -1.605359E-13  4.516387E-13  1.730016E-14  1.796588E-05  3.313995E-14 -1.259415E-08
      9739   1 -1.674225E-13  6.240009E-13 -4.477049E-14  1.729130E-05  2.724277E-14 -7.713857E-10
      9740   1 -1.990473E-13  7.080031E-13 -5.052287E-15  1.690023E-05  1.656338E-14 -5.231323E-09
      9741   1 -1.800936E-13  7.298745E-13 -5.538298E-14  1.677112E-05 -1.093285E-15  1.423627E-12
      9742   1 -1.997978E-13  7.082807E-13 -4.894208E-15  1.690023E-05 -1.444656E-14  5.234018E-09
      9743   1 -1.724214E-13  6.375317E-13 -4.491764E-14  1.729130E-05 -2.935258E-14  7.738554E-10
      9744   1 -1.827645E-13  5.138806E-13  1.711519E-14  1.796588E-05 -3.339147E-14  1.259611E-08
      9745   1 -1.493852E-13  3.644446E-13 -1.508041E-14  1.894418E-05 -3.138792E-14  1.992919E-09
      9746   1 -1.906138E-13  2.589595E-13  5.107739E-14  2.025233E-05 -1.199634E-14  4.732824E-09
      9747   1 -4.362185E-05  1.440105E-05  1.438910E-05  1.962261E-05  2.573135E-08 -8.047009E-10
      9748   1 -4.362185E-05  1.439554E-05  1.439713E-05  1.832412E-05  6.642319E-08 -1.177847E-08
      9749   1 -4.362185E-05  1.439402E-05  1.439491E-05  1.735703E-05  8.711346E-08 -8.187543E-10
      9750   1 -4.362185E-05  1.439526E-05  1.439406E-05  1.669890E-05  7.935288E-08 -9.153292E-09
      9751   1 -4.362185E-05  1.439317E-05  1.439552E-05  1.631658E-05  4.673616E-08  1.589621E-10
      9752   1 -4.362185E-05  1.439594E-05  1.439228E-05  1.619261E-05  4.312974E-13  1.375336E-12
      9753   1 -4.362185E-05  1.439317E-05  1.439552E-05  1.631658E-05 -4.673531E-08 -1.563619E-10
      9754   1 -4.362185E-05  1.439526E-05  1.439406E-05  1.669890E-05 -7.935213E-08  9.155665E-09
      9755   1 -4.362185E-05  1.439402E-05  1.439491E-05  1.735703E-05 -8.711283E-08  8.206094E-10
      9756   1 -4.362185E-05  1.439554E-05  1.439713E-05  1.832412E-05 -6.642278E-08  1.177974E-08
      9757   1 -4.362185E-05  1.440105E-05  1.438910E-05  1.962261E-05 -2.573120E-08  8.051050E-10
      9758   1 -8.724371E-05  2.879390E-05  2.879601E-05  1.772536E-05  5.843252E-08 -6.089162E-09
      9759   1 -8.724370E-05  2.879354E-05  2.878477E-05  1.645285E-05  1.613814E-07  4.898707E-10
      9760   1 -8.724370E-05  2.879018E-05  2.879068E-05  1.553576E-05  2.068044E-07 -1.160602E-08
      9761   1 -8.724370E-05  2.878582E-05  2.879153E-05  1.492193E-05  1.868190E-07  1.798298E-09
      9762   1 -8.724370E-05  2.879194E-05  2.878450E-05  1.457597E-05  1.104251E-07 -1.758153E-09
      9763   1 -8.724370E-05  2.878985E-05  2.878760E-05  1.446381E-05  8.315777E-13  1.232952E-12
      9764   1 -8.724370E-05  2.879194E-05  2.878450E-05  1.457597E-05 -1.104235E-07  1.760474E-09
      9765   1 -8.724370E-05  2.878582E-05  2.879153E-05  1.492194E-05 -1.868176E-07 -1.796188E-09
      9766   1 -8.724370E-05  2.879018E-05  2.879068E-05  1.553577E-05 -2.068032E-07  1.160765E-08
      9767   1 -8.724370E-05  2.879353E-05  2.878477E-05  1.645285E-05 -1.613806E-07 -4.887355E-10
      9768   1 -8.724370E-05  2.879390E-05  2.879601E-05  1.772536E-05 -5.843223E-08  6.089548E-09
      9769   1 -1.308656E-04  4.320539E-05  4.316303E-05  1.452033E-05  1.261998E-07  1.529315E-09
      9770   1 -1.308656E-04  4.318566E-05  4.319134E-05  1.331918E-05  3.183530E-07 -1.529906E-08
      9771   1 -1.308656E-04  4.317761E-05  4.318792E-05  1.249380E-05  4.059898E-07  6.064139E-09
      9772   1 -1.308656E-04  4.318801E-05  4.317656E-05  1.198339E-05  3.623556E-07  1.626902E-09
      9773   1 -1.308656E-04  4.318793E-05  4.317829E-05  1.170197E-05  2.069275E-07  1.319701E-09
      9774   1 -1.308656E-04  4.318857E-05  4.317501E-05  1.161084E-05  1.168225E-12  9.997036E-13
      9775   1 -1.308656E-04  4.318793E-05  4.317829E-05  1.170197E-05 -2.069252E-07 -1.317834E-09
      9776   1 -1.308656E-04  4.318801E-05  4.317656E-05  1.198339E-05 -3.623536E-07 -1.625227E-09
      9777   1 -1.308656E-04  4.317761E-05  4.318792E-05  1.249380E-05 -4.059881E-07 -6.062895E-09
      9778   1 -1.308656E-04  4.318566E-05  4.319134E-05  1.331918E-05 -3.183519E-07  1.529987E-08
      9779   1 -1.308656E-04  4.320538E-05  4.316303E-05  1.452033E-05 -1.261994E-07 -1.529095E-09
      9780   1 -1.744874E-04  5.758560E-05  5.760173E-05  9.932605E-06  2.312781E-07 -1.435225E-08
      9781   1 -1.744874E-04  5.757257E-05  5.757897E-05  8.856098E-06  6.334130E-07  1.398794E-08
      9782   1 -1.744874E-04  5.758443E-05  5.756585E-05  8.266721E-06  7.743515E-07  9.999680E-09
      9783   1 -1.744874E-04  5.758862E-05  5.756619E-05  7.924962E-06  6.407643E-07  2.938549E-09
      9784   1 -1.744874E-04  5.758472E-05  5.756597E-05  7.736566E-06  3.580897E-07  2.451915E-09
      9785   1 -1.744874E-04  5.759038E-05  5.756496E-05  7.679059E-06  1.423275E-12  6.802690E-13
      9786   1 -1.744874E-04  5.758472E-05  5.756597E-05  7.736566E-06 -3.580870E-07 -2.450679E-09
      9787   1 -1.744874E-04  5.758862E-05  5.756619E-05  7.924963E-06 -6.407619E-07 -2.937428E-09
      9788   1 -1.744874E-04  5.758443E-05  5.756585E-05  8.266722E-06 -7.743496E-07 -9.998901E-09
      9789   1 -1.744874E-04  5.757257E-05  5.757897E-05  8.856099E-06 -6.334117E-07 -1.398745E-08
      9790   1 -1.744874E-04  5.758560E-05  5.760173E-05  9.932606E-06 -2.312776E-07  1.435240E-08
      9791   1 -2.181093E-04  7.201904E-05  7.190983E-05  3.648020E-06  6.234951E-07  2.208361E-08
      9792   1 -2.181093E-04  7.197769E-05  7.194573E-05  3.134943E-06  1.347984E-06  1.359779E-08
      9793   1 -2.181093E-04  7.199837E-05  7.194475E-05  2.938750E-06  1.372504E-06  2.661376E-09
      9794   1 -2.181093E-04  7.197971E-05  7.195628E-05  2.809206E-06  1.070268E-06  3.179711E-09
      9795   1 -2.181093E-04  7.199210E-05  7.195243E-05  2.747208E-06  5.776160E-07  4.481295E-10
      9796   1 -2.181093E-04  7.198036E-05  7.195809E-05  2.724423E-06  1.544249E-12  2.559658E-13
      9797   1 -2.181093E-04  7.199210E-05  7.195243E-05  2.747208E-06 -5.776132E-07 -4.477061E-10
      9798   1 -2.181093E-04  7.197971E-05  7.195628E-05  2.809206E-06 -1.070265E-06 -3.179294E-09
      9799   1 -2.181093E-04  7.199837E-05  7.194475E-05  2.938750E-06 -1.372502E-06 -2.661143E-09
      9800   1 -2.181093E-04  7.197769E-05  7.194573E-05  3.134943E-06 -1.347983E-06 -1.359763E-08
      9801   1 -2.181093E-04  7.201903E-05  7.190983E-05  3.648021E-06 -6.234946E-07 -2.208366E-08
      9802   1  2.135653E-04 -7.051864E-05 -7.041171E-05  3.648020E-06 -6.234951E-07  2.162369E-08
      9803   1  2.135653E-04 -7.047816E-05 -7.044686E-05  3.134943E-06 -1.347984E-06  1.331448E-08
      9804   1  2.135653E-04 -7.049840E-05 -7.044590E-05  2.938750E-06 -1.372504E-06  2.606046E-09
      9805   1  2.135653E-04 -7.048013E-05 -7.045719E-05  2.809206E-06 -1.070268E-06  3.113479E-09
      9806   1  2.135653E-04 -7.049227E-05 -7.045342E-05  2.747208E-06 -5.776165E-07  4.389044E-10
      9807   1  2.135653E-04 -7.048077E-05 -7.045896E-05  2.724423E-06 -1.903212E-12  2.794874E-13
      9808   1  2.135653E-04 -7.049227E-05 -7.045342E-05  2.747208E-06  5.776126E-07 -4.382809E-10
      9809   1  2.135653E-04 -7.048013E-05 -7.045719E-05  2.809206E-06  1.070265E-06 -3.113033E-09
      9810   1  2.135653E-04 -7.049840E-05 -7.044590E-05  2.938750E-06  1.372502E-06 -2.605637E-09
      9811   1  2.135653E-04 -7.047816E-05 -7.044686E-05  3.134944E-06  1.347982E-06 -1.331434E-08
      9812   1  2.135653E-04 -7.051864E-05 -7.041170E-05  3.648020E-06  6.234945E-07 -2.162356E-08
      9813   1  1.708523E-04 -5.638590E-05 -5.640169E-05  9.932605E-06 -2.312781E-07 -1.405327E-08
      9814   1  1.708523E-04 -5.637314E-05 -5.637941E-05  8.856097E-06 -6.334132E-07  1.369653E-08
      9815   1  1.708523E-04 -5.638476E-05 -5.636656E-05  8.266721E-06 -7.743517E-07  9.791489E-09
      9816   1  1.708523E-04 -5.638886E-05 -5.636690E-05  7.924962E-06 -6.407646E-07  2.877439E-09
      9817   1  1.708523E-04 -5.638504E-05 -5.636668E-05  7.736566E-06 -3.580900E-07  2.401046E-09
      9818   1  1.708523E-04 -5.639058E-05 -5.636569E-05  7.679059E-06 -1.810755E-12  8.116075E-13
      9819   1  1.708523E-04 -5.638504E-05 -5.636668E-05  7.736566E-06  3.580865E-07 -2.399409E-09
      9820   1  1.708523E-04 -5.638885E-05 -5.636690E-05  7.924963E-06  6.407615E-07 -2.876111E-09
      9821   1  1.708523E-04 -5.638476E-05 -5.636656E-05  8.266722E-06  7.743491E-07 -9.790437E-09
      9822   1  1.708523E-04 -5.637314E-05 -5.637941E-05  8.856099E-06  6.334115E-07 -1.369601E-08
      9823   1  1.708523E-04 -5.638590E-05 -5.640169E-05  9.932607E-06  2.312775E-07  1.405344E-08
      9824   1  1.281392E-04 -4.230527E-05 -4.226380E-05  1.452033E-05 -1.261998E-07  1.497580E-09
      9825   1  1.281392E-04 -4.228596E-05 -4.229152E-05  1.331918E-05 -3.183531E-07 -1.498020E-08
      9826   1  1.281392E-04 -4.227807E-05 -4.228817E-05  1.249380E-05 -4.059899E-07  5.938026E-09
      9827   1  1.281392E-04 -4.228826E-05 -4.227705E-05  1.198339E-05 -3.623559E-07  1.593214E-09
      9828   1  1.281392E-04 -4.228818E-05 -4.227874E-05  1.170197E-05 -2.069277E-07  1.292494E-09
      9829   1  1.281392E-04 -4.228881E-05 -4.227553E-05  1.161084E-05 -1.521669E-12  1.215881E-12
      9830   1  1.281392E-04 -4.228818E-05 -4.227874E-05  1.170197E-05  2.069248E-07 -1.290091E-09
      9831   1  1.281392E-04 -4.228826E-05 -4.227705E-05  1.198339E-05  3.623533E-07 -1.591170E-09
      9832   1  1.281392E-04 -4.227807E-05 -4.228817E-05  1.249380E-05  4.059878E-07 -5.936369E-09
      9833   1  1.281392E-04 -4.228596E-05 -4.229152E-05  1.331918E-05  3.183517E-07  1.498122E-08
      9834   1  1.281392E-04 -4.230527E-05 -4.226380E-05  1.452033E-05  1.261993E-07 -1.497160E-09
      9835   1  8.542613E-05 -2.819403E-05 -2.819609E-05  1.772536E-05 -5.843251E-08 -5.962273E-09
      9836   1  8.542613E-05 -2.819367E-05 -2.818509E-05  1.645285E-05 -1.613815E-07  4.797387E-10
      9837   1  8.542613E-05 -2.819039E-05 -2.819088E-05  1.553576E-05 -2.068045E-07 -1.136399E-08
      9838   1  8.542613E-05 -2.818611E-05 -2.819171E-05  1.492193E-05 -1.868192E-07  1.761074E-09
      9839   1  8.542613E-05 -2.819211E-05 -2.818482E-05  1.457597E-05 -1.104253E-07 -1.721183E-09
      9840   1  8.542613E-05 -2.819006E-05 -2.818786E-05  1.446381E-05 -1.080937E-12  1.499724E-12
      9841   1  8.542613E-05 -2.819211E-05 -2.818482E-05  1.457597E-05  1.104232E-07  1.724144E-09
      9842   1  8.542613E-05 -2.818611E-05 -2.819170E-05  1.492194E-05  1.868173E-07 -1.758516E-09
      9843   1  8.542613E-05 -2.819039E-05 -2.819088E-05  1.553577E-05  2.068030E-07  1.136609E-08
      9844   1  8.542613E-05 -2.819367E-05 -2.818509E-05  1.645285E-05  1.613805E-07 -4.784323E-10
      9845   1  8.542613E-05 -2.819403E-05 -2.819609E-05  1.772536E-05  5.843215E-08  5.962768E-09
      9846   1  4.271306E-05 -1.410103E-05 -1.408933E-05  1.962261E-05 -2.573134E-08 -7.877905E-10
      9847   1  4.271306E-05 -1.409563E-05 -1.409719E-05  1.832412E-05 -6.642318E-08 -1.153289E-08
      9848   1  4.271306E-05 -1.409414E-05 -1.409502E-05  1.735703E-05 -8.711345E-08 -8.013887E-10
      9849   1  4.271306E-05 -1.409536E-05 -1.409418E-05  1.669890E-05 -7.935293E-08 -8.962314E-09
      9850   1  4.271306E-05 -1.409332E-05 -1.409561E-05  1.631658E-05 -4.673624E-08  1.560293E-10
      9851   1  4.271306E-05 -1.409603E-05 -1.409244E-05  1.619261E-05 -5.597876E-13  1.669952E-12
      9852   1  4.271306E-05 -1.409332E-05 -1.409561E-05  1.631658E-05  4.673516E-08 -1.527235E-10
      9853   1  4.271306E-05 -1.409536E-05 -1.409418E-05  1.669890E-05  7.935196E-08  8.965203E-09
      9854   1  4.271306E-05 -1.409414E-05 -1.409502E-05  1.735703E-05  8.711267E-08  8.038091E-10
      9855   1  4.271306E-05 -1.409563E-05 -1.409719E-05  1.832412E-05  6.642265E-08  1.153448E-08
      9856   1  4.271306E-05 -1.410102E-05 -1.408933E-05  1.962261E-05  2.573115E-08  7.884388E-10
      9857   1 -9.711264E-14  4.019007E-14  2.081133E-14  2.025232E-05  1.547082E-14 -4.633708E-09
      9858   1 -3.098325E-15 -2.232242E-13  5.523072E-14  1.894418E-05  4.139499E-14 -1.949952E-09
      9859   1  1.662917E-13 -5.423301E-13 -1.869073E-14  1.796588E-05  4.329482E-14 -1.233150E-08
      9860   1  2.488277E-13 -7.693290E-13  2.184816E-14  1.729130E-05  3.322757E-14 -7.550343E-10
      9861   1  3.270507E-13 -8.801571E-13 -3.697955E-14  1.690023E-05  1.518621E-14 -5.121948E-09
      9862   1  3.197449E-13 -9.090784E-13  1.338921E-14  1.677112E-05  1.685476E-15  1.728510E-12
      9863   1  3.279189E-13 -8.800460E-13 -3.735679E-14  1.690023E-05 -1.831612E-14  5.125368E-09
      9864   1  2.543182E-13 -7.851220E-13  2.237578E-14  1.729130E-05 -3.014893E-14  7.580258E-10
      9865   1  1.931101E-13 -6.168399E-13 -1.861770E-14  1.796588E-05 -4.327462E-14  1.233399E-08
      9866   1  5.673999E-14 -4.082290E-13  5.439275E-14  1.894418E-05 -3.876743E-14  1.951546E-09
      9867   1 -9.447738E-15 -2.431666E-13  2.251101E-14  2.025233E-05 -1.847844E-14  4.634322E-09
      9868   1 -4.271306E-05  1.410103E-05  1.408933E-05  1.962261E-05  2.573137E-08 -7.877874E-10
      9869   1 -4.271306E-05  1.409563E-05  1.409719E-05  1.832412E-05  6.642324E-08 -1.153289E-08
      9870   1 -4.271306E-05  1.409414E-05  1.409502E-05  1.735703E-05  8.711351E-08 -8.013877E-10
      9871   1 -4.271306E-05  1.409536E-05  1.409418E-05  1.669890E-05  7.935300E-08 -8.962314E-09
      9872   1 -4.271306E-05  1.409332E-05  1.409561E-05  1.631658E-05  4.673626E-08  1.560297E-10
      9873   1 -4.271306E-05  1.409603E-05  1.409244E-05  1.619261E-05  5.653570E-13  1.669771E-12
      9874   1 -4.271306E-05  1.409332E-05  1.409561E-05  1.631658E-05 -4.673520E-08 -1.527237E-10
      9875   1 -4.271306E-05  1.409536E-05  1.409418E-05  1.669890E-05 -7.935201E-08  8.965202E-09
      9876   1 -4.271306E-05  1.409414E-05  1.409502E-05  1.735703E-05 -8.711274E-08  8.038085E-10
      9877   1 -4.271306E-05  1.409563E-05  1.409719E-05  1.832412E-05 -6.642271E-08  1.153447E-08
      9878   1 -4.271306E-05  1.410103E-05  1.408933E-05  1.962261E-05 -2.573118E-08  7.884380E-10
      9879   1 -8.542613E-05  2.819403E-05  2.819609E-05  1.772536E-05  5.843254E-08 -5.962276E-09
      9880   1 -8.542613E-05  2.819367E-05  2.818509E-05  1.645285E-05  1.613816E-07  4.797414E-10
      9881   1 -8.542613E-05  2.819039E-05  2.819088E-05  1.553576E-05  2.068045E-07 -1.136398E-08
      9882   1 -8.542613E-05  2.818611E-05  2.819171E-05  1.492193E-05  1.868193E-07  1.761075E-09
      9883   1 -8.542613E-05  2.819211E-05  2.818482E-05  1.457597E-05  1.104253E-07 -1.721182E-09
      9884   1 -8.542613E-05  2.819006E-05  2.818786E-05  1.446381E-05  1.088111E-12  1.498585E-12
      9885   1 -8.542613E-05  2.819210E-05  2.818482E-05  1.457597E-05 -1.104232E-07  1.724144E-09
      9886   1 -8.542613E-05  2.818611E-05  2.819171E-05  1.492194E-05 -1.868174E-07 -1.758518E-09
      9887   1 -8.542613E-05  2.819039E-05  2.819087E-05  1.553577E-05 -2.068030E-07  1.136608E-08
      9888   1 -8.542613E-05  2.819367E-05  2.818509E-05  1.645285E-05 -1.613806E-07 -4.784364E-10
      9889   1 -8.542612E-05  2.819403E-05  2.819609E-05  1.772536E-05 -5.843219E-08  5.962769E-09
      9890   1 -1.281392E-04  4.230527E-05  4.226380E-05  1.452033E-05  1.261998E-07  1.497589E-09
      9891   1 -1.281392E-04  4.228596E-05  4.229152E-05  1.331918E-05  3.183532E-07 -1.498020E-08
      9892   1 -1.281392E-04  4.227808E-05  4.228817E-05  1.249380E-05  4.059899E-07  5.938024E-09
      9893   1 -1.281392E-04  4.228827E-05  4.227705E-05  1.198339E-05  3.623560E-07  1.593216E-09
      9894   1 -1.281392E-04  4.228818E-05  4.227874E-05  1.170197E-05  2.069277E-07  1.292493E-09
      9895   1 -1.281392E-04  4.228881E-05  4.227553E-05  1.161084E-05  1.526001E-12  1.214681E-12
      9896   1 -1.281392E-04  4.228818E-05  4.227874E-05  1.170197E-05 -2.069248E-07 -1.290088E-09
      9897   1 -1.281392E-04  4.228826E-05  4.227705E-05  1.198339E-05 -3.623533E-07 -1.591174E-09
      9898   1 -1.281392E-04  4.227807E-05  4.228816E-05  1.249380E-05 -4.059878E-07 -5.936366E-09
      9899   1 -1.281392E-04  4.228596E-05  4.229152E-05  1.331918E-05 -3.183518E-07  1.498121E-08
      9900   1 -1.281392E-04  4.230527E-05  4.226380E-05  1.452033E-05 -1.261993E-07 -1.497163E-09
      9901   1 -1.708523E-04  5.638590E-05  5.640169E-05  9.932605E-06  2.312781E-07 -1.405328E-08
      9902   1 -1.708523E-04  5.637314E-05  5.637941E-05  8.856097E-06  6.334134E-07  1.369654E-08
      9903   1 -1.708523E-04  5.638476E-05  5.636656E-05  8.266721E-06  7.743517E-07  9.791491E-09
      9904   1 -1.708523E-04  5.638885E-05  5.636690E-05  7.924962E-06  6.407648E-07  2.877437E-09
      9905   1 -1.708523E-04  5.638504E-05  5.636667E-05  7.736566E-06  3.580901E-07  2.401047E-09
      9906   1 -1.708523E-04  5.639058E-05  5.636569E-05  7.679059E-06  1.807744E-12  8.108223E-13
      9907   1 -1.708523E-04  5.638504E-05  5.636667E-05  7.736566E-06 -3.580865E-07 -2.399409E-09
      9908   1 -1.708523E-04  5.638885E-05  5.636690E-05  7.924963E-06 -6.407616E-07 -2.876111E-09
      9909   1 -1.708523E-04  5.638475E-05  5.636655E-05  8.266722E-06 -7.743491E-07 -9.790439E-09
      9910   1 -1.708523E-04  5.637314E-05  5.637941E-05  8.856099E-06 -6.334117E-07 -1.369602E-08
      9911   1 -1.708522E-04  5.638590E-05  5.640169E-05  9.932607E-06 -2.312775E-07  1.405345E-08
      9912   1 -2.135653E-04  7.051864E-05  7.041170E-05  3.648020E-06  6.234952E-07  2.162376E-08
      9913   1 -2.135653E-04  7.047816E-05  7.044686E-05  3.134943E-06  1.347984E-06  1.331444E-08
      9914   1 -2.135653E-04  7.049840E-05  7.044590E-05  2.938750E-06  1.372505E-06  2.606070E-09
      9915   1 -2.135653E-04  7.048013E-05  7.045719E-05  2.809206E-06  1.070268E-06  3.113463E-09
      9916   1 -2.135653E-04  7.049227E-05  7.045342E-05  2.747208E-06  5.776165E-07  4.389105E-10
      9917   1 -2.135653E-04  7.048077E-05  7.045896E-05  2.724423E-06  1.891958E-12  2.797918E-13
      9918   1 -2.135653E-04  7.049227E-05  7.045342E-05  2.747208E-06 -5.776126E-07 -4.382877E-10
      9919   1 -2.135653E-04  7.048013E-05  7.045719E-05  2.809206E-06 -1.070265E-06 -3.113017E-09
      9920   1 -2.135653E-04  7.049840E-05  7.044590E-05  2.938750E-06 -1.372502E-06 -2.605661E-09
      9921   1 -2.135653E-04  7.047816E-05  7.044686E-05  3.134944E-06 -1.347983E-06 -1.331430E-08
      9922   1 -2.135653E-04  7.051864E-05  7.041170E-05  3.648020E-06 -6.234945E-07 -2.162362E-08
      9923   1  2.090214E-04 -6.901824E-05 -6.891358E-05  3.648020E-06 -6.234952E-07  2.116347E-08
      9924   1  2.090214E-04 -6.897862E-05 -6.894799E-05  3.134943E-06 -1.347984E-06  1.303125E-08
      9925   1  2.090214E-04 -6.899844E-05 -6.894705E-05  2.938750E-06 -1.372505E-06  2.550567E-09
      9926   1  2.090214E-04 -6.898056E-05 -6.895810E-05  2.809206E-06 -1.070269E-06  3.047351E-09
      9927   1  2.090214E-04 -6.899243E-05 -6.895441E-05  2.747208E-06 -5.776170E-07  4.295836E-10
      9928   1  2.090214E-04 -6.898118E-05 -6.895983E-05  2.724423E-06 -2.642392E-12  4.072915E-13
      9929   1  2.090214E-04 -6.899243E-05 -6.895441E-05  2.747208E-06  5.776122E-07 -4.289339E-10
      9930   1  2.090214E-04 -6.898056E-05 -6.895810E-05  2.809206E-06  1.070264E-06 -3.046674E-09
      9931   1  2.090214E-04 -6.899843E-05 -6.894705E-05  2.938750E-06  1.372501E-06 -2.550204E-09
      9932   1  2.090214E-04 -6.897862E-05 -6.894799E-05  3.134944E-06  1.347982E-06 -1.303097E-08
      9933   1  2.090214E-04 -6.901824E-05 -6.891358E-05  3.648021E-06  6.234944E-07 -2.116355E-08
      9934   1  1.672171E-04 -5.518620E-05 -5.520166E-05  9.932604E-06 -2.312782E-07 -1.375419E-08
      9935   1  1.672171E-04 -5.517372E-05 -5.517985E-05  8.856097E-06 -6.334134E-07  1.340530E-08
      9936   1  1.672171E-04 -5.518508E-05 -5.516727E-05  8.266721E-06 -7.743520E-07  9.583273E-09
      9937   1  1.672171E-04 -5.518909E-05 -5.516760E-05  7.924962E-06 -6.407651E-07  2.816459E-09
      9938   1  1.672171E-04 -5.518536E-05 -5.516738E-05  7.736566E-06 -3.580905E-07  2.350114E-09
      9939   1  1.672171E-04 -5.519078E-05 -5.516642E-05  7.679059E-06 -2.370574E-12  1.061227E-12
      9940   1  1.672171E-04 -5.518536E-05 -5.516738E-05  7.736566E-06  3.580860E-07 -2.348205E-09
      9941   1  1.672171E-04 -5.518909E-05 -5.516760E-05  7.924963E-06  6.407610E-07 -2.814684E-09
      9942   1  1.672171E-04 -5.518508E-05 -5.516727E-05  8.266723E-06  7.743488E-07 -9.582036E-09
      9943   1  1.672171E-04 -5.517371E-05 -5.517985E-05  8.856099E-06  6.334112E-07 -1.340447E-08
      9944   1  1.672171E-04 -5.518620E-05 -5.520165E-05  9.932607E-06  2.312774E-07  1.375442E-08
      9945   1  1.254128E-04 -4.140516E-05 -4.136457E-05  1.452033E-05 -1.261999E-07  1.465650E-09
      9946   1  1.254128E-04 -4.138626E-05 -4.139170E-05  1.331918E-05 -3.183533E-07 -1.466136E-08
      9947   1  1.254128E-04 -4.137854E-05 -4.138842E-05  1.249380E-05 -4.059902E-07  5.811827E-09
      9948   1  1.254128E-04 -4.138852E-05 -4.137754E-05  1.198339E-05 -3.623562E-07  1.559611E-09
      9949   1  1.254128E-04 -4.138843E-05 -4.137919E-05  1.170197E-05 -2.069281E-07  1.265246E-09
      9950   1  1.254128E-04 -4.138905E-05 -4.137605E-05  1.161084E-05 -1.912313E-12  1.538768E-12
      9951   1  1.254128E-04 -4.138843E-05 -4.137919E-05  1.170197E-05  2.069244E-07 -1.262386E-09
      9952   1  1.254128E-04 -4.138851E-05 -4.137754E-05  1.198339E-05  3.623529E-07 -1.557006E-09
      9953   1  1.254128E-04 -4.137854E-05 -4.138842E-05  1.249380E-05  4.059875E-07 -5.809889E-09
      9954   1  1.254128E-04 -4.138626E-05 -4.139170E-05  1.331919E-05  3.183515E-07  1.466265E-08
      9955   1  1.254128E-04 -4.140516E-05 -4.136457E-05  1.452033E-05  1.261992E-07 -1.465304E-09
      9956   1  8.360855E-05 -2.759416E-05 -2.759618E-05  1.772536E-05 -5.843258E-08 -5.835323E-09
      9957   1  8.360855E-05 -2.759380E-05 -2.758541E-05  1.645285E-05 -1.613816E-07  4.698209E-10
      9958   1  8.360855E-05 -2.759059E-05 -2.759107E-05  1.553576E-05 -2.068047E-07 -1.112195E-08
      9959   1  8.360855E-05 -2.758641E-05 -2.759188E-05  1.492193E-05 -1.868194E-07  1.723978E-09
      9960   1  8.360855E-05 -2.759227E-05 -2.758514E-05  1.457597E-05 -1.104256E-07 -1.684249E-09
      9961   1  8.360855E-05 -2.759027E-05 -2.758811E-05  1.446381E-05 -1.347485E-12  1.880385E-12
      9962   1  8.360855E-05 -2.759227E-05 -2.758514E-05  1.457597E-05  1.104229E-07  1.687774E-09
      9963   1  8.360855E-05 -2.758640E-05 -2.759188E-05  1.492194E-05  1.868171E-07 -1.720730E-09
      9964   1  8.360855E-05 -2.759059E-05 -2.759107E-05  1.553577E-05  2.068028E-07  1.112448E-08
      9965   1  8.360855E-05 -2.759380E-05 -2.758541E-05  1.645285E-05  1.613803E-07 -4.680165E-10
      9966   1  8.360855E-05 -2.759415E-05 -2.759618E-05  1.772537E-05  5.843211E-08  5.835930E-09
      9967   1  4.180428E-05 -1.380100E-05 -1.378956E-05  1.962261E-05 -2.573136E-08 -7.710699E-10
      9968   1  4.180428E-05 -1.379573E-05 -1.379725E-05  1.832412E-05 -6.642324E-08 -1.128733E-08
      9969   1  4.180428E-05 -1.379427E-05 -1.379512E-05  1.735703E-05 -8.711355E-08 -7.841250E-10
      9970   1  4.180428E-05 -1.379546E-05 -1.379430E-05  1.669890E-05 -7.935305E-08 -8.771235E-09
      9971   1  4.180428E-05 -1.379346E-05 -1.379571E-05  1.631658E-05 -4.673638E-08  1.530502E-10
      9972   1  4.180428E-05 -1.379611E-05 -1.379260E-05  1.619261E-05 -6.949154E-13  2.086437E-12
      9973   1  4.180427E-05 -1.379346E-05 -1.379571E-05  1.631658E-05  4.673502E-08 -1.491272E-10
      9974   1  4.180427E-05 -1.379546E-05 -1.379430E-05  1.669890E-05  7.935184E-08  8.774864E-09
      9975   1  4.180427E-05 -1.379427E-05 -1.379512E-05  1.735703E-05  8.711256E-08  7.869582E-10
      9976   1  4.180427E-05 -1.379573E-05 -1.379725E-05  1.832412E-05  6.642257E-08  1.128931E-08
      9977   1  4.180427E-05 -1.380100E-05 -1.378956E-05  1.962261E-05  2.573112E-08  7.716836E-10
      9978   1 -1.674950E-13 -4.905798E-14  1.099987E-13  2.025232E-05  1.671582E-14 -4.535019E-09
      9979   1 -1.409659E-13  2.398082E-13  2.184455E-14  1.894418E-05  2.822668E-14 -1.908130E-09
      9980   1 -2.324011E-13  6.101786E-13  6.352404E-14  1.796588E-05  2.685401E-14 -1.206884E-08
      9981   1 -2.617349E-13  8.741896E-13 -2.318256E-15  1.729130E-05  1.738764E-14 -7.385467E-10
      9982   1 -3.134221E-13  9.998946E-13  5.293307E-14  1.690023E-05  1.165628E-14 -5.012616E-09
      9983   1 -2.942542E-13  1.031911E-12 -4.179412E-15  1.677112E-05 -2.483072E-15  2.155017E-12
      9984   1 -3.144162E-13  9.996309E-13  5.340137E-14  1.690023E-05 -6.679286E-15  5.016675E-09
      9985   1 -2.675222E-13  8.913842E-13 -3.013775E-15  1.729130E-05 -2.173861E-14  7.423176E-10
      9986   1 -2.646920E-13  6.988160E-13  6.373725E-14  1.796588E-05 -2.615195E-14  1.207183E-08
      9987   1 -2.138882E-13  4.653777E-13  2.288828E-14  1.894418E-05 -3.183144E-14  1.910295E-09
      9988   1 -2.755634E-13  3.001766E-13  1.082480E-13  2.025233E-05 -1.289947E-14  4.535756E-09
      9989   1 -4.180428E-05  1.380100E-05  1.378956E-05  1.962261E-05  2.573139E-08 -7.710709E-10
      9990   1 -4.180428E-05  1.379573E-05  1.379725E-05  1.832412E-05  6.642331E-08 -1.128733E-08
      9991   1 -4.180428E-05  1.379427E-05  1.379512E-05  1.735703E-05  8.711364E-08 -7.841213E-10
      9992   1 -4.180427E-05  1.379546E-05  1.379430E-05  1.669890E-05  7.935309E-08 -8.771234E-09
      9993   1 -4.180427E-05  1.379346E-05  1.379571E-05  1.631658E-05  4.673641E-08  1.530503E-10
      9994   1 -4.180427E-05  1.379611E-05  1.379260E-05  1.619261E-05  6.872977E-13  2.086737E-12
      9995   1 -4.180427E-05  1.379346E-05  1.379571E-05  1.631658E-05 -4.673504E-08 -1.491283E-10
      9996   1 -4.180427E-05  1.379546E-05  1.379430E-05  1.669890E-05 -7.935189E-08  8.774863E-09
      9997   1 -4.180427E-05  1.379427E-05  1.379512E-05  1.735703E-05 -8.711263E-08  7.869542E-10
      9998   1 -4.180427E-05  1.379572E-05  1.379725E-05  1.832412E-05 -6.642265E-08  1.128931E-08
      9999   1 -4.180427E-05  1.380100E-05  1.378956E-05  1.962261E-05 -2.573115E-08  7.716816E-10
     10000   1 -8.360855E-05  2.759416E-05  2.759618E-05  1.772536E-05  5.843262E-08 -5.835315E-09
     10001   1 -8.360855E-05  2.759380E-05  2.758541E-05  1.645285E-05  1.613816E-07  4.698266E-10
     10002   1 -8.360855E-05  2.759059E-05  2.759107E-05  1.553576E-05  2.068048E-07 -1.112195E-08
     10003   1 -8.360855E-05  2.758641E-05  2.759188E-05  1.492193E-05  1.868194E-07  1.723980E-09
     10004   1 -8.360855E-05  2.759227E-05  2.758514E-05  1.457597E-05  1.104256E-07 -1.684251E-09
     10005   1 -8.360855E-05  2.759027E-05  2.758811E-05  1.446381E-05  1.339057E-12  1.881994E-12
     10006   1 -8.360855E-05  2.759227E-05  2.758514E-05  1.457597E-05 -1.104230E-07  1.687772E-09
     10007   1 -8.360855E-05  2.758641E-05  2.759188E-05  1.492194E-05 -1.868171E-07 -1.720730E-09
     10008   1 -8.360855E-05  2.759059E-05  2.759107E-05  1.553577E-05 -2.068028E-07  1.112447E-08
     10009   1 -8.360855E-05  2.759380E-05  2.758541E-05  1.645285E-05 -1.613804E-07 -4.680202E-10
     10010   1 -8.360855E-05  2.759415E-05  2.759618E-05  1.772537E-05 -5.843214E-08  5.835925E-09
     10011   1 -1.254128E-04  4.140516E-05  4.136457E-05  1.452033E-05  1.261999E-07  1.465643E-09
     10012   1 -1.254128E-04  4.138626E-05  4.139170E-05  1.331918E-05  3.183533E-07 -1.466135E-08
     10013   1 -1.254128E-04  4.137854E-05  4.138842E-05  1.249380E-05  4.059903E-07  5.811833E-09
     10014   1 -1.254128E-04  4.138851E-05  4.137754E-05  1.198339E-05  3.623562E-07  1.559609E-09
     10015   1 -1.254128E-04  4.138843E-05  4.137919E-05  1.170197E-05  2.069282E-07  1.265245E-09
     10016   1 -1.254128E-04  4.138905E-05  4.137605E-05  1.161084E-05  1.910274E-12  1.540498E-12
     10017   1 -1.254128E-04  4.138843E-05  4.137919E-05  1.170198E-05 -2.069244E-07 -1.262389E-09
     10018   1 -1.254128E-04  4.138851E-05  4.137754E-05  1.198339E-05 -3.623529E-07 -1.557002E-09
     10019   1 -1.254128E-04  4.137854E-05  4.138842E-05  1.249380E-05 -4.059876E-07 -5.809898E-09
     10020   1 -1.254128E-04  4.138626E-05  4.139170E-05  1.331919E-05 -3.183515E-07  1.466265E-08
     10021   1 -1.254128E-04  4.140516E-05  4.136457E-05  1.452033E-05 -1.261993E-07 -1.465306E-09
     10022   1 -1.672171E-04  5.518620E-05  5.520166E-05  9.932604E-06  2.312783E-07 -1.375417E-08
     10023   1 -1.672171E-04  5.517372E-05  5.517985E-05  8.856097E-06  6.334134E-07  1.340529E-08
     10024   1 -1.672171E-04  5.518508E-05  5.516727E-05  8.266721E-06  7.743521E-07  9.583270E-09
     10025   1 -1.672171E-04  5.518909E-05  5.516760E-05  7.924962E-06  6.407651E-07  2.816459E-09
     10026   1 -1.672171E-04  5.518536E-05  5.516739E-05  7.736566E-06  3.580905E-07  2.350110E-09
     10027   1 -1.672171E-04  5.519078E-05  5.516642E-05  7.679059E-06  2.380742E-12  1.062110E-12
     10028   1 -1.672171E-04  5.518536E-05  5.516739E-05  7.736566E-06 -3.580861E-07 -2.348203E-09
     10029   1 -1.672171E-04  5.518909E-05  5.516760E-05  7.924963E-06 -6.407610E-07 -2.814683E-09
     10030   1 -1.672171E-04  5.518508E-05  5.516727E-05  8.266723E-06 -7.743489E-07 -9.582035E-09
     10031   1 -1.672171E-04  5.517371E-05  5.517984E-05  8.856099E-06 -6.334112E-07 -1.340447E-08
     10032   1 -1.672171E-04  5.518620E-05  5.520166E-05  9.932607E-06 -2.312774E-07  1.375441E-08
     10033   1 -2.090214E-04  6.901824E-05  6.891359E-05  3.648020E-06  6.234952E-07  2.116339E-08
     10034   1 -2.090214E-04  6.897862E-05  6.894799E-05  3.134943E-06  1.347985E-06  1.303130E-08
     10035   1 -2.090214E-04  6.899843E-05  6.894705E-05  2.938750E-06  1.372505E-06  2.550536E-09
     10036   1 -2.090214E-04  6.898055E-05  6.895810E-05  2.809206E-06  1.070269E-06  3.047367E-09
     10037   1 -2.090214E-04  6.899243E-05  6.895441E-05  2.747208E-06  5.776170E-07  4.295746E-10
     10038   1 -2.090214E-04  6.898118E-05  6.895983E-05  2.724423E-06  2.664287E-12  4.067311E-13
     10039   1 -2.090214E-04  6.899243E-05  6.895441E-05  2.747208E-06 -5.776123E-07 -4.289238E-10
     10040   1 -2.090214E-04  6.898055E-05  6.895810E-05  2.809206E-06 -1.070264E-06 -3.046692E-09
     10041   1 -2.090214E-04  6.899843E-05  6.894705E-05  2.938750E-06 -1.372502E-06 -2.550174E-09
     10042   1 -2.090214E-04  6.897862E-05  6.894799E-05  3.134944E-06 -1.347982E-06 -1.303102E-08
     10043   1 -2.090214E-04  6.901824E-05  6.891359E-05  3.648021E-06 -6.234945E-07 -2.116348E-08
     10044   1  2.044774E-04 -6.751785E-05 -6.741546E-05  3.648020E-06 -6.234954E-07  2.070362E-08
     10045   1  2.044774E-04 -6.747909E-05 -6.744912E-05  3.134943E-06 -1.347985E-06  1.274794E-08
     10046   1  2.044774E-04 -6.749847E-05 -6.744820E-05  2.938750E-06 -1.372506E-06  2.495297E-09
     10047   1  2.044774E-04 -6.748098E-05 -6.745901E-05  2.809206E-06 -1.070269E-06  2.981106E-09
     10048   1  2.044774E-04 -6.749260E-05 -6.745540E-05  2.747208E-06 -5.776179E-07  4.204135E-10
     10049   1  2.044774E-04 -6.748159E-05 -6.746071E-05  2.724423E-06 -3.159274E-12  4.103378E-13
     10050   1  2.044774E-04 -6.749259E-05 -6.745540E-05  2.747208E-06  5.776113E-07 -4.194466E-10
     10051   1  2.044774E-04 -6.748098E-05 -6.745901E-05  2.809206E-06  1.070264E-06 -2.980442E-09
     10052   1  2.044774E-04 -6.749847E-05 -6.744820E-05  2.938750E-06  1.372501E-06 -2.494626E-09
     10053   1  2.044774E-04 -6.747908E-05 -6.744912E-05  3.134944E-06  1.347982E-06 -1.274773E-08
     10054   1  2.044774E-04 -6.751784E-05 -6.741546E-05  3.648021E-06  6.234942E-07 -2.070337E-08
     10055   1  1.635819E-04 -5.398650E-05 -5.400162E-05  9.932605E-06 -2.312783E-07 -1.345521E-08
     10056   1  1.635819E-04 -5.397429E-05 -5.398029E-05  8.856097E-06 -6.334138E-07  1.311384E-08
     10057   1  1.635819E-04 -5.398541E-05 -5.396798E-05  8.266720E-06 -7.743525E-07  9.375140E-09
     10058   1  1.635819E-04 -5.398933E-05 -5.396831E-05  7.924962E-06 -6.407656E-07  2.755350E-09
     10059   1  1.635819E-04 -5.398568E-05 -5.396809E-05  7.736566E-06 -3.580912E-07  2.299327E-09
     10060   1  1.635819E-04 -5.399098E-05 -5.396715E-05  7.679059E-06 -2.925170E-12  1.200599E-12
     10061   1  1.635819E-04 -5.398568E-05 -5.396809E-05  7.736566E-06  3.580854E-07 -2.296850E-09
     10062   1  1.635819E-04 -5.398933E-05 -5.396830E-05  7.924963E-06  6.407605E-07 -2.753358E-09
     10063   1  1.635819E-04 -5.398540E-05 -5.396798E-05  8.266723E-06  7.743483E-07 -9.373496E-09
     10064   1  1.635819E-04 -5.397428E-05 -5.398028E-05  8.856100E-06  6.334110E-07 -1.311303E-08
     10065   1  1.635819E-04 -5.398650E-05 -5.400162E-05  9.932607E-06  2.312773E-07  1.345549E-08
     10066   1  1.226865E-04 -4.050505E-05 -4.046534E-05  1.452033E-05 -1.262000E-07  1.434012E-09
     10067   1  1.226865E-04 -4.048656E-05 -4.049188E-05  1.331918E-05 -3.183535E-07 -1.434245E-08
     10068   1  1.226865E-04 -4.047901E-05 -4.048867E-05  1.249380E-05 -4.059905E-07  5.685816E-09
     10069   1  1.226865E-04 -4.048876E-05 -4.047803E-05  1.198339E-05 -3.623567E-07  1.525952E-09
     10070   1  1.226865E-04 -4.048868E-05 -4.047964E-05  1.170197E-05 -2.069286E-07  1.238126E-09
     10071   1  1.226865E-04 -4.048929E-05 -4.047657E-05  1.161084E-05 -2.414282E-12  1.782691E-12
     10072   1  1.226865E-04 -4.048868E-05 -4.047964E-05  1.170198E-05  2.069240E-07 -1.234553E-09
     10073   1  1.226865E-04 -4.048876E-05 -4.047803E-05  1.198339E-05  3.623525E-07 -1.522918E-09
     10074   1  1.226865E-04 -4.047901E-05 -4.048867E-05  1.249380E-05  4.059872E-07 -5.683281E-09
     10075   1  1.226865E-04 -4.048656E-05 -4.049188E-05  1.331919E-05  3.183513E-07  1.434401E-08
     10076   1  1.226865E-04 -4.050505E-05 -4.046534E-05  1.452034E-05  1.261991E-07 -1.433318E-09
     10077   1  8.179098E-05 -2.699428E-05 -2.699626E-05  1.772536E-05 -5.843261E-08 -5.708430E-09
     10078   1  8.179097E-05 -2.699394E-05 -2.698573E-05  1.645285E-05 -1.613818E-07  4.596482E-10
     10079   1  8.179097E-05 -2.699080E-05 -2.699126E-05  1.553576E-05 -2.068049E-07 -1.087986E-08
     10080   1  8.179097E-05 -2.698670E-05 -2.699206E-05  1.492193E-05 -1.868197E-07  1.686772E-09
     10081   1  8.179097E-05 -2.699244E-05 -2.698546E-05  1.457597E-05 -1.104259E-07 -1.647189E-09
     10082   1  8.179097E-05 -2.699048E-05 -2.698837E-05  1.446381E-05 -1.691066E-12  2.175609E-12
     10083   1  8.179097E-05 -2.699244E-05 -2.698546E-05  1.457597E-05  1.104226E-07  1.651540E-09
     10084   1  8.179097E-05 -2.698670E-05 -2.699206E-05  1.492194E-05  1.868168E-07 -1.683025E-09
     10085   1  8.179097E-05 -2.699080E-05 -2.699126E-05  1.553577E-05  2.068025E-07  1.088301E-08
     10086   1  8.179097E-05 -2.699394E-05 -2.698572E-05  1.645285E-05  1.613802E-07 -4.577019E-10
     10087   1  8.179097E-05 -2.699428E-05 -2.699626E-05  1.772537E-05  5.843204E-08  5.709194E-09
     10088   1  4.089549E-05 -1.350098E-05 -1.348978E-05  1.962261E-05 -2.573140E-08 -7.540573E-10
     10089   1  4.089549E-05 -1.349582E-05 -1.349731E-05  1.832412E-05 -6.642334E-08 -1.104170E-08
     10090   1  4.089549E-05 -1.349439E-05 -1.349523E-05  1.735702E-05 -8.711369E-08 -7.666461E-10
     10091   1  4.089549E-05 -1.349556E-05 -1.349443E-05  1.669890E-05 -7.935323E-08 -8.580230E-09
     10092   1  4.089549E-05 -1.349360E-05 -1.349580E-05  1.631658E-05 -4.673655E-08  1.502123E-10
     10093   1  4.089549E-05 -1.349619E-05 -1.349276E-05  1.619261E-05 -8.687706E-13  2.405375E-12
     10094   1  4.089549E-05 -1.349360E-05 -1.349580E-05  1.631658E-05  4.673489E-08 -1.453898E-10
     10095   1  4.089549E-05 -1.349556E-05 -1.349443E-05  1.669890E-05  7.935171E-08  8.584431E-09
     10096   1  4.089548E-05 -1.349439E-05 -1.349523E-05  1.735703E-05  8.711247E-08  7.702569E-10
     10097   1  4.089548E-05 -1.349582E-05 -1.349731E-05  1.832412E-05  6.642251E-08  1.104407E-08
     10098   1  4.089548E-05 -1.350098E-05 -1.348978E-05  1.962261E-05  2.573110E-08  7.550763E-10
     10099   1 -8.714026E-14 -7.643886E-14  8.353078E-14  2.025232E-05  1.115539E-14 -4.436370E-09
     10100   1  6.231300E-14 -4.663353E-13  1.182664E-13  1.894418E-05  2.891558E-14 -1.866593E-09
     10101   1  2.886682E-13 -9.400952E-13  4.254073E-14  1.796587E-05  1.753270E-14 -1.180612E-08
     10102   1  3.920680E-13 -1.270192E-12  1.077950E-13  1.729130E-05  6.792004E-15 -7.221832E-10
     10103   1  4.781419E-13 -1.424721E-12  5.504394E-14  1.690023E-05 -4.969277E-15 -4.903150E-09
     10104   1  4.644375E-13 -1.463538E-12  1.207283E-13  1.677112E-05  4.028393E-15  2.483627E-12
     10105   1  4.797075E-13 -1.424486E-12  5.419744E-14  1.690023E-05 -1.980834E-15  4.908124E-09
     10106   1  3.987052E-13 -1.290162E-12  1.091386E-13  1.729130E-05  2.745276E-16  7.265184E-10
     10107   1  3.285702E-13 -1.046427E-12  4.183187E-14  1.796588E-05 -1.894249E-14  1.180981E-08
     10108   1  1.519347E-13 -7.429335E-13  1.175107E-13  1.894418E-05 -2.362827E-14  1.868932E-09
     10109   1  4.674299E-14 -5.086209E-13  8.581838E-14  2.025233E-05 -1.589865E-14  4.437304E-09
     10110   1 -4.089549E-05  1.350098E-05  1.348978E-05  1.962261E-05  2.573142E-08 -7.540512E-10
     10111   1 -4.089549E-05  1.349582E-05  1.349731E-05  1.832412E-05  6.642337E-08 -1.104169E-08
     10112   1 -4.089549E-05  1.349439E-05  1.349523E-05  1.735702E-05  8.711369E-08 -7.666434E-10
     10113   1 -4.089549E-05  1.349556E-05  1.349443E-05  1.669890E-05  7.935323E-08 -8.580229E-09
     10114   1 -4.089549E-05  1.349360E-05  1.349580E-05  1.631658E-05  4.673653E-08  1.502130E-10
     10115   1 -4.089549E-05  1.349620E-05  1.349276E-05  1.619261E-05  8.799106E-13  2.404361E-12
     10116   1 -4.089549E-05  1.349360E-05  1.349580E-05  1.631658E-05 -4.673488E-08 -1.453895E-10
     10117   1 -4.089549E-05  1.349556E-05  1.349443E-05  1.669890E-05 -7.935170E-08  8.584428E-09
     10118   1 -4.089549E-05  1.349439E-05  1.349523E-05  1.735703E-05 -8.711249E-08  7.702547E-10
     10119   1 -4.089549E-05  1.349582E-05  1.349731E-05  1.832412E-05 -6.642254E-08  1.104406E-08
     10120   1 -4.089548E-05  1.350098E-05  1.348978E-05  1.962261E-05 -2.573112E-08  7.550740E-10
     10121   1 -8.179097E-05  2.699428E-05  2.699626E-05  1.772536E-05  5.843263E-08 -5.708430E-09
     10122   1 -8.179097E-05  2.699394E-05  2.698573E-05  1.645285E-05  1.613819E-07  4.596553E-10
     10123   1 -8.179097E-05  2.699080E-05  2.699126E-05  1.553576E-05  2.068049E-07 -1.087985E-08
     10124   1 -8.179097E-05  2.698670E-05  2.699206E-05  1.492193E-05  1.868198E-07  1.686771E-09
     10125   1 -8.179097E-05  2.699244E-05  2.698546E-05  1.457597E-05  1.104259E-07 -1.647187E-09
     10126   1 -8.179097E-05  2.699048E-05  2.698837E-05  1.446381E-05  1.701032E-12  2.172372E-12
     10127   1 -8.179097E-05  2.699244E-05  2.698546E-05  1.457597E-05 -1.104226E-07  1.651542E-09
     10128   1 -8.179097E-05  2.698670E-05  2.699206E-05  1.492194E-05 -1.868168E-07 -1.683030E-09
     10129   1 -8.179097E-05  2.699079E-05  2.699126E-05  1.553577E-05 -2.068025E-07  1.088301E-08
     10130   1 -8.179097E-05  2.699394E-05  2.698573E-05  1.645285E-05 -1.613802E-07 -4.577128E-10
     10131   1 -8.179097E-05  2.699428E-05  2.699626E-05  1.772537E-05 -5.843207E-08  5.709193E-09
     10132   1 -1.226865E-04  4.050505E-05  4.046534E-05  1.452033E-05  1.262000E-07  1.434029E-09
     10133   1 -1.226865E-04  4.048656E-05  4.049189E-05  1.331918E-05  3.183536E-07 -1.434244E-08
     10134   1 -1.226865E-04  4.047901E-05  4.048867E-05  1.249380E-05  4.059905E-07  5.685814E-09
     10135   1 -1.226865E-04  4.048877E-05  4.047803E-05  1.198339E-05  3.623567E-07  1.525952E-09
     10136   1 -1.226865E-04  4.048868E-05  4.047964E-05  1.170197E-05  2.069286E-07  1.238126E-09
     10137   1 -1.226865E-04  4.048929E-05  4.047657E-05  1.161084E-05  2.411188E-12  1.779208E-12
     10138   1 -1.226865E-04  4.048868E-05  4.047964E-05  1.170198E-05 -2.069239E-07 -1.234547E-09
     10139   1 -1.226865E-04  4.048876E-05  4.047803E-05  1.198339E-05 -3.623525E-07 -1.522924E-09
     10140   1 -1.226865E-04  4.047901E-05  4.048867E-05  1.249380E-05 -4.059871E-07 -5.683276E-09
     10141   1 -1.226865E-04  4.048656E-05  4.049188E-05  1.331919E-05 -3.183513E-07  1.434400E-08
     10142   1 -1.226865E-04  4.050505E-05  4.046534E-05  1.452033E-05 -1.261991E-07 -1.433324E-09
     10143   1 -1.635819E-04  5.398650E-05  5.400162E-05  9.932605E-06  2.312782E-07 -1.345524E-08
     10144   1 -1.635819E-04  5.397429E-05  5.398029E-05  8.856097E-06  6.334139E-07  1.311385E-08
     10145   1 -1.635819E-04  5.398540E-05  5.396798E-05  8.266721E-06  7.743524E-07  9.375141E-09
     10146   1 -1.635819E-04  5.398933E-05  5.396831E-05  7.924962E-06  6.407657E-07  2.755343E-09
     10147   1 -1.635819E-04  5.398567E-05  5.396809E-05  7.736566E-06  3.580911E-07  2.299327E-09
     10148   1 -1.635819E-04  5.399098E-05  5.396715E-05  7.679059E-06  2.901739E-12  1.198964E-12
     10149   1 -1.635819E-04  5.398567E-05  5.396809E-05  7.736566E-06 -3.580853E-07 -2.296847E-09
     10150   1 -1.635819E-04  5.398933E-05  5.396831E-05  7.924964E-06 -6.407606E-07 -2.753355E-09
     10151   1 -1.635819E-04  5.398540E-05  5.396798E-05  8.266723E-06 -7.743482E-07 -9.373496E-09
     10152   1 -1.635819E-04  5.397428E-05  5.398029E-05  8.856100E-06 -6.334111E-07 -1.311304E-08
     10153   1 -1.635819E-04  5.398650E-05  5.400161E-05  9.932607E-06 -2.312773E-07  1.345550E-08
     10154   1 -2.044774E-04  6.751785E-05  6.741546E-05  3.648019E-06  6.234954E-07  2.070373E-08
     10155   1 -2.044774E-04  6.747909E-05  6.744913E-05  3.134943E-06  1.347985E-06  1.274788E-08
     10156   1 -2.044774E-04  6.749847E-05  6.744820E-05  2.938750E-06  1.372505E-06  2.495331E-09
     10157   1 -2.044774E-04  6.748098E-05  6.745902E-05  2.809206E-06  1.070269E-06  2.981082E-09
     10158   1 -2.044774E-04  6.749260E-05  6.745540E-05  2.747208E-06  5.776178E-07  4.204206E-10
     10159   1 -2.044774E-04  6.748159E-05  6.746071E-05  2.724423E-06  3.118845E-12  4.118880E-13
     10160   1 -2.044774E-04  6.749260E-05  6.745540E-05  2.747208E-06 -5.776112E-07 -4.194566E-10
     10161   1 -2.044774E-04  6.748098E-05  6.745902E-05  2.809206E-06 -1.070264E-06 -2.980416E-09
     10162   1 -2.044774E-04  6.749847E-05  6.744820E-05  2.938750E-06 -1.372501E-06 -2.494662E-09
     10163   1 -2.044774E-04  6.747908E-05  6.744912E-05  3.134944E-06 -1.347982E-06 -1.274767E-08
     10164   1 -2.044774E-04  6.751784E-05  6.741546E-05  3.648021E-06 -6.234942E-07 -2.070345E-08
     10165   1  1.999335E-04 -6.601745E-05 -6.591734E-05  3.648020E-06 -6.234954E-07  2.024324E-08
     10166   1  1.999335E-04 -6.597955E-05 -6.595025E-05  3.134943E-06 -1.347985E-06  1.246477E-08
     10167   1  1.999335E-04 -6.599851E-05 -6.594935E-05  2.938750E-06 -1.372506E-06  2.439743E-09
     10168   1  1.999335E-04 -6.598140E-05 -6.595993E-05  2.809206E-06 -1.070270E-06  2.915050E-09
     10169   1  1.999335E-04 -6.599276E-05 -6.595639E-05  2.747208E-06 -5.776185E-07  4.110457E-10
     10170   1  1.999335E-04 -6.598200E-05 -6.596158E-05  2.724423E-06 -4.350279E-12  6.060165E-13
     10171   1  1.999335E-04 -6.599276E-05 -6.595639E-05  2.747208E-06  5.776108E-07 -4.101387E-10
     10172   1  1.999335E-04 -6.598140E-05 -6.595992E-05  2.809206E-06  1.070263E-06 -2.914018E-09
     10173   1  1.999335E-04 -6.599850E-05 -6.594935E-05  2.938751E-06  1.372500E-06 -2.439229E-09
     10174   1  1.999335E-04 -6.597955E-05 -6.595025E-05  3.134944E-06  1.347981E-06 -1.246430E-08
     10175   1  1.999335E-04 -6.601745E-05 -6.591734E-05  3.648021E-06  6.234941E-07 -2.024341E-08
     10176   1  1.599468E-04 -5.278680E-05 -5.280159E-05  9.932604E-06 -2.312784E-07 -1.315609E-08
     10177   1  1.599468E-04 -5.277486E-05 -5.278073E-05  8.856096E-06 -6.334141E-07  1.282273E-08
     10178   1  1.599468E-04 -5.278573E-05 -5.276869E-05  8.266720E-06 -7.743531E-07  9.166927E-09
     10179   1  1.599468E-04 -5.278956E-05 -5.276901E-05  7.924962E-06 -6.407664E-07  2.694461E-09
     10180   1  1.599468E-04 -5.278599E-05 -5.276880E-05  7.736566E-06 -3.580918E-07  2.248369E-09
     10181   1  1.599468E-04 -5.279118E-05 -5.276788E-05  7.679059E-06 -3.750491E-12  1.531745E-12
     10182   1  1.599468E-04 -5.278599E-05 -5.276880E-05  7.736567E-06  3.580848E-07 -2.245668E-09
     10183   1  1.599468E-04 -5.278956E-05 -5.276901E-05  7.924964E-06  6.407599E-07 -2.691844E-09
     10184   1  1.599468E-04 -5.278573E-05 -5.276869E-05  8.266723E-06  7.743479E-07 -9.165106E-09
     10185   1  1.599468E-04 -5.277485E-05 -5.278072E-05  8.856100E-06  6.334106E-07 -1.282141E-08
     10186   1  1.599468E-04 -5.278680E-05 -5.280158E-05  9.932608E-06  2.312772E-07  1.315646E-08
     10187   1  1.199601E-04 -3.960494E-05 -3.956611E-05  1.452033E-05 -1.262000E-07  1.401973E-09
     10188   1  1.199601E-04 -3.958686E-05 -3.959207E-05  1.331918E-05 -3.183538E-07 -1.402359E-08
     10189   1  1.199601E-04 -3.957948E-05 -3.958892E-05  1.249380E-05 -4.059910E-07  5.559578E-09
     10190   1  1.199601E-04 -3.958902E-05 -3.957852E-05  1.198339E-05 -3.623572E-07  1.492410E-09
     10191   1  1.199601E-04 -3.958894E-05 -3.958009E-05  1.170197E-05 -2.069292E-07  1.210858E-09
     10192   1  1.199601E-04 -3.958953E-05 -3.957709E-05  1.161084E-05 -2.939282E-12  2.174178E-12
     10193   1  1.199601E-04 -3.958894E-05 -3.958009E-05  1.170198E-05  2.069234E-07 -1.206861E-09
     10194   1  1.199601E-04 -3.958901E-05 -3.957851E-05  1.198339E-05  3.623521E-07 -1.488670E-09
     10195   1  1.199601E-04 -3.957947E-05 -3.958892E-05  1.249380E-05  4.059868E-07 -5.556801E-09
     10196   1  1.199601E-04 -3.958686E-05 -3.959206E-05  1.331919E-05  3.183510E-07  1.402552E-08
     10197   1  1.199601E-04 -3.960494E-05 -3.956611E-05  1.452034E-05  1.261990E-07 -1.401497E-09
     10198   1  7.997340E-05 -2.639441E-05 -2.639634E-05  1.772536E-05 -5.843272E-08 -5.581447E-09
     10199   1  7.997340E-05 -2.639407E-05 -2.638604E-05  1.645285E-05 -1.613820E-07  4.498736E-10
     10200   1  7.997340E-05 -2.639100E-05 -2.639146E-05  1.553576E-05 -2.068052E-07 -1.063782E-08
     10201   1  7.997340E-05 -2.638700E-05 -2.639224E-05  1.492193E-05 -1.868201E-07  1.649751E-09
     10202   1  7.997340E-05 -2.639261E-05 -2.638579E-05  1.457597E-05 -1.104263E-07 -1.610288E-09
     10203   1  7.997339E-05 -2.639069E-05 -2.638863E-05  1.446381E-05 -2.034731E-12  2.618483E-12
     10204   1  7.997339E-05 -2.639261E-05 -2.638579E-05  1.457597E-05  1.104223E-07  1.615145E-09
     10205   1  7.997339E-05 -2.638699E-05 -2.639223E-05  1.492194E-05  1.868165E-07 -1.645158E-09
     10206   1  7.997339E-05 -2.639100E-05 -2.639146E-05  1.553577E-05  2.068023E-07  1.064140E-08
     10207   1  7.997339E-05 -2.639407E-05 -2.638604E-05  1.645285E-05  1.613800E-07 -4.471924E-10
     10208   1  7.997339E-05 -2.639441E-05 -2.639634E-05  1.772537E-05  5.843199E-08  5.582338E-09
     10209   1  3.998670E-05 -1.320096E-05 -1.319001E-05  1.962261E-05 -2.573143E-08 -7.374479E-10
     10210   1  3.998670E-05 -1.319591E-05 -1.319737E-05  1.832412E-05 -6.642345E-08 -1.079614E-08
     10211   1  3.998670E-05 -1.319452E-05 -1.319533E-05  1.735702E-05 -8.711386E-08 -7.494494E-10
     10212   1  3.998670E-05 -1.319566E-05 -1.319455E-05  1.669890E-05 -7.935341E-08 -8.389101E-09
     10213   1  3.998670E-05 -1.319375E-05 -1.319589E-05  1.631658E-05 -4.673676E-08  1.471842E-10
     10214   1  3.998670E-05 -1.319628E-05 -1.319292E-05  1.619261E-05 -1.037653E-12  2.878767E-12
     10215   1  3.998670E-05 -1.319375E-05 -1.319589E-05  1.631658E-05  4.673472E-08 -1.418312E-10
     10216   1  3.998670E-05 -1.319566E-05 -1.319455E-05  1.669890E-05  7.935160E-08  8.394172E-09
     10217   1  3.998670E-05 -1.319452E-05 -1.319533E-05  1.735703E-05  8.711236E-08  7.533902E-10
     10218   1  3.998670E-05 -1.319591E-05 -1.319737E-05  1.832413E-05  6.642244E-08  1.079899E-08
     10219   1  3.998670E-05 -1.320096E-05 -1.319001E-05  1.962261E-05  2.573106E-08  7.382794E-10
     10220   1 -7.071351E-14 -3.345518E-13  1.939294E-13  2.025232E-05  2.139859E-15 -4.337661E-09
     10221   1 -6.749137E-14  1.364325E-13  9.359079E-14  1.894417E-05 -2.144335E-14 -1.824622E-09
     10222   1 -2.458930E-13  7.259332E-13  1.654734E-13  1.796587E-05 -4.132206E-14 -1.154347E-08
     10223   1 -3.531828E-13  1.139949E-12  1.257206E-13  1.729130E-05 -5.135617E-14 -7.056272E-10
     10224   1 -4.612175E-13  1.334474E-12  2.174420E-13  1.690023E-05 -2.548177E-14 -4.793868E-09
     10225   1 -4.544845E-13  1.383144E-12  1.626599E-13  1.677111E-05 -5.487777E-15  2.963007E-12
     10226   1 -4.628778E-13  1.333114E-12  2.190176E-13  1.690023E-05  3.710776E-14  4.799390E-09
     10227   1 -3.591551E-13  1.161682E-12  1.231988E-13  1.729130E-05  4.206075E-14  7.108857E-10
     10228   1 -2.931888E-13  8.517631E-13  1.670627E-13  1.796588E-05  4.508027E-14  1.154763E-08
     10229   1 -1.749170E-13  4.727052E-13  9.390424E-14  1.894418E-05  1.458143E-14  1.827775E-09
     10230   1 -2.341229E-13  1.971756E-13  1.912385E-13  2.025233E-05  4.063399E-15  4.338710E-09
     10231   1 -3.998670E-05  1.320096E-05  1.319001E-05  1.962261E-05  2.573143E-08 -7.374485E-10
     10232   1 -3.998670E-05  1.319591E-05  1.319737E-05  1.832412E-05  6.642343E-08 -1.079613E-08
     10233   1 -3.998670E-05  1.319451E-05  1.319534E-05  1.735702E-05  8.711382E-08 -7.494431E-10
     10234   1 -3.998670E-05  1.319566E-05  1.319455E-05  1.669890E-05  7.935331E-08 -8.389098E-09
     10235   1 -3.998670E-05  1.319374E-05  1.319589E-05  1.631658E-05  4.673671E-08  1.471835E-10
     10236   1 -3.998670E-05  1.319628E-05  1.319292E-05  1.619261E-05  1.022823E-12  2.879492E-12
     10237   1 -3.998670E-05  1.319374E-05  1.319589E-05  1.631658E-05 -4.673464E-08 -1.418334E-10
     10238   1 -3.998670E-05  1.319566E-05  1.319455E-05  1.669890E-05 -7.935152E-08  8.394171E-09
     10239   1 -3.998670E-05  1.319451E-05  1.319533E-05  1.735703E-05 -8.711229E-08  7.533818E-10
     10240   1 -3.998670E-05  1.319591E-05  1.319737E-05  1.832413E-05 -6.642243E-08  1.079898E-08
     10241   1 -3.998670E-05  1.320096E-05  1.319001E-05  1.962261E-05 -2.573107E-08  7.382744E-10
     10242   1 -7.997340E-05  2.639441E-05  2.639635E-05  1.772536E-05  5.843273E-08 -5.581435E-09
     10243   1 -7.997340E-05  2.639407E-05  2.638604E-05  1.645285E-05  1.613819E-07  4.498874E-10
     10244   1 -7.997340E-05  2.639100E-05  2.639146E-05  1.553576E-05  2.068052E-07 -1.063782E-08
     10245   1 -7.997340E-05  2.638700E-05  2.639223E-05  1.492193E-05  1.868199E-07  1.649756E-09
     10246   1 -7.997340E-05  2.639261E-05  2.638579E-05  1.457597E-05  1.104262E-07 -1.610293E-09
     10247   1 -7.997340E-05  2.639069E-05  2.638863E-05  1.446381E-05  2.023746E-12  2.622059E-12
     10248   1 -7.997339E-05  2.639261E-05  2.638579E-05  1.457597E-05 -1.104222E-07  1.615140E-09
     10249   1 -7.997339E-05  2.638700E-05  2.639223E-05  1.492194E-05 -1.868164E-07 -1.645156E-09
     10250   1 -7.997339E-05  2.639100E-05  2.639146E-05  1.553577E-05 -2.068022E-07  1.064139E-08
     10251   1 -7.997339E-05  2.639407E-05  2.638604E-05  1.645285E-05 -1.613800E-07 -4.472018E-10
     10252   1 -7.997339E-05  2.639441E-05  2.639634E-05  1.772537E-05 -5.843199E-08  5.582326E-09
     10253   1 -1.199601E-04  3.960494E-05  3.956611E-05  1.452033E-05  1.262001E-07  1.401966E-09
     10254   1 -1.199601E-04  3.958686E-05  3.959206E-05  1.331918E-05  3.183538E-07 -1.402358E-08
     10255   1 -1.199601E-04  3.957947E-05  3.958893E-05  1.249380E-05  4.059910E-07  5.559587E-09
     10256   1 -1.199601E-04  3.958901E-05  3.957851E-05  1.198339E-05  3.623570E-07  1.492407E-09
     10257   1 -1.199601E-04  3.958893E-05  3.958010E-05  1.170197E-05  2.069291E-07  1.210853E-09
     10258   1 -1.199601E-04  3.958952E-05  3.957709E-05  1.161084E-05  2.950810E-12  2.178635E-12
     10259   1 -1.199601E-04  3.958893E-05  3.958010E-05  1.170198E-05 -2.069234E-07 -1.206867E-09
     10260   1 -1.199601E-04  3.958901E-05  3.957851E-05  1.198339E-05 -3.623519E-07 -1.488660E-09
     10261   1 -1.199601E-04  3.957947E-05  3.958892E-05  1.249380E-05 -4.059867E-07 -5.556816E-09
     10262   1 -1.199601E-04  3.958685E-05  3.959206E-05  1.331919E-05 -3.183509E-07  1.402552E-08
     10263   1 -1.199601E-04  3.960493E-05  3.956611E-05  1.452034E-05 -1.261991E-07 -1.401503E-09
     10264   1 -1.599468E-04  5.278680E-05  5.280159E-05  9.932603E-06  2.312785E-07 -1.315606E-08
     10265   1 -1.599468E-04  5.277486E-05  5.278072E-05  8.856096E-06  6.334139E-07  1.282272E-08
     10266   1 -1.599468E-04  5.278573E-05  5.276870E-05  8.266720E-06  7.743530E-07  9.166919E-09
     10267   1 -1.599468E-04  5.278957E-05  5.276901E-05  7.924962E-06  6.407662E-07  2.694457E-09
     10268   1 -1.599468E-04  5.278600E-05  5.276881E-05  7.736565E-06  3.580917E-07  2.248360E-09
     10269   1 -1.599468E-04  5.279118E-05  5.276788E-05  7.679059E-06  3.793842E-12  1.533635E-12
     10270   1 -1.599468E-04  5.278600E-05  5.276881E-05  7.736566E-06 -3.580848E-07 -2.245665E-09
     10271   1 -1.599468E-04  5.278957E-05  5.276900E-05  7.924964E-06 -6.407596E-07 -2.691837E-09
     10272   1 -1.599468E-04  5.278573E-05  5.276869E-05  8.266723E-06 -7.743478E-07 -9.165101E-09
     10273   1 -1.599468E-04  5.277486E-05  5.278072E-05  8.856100E-06 -6.334104E-07 -1.282141E-08
     10274   1 -1.599468E-04  5.278680E-05  5.280159E-05  9.932607E-06 -2.312772E-07  1.315644E-08
     10275   1 -1.999335E-04  6.601745E-05  6.591735E-05  3.648020E-06  6.234955E-07  2.024311E-08
     10276   1 -1.999335E-04  6.597955E-05  6.595025E-05  3.134943E-06  1.347985E-06  1.246484E-08
     10277   1 -1.999335E-04  6.599850E-05  6.594936E-05  2.938750E-06  1.372506E-06  2.439696E-09
     10278   1 -1.999335E-04  6.598140E-05  6.595992E-05  2.809206E-06  1.070270E-06  2.915070E-09
     10279   1 -1.999335E-04  6.599276E-05  6.595640E-05  2.747208E-06  5.776183E-07  4.110323E-10
     10280   1 -1.999335E-04  6.598200E-05  6.596158E-05  2.724423E-06  4.417911E-12  6.033843E-13
     10281   1 -1.999335E-04  6.599276E-05  6.595640E-05  2.747208E-06 -5.776107E-07 -4.101208E-10
     10282   1 -1.999335E-04  6.598140E-05  6.595992E-05  2.809206E-06 -1.070262E-06 -2.914042E-09
     10283   1 -1.999335E-04  6.599850E-05  6.594936E-05  2.938751E-06 -1.372500E-06 -2.439180E-09
     10284   1 -1.999335E-04  6.597955E-05  6.595024E-05  3.134944E-06 -1.347981E-06 -1.246437E-08
     10285   1 -1.999335E-04  6.601744E-05  6.591734E-05  3.648021E-06 -6.234942E-07 -2.024331E-08
     10286   1  1.953896E-04 -6.451705E-05 -6.441922E-05  3.648019E-06 -6.234958E-07  1.978364E-08
     10287   1  1.953896E-04 -6.448002E-05 -6.445138E-05  3.134942E-06 -1.347986E-06  1.218142E-08
     10288   1  1.953896E-04 -6.449854E-05 -6.445051E-05  2.938749E-06 -1.372507E-06  2.384609E-09
     10289   1  1.953895E-04 -6.448182E-05 -6.446084E-05  2.809206E-06 -1.070271E-06  2.848733E-09
     10290   1  1.953895E-04 -6.449292E-05 -6.445738E-05  2.747208E-06 -5.776200E-07  4.019614E-10
     10291   1  1.953895E-04 -6.448241E-05 -6.446245E-05  2.724423E-06 -4.975177E-12  5.314302E-13
     10292   1  1.953895E-04 -6.449292E-05 -6.445738E-05  2.747208E-06  5.776094E-07 -4.005741E-10
     10293   1  1.953895E-04 -6.448182E-05 -6.446083E-05  2.809207E-06  1.070262E-06 -2.847850E-09
     10294   1  1.953895E-04 -6.449853E-05 -6.445050E-05  2.938751E-06  1.372499E-06 -2.383566E-09
     10295   1  1.953895E-04 -6.448001E-05 -6.445138E-05  3.134944E-06  1.347981E-06 -1.218112E-08
     10296   1  1.953895E-04 -6.451705E-05 -6.441922E-05  3.648021E-06  6.234939E-07 -1.978314E-08
     10297   1  1.563116E-04 -5.158710E-05 -5.160155E-05  9.932604E-06 -2.312786E-07 -1.285716E-08
     10298   1  1.563116E-04 -5.157543E-05 -5.158116E-05  8.856096E-06 -6.334146E-07  1.253116E-08
     10299   1  1.563116E-04 -5.158606E-05 -5.156940E-05  8.266720E-06 -7.743538E-07  8.958847E-09
     10300   1  1.563116E-04 -5.158981E-05 -5.156972E-05  7.924962E-06 -6.407671E-07  2.633265E-09
     10301   1  1.563116E-04 -5.158632E-05 -5.156951E-05  7.736565E-06 -3.580928E-07  2.197648E-09
     10302   1  1.563116E-04 -5.159138E-05 -5.156861E-05  7.679059E-06 -4.442698E-12  1.583584E-12
     10303   1  1.563116E-04 -5.158631E-05 -5.156951E-05  7.736567E-06  3.580839E-07 -2.194242E-09
     10304   1  1.563116E-04 -5.158980E-05 -5.156971E-05  7.924964E-06  6.407593E-07 -2.630579E-09
     10305   1  1.563116E-04 -5.158605E-05 -5.156940E-05  8.266723E-06  7.743472E-07 -8.956471E-09
     10306   1  1.563116E-04 -5.157543E-05 -5.158116E-05  8.856101E-06  6.334103E-07 -1.253001E-08
     10307   1  1.563116E-04 -5.158710E-05 -5.160154E-05  9.932608E-06  2.312770E-07  1.285760E-08
     10308   1  1.172337E-04 -3.870483E-05 -3.866688E-05  1.452033E-05 -1.262002E-07  1.370512E-09
     10309   1  1.172337E-04 -3.868716E-05 -3.869225E-05  1.331918E-05 -3.183542E-07 -1.370464E-08
     10310   1  1.172337E-04 -3.867994E-05 -3.868917E-05  1.249380E-05 -4.059915E-07  5.433662E-09
     10311   1  1.172337E-04 -3.868926E-05 -3.867900E-05  1.198339E-05 -3.623578E-07  1.458680E-09
     10312   1  1.172337E-04 -3.868918E-05 -3.868055E-05  1.170197E-05 -2.069298E-07  1.183765E-09
     10313   1  1.172337E-04 -3.868976E-05 -3.867761E-05  1.161084E-05 -3.575640E-12  2.316197E-12
     10314   1  1.172337E-04 -3.868918E-05 -3.868055E-05  1.170198E-05  2.069229E-07 -1.178994E-09
     10315   1  1.172337E-04 -3.868926E-05 -3.867900E-05  1.198339E-05  3.623516E-07 -1.454651E-09
     10316   1  1.172337E-04 -3.867994E-05 -3.868917E-05  1.249380E-05  4.059864E-07 -5.430111E-09
     10317   1  1.172337E-04 -3.868715E-05 -3.869224E-05  1.331919E-05  3.183507E-07  1.370686E-08
     10318   1  1.172337E-04 -3.870482E-05 -3.866688E-05  1.452034E-05  1.261990E-07 -1.369415E-09
     10319   1  7.815582E-05 -2.579454E-05 -2.579643E-05  1.772536E-05 -5.843277E-08 -5.454585E-09
     10320   1  7.815582E-05 -2.579421E-05 -2.578636E-05  1.645285E-05 -1.613823E-07  4.395280E-10
     10321   1  7.815582E-05 -2.579121E-05 -2.579165E-05  1.553576E-05 -2.068056E-07 -1.039573E-08
     10322   1  7.815582E-05 -2.578730E-05 -2.579241E-05  1.492193E-05 -1.868205E-07  1.612409E-09
     10323   1  7.815582E-05 -2.579278E-05 -2.578611E-05  1.457597E-05 -1.104267E-07 -1.573232E-09
     10324   1  7.815582E-05 -2.579091E-05 -2.578889E-05  1.446381E-05 -2.452986E-12  2.774143E-12
     10325   1  7.815582E-05 -2.579278E-05 -2.578611E-05  1.457597E-05  1.104220E-07  1.578923E-09
     10326   1  7.815582E-05 -2.578729E-05 -2.579241E-05  1.492194E-05  1.868162E-07 -1.607550E-09
     10327   1  7.815582E-05 -2.579121E-05 -2.579165E-05  1.553577E-05  2.068021E-07  1.040000E-08
     10328   1  7.815581E-05 -2.579421E-05 -2.578636E-05  1.645285E-05  1.613798E-07 -4.369362E-10
     10329   1  7.815581E-05 -2.579454E-05 -2.579642E-05  1.772537E-05  5.843193E-08  5.455671E-09
     10330   1  3.907791E-05 -1.290094E-05 -1.289024E-05  1.962260E-05 -2.573150E-08 -7.202715E-10
     10331   1  3.907791E-05 -1.289600E-05 -1.289743E-05  1.832412E-05 -6.642361E-08 -1.055049E-08
     10332   1  3.907791E-05 -1.289464E-05 -1.289544E-05  1.735702E-05 -8.711408E-08 -7.318992E-10
     10333   1  3.907791E-05 -1.289576E-05 -1.289468E-05  1.669890E-05 -7.935367E-08 -8.198232E-09
     10334   1  3.907791E-05 -1.289388E-05 -1.289599E-05  1.631658E-05 -4.673697E-08  1.443265E-10
     10335   1  3.907791E-05 -1.289636E-05 -1.289308E-05  1.619261E-05 -1.245138E-12  3.026303E-12
     10336   1  3.907791E-05 -1.289388E-05 -1.289599E-05  1.631658E-05  4.673459E-08 -1.380991E-10
     10337   1  3.907791E-05 -1.289575E-05 -1.289467E-05  1.669890E-05  7.935149E-08  8.203614E-09
     10338   1  3.907791E-05 -1.289464E-05 -1.289544E-05  1.735703E-05  8.711232E-08  7.367499E-10
     10339   1  3.907791E-05 -1.289600E-05 -1.289743E-05  1.832413E-05  6.642240E-08  1.055369E-08
     10340   1  3.907791E-05 -1.290094E-05 -1.289024E-05  1.962261E-05  2.573106E-08  7.217681E-10
     10341   1  1.894909E-13 -4.702905E-13  1.640589E-13  2.025232E-05 -2.322083E-14 -4.239035E-09
     10342   1  3.711474E-13 -1.023043E-12  2.141683E-13  1.894418E-05 -6.042614E-14 -1.783294E-09
     10343   1  6.117873E-13 -1.706621E-12  1.788098E-13  1.796587E-05 -1.102059E-13 -1.128077E-08
     10344   1  6.867401E-13 -2.171943E-12  3.111157E-13  1.729130E-05 -1.089928E-13 -6.894395E-10
     10345   1  7.367776E-13 -2.378361E-12  3.009172E-13  1.690023E-05 -8.136416E-14 -4.684435E-09
     10346   1  7.003393E-13 -2.426642E-12  3.935913E-13  1.677112E-05  9.196456E-15  3.111308E-12
     10347   1  7.399910E-13 -2.377348E-12  2.984854E-13  1.690023E-05  6.589153E-14  4.690826E-09
     10348   1  6.939944E-13 -2.197409E-12  3.150156E-13  1.729130E-05  1.246246E-13  6.949548E-10
     10349   1  6.719270E-13 -1.858125E-12  1.752887E-13  1.796588E-05  1.051500E-13  1.128567E-08
     10350   1  5.046545E-13 -1.436254E-12  2.146447E-13  1.894418E-05  7.122021E-14  1.786329E-09
     10351   1  3.942208E-13 -1.129513E-12  1.667330E-13  2.025233E-05  1.574012E-14  4.240331E-09
     10352   1 -3.907791E-05  1.290094E-05  1.289024E-05  1.962260E-05  2.573146E-08 -7.202600E-10
     10353   1 -3.907791E-05  1.289600E-05  1.289743E-05  1.832412E-05  6.642344E-08 -1.055048E-08
     10354   1 -3.907791E-05  1.289464E-05  1.289544E-05  1.735702E-05  8.711380E-08 -7.318925E-10
     10355   1 -3.907791E-05  1.289576E-05  1.289468E-05  1.669890E-05  7.935343E-08 -8.198231E-09
     10356   1 -3.907791E-05  1.289389E-05  1.289599E-05  1.631658E-05  4.673679E-08  1.443279E-10
     10357   1 -3.907791E-05  1.289637E-05  1.289308E-05  1.619261E-05  1.267657E-12  3.023951E-12
     10358   1 -3.907791E-05  1.289389E-05  1.289599E-05  1.631658E-05 -4.673445E-08 -1.380980E-10
     10359   1 -3.907791E-05  1.289576E-05  1.289468E-05  1.669890E-05 -7.935121E-08  8.203609E-09
     10360   1 -3.907791E-05  1.289464E-05  1.289544E-05  1.735703E-05 -8.711207E-08  7.367450E-10
     10361   1 -3.907791E-05  1.289600E-05  1.289743E-05  1.832413E-05 -6.642222E-08  1.055367E-08
     10362   1 -3.907791E-05  1.290094E-05  1.289024E-05  1.962261E-05 -2.573101E-08  7.217635E-10
     10363   1 -7.815582E-05  2.579454E-05  2.579643E-05  1.772536E-05  5.843270E-08 -5.454581E-09
     10364   1 -7.815582E-05  2.579421E-05  2.578636E-05  1.645285E-05  1.613821E-07  4.395424E-10
     10365   1 -7.815582E-05  2.579121E-05  2.579165E-05  1.553576E-05  2.068053E-07 -1.039572E-08
     10366   1 -7.815582E-05  2.578729E-05  2.579241E-05  1.492193E-05  1.868203E-07  1.612405E-09
     10367   1 -7.815582E-05  2.579278E-05  2.578611E-05  1.457597E-05  1.104265E-07 -1.573228E-09
     10368   1 -7.815582E-05  2.579090E-05  2.578889E-05  1.446381E-05  2.465582E-12  2.766615E-12
     10369   1 -7.815582E-05  2.579277E-05  2.578611E-05  1.457597E-05 -1.104218E-07  1.578930E-09
     10370   1 -7.815582E-05  2.578729E-05  2.579241E-05  1.492194E-05 -1.868160E-07 -1.607560E-09
     10371   1 -7.815581E-05  2.579120E-05  2.579165E-05  1.553577E-05 -2.068018E-07  1.039999E-08
     10372   1 -7.815581E-05  2.579421E-05  2.578636E-05  1.645285E-05 -1.613797E-07 -4.369595E-10
     10373   1 -7.815581E-05  2.579453E-05  2.579642E-05  1.772537E-05 -5.843188E-08  5.455666E-09
     10374   1 -1.172337E-04  3.870483E-05  3.866688E-05  1.452033E-05  1.262001E-07  1.370540E-09
     10375   1 -1.172337E-04  3.868716E-05  3.869225E-05  1.331918E-05  3.183540E-07 -1.370463E-08
     10376   1 -1.172337E-04  3.867994E-05  3.868917E-05  1.249380E-05  4.059911E-07  5.433660E-09
     10377   1 -1.172337E-04  3.868927E-05  3.867901E-05  1.198339E-05  3.623575E-07  1.458674E-09
     10378   1 -1.172337E-04  3.868919E-05  3.868054E-05  1.170197E-05  2.069296E-07  1.183763E-09
     10379   1 -1.172337E-04  3.868977E-05  3.867761E-05  1.161084E-05  3.548805E-12  2.307439E-12
     10380   1 -1.172337E-04  3.868919E-05  3.868054E-05  1.170198E-05 -2.069227E-07 -1.178979E-09
     10381   1 -1.172337E-04  3.868926E-05  3.867901E-05  1.198339E-05 -3.623513E-07 -1.454659E-09
     10382   1 -1.172337E-04  3.867994E-05  3.868917E-05  1.249380E-05 -4.059860E-07 -5.430101E-09
     10383   1 -1.172337E-04  3.868715E-05  3.869225E-05  1.331919E-05 -3.183506E-07  1.370683E-08
     10384   1 -1.172337E-04  3.870482E-05  3.866687E-05  1.452034E-05 -1.261988E-07 -1.369427E-09
     10385   1 -1.563116E-04  5.158710E-05  5.160154E-05  9.932604E-06  2.312784E-07 -1.285719E-08
     10386   1 -1.563116E-04  5.157543E-05  5.158117E-05  8.856096E-06  6.334145E-07  1.253117E-08
     10387   1 -1.563116E-04  5.158605E-05  5.156940E-05  8.266720E-06  7.743533E-07  8.958844E-09
     10388   1 -1.563116E-04  5.158980E-05  5.156972E-05  7.924961E-06  6.407668E-07  2.633248E-09
     10389   1 -1.563116E-04  5.158631E-05  5.156951E-05  7.736565E-06  3.580926E-07  2.197643E-09
     10390   1 -1.563116E-04  5.159138E-05  5.156861E-05  7.679059E-06  4.364768E-12  1.579212E-12
     10391   1 -1.563116E-04  5.158631E-05  5.156951E-05  7.736567E-06 -3.580835E-07 -2.194232E-09
     10392   1 -1.563116E-04  5.158980E-05  5.156972E-05  7.924964E-06 -6.407591E-07 -2.630568E-09
     10393   1 -1.563116E-04  5.158605E-05  5.156940E-05  8.266723E-06 -7.743467E-07 -8.956465E-09
     10394   1 -1.563116E-04  5.157542E-05  5.158116E-05  8.856100E-06 -6.334102E-07 -1.253003E-08
     10395   1 -1.563116E-04  5.158710E-05  5.160154E-05  9.932608E-06 -2.312769E-07  1.285761E-08
     10396   1 -1.953896E-04  6.451705E-05  6.441921E-05  3.648019E-06  6.234957E-07  1.978379E-08
     10397   1 -1.953896E-04  6.448002E-05  6.445139E-05  3.134943E-06  1.347985E-06  1.218133E-08
     10398   1 -1.953895E-04  6.449854E-05  6.445050E-05  2.938749E-06  1.372507E-06  2.384654E-09
     10399   1 -1.953896E-04  6.448183E-05  6.446084E-05  2.809206E-06  1.070270E-06  2.848695E-09
     10400   1 -1.953895E-04  6.449293E-05  6.445738E-05  2.747208E-06  5.776197E-07  4.019675E-10
     10401   1 -1.953895E-04  6.448241E-05  6.446246E-05  2.724423E-06  4.861508E-12  5.353339E-13
     10402   1 -1.953895E-04  6.449293E-05  6.445738E-05  2.747208E-06 -5.776089E-07 -4.005888E-10
     10403   1 -1.953895E-04  6.448182E-05  6.446084E-05  2.809207E-06 -1.070262E-06 -2.847807E-09
     10404   1 -1.953895E-04  6.449854E-05  6.445050E-05  2.938751E-06 -1.372499E-06 -2.383616E-09
     10405   1 -1.953895E-04  6.448001E-05  6.445139E-05  3.134944E-06 -1.347981E-06 -1.218103E-08
     10406   1 -1.953895E-04  6.451705E-05  6.441921E-05  3.648021E-06 -6.234937E-07 -1.978326E-08
     10407   1  1.908456E-04 -6.301666E-05 -6.292110E-05  3.648020E-06 -6.234959E-07  1.932291E-08
     10408   1  1.908456E-04 -6.298048E-05 -6.295252E-05  3.134942E-06 -1.347987E-06  1.189833E-08
     10409   1  1.908456E-04 -6.299858E-05 -6.295166E-05  2.938749E-06 -1.372508E-06  2.328880E-09
     10410   1  1.908456E-04 -6.298225E-05 -6.296175E-05  2.809206E-06 -1.070273E-06  2.782774E-09
     10411   1  1.908456E-04 -6.299309E-05 -6.295837E-05  2.747208E-06 -5.776207E-07  3.924542E-10
     10412   1  1.908456E-04 -6.298282E-05 -6.296333E-05  2.724423E-06 -6.786985E-12  8.139436E-13
     10413   1  1.908456E-04 -6.299309E-05 -6.295837E-05  2.747208E-06  5.776089E-07 -3.913886E-10
     10414   1  1.908456E-04 -6.298225E-05 -6.296174E-05  2.809207E-06  1.070261E-06 -2.781327E-09
     10415   1  1.908456E-04 -6.299857E-05 -6.295165E-05  2.938751E-06  1.372499E-06 -2.328264E-09
     10416   1  1.908456E-04 -6.298048E-05 -6.295251E-05  3.134944E-06  1.347980E-06 -1.189758E-08
     10417   1  1.908456E-04 -6.301665E-05 -6.292109E-05  3.648021E-06  6.234938E-07 -1.932330E-08
     10418   1  1.526765E-04 -5.038740E-05 -5.040151E-05  9.932602E-06 -2.312789E-07 -1.255795E-08
     10419   1  1.526765E-04 -5.037600E-05 -5.038160E-05  8.856096E-06 -6.334152E-07  1.224024E-08
     10420   1  1.526765E-04 -5.038638E-05 -5.037012E-05  8.266720E-06 -7.743545E-07  8.750561E-09
     10421   1  1.526765E-04 -5.039004E-05 -5.037042E-05  7.924962E-06 -6.407682E-07  2.572449E-09
     10422   1  1.526765E-04 -5.038663E-05 -5.037022E-05  7.736566E-06 -3.580936E-07  2.146509E-09
     10423   1  1.526765E-04 -5.039158E-05 -5.036934E-05  7.679060E-06 -5.531250E-12  1.942586E-12
     10424   1  1.526765E-04 -5.038663E-05 -5.037022E-05  7.736567E-06  3.580833E-07 -2.143232E-09
     10425   1  1.526765E-04 -5.039004E-05 -5.037042E-05  7.924964E-06  6.407585E-07 -2.568997E-09
     10426   1  1.526765E-04 -5.038637E-05 -5.037011E-05  8.266724E-06  7.743469E-07 -8.748180E-09
     10427   1  1.526765E-04 -5.037600E-05 -5.038160E-05  8.856101E-06  6.334099E-07 -1.223827E-08
     10428   1  1.526765E-04 -5.038739E-05 -5.040151E-05  9.932609E-06  2.312769E-07  1.255851E-08
     10429   1  1.145074E-04 -3.780472E-05 -3.776765E-05  1.452033E-05 -1.262003E-07  1.338231E-09
     10430   1  1.145074E-04 -3.778746E-05 -3.779243E-05  1.331918E-05 -3.183546E-07 -1.338584E-08
     10431   1  1.145074E-04 -3.778041E-05 -3.778943E-05  1.249380E-05 -4.059921E-07  5.307214E-09
     10432   1  1.145074E-04 -3.778952E-05 -3.777949E-05  1.198339E-05 -3.623584E-07  1.425092E-09
     10433   1  1.145074E-04 -3.778944E-05 -3.778100E-05  1.170197E-05 -2.069305E-07  1.156261E-09
     10434   1  1.145074E-04 -3.779001E-05 -3.777813E-05  1.161084E-05 -4.146470E-12  2.646221E-12
     10435   1  1.145074E-04 -3.778944E-05 -3.778100E-05  1.170198E-05  2.069223E-07 -1.151521E-09
     10436   1  1.145074E-04 -3.778951E-05 -3.777949E-05  1.198339E-05  3.623511E-07 -1.420398E-09
     10437   1  1.145074E-04 -3.778041E-05 -3.778942E-05  1.249380E-05  4.059860E-07 -5.303758E-09
     10438   1  1.145074E-04 -3.778745E-05 -3.779242E-05  1.331919E-05  3.183505E-07  1.338846E-08
     10439   1  1.145074E-04 -3.780471E-05 -3.776765E-05  1.452034E-05  1.261988E-07 -1.337695E-09
     10440   1  7.633825E-05 -2.519466E-05 -2.519651E-05  1.772536E-05 -5.843294E-08 -5.327574E-09
     10441   1  7.633825E-05 -2.519434E-05 -2.518668E-05  1.645285E-05 -1.613825E-07  4.299271E-10
     10442   1  7.633824E-05 -2.519141E-05 -2.519185E-05  1.553576E-05 -2.068060E-07 -1.015385E-08
     10443   1  7.633824E-05 -2.518759E-05 -2.519259E-05  1.492193E-05 -1.868209E-07  1.575327E-09
     10444   1  7.633824E-05 -2.519294E-05 -2.518643E-05  1.457597E-05 -1.104271E-07 -1.536641E-09
     10445   1  7.633824E-05 -2.519111E-05 -2.518915E-05  1.446381E-05 -2.789522E-12  3.094351E-12
     10446   1  7.633824E-05 -2.519294E-05 -2.518643E-05  1.457597E-05  1.104216E-07  1.542235E-09
     10447   1  7.633824E-05 -2.518759E-05 -2.519259E-05  1.492194E-05  1.868160E-07 -1.569727E-09
     10448   1  7.633824E-05 -2.519141E-05 -2.519184E-05  1.553577E-05  2.068019E-07  1.015821E-08
     10449   1  7.633824E-05 -2.519434E-05 -2.518668E-05  1.645286E-05  1.613798E-07 -4.263389E-10
     10450   1  7.633823E-05 -2.519466E-05 -2.519651E-05  1.772537E-05  5.843189E-08  5.328729E-09
     10451   1  3.816912E-05 -1.260092E-05 -1.259047E-05  1.962260E-05 -2.573154E-08 -7.039272E-10
     10452   1  3.816912E-05 -1.259610E-05 -1.259749E-05  1.832412E-05 -6.642379E-08 -1.030507E-08
     10453   1  3.816912E-05 -1.259477E-05 -1.259555E-05  1.735702E-05 -8.711434E-08 -7.150370E-10
     10454   1  3.816912E-05 -1.259586E-05 -1.259480E-05  1.669890E-05 -7.935392E-08 -8.007244E-09
     10455   1  3.816912E-05 -1.259403E-05 -1.259608E-05  1.631658E-05 -4.673723E-08  1.409249E-10
     10456   1  3.816912E-05 -1.259645E-05 -1.259324E-05  1.619261E-05 -1.395913E-12  3.337165E-12
     10457   1  3.816912E-05 -1.259403E-05 -1.259608E-05  1.631658E-05  4.673446E-08 -1.348874E-10
     10458   1  3.816912E-05 -1.259586E-05 -1.259480E-05  1.669890E-05  7.935145E-08  8.013281E-09
     10459   1  3.816912E-05 -1.259477E-05 -1.259555E-05  1.735703E-05  8.711227E-08  7.196600E-10
     10460   1  3.816912E-05 -1.259610E-05 -1.259749E-05  1.832413E-05  6.642239E-08  1.030866E-08
     10461   1  3.816912E-05 -1.260092E-05 -1.259046E-05  1.962262E-05  2.573104E-08  7.048335E-10
     10462   1  4.794624E-13 -1.071448E-12  2.701017E-13  2.025232E-05 -6.050062E-14 -4.140333E-09
     10463   1  3.485973E-13 -2.730455E-13  1.943040E-13  1.894417E-05 -2.001311E-13 -1.741164E-09
     10464   1 -6.193776E-14  6.881995E-13  3.555596E-13  1.796587E-05 -2.664069E-13 -1.101834E-08
     10465   1 -3.824490E-13  1.353764E-12  4.130567E-13  1.729130E-05 -2.636969E-13 -6.729989E-10
     10466   1 -6.320582E-13  1.663267E-12  5.886670E-13  1.690023E-05 -1.400130E-13 -4.575541E-09
     10467   1 -6.683261E-13  1.740635E-12  5.557513E-13  1.677111E-05 -1.208765E-14  3.409271E-12
     10468   1 -6.351397E-13  1.660422E-12  5.925167E-13  1.690023E-05  1.664772E-13  4.581726E-09
     10469   1 -3.862896E-13  1.380063E-12  4.062851E-13  1.729130E-05  2.436074E-13  6.792312E-10
     10470   1 -1.315618E-13  8.654744E-13  3.610025E-13  1.796588E-05  2.779180E-13  1.102326E-08
     10471   1  1.916240E-13  2.277345E-13  1.913945E-13  1.894418E-05  1.865223E-13  1.745237E-09
     10472   1  2.323812E-13 -2.614298E-13  2.667367E-13  2.025233E-05  7.079543E-14  4.141625E-09
     10473   1 -3.816912E-05  1.260092E-05  1.259047E-05  1.962260E-05  2.573142E-08 -7.039265E-10
     10474   1 -3.816912E-05  1.259610E-05  1.259749E-05  1.832412E-05  6.642343E-08 -1.030506E-08
     10475   1 -3.816912E-05  1.259476E-05  1.259555E-05  1.735702E-05  8.711386E-08 -7.150277E-10
     10476   1 -3.816912E-05  1.259585E-05  1.259480E-05  1.669890E-05  7.935339E-08 -8.007239E-09
     10477   1 -3.816912E-05  1.259403E-05  1.259608E-05  1.631658E-05  4.673695E-08  1.409215E-10
     10478   1 -3.816912E-05  1.259645E-05  1.259324E-05  1.619261E-05  1.366572E-12  3.339067E-12
     10479   1 -3.816912E-05  1.259402E-05  1.259608E-05  1.631658E-05 -4.673412E-08 -1.348914E-10
     10480   1 -3.816912E-05  1.259585E-05  1.259480E-05  1.669890E-05 -7.935098E-08  8.013280E-09
     10481   1 -3.816912E-05  1.259476E-05  1.259555E-05  1.735703E-05 -8.711174E-08  7.196452E-10
     10482   1 -3.816912E-05  1.259609E-05  1.259749E-05  1.832413E-05 -6.642205E-08  1.030864E-08
     10483   1 -3.816912E-05  1.260091E-05  1.259046E-05  1.962261E-05 -2.573092E-08  7.048230E-10
     10484   1 -7.633825E-05  2.519466E-05  2.519651E-05  1.772536E-05  5.843282E-08 -5.327554E-09
     10485   1 -7.633824E-05  2.519434E-05  2.518668E-05  1.645284E-05  1.613820E-07  4.299539E-10
     10486   1 -7.633825E-05  2.519141E-05  2.519185E-05  1.553576E-05  2.068054E-07 -1.015385E-08
     10487   1 -7.633824E-05  2.518759E-05  2.519259E-05  1.492193E-05  1.868203E-07  1.575334E-09
     10488   1 -7.633824E-05  2.519295E-05  2.518644E-05  1.457597E-05  1.104268E-07 -1.536654E-09
     10489   1 -7.633824E-05  2.519112E-05  2.518915E-05  1.446381E-05  2.777331E-12  3.102545E-12
     10490   1 -7.633824E-05  2.519295E-05  2.518643E-05  1.457597E-05 -1.104213E-07  1.542226E-09
     10491   1 -7.633824E-05  2.518759E-05  2.519259E-05  1.492194E-05 -1.868154E-07 -1.569719E-09
     10492   1 -7.633824E-05  2.519141E-05  2.519185E-05  1.553577E-05 -2.068013E-07  1.015819E-08
     10493   1 -7.633823E-05  2.519434E-05  2.518667E-05  1.645286E-05 -1.613793E-07 -4.263556E-10
     10494   1 -7.633824E-05  2.519466E-05  2.519651E-05  1.772537E-05 -5.843174E-08  5.328707E-09
     10495   1 -1.145074E-04  3.780472E-05  3.776766E-05  1.452033E-05  1.262002E-07  1.338223E-09
     10496   1 -1.145074E-04  3.778746E-05  3.779242E-05  1.331918E-05  3.183541E-07 -1.338582E-08
     10497   1 -1.145074E-04  3.778041E-05  3.778943E-05  1.249380E-05  4.059916E-07  5.307222E-09
     10498   1 -1.145074E-04  3.778951E-05  3.777949E-05  1.198339E-05  3.623578E-07  1.425084E-09
     10499   1 -1.145074E-04  3.778944E-05  3.778100E-05  1.170197E-05  2.069301E-07  1.156243E-09
     10500   1 -1.145074E-04  3.779000E-05  3.777813E-05  1.161084E-05  4.196510E-12  2.655997E-12
     10501   1 -1.145074E-04  3.778943E-05  3.778100E-05  1.170198E-05 -2.069221E-07 -1.151529E-09
     10502   1 -1.145074E-04  3.778951E-05  3.777949E-05  1.198339E-05 -3.623504E-07 -1.420373E-09
     10503   1 -1.145074E-04  3.778040E-05  3.778943E-05  1.249380E-05 -4.059855E-07 -5.303781E-09
     10504   1 -1.145074E-04  3.778745E-05  3.779242E-05  1.331919E-05 -3.183499E-07  1.338845E-08
     10505   1 -1.145074E-04  3.780471E-05  3.776765E-05  1.452034E-05 -1.261987E-07 -1.337711E-09
     10506   1 -1.526765E-04  5.038740E-05  5.040152E-05  9.932601E-06  2.312787E-07 -1.255789E-08
     10507   1 -1.526765E-04  5.037600E-05  5.038160E-05  8.856095E-06  6.334145E-07  1.224024E-08
     10508   1 -1.526765E-04  5.038638E-05  5.037012E-05  8.266719E-06  7.743538E-07  8.750540E-09
     10509   1 -1.526765E-04  5.039004E-05  5.037041E-05  7.924961E-06  6.407674E-07  2.572434E-09
     10510   1 -1.526765E-04  5.038663E-05  5.037023E-05  7.736565E-06  3.580931E-07  2.146487E-09
     10511   1 -1.526765E-04  5.039158E-05  5.036933E-05  7.679059E-06  5.658124E-12  1.946321E-12
     10512   1 -1.526765E-04  5.038663E-05  5.037023E-05  7.736566E-06 -3.580830E-07 -2.143223E-09
     10513   1 -1.526765E-04  5.039004E-05  5.037041E-05  7.924964E-06 -6.407575E-07 -2.568977E-09
     10514   1 -1.526765E-04  5.038638E-05  5.037012E-05  8.266723E-06 -7.743463E-07 -8.748167E-09
     10515   1 -1.526765E-04  5.037600E-05  5.038159E-05  8.856101E-06 -6.334091E-07 -1.223827E-08
     10516   1 -1.526765E-04  5.038740E-05  5.040152E-05  9.932608E-06 -2.312768E-07  1.255848E-08
     10517   1 -1.908456E-04  6.301666E-05  6.292111E-05  3.648020E-06  6.234956E-07  1.932273E-08
     10518   1 -1.908456E-04  6.298048E-05  6.295251E-05  3.134942E-06  1.347986E-06  1.189844E-08
     10519   1 -1.908456E-04  6.299857E-05  6.295167E-05  2.938749E-06  1.372507E-06  2.328808E-09
     10520   1 -1.908456E-04  6.298225E-05  6.296174E-05  2.809205E-06  1.070272E-06  2.782796E-09
     10521   1 -1.908456E-04  6.299309E-05  6.295838E-05  2.747208E-06  5.776200E-07  3.924341E-10
     10522   1 -1.908456E-04  6.298282E-05  6.296332E-05  2.724423E-06  6.964329E-12  8.064731E-13
     10523   1 -1.908456E-04  6.299309E-05  6.295838E-05  2.747208E-06 -5.776086E-07 -3.913565E-10
     10524   1 -1.908456E-04  6.298224E-05  6.296174E-05  2.809206E-06 -1.070260E-06 -2.781361E-09
     10525   1 -1.908456E-04  6.299857E-05  6.295166E-05  2.938751E-06 -1.372498E-06 -2.328184E-09
     10526   1 -1.908456E-04  6.298047E-05  6.295250E-05  3.134944E-06 -1.347979E-06 -1.189768E-08
     10527   1 -1.908456E-04  6.301665E-05  6.292110E-05  3.648021E-06 -6.234937E-07 -1.932315E-08
     10528   1  1.863017E-04 -6.151626E-05 -6.142298E-05  3.648019E-06 -6.234966E-07  1.886380E-08
     10529   1  1.863017E-04 -6.148095E-05 -6.145365E-05  3.134942E-06 -1.347987E-06  1.161488E-08
     10530   1  1.863017E-04 -6.149861E-05 -6.145281E-05  2.938749E-06 -1.372510E-06  2.273978E-09
     10531   1  1.863017E-04 -6.148267E-05 -6.146266E-05  2.809206E-06 -1.070273E-06  2.716261E-09
     10532   1  1.863017E-04 -6.149325E-05 -6.145936E-05  2.747208E-06 -5.776229E-07  3.834788E-10
     10533   1  1.863017E-04 -6.148322E-05 -6.146420E-05  2.724423E-06 -7.273047E-12  5.222007E-13
     10534   1  1.863017E-04 -6.149325E-05 -6.145936E-05  2.747208E-06  5.776069E-07 -3.817279E-10
     10535   1  1.863016E-04 -6.148266E-05 -6.146265E-05  2.809207E-06  1.070261E-06 -2.715340E-09
     10536   1  1.863016E-04 -6.149860E-05 -6.145280E-05  2.938751E-06  1.372498E-06 -2.272461E-09
     10537   1  1.863016E-04 -6.148094E-05 -6.145364E-05  3.134945E-06  1.347980E-06 -1.161452E-08
     10538   1  1.863016E-04 -6.151625E-05 -6.142297E-05  3.648022E-06  6.234936E-07 -1.886283E-08
     10539   1  1.490413E-04 -4.918770E-05 -4.920148E-05  9.932604E-06 -2.312790E-07 -1.225913E-08
     10540   1  1.490413E-04 -4.917658E-05 -4.918204E-05  8.856096E-06 -6.334159E-07  1.194838E-08
     10541   1  1.490413E-04 -4.918671E-05 -4.917083E-05  8.266720E-06 -7.743556E-07  8.542479E-09
     10542   1  1.490413E-04 -4.919028E-05 -4.917112E-05  7.924962E-06 -6.407690E-07  2.510937E-09
     10543   1  1.490413E-04 -4.918695E-05 -4.917093E-05  7.736566E-06 -3.580948E-07  2.095752E-09
     10544   1  1.490413E-04 -4.919178E-05 -4.917007E-05  7.679060E-06 -6.148770E-12  1.646515E-12
     10545   1  1.490413E-04 -4.918695E-05 -4.917093E-05  7.736567E-06  3.580823E-07 -2.091824E-09
     10546   1  1.490413E-04 -4.919028E-05 -4.917112E-05  7.924965E-06  6.407581E-07 -2.507991E-09
     10547   1  1.490413E-04 -4.918670E-05 -4.917082E-05  8.266724E-06  7.743462E-07 -8.539453E-09
     10548   1  1.490413E-04 -4.917657E-05 -4.918203E-05  8.856102E-06  6.334096E-07 -1.194701E-08
     10549   1  1.490413E-04 -4.918770E-05 -4.920147E-05  9.932610E-06  2.312767E-07  1.225975E-08
     10550   1  1.117810E-04 -3.690460E-05 -3.686842E-05  1.452033E-05 -1.262006E-07  1.307092E-09
     10551   1  1.117810E-04 -3.688776E-05 -3.689261E-05  1.331918E-05 -3.183551E-07 -1.306694E-08
     10552   1  1.117810E-04 -3.688087E-05 -3.688968E-05  1.249380E-05 -4.059927E-07  5.181322E-09
     10553   1  1.117810E-04 -3.688976E-05 -3.687998E-05  1.198339E-05 -3.623592E-07  1.390998E-09
     10554   1  1.117810E-04 -3.688969E-05 -3.688145E-05  1.170197E-05 -2.069311E-07  1.128973E-09
     10555   1  1.117810E-04 -3.689024E-05 -3.687865E-05  1.161084E-05 -4.748892E-12  2.322737E-12
     10556   1  1.117810E-04 -3.688969E-05 -3.688145E-05  1.170198E-05  2.069220E-07 -1.123825E-09
     10557   1  1.117810E-04 -3.688976E-05 -3.687998E-05  1.198339E-05  3.623508E-07 -1.386734E-09
     10558   1  1.117810E-04 -3.688087E-05 -3.688967E-05  1.249381E-05  4.059858E-07 -5.177065E-09
     10559   1  1.117810E-04 -3.688775E-05 -3.689260E-05  1.331919E-05  3.183503E-07  1.306963E-08
     10560   1  1.117810E-04 -3.690460E-05 -3.686842E-05  1.452034E-05  1.261988E-07 -1.305459E-09
     10561   1  7.452067E-05 -2.459479E-05 -2.459659E-05  1.772536E-05 -5.843297E-08 -5.200821E-09
     10562   1  7.452067E-05 -2.459448E-05 -2.458700E-05  1.645285E-05 -1.613829E-07  4.190893E-10
     10563   1  7.452067E-05 -2.459162E-05 -2.459204E-05  1.553576E-05 -2.068064E-07 -9.911990E-09
     10564   1  7.452067E-05 -2.458789E-05 -2.459276E-05  1.492193E-05 -1.868214E-07  1.537434E-09
     10565   1  7.452067E-05 -2.459312E-05 -2.458676E-05  1.457597E-05 -1.104275E-07 -1.499897E-09
     10566   1  7.452066E-05 -2.459133E-05 -2.458941E-05  1.446381E-05 -3.139829E-12  2.646230E-12
     10567   1  7.452066E-05 -2.459312E-05 -2.458675E-05  1.457597E-05  1.104215E-07  1.505737E-09
     10568   1  7.452066E-05 -2.458789E-05 -2.459276E-05  1.492194E-05  1.868158E-07 -1.532589E-09
     10569   1  7.452066E-05 -2.459162E-05 -2.459204E-05  1.553577E-05  2.068018E-07  9.916738E-09
     10570   1  7.452066E-05 -2.459448E-05 -2.458699E-05  1.645286E-05  1.613797E-07 -4.163443E-10
     10571   1  7.452066E-05 -2.459479E-05 -2.459659E-05  1.772537E-05  5.843187E-08  5.202158E-09
     10572   1  3.726034E-05 -1.230090E-05 -1.229069E-05  1.962260E-05 -2.573167E-08 -6.864799E-10
     10573   1  3.726034E-05 -1.229619E-05 -1.229755E-05  1.832411E-05 -6.642403E-08 -1.005958E-08
     10574   1  3.726033E-05 -1.229489E-05 -1.229565E-05  1.735702E-05 -8.711465E-08 -6.975917E-10
     10575   1  3.726033E-05 -1.229595E-05 -1.229492E-05  1.669890E-05 -7.935426E-08 -7.816965E-09
     10576   1  3.726033E-05 -1.229417E-05 -1.229617E-05  1.631658E-05 -4.673743E-08  1.376848E-10
     10577   1  3.726033E-05 -1.229653E-05 -1.229340E-05  1.619261E-05 -1.558799E-12  2.779169E-12
     10578   1  3.726033E-05 -1.229417E-05 -1.229617E-05  1.631658E-05  4.673448E-08 -1.315039E-10
     10579   1  3.726033E-05 -1.229595E-05 -1.229492E-05  1.669890E-05  7.935148E-08  7.822163E-09
     10580   1  3.726033E-05 -1.229489E-05 -1.229565E-05  1.735703E-05  8.711241E-08  7.029040E-10
     10581   1  3.726033E-05 -1.229619E-05 -1.229755E-05  1.832413E-05  6.642247E-08  1.006307E-08
     10582   1  3.726033E-05 -1.230089E-05 -1.229069E-05  1.962262E-05  2.573109E-08  6.884608E-10
     10583   1  1.173872E-12 -1.423431E-12  1.941736E-13  2.025232E-05 -1.313478E-13 -4.041812E-09
     10584   1  1.265513E-12 -2.163450E-12  3.130452E-13  1.894417E-05 -3.327617E-13 -1.700434E-09
     10585   1  1.373396E-12 -3.117923E-12  4.182306E-13  1.796587E-05 -4.698118E-13 -1.075596E-08
     10586   1  1.284093E-12 -3.750195E-12  7.086268E-13  1.729130E-05 -4.207011E-13 -6.574905E-10
     10587   1  1.190764E-12 -4.008752E-12  8.146367E-13  1.690023E-05 -2.788391E-13 -4.466526E-09
     10588   1  1.094241E-12 -4.061709E-12  9.571114E-13  1.677111E-05  2.062963E-14  2.822078E-12
     10589   1  1.197436E-12 -4.006559E-12  8.084451E-13  1.690023E-05  2.450324E-13  4.472786E-09
     10590   1  1.289871E-12 -3.781100E-12  7.184826E-13  1.729130E-05  4.554795E-13  6.627160E-10
     10591   1  1.465189E-12 -3.331502E-12  4.074956E-13  1.796588E-05  4.558412E-13  1.076115E-08
     10592   1  1.463341E-12 -2.779152E-12  3.175355E-13  1.894419E-05  3.552846E-13  1.703450E-09
     10593   1  1.487608E-12 -2.428419E-12  1.949764E-13  2.025233E-05  1.193796E-13  4.043336E-09
     10594   1 -3.726033E-05  1.230089E-05  1.229069E-05  1.962260E-05  2.573141E-08 -6.864610E-10
     10595   1 -3.726033E-05  1.229619E-05  1.229755E-05  1.832411E-05  6.642328E-08 -1.005956E-08
     10596   1 -3.726033E-05  1.229489E-05  1.229565E-05  1.735702E-05  8.711360E-08 -6.975812E-10
     10597   1 -3.726033E-05  1.229596E-05  1.229492E-05  1.669890E-05  7.935337E-08 -7.816967E-09
     10598   1 -3.726033E-05  1.229417E-05  1.229617E-05  1.631658E-05  4.673684E-08  1.376866E-10
     10599   1 -3.726033E-05  1.229654E-05  1.229341E-05  1.619261E-05  1.605226E-12  2.773519E-12
     10600   1 -3.726033E-05  1.229417E-05  1.229617E-05  1.631658E-05 -4.673397E-08 -1.314999E-10
     10601   1 -3.726033E-05  1.229596E-05  1.229492E-05  1.669890E-05 -7.935052E-08  7.822155E-09
     10602   1 -3.726033E-05  1.229489E-05  1.229565E-05  1.735703E-05 -8.711143E-08  7.028979E-10
     10603   1 -3.726033E-05  1.229619E-05  1.229755E-05  1.832413E-05 -6.642170E-08  1.006304E-08
     10604   1 -3.726033E-05  1.230089E-05  1.229069E-05  1.962262E-05 -2.573082E-08  6.884540E-10
     10605   1 -7.452067E-05  2.459479E-05  2.459659E-05  1.772536E-05  5.843267E-08 -5.200809E-09
     10606   1 -7.452067E-05  2.459448E-05  2.458700E-05  1.645285E-05  1.613822E-07  4.191112E-10
     10607   1 -7.452067E-05  2.459161E-05  2.459204E-05  1.553576E-05  2.068053E-07 -9.911962E-09
     10608   1 -7.452067E-05  2.458788E-05  2.459277E-05  1.492193E-05  1.868205E-07  1.537418E-09
     10609   1 -7.452066E-05  2.459311E-05  2.458676E-05  1.457597E-05  1.104269E-07 -1.499891E-09
     10610   1 -7.452066E-05  2.459132E-05  2.458941E-05  1.446381E-05  3.153896E-12  2.629030E-12
     10611   1 -7.452066E-05  2.459311E-05  2.458675E-05  1.457597E-05 -1.104209E-07  1.505756E-09
     10612   1 -7.452066E-05  2.458788E-05  2.459277E-05  1.492194E-05 -1.868149E-07 -1.532604E-09
     10613   1 -7.452066E-05  2.459161E-05  2.459204E-05  1.553577E-05 -2.068008E-07  9.916734E-09
     10614   1 -7.452066E-05  2.459447E-05  2.458699E-05  1.645286E-05 -1.613789E-07 -4.163858E-10
     10615   1 -7.452065E-05  2.459479E-05  2.459659E-05  1.772537E-05 -5.843160E-08  5.202150E-09
     10616   1 -1.117810E-04  3.690460E-05  3.686842E-05  1.452032E-05  1.262003E-07  1.307137E-09
     10617   1 -1.117810E-04  3.688776E-05  3.689261E-05  1.331918E-05  3.183542E-07 -1.306692E-08
     10618   1 -1.117810E-04  3.688088E-05  3.688967E-05  1.249380E-05  4.059914E-07  5.181315E-09
     10619   1 -1.117810E-04  3.688977E-05  3.687999E-05  1.198339E-05  3.623581E-07  1.390973E-09
     10620   1 -1.117810E-04  3.688969E-05  3.688145E-05  1.170197E-05  2.069304E-07  1.128969E-09
     10621   1 -1.117810E-04  3.689024E-05  3.687866E-05  1.161084E-05  4.660272E-12  2.301937E-12
     10622   1 -1.117810E-04  3.688969E-05  3.688145E-05  1.170197E-05 -2.069212E-07 -1.123792E-09
     10623   1 -1.117810E-04  3.688976E-05  3.687998E-05  1.198339E-05 -3.623498E-07 -1.386744E-09
     10624   1 -1.117810E-04  3.688087E-05  3.688967E-05  1.249380E-05 -4.059844E-07 -5.177040E-09
     10625   1 -1.117810E-04  3.688775E-05  3.689261E-05  1.331919E-05 -3.183495E-07  1.306959E-08
     10626   1 -1.117810E-04  3.690460E-05  3.686841E-05  1.452034E-05 -1.261984E-07 -1.305476E-09
     10627   1 -1.490413E-04  4.918770E-05  4.920147E-05  9.932603E-06  2.312785E-07 -1.225918E-08
     10628   1 -1.490413E-04  4.917657E-05  4.918205E-05  8.856095E-06  6.334150E-07  1.194840E-08
     10629   1 -1.490413E-04  4.918670E-05  4.917082E-05  8.266719E-06  7.743541E-07  8.542464E-09
     10630   1 -1.490413E-04  4.919028E-05  4.917113E-05  7.924961E-06  6.407677E-07  2.510898E-09
     10631   1 -1.490413E-04  4.918695E-05  4.917092E-05  7.736565E-06  3.580942E-07  2.095739E-09
     10632   1 -1.490413E-04  4.919178E-05  4.917008E-05  7.679059E-06  5.938881E-12  1.636739E-12
     10633   1 -1.490413E-04  4.918694E-05  4.917092E-05  7.736566E-06 -3.580812E-07 -2.091800E-09
     10634   1 -1.490413E-04  4.919027E-05  4.917113E-05  7.924964E-06 -6.407571E-07 -2.507967E-09
     10635   1 -1.490413E-04  4.918670E-05  4.917082E-05  8.266724E-06 -7.743445E-07 -8.539432E-09
     10636   1 -1.490413E-04  4.917657E-05  4.918204E-05  8.856101E-06 -6.334088E-07 -1.194702E-08
     10637   1 -1.490413E-04  4.918769E-05  4.920146E-05  9.932609E-06 -2.312763E-07  1.225977E-08
     10638   1 -1.863017E-04  6.151626E-05  6.142297E-05  3.648018E-06  6.234960E-07  1.886402E-08
     10639   1 -1.863017E-04  6.148095E-05  6.145366E-05  3.134942E-06  1.347986E-06  1.161474E-08
     10640   1 -1.863017E-04  6.149861E-05  6.145280E-05  2.938749E-06  1.372508E-06  2.274032E-09
     10641   1 -1.863017E-04  6.148267E-05  6.146267E-05  2.809205E-06  1.070272E-06  2.716203E-09
     10642   1 -1.863017E-04  6.149326E-05  6.145936E-05  2.747207E-06  5.776222E-07  3.834787E-10
     10643   1 -1.863017E-04  6.148323E-05  6.146421E-05  2.724423E-06  6.987829E-12  5.325047E-13
     10644   1 -1.863017E-04  6.149326E-05  6.145936E-05  2.747208E-06 -5.776056E-07 -3.817509E-10
     10645   1 -1.863017E-04  6.148267E-05  6.146266E-05  2.809207E-06 -1.070259E-06 -2.715266E-09
     10646   1 -1.863016E-04  6.149860E-05  6.145279E-05  2.938751E-06 -1.372496E-06 -2.272532E-09
     10647   1 -1.863016E-04  6.148094E-05  6.145365E-05  3.134944E-06 -1.347979E-06 -1.161438E-08
     10648   1 -1.863016E-04  6.151625E-05  6.142296E-05  3.648021E-06 -6.234928E-07 -1.886302E-08
     10649   1  1.817577E-04 -6.001587E-05 -5.992486E-05  3.648020E-06 -6.234965E-07  1.840240E-08
     10650   1  1.817577E-04 -5.998142E-05 -5.995478E-05  3.134942E-06 -1.347989E-06  1.133194E-08
     10651   1  1.817577E-04 -5.999865E-05 -5.995396E-05  2.938750E-06 -1.372510E-06  2.217854E-09
     10652   1  1.817577E-04 -5.998310E-05 -5.996357E-05  2.809206E-06 -1.070276E-06  2.650431E-09
     10653   1  1.817577E-04 -5.999343E-05 -5.996036E-05  2.747208E-06 -5.776233E-07  3.736191E-10
     10654   1  1.817577E-04 -5.998364E-05 -5.996507E-05  2.724424E-06 -9.811465E-12  8.982091E-13
     10655   1  1.817577E-04 -5.999342E-05 -5.996035E-05  2.747209E-06  5.776069E-07 -3.728621E-10
     10656   1  1.817577E-04 -5.998309E-05 -5.996356E-05  2.809207E-06  1.070259E-06 -2.648682E-09
     10657   1  1.817577E-04 -5.999864E-05 -5.995395E-05  2.938751E-06  1.372498E-06 -2.217397E-09
     10658   1  1.817577E-04 -5.998141E-05 -5.995477E-05  3.134945E-06  1.347979E-06 -1.133077E-08
     10659   1  1.817577E-04 -6.001586E-05 -5.992485E-05  3.648022E-06  6.234936E-07 -1.840324E-08
     10660   1  1.454062E-04 -4.798800E-05 -4.800144E-05  9.932601E-06 -2.312795E-07 -1.195975E-08
     10661   1  1.454062E-04 -4.797715E-05 -4.798248E-05  8.856095E-06 -6.334166E-07  1.165779E-08
     10662   1  1.454062E-04 -4.798703E-05 -4.797154E-05  8.266720E-06 -7.743564E-07  8.333909E-09
     10663   1  1.454062E-04 -4.799051E-05 -4.797183E-05  7.924962E-06 -6.407703E-07  2.450081E-09
     10664   1  1.454062E-04 -4.798727E-05 -4.797164E-05  7.736566E-06 -3.580954E-07  2.044039E-09
     10665   1  1.454062E-04 -4.799198E-05 -4.797080E-05  7.679060E-06 -7.292644E-12  1.840594E-12
     10666   1  1.454062E-04 -4.798726E-05 -4.797164E-05  7.736568E-06  3.580820E-07 -2.041366E-09
     10667   1  1.454062E-04 -4.799051E-05 -4.797182E-05  7.924965E-06  6.407573E-07 -2.446453E-09
     10668   1  1.454062E-04 -4.798702E-05 -4.797153E-05  8.266725E-06  7.743461E-07 -8.331491E-09
     10669   1  1.454062E-04 -4.797714E-05 -4.798247E-05  8.856103E-06  6.334093E-07 -1.165509E-08
     10670   1  1.454062E-04 -4.798799E-05 -4.800143E-05  9.932612E-06  2.312767E-07  1.196054E-08
     10671   1  1.090546E-04 -3.600450E-05 -3.596919E-05  1.452033E-05 -1.262006E-07  1.274273E-09
     10672   1  1.090546E-04 -3.598806E-05 -3.599279E-05  1.331918E-05 -3.183556E-07 -1.274839E-08
     10673   1  1.090546E-04 -3.598135E-05 -3.598993E-05  1.249380E-05 -4.059934E-07  5.054236E-09
     10674   1  1.090546E-04 -3.599002E-05 -3.598047E-05  1.198339E-05 -3.623597E-07  1.357047E-09
     10675   1  1.090546E-04 -3.598995E-05 -3.598190E-05  1.170197E-05 -2.069316E-07  1.100678E-09
     10676   1  1.090546E-04 -3.599048E-05 -3.597917E-05  1.161084E-05 -5.029986E-12  2.206465E-12
     10677   1  1.090546E-04 -3.598994E-05 -3.598190E-05  1.170198E-05  2.069217E-07 -1.097107E-09
     10678   1  1.090546E-04 -3.599001E-05 -3.598047E-05  1.198340E-05  3.623507E-07 -1.352737E-09
     10679   1  1.090546E-04 -3.598134E-05 -3.598993E-05  1.249381E-05  4.059857E-07 -5.051178E-09
     10680   1  1.090546E-04 -3.598805E-05 -3.599278E-05  1.331919E-05  3.183502E-07  1.275128E-08
     10681   1  1.090546E-04 -3.600449E-05 -3.596919E-05  1.452034E-05  1.261988E-07 -1.273989E-09
     10682   1  7.270310E-05 -2.399492E-05 -2.399668E-05  1.772535E-05 -5.843323E-08 -5.073824E-09
     10683   1  7.270309E-05 -2.399461E-05 -2.398731E-05  1.645284E-05 -1.613831E-07  4.096593E-10
     10684   1  7.270309E-05 -2.399182E-05 -2.399224E-05  1.553576E-05 -2.068069E-07 -9.670705E-09
     10685   1  7.270309E-05 -2.398818E-05 -2.399294E-05  1.492193E-05 -1.868218E-07  1.499888E-09
     10686   1  7.270309E-05 -2.399328E-05 -2.398708E-05  1.457597E-05 -1.104278E-07 -1.464323E-09
     10687   1  7.270309E-05 -2.399154E-05 -2.398966E-05  1.446381E-05 -3.189677E-12  2.324506E-12
     10688   1  7.270308E-05 -2.399328E-05 -2.398708E-05  1.457597E-05  1.104214E-07  1.468068E-09
     10689   1  7.270308E-05 -2.398818E-05 -2.399294E-05  1.492194E-05  1.868160E-07 -1.495188E-09
     10690   1  7.270308E-05 -2.399182E-05 -2.399223E-05  1.553577E-05  2.068020E-07  9.674316E-09
     10691   1  7.270308E-05 -2.399461E-05 -2.398731E-05  1.645286E-05  1.613798E-07 -4.057428E-10
     10692   1  7.270308E-05 -2.399491E-05 -2.399667E-05  1.772537E-05  5.843191E-08  5.074976E-09
     10693   1  3.635155E-05 -1.200088E-05 -1.199092E-05  1.962260E-05 -2.573172E-08 -6.707507E-10
     10694   1  3.635155E-05 -1.199629E-05 -1.199761E-05  1.832412E-05 -6.642430E-08 -9.814634E-09
     10695   1  3.635155E-05 -1.199502E-05 -1.199576E-05  1.735702E-05 -8.711499E-08 -6.817196E-10
     10696   1  3.635155E-05 -1.199606E-05 -1.199505E-05  1.669890E-05 -7.935450E-08 -7.626638E-09
     10697   1  3.635155E-05 -1.199432E-05 -1.199627E-05  1.631658E-05 -4.673764E-08  1.330952E-10
     10698   1  3.635154E-05 -1.199662E-05 -1.199356E-05  1.619261E-05 -1.529704E-12  2.322586E-12
     10699   1  3.635154E-05 -1.199432E-05 -1.199627E-05  1.631658E-05  4.673454E-08 -1.294282E-10
     10700   1  3.635154E-05 -1.199606E-05 -1.199505E-05  1.669890E-05  7.935174E-08  7.631305E-09
     10701   1  3.635154E-05 -1.199502E-05 -1.199576E-05  1.735703E-05  8.711258E-08  6.850495E-10
     10702   1  3.635154E-05 -1.199629E-05 -1.199760E-05  1.832413E-05  6.642267E-08  9.817932E-09
     10703   1  3.635154E-05 -1.200087E-05 -1.199092E-05  1.962262E-05  2.573114E-08  6.711714E-10
     10704   1  2.094524E-12 -2.619419E-12  2.105346E-13  2.025231E-05 -2.290263E-13 -3.943218E-09
     10705   1  1.539874E-12 -1.231820E-12  2.593818E-13  1.894417E-05 -6.521306E-13 -1.658207E-09
     10706   1  5.782166E-13  3.605310E-13  6.374905E-13  1.796587E-05 -8.099969E-13 -1.049430E-08
     10707   1 -2.346491E-13  1.446385E-12  9.303210E-13  1.729130E-05 -7.600247E-13 -6.416817E-10
     10708   1 -7.951563E-13  1.948636E-12  1.275528E-12  1.690023E-05 -4.041203E-13 -4.358867E-09
     10709   1 -9.353134E-13  2.074549E-12  1.299701E-12  1.677111E-05 -2.616465E-14  2.298314E-12
     10710   1 -8.015920E-13  1.943876E-12  1.284655E-12  1.690023E-05  4.625835E-13  4.362498E-09
     10711   1 -2.315106E-13  1.477291E-12  9.131997E-13  1.729130E-05  7.169389E-13  6.464183E-10
     10712   1  4.738352E-13  6.093182E-13  6.525327E-13  1.796588E-05  8.394112E-13  1.049794E-08
     10713   1  1.312524E-12 -4.854173E-13  2.465041E-13  1.894419E-05  6.248038E-13  1.662283E-09
     10714   1  1.720286E-12 -1.383435E-12  2.078417E-13  2.025234E-05  2.461398E-13  3.944323E-09
     10715   1 -3.635155E-05  1.200087E-05  1.199092E-05  1.962260E-05  2.573125E-08 -6.707504E-10
     10716   1 -3.635155E-05  1.199628E-05  1.199761E-05  1.832412E-05  6.642306E-08 -9.814607E-09
     10717   1 -3.635154E-05  1.199501E-05  1.199576E-05  1.735702E-05  8.711344E-08 -6.817122E-10
     10718   1 -3.635154E-05  1.199605E-05  1.199505E-05  1.669890E-05  7.935297E-08 -7.626633E-09
     10719   1 -3.635154E-05  1.199431E-05  1.199627E-05  1.631658E-05  4.673684E-08  1.330846E-10
     10720   1 -3.635154E-05  1.199661E-05  1.199357E-05  1.619261E-05  1.470484E-12  2.326716E-12
     10721   1 -3.635154E-05  1.199431E-05  1.199627E-05  1.631658E-05 -4.673361E-08 -1.294331E-10
     10722   1 -3.635154E-05  1.199605E-05  1.199505E-05  1.669890E-05 -7.935031E-08  7.631309E-09
     10723   1 -3.635154E-05  1.199501E-05  1.199576E-05  1.735703E-05 -8.711093E-08  6.850299E-10
     10724   1 -3.635154E-05  1.199628E-05  1.199760E-05  1.832413E-05 -6.642145E-08  9.817916E-09
     10725   1 -3.635154E-05  1.200087E-05  1.199092E-05  1.962262E-05 -2.573068E-08  6.711539E-10
     10726   1 -7.270309E-05  2.399492E-05  2.399668E-05  1.772535E-05  5.843275E-08 -5.073801E-09
     10727   1 -7.270309E-05  2.399461E-05  2.398731E-05  1.645284E-05  1.613817E-07  4.096991E-10
     10728   1 -7.270309E-05  2.399182E-05  2.399224E-05  1.553576E-05  2.068051E-07 -9.670719E-09
     10729   1 -7.270309E-05  2.398818E-05  2.399294E-05  1.492193E-05  1.868201E-07  1.499895E-09
     10730   1 -7.270309E-05  2.399328E-05  2.398708E-05  1.457597E-05  1.104269E-07 -1.464357E-09
     10731   1 -7.270309E-05  2.399154E-05  2.398966E-05  1.446381E-05  3.179907E-12  2.343308E-12
     10732   1 -7.270309E-05  2.399328E-05  2.398708E-05  1.457597E-05 -1.104205E-07  1.468052E-09
     10733   1 -7.270308E-05  2.398818E-05  2.399294E-05  1.492194E-05 -1.868144E-07 -1.495160E-09
     10734   1 -7.270308E-05  2.399182E-05  2.399224E-05  1.553577E-05 -2.068002E-07  9.674286E-09
     10735   1 -7.270308E-05  2.399461E-05  2.398731E-05  1.645286E-05 -1.613784E-07 -4.057602E-10
     10736   1 -7.270308E-05  2.399491E-05  2.399668E-05  1.772537E-05 -5.843139E-08  5.074940E-09
     10737   1 -1.090546E-04  3.600449E-05  3.596920E-05  1.452033E-05  1.262001E-07  1.274264E-09
     10738   1 -1.090546E-04  3.598805E-05  3.599278E-05  1.331918E-05  3.183541E-07 -1.274835E-08
     10739   1 -1.090546E-04  3.598134E-05  3.598994E-05  1.249380E-05  4.059915E-07  5.054230E-09
     10740   1 -1.090546E-04  3.599001E-05  3.598047E-05  1.198339E-05  3.623580E-07  1.357028E-09
     10741   1 -1.090546E-04  3.598994E-05  3.598191E-05  1.170197E-05  2.069305E-07  1.100633E-09
     10742   1 -1.090546E-04  3.599047E-05  3.597917E-05  1.161084E-05  5.174782E-12  2.229556E-12
     10743   1 -1.090546E-04  3.598994E-05  3.598191E-05  1.170197E-05 -2.069208E-07 -1.097121E-09
     10744   1 -1.090546E-04  3.599001E-05  3.598046E-05  1.198339E-05 -3.623487E-07 -1.352679E-09
     10745   1 -1.090546E-04  3.598133E-05  3.598993E-05  1.249380E-05 -4.059840E-07 -5.051210E-09
     10746   1 -1.090546E-04  3.598805E-05  3.599278E-05  1.331919E-05 -3.183486E-07  1.275127E-08
     10747   1 -1.090546E-04  3.600448E-05  3.596919E-05  1.452034E-05 -1.261983E-07 -1.274019E-09
     10748   1 -1.454062E-04  4.798800E-05  4.800146E-05  9.932598E-06  2.312789E-07 -1.195966E-08
     10749   1 -1.454062E-04  4.797715E-05  4.798247E-05  8.856093E-06  6.334146E-07  1.165777E-08
     10750   1 -1.454062E-04  4.798703E-05  4.797155E-05  8.266718E-06  7.743540E-07  8.333859E-09
     10751   1 -1.454062E-04  4.799052E-05  4.797182E-05  7.924960E-06  6.407683E-07  2.450043E-09
     10752   1 -1.454062E-04  4.798727E-05  4.797165E-05  7.736564E-06  3.580940E-07  2.043994E-09
     10753   1 -1.454062E-04  4.799198E-05  4.797079E-05  7.679058E-06  7.615230E-12  1.848517E-12
     10754   1 -1.454062E-04  4.798727E-05  4.797165E-05  7.736566E-06 -3.580812E-07 -2.041348E-09
     10755   1 -1.454062E-04  4.799051E-05  4.797182E-05  7.924963E-06 -6.407548E-07 -2.446404E-09
     10756   1 -1.454062E-04  4.798702E-05  4.797154E-05  8.266723E-06 -7.743442E-07 -8.331459E-09
     10757   1 -1.454062E-04  4.797714E-05  4.798246E-05  8.856101E-06 -6.334071E-07 -1.165508E-08
     10758   1 -1.454062E-04  4.798799E-05  4.800144E-05  9.932609E-06 -2.312761E-07  1.196050E-08
     10759   1 -1.817577E-04  6.001587E-05  5.992488E-05  3.648019E-06  6.234956E-07  1.840214E-08
     10760   1 -1.817577E-04  5.998141E-05  5.995477E-05  3.134941E-06  1.347987E-06  1.133209E-08
     10761   1 -1.817577E-04  5.999864E-05  5.995398E-05  2.938749E-06  1.372507E-06  2.217746E-09
     10762   1 -1.817577E-04  5.998309E-05  5.996356E-05  2.809205E-06  1.070274E-06  2.650448E-09
     10763   1 -1.817577E-04  5.999342E-05  5.996037E-05  2.747208E-06  5.776215E-07  3.735920E-10
     10764   1 -1.817577E-04  5.998363E-05  5.996506E-05  2.724423E-06  1.023857E-11  8.792397E-13
     10765   1 -1.817577E-04  5.999341E-05  5.996037E-05  2.747208E-06 -5.776060E-07 -3.728039E-10
     10766   1 -1.817577E-04  5.998308E-05  5.996355E-05  2.809206E-06 -1.070256E-06 -2.648731E-09
     10767   1 -1.817577E-04  5.999863E-05  5.995397E-05  2.938751E-06 -1.372496E-06 -2.217266E-09
     10768   1 -1.817577E-04  5.998140E-05  5.995476E-05  3.134944E-06 -1.347977E-06 -1.133092E-08
     10769   1 -1.817577E-04  6.001585E-05  5.992486E-05  3.648022E-06 -6.234928E-07 -1.840302E-08
     10770   1  1.772138E-04 -5.851547E-05 -5.842674E-05  3.648018E-06 -6.234977E-07  1.794426E-08
     10771   1  1.772138E-04 -5.848188E-05 -5.845591E-05  3.134942E-06 -1.347989E-06  1.104825E-08
     10772   1  1.772138E-04 -5.849868E-05 -5.845511E-05  2.938749E-06 -1.372513E-06  2.163352E-09
     10773   1  1.772138E-04 -5.848351E-05 -5.846448E-05  2.809206E-06 -1.070276E-06  2.583446E-09
     10774   1  1.772138E-04 -5.849358E-05 -5.846135E-05  2.747208E-06 -5.776264E-07  3.647616E-10
     10775   1  1.772138E-04 -5.848404E-05 -5.846594E-05  2.724424E-06 -9.412585E-12  7.364082E-14
     10776   1  1.772138E-04 -5.849358E-05 -5.846134E-05  2.747209E-06  5.776045E-07 -3.631047E-10
     10777   1  1.772138E-04 -5.848351E-05 -5.846447E-05  2.809207E-06  1.070259E-06 -2.583136E-09
     10778   1  1.772138E-04 -5.849866E-05 -5.845510E-05  2.938752E-06  1.372497E-06 -2.161371E-09
     10779   1  1.772137E-04 -5.848187E-05 -5.845590E-05  3.134945E-06  1.347980E-06 -1.104801E-08
     10780   1  1.772137E-04 -5.851546E-05 -5.842672E-05  3.648023E-06  6.234933E-07 -1.794240E-08
     10781   1  1.417710E-04 -4.678831E-05 -4.680141E-05  9.932605E-06 -2.312795E-07 -1.166120E-08
     10782   1  1.417710E-04 -4.677772E-05 -4.678292E-05  8.856097E-06 -6.334175E-07  1.136524E-08
     10783   1  1.417710E-04 -4.678736E-05 -4.677225E-05  8.266721E-06 -7.743576E-07  8.125655E-09
     10784   1  1.417710E-04 -4.679076E-05 -4.677253E-05  7.924962E-06 -6.407707E-07  2.387710E-09
     10785   1  1.417710E-04 -4.678759E-05 -4.677235E-05  7.736566E-06 -3.580965E-07  1.992949E-09
     10786   1  1.417710E-04 -4.679219E-05 -4.677153E-05  7.679060E-06 -7.171677E-12  5.751494E-13
     10787   1  1.417710E-04 -4.678759E-05 -4.677234E-05  7.736568E-06  3.580813E-07 -1.990258E-09
     10788   1  1.417710E-04 -4.679075E-05 -4.677253E-05  7.924966E-06  6.407577E-07 -2.386191E-09
     10789   1  1.417710E-04 -4.678735E-05 -4.677224E-05  8.266726E-06  7.743457E-07 -8.122747E-09
     10790   1  1.417710E-04 -4.677771E-05 -4.678291E-05  8.856104E-06  6.334094E-07 -1.136420E-08
     10791   1  1.417710E-04 -4.678829E-05 -4.680140E-05  9.932613E-06  2.312766E-07  1.166197E-08
     10792   1  1.063283E-04 -3.510438E-05 -3.506997E-05  1.452032E-05 -1.262010E-07  1.243727E-09
     10793   1  1.063283E-04 -3.508835E-05 -3.509297E-05  1.331918E-05 -3.183559E-07 -1.242972E-08
     10794   1  1.063283E-04 -3.508181E-05 -3.509018E-05  1.249380E-05 -4.059938E-07  4.928130E-09
     10795   1  1.063283E-04 -3.509026E-05 -3.508096E-05  1.198339E-05 -3.623602E-07  1.321876E-09
     10796   1  1.063283E-04 -3.509019E-05 -3.508236E-05  1.170197E-05 -2.069317E-07  1.072615E-09
     10797   1  1.063283E-04 -3.509071E-05 -3.507969E-05  1.161084E-05 -5.058620E-12  5.400459E-13
     10798   1  1.063283E-04 -3.509019E-05 -3.508235E-05  1.170198E-05  2.069220E-07 -1.070140E-09
     10799   1  1.063283E-04 -3.509026E-05 -3.508095E-05  1.198340E-05  3.623510E-07 -1.320132E-09
     10800   1  1.063283E-04 -3.508180E-05 -3.509018E-05  1.249381E-05  4.059861E-07 -4.924742E-09
     10801   1  1.063283E-04 -3.508835E-05 -3.509296E-05  1.331919E-05  3.183505E-07  1.243196E-08
     10802   1  1.063282E-04 -3.510437E-05 -3.506995E-05  1.452034E-05  1.261988E-07 -1.241494E-09
     10803   1  7.088552E-05 -2.339505E-05 -2.339676E-05  1.772536E-05 -5.843317E-08 -4.947363E-09
     10804   1  7.088552E-05 -2.339475E-05 -2.338763E-05  1.645285E-05 -1.613836E-07  3.976044E-10
     10805   1  7.088552E-05 -2.339203E-05 -2.339243E-05  1.553576E-05 -2.068071E-07 -9.429621E-09
     10806   1  7.088552E-05 -2.338848E-05 -2.339312E-05  1.492193E-05 -1.868220E-07  1.460463E-09
     10807   1  7.088551E-05 -2.339346E-05 -2.338740E-05  1.457597E-05 -1.104277E-07 -1.428673E-09
     10808   1  7.088551E-05 -2.339176E-05 -2.338992E-05  1.446381E-05 -3.045490E-12  1.597099E-13
     10809   1  7.088551E-05 -2.339346E-05 -2.338740E-05  1.457597E-05  1.104219E-07  1.430544E-09
     10810   1  7.088551E-05 -2.338848E-05 -2.339311E-05  1.492194E-05  1.868164E-07 -1.459430E-09
     10811   1  7.088551E-05 -2.339203E-05 -2.339243E-05  1.553577E-05  2.068024E-07  9.432372E-09
     10812   1  7.088550E-05 -2.339475E-05 -2.338763E-05  1.645286E-05  1.613801E-07 -3.965088E-10
     10813   1  7.088550E-05 -2.339504E-05 -2.339675E-05  1.772537E-05  5.843203E-08  4.948526E-09
     10814   1  3.544276E-05 -1.170085E-05 -1.169115E-05  1.962260E-05 -2.573193E-08 -6.528492E-10
     10815   1  3.544276E-05 -1.169638E-05 -1.169767E-05  1.832411E-05 -6.642458E-08 -9.569708E-09
     10816   1  3.544276E-05 -1.169514E-05 -1.169587E-05  1.735702E-05 -8.711530E-08 -6.648647E-10
     10817   1  3.544276E-05 -1.169615E-05 -1.169517E-05  1.669890E-05 -7.935480E-08 -7.438031E-09
     10818   1  3.544275E-05 -1.169445E-05 -1.169636E-05  1.631658E-05 -4.673763E-08  1.285646E-10
     10819   1  3.544275E-05 -1.169670E-05 -1.169372E-05  1.619261E-05 -1.421228E-12 -2.143958E-13
     10820   1  3.544275E-05 -1.169445E-05 -1.169636E-05  1.631658E-05  4.673499E-08 -1.272712E-10
     10821   1  3.544275E-05 -1.169615E-05 -1.169517E-05  1.669890E-05  7.935218E-08  7.438568E-09
     10822   1  3.544275E-05 -1.169514E-05 -1.169586E-05  1.735703E-05  8.711318E-08  6.676800E-10
     10823   1  3.544275E-05 -1.169638E-05 -1.169766E-05  1.832413E-05  6.642304E-08  9.571495E-09
     10824   1  3.544275E-05 -1.170085E-05 -1.169114E-05  1.962262E-05  2.573132E-08  6.549922E-10
     10825   1  3.654304E-12 -3.268108E-12 -3.681982E-14  2.025232E-05 -3.848981E-13 -3.844997E-09
     10826   1  3.319725E-12 -4.192383E-12  2.842511E-13  1.894417E-05 -9.556002E-13 -1.618958E-09
     10827   1  2.953910E-12 -5.487999E-12  7.249822E-13  1.796587E-05 -1.257077E-12 -1.023295E-08
     10828   1  2.421810E-12 -6.317516E-12  1.330544E-12  1.729130E-05 -1.079720E-12 -6.280333E-10
     10829   1  1.980270E-12 -6.618053E-12  1.673188E-12  1.690023E-05 -6.894489E-13 -4.251232E-09
     10830   1  1.755774E-12 -6.664391E-12  1.902253E-12  1.677111E-05  4.490046E-14 -3.458484E-13
     10831   1  1.993986E-12 -6.613321E-12  1.658071E-12  1.690023E-05  6.164640E-13  4.252258E-09
     10832   1  2.420132E-12 -6.352086E-12  1.353971E-12  1.729130E-05  1.154913E-12  6.282198E-10
     10833   1  3.095248E-12 -5.784512E-12  6.960903E-13  1.796588E-05  1.222382E-12  1.023515E-08
     10834   1  3.608552E-12 -5.106096E-12  3.003908E-13  1.894419E-05  1.002576E-12  1.619529E-09
     10835   1  4.134609E-12 -4.796955E-12 -4.464937E-14  2.025234E-05  3.659295E-13  3.846131E-09
     10836   1 -3.544276E-05  1.170085E-05  1.169115E-05  1.962259E-05  2.573114E-08 -6.528237E-10
     10837   1 -3.544276E-05  1.169637E-05  1.169767E-05  1.832411E-05  6.642253E-08 -9.569702E-09
     10838   1 -3.544276E-05  1.169514E-05  1.169587E-05  1.735702E-05  8.711261E-08 -6.648568E-10
     10839   1 -3.544276E-05  1.169615E-05  1.169517E-05  1.669890E-05  7.935256E-08 -7.438047E-09
     10840   1 -3.544276E-05  1.169446E-05  1.169636E-05  1.631658E-05  4.673620E-08  1.285646E-10
     10841   1 -3.544276E-05  1.169671E-05  1.169373E-05  1.619261E-05  1.517130E-12 -2.258479E-13
     10842   1 -3.544275E-05  1.169446E-05  1.169636E-05  1.631658E-05 -4.673373E-08 -1.272583E-10
     10843   1 -3.544275E-05  1.169615E-05  1.169517E-05  1.669890E-05 -7.934978E-08  7.438562E-09
     10844   1 -3.544275E-05  1.169514E-05  1.169586E-05  1.735703E-05 -8.711062E-08  6.676827E-10
     10845   1 -3.544275E-05  1.169637E-05  1.169767E-05  1.832413E-05 -6.642093E-08  9.571466E-09
     10846   1 -3.544275E-05  1.170085E-05  1.169114E-05  1.962262E-05 -2.573053E-08  6.549882E-10
     10847   1 -7.088552E-05  2.339505E-05  2.339676E-05  1.772536E-05  5.843233E-08 -4.947341E-09
     10848   1 -7.088552E-05  2.339475E-05  2.338764E-05  1.645285E-05  1.613815E-07  3.976187E-10
     10849   1 -7.088551E-05  2.339202E-05  2.339243E-05  1.553576E-05  2.068044E-07 -9.429589E-09
     10850   1 -7.088551E-05  2.338847E-05  2.339312E-05  1.492193E-05  1.868196E-07  1.460413E-09
     10851   1 -7.088551E-05  2.339344E-05  2.338740E-05  1.457597E-05  1.104263E-07 -1.428664E-09
     10852   1 -7.088551E-05  2.339174E-05  2.338993E-05  1.446381E-05  3.057184E-12  1.224052E-13
     10853   1 -7.088551E-05  2.339344E-05  2.338740E-05  1.457597E-05 -1.104205E-07  1.430591E-09
     10854   1 -7.088551E-05  2.338847E-05  2.339312E-05  1.492194E-05 -1.868140E-07 -1.459448E-09
     10855   1 -7.088550E-05  2.339202E-05  2.339242E-05  1.553577E-05 -2.067997E-07  9.432390E-09
     10856   1 -7.088550E-05  2.339474E-05  2.338763E-05  1.645286E-05 -1.613780E-07 -3.965655E-10
     10857   1 -7.088549E-05  2.339504E-05  2.339675E-05  1.772537E-05 -5.843123E-08  4.948524E-09
     10858   1 -1.063283E-04  3.510438E-05  3.506996E-05  1.452032E-05  1.262001E-07  1.243788E-09
     10859   1 -1.063283E-04  3.508835E-05  3.509298E-05  1.331917E-05  3.183535E-07 -1.242972E-08
     10860   1 -1.063283E-04  3.508181E-05  3.509018E-05  1.249379E-05  4.059907E-07  4.928105E-09
     10861   1 -1.063283E-04  3.509027E-05  3.508097E-05  1.198339E-05  3.623574E-07  1.321805E-09
     10862   1 -1.063283E-04  3.509020E-05  3.508235E-05  1.170197E-05  2.069303E-07  1.072609E-09
     10863   1 -1.063283E-04  3.509072E-05  3.507970E-05  1.161083E-05  4.824946E-12  4.940909E-13
     10864   1 -1.063283E-04  3.509019E-05  3.508235E-05  1.170197E-05 -2.069201E-07 -1.070067E-09
     10865   1 -1.063283E-04  3.509026E-05  3.508096E-05  1.198339E-05 -3.623486E-07 -1.320140E-09
     10866   1 -1.063283E-04  3.508181E-05  3.509017E-05  1.249380E-05 -4.059827E-07 -4.924674E-09
     10867   1 -1.063283E-04  3.508835E-05  3.509297E-05  1.331919E-05 -3.183483E-07  1.243190E-08
     10868   1 -1.063282E-04  3.510437E-05  3.506995E-05  1.452034E-05 -1.261978E-07 -1.241508E-09
     10869   1 -1.417710E-04  4.678831E-05  4.680140E-05  9.932601E-06  2.312783E-07 -1.166127E-08
     10870   1 -1.417710E-04  4.677772E-05  4.678293E-05  8.856094E-06  6.334148E-07  1.136527E-08
     10871   1 -1.417710E-04  4.678735E-05  4.677224E-05  8.266718E-06  7.743540E-07  8.125610E-09
     10872   1 -1.417710E-04  4.679075E-05  4.677255E-05  7.924960E-06  6.407674E-07  2.387628E-09
     10873   1 -1.417710E-04  4.678758E-05  4.677234E-05  7.736564E-06  3.580951E-07  1.992921E-09
     10874   1 -1.417710E-04  4.679218E-05  4.677154E-05  7.679058E-06  6.661929E-12  5.537443E-13
     10875   1 -1.417710E-04  4.678758E-05  4.677234E-05  7.736566E-06 -3.580789E-07 -1.990208E-09
     10876   1 -1.417710E-04  4.679074E-05  4.677254E-05  7.924963E-06 -6.407552E-07 -2.386141E-09
     10877   1 -1.417710E-04  4.678734E-05  4.677223E-05  8.266723E-06 -7.743416E-07 -8.122689E-09
     10878   1 -1.417710E-04  4.677771E-05  4.678292E-05  8.856101E-06 -6.334070E-07 -1.136421E-08
     10879   1 -1.417710E-04  4.678829E-05  4.680138E-05  9.932609E-06 -2.312754E-07  1.166199E-08
     10880   1 -1.772138E-04  5.851547E-05  5.842672E-05  3.648016E-06  6.234961E-07  1.794457E-08
     10881   1 -1.772138E-04  5.848188E-05  5.845593E-05  3.134941E-06  1.347985E-06  1.104804E-08
     10882   1 -1.772138E-04  5.849868E-05  5.845510E-05  2.938748E-06  1.372509E-06  2.163409E-09
     10883   1 -1.772138E-04  5.848352E-05  5.846450E-05  2.809205E-06  1.070272E-06  2.583361E-09
     10884   1 -1.772138E-04  5.849359E-05  5.846134E-05  2.747207E-06  5.776247E-07  3.647451E-10
     10885   1 -1.772138E-04  5.848405E-05  5.846596E-05  2.724423E-06  8.744694E-12  9.876361E-14
     10886   1 -1.772138E-04  5.849359E-05  5.846133E-05  2.747208E-06 -5.776015E-07 -3.631439E-10
     10887   1 -1.772138E-04  5.848352E-05  5.846449E-05  2.809206E-06 -1.070256E-06 -2.583010E-09
     10888   1 -1.772138E-04  5.849867E-05  5.845509E-05  2.938750E-06 -1.372491E-06 -2.161470E-09
     10889   1 -1.772138E-04  5.848187E-05  5.845591E-05  3.134944E-06 -1.347977E-06 -1.104780E-08
     10890   1 -1.772137E-04  5.851546E-05  5.842671E-05  3.648021E-06 -6.234915E-07 -1.794267E-08
     10891   1  1.726699E-04 -5.701508E-05 -5.692862E-05  3.648021E-06 -6.234973E-07  1.748151E-08
     10892   1  1.726699E-04 -5.698235E-05 -5.695704E-05  3.134943E-06 -1.347992E-06  1.076556E-08
     10893   1  1.726698E-04 -5.699872E-05 -5.695627E-05  2.938750E-06 -1.372513E-06  2.106372E-09
     10894   1  1.726698E-04 -5.698395E-05 -5.696539E-05  2.809206E-06 -1.070280E-06  2.517771E-09
     10895   1  1.726698E-04 -5.699376E-05 -5.696234E-05  2.747208E-06 -5.776253E-07  3.540847E-10
     10896   1  1.726698E-04 -5.698446E-05 -5.696682E-05  2.724424E-06 -1.250261E-11  5.106489E-13
     10897   1  1.726698E-04 -5.699375E-05 -5.696233E-05  2.747209E-06  5.776061E-07 -3.549938E-10
     10898   1  1.726698E-04 -5.698394E-05 -5.696538E-05  2.809207E-06  1.070257E-06 -2.516310E-09
     10899   1  1.726698E-04 -5.699870E-05 -5.695625E-05  2.938752E-06  1.372498E-06 -2.106853E-09
     10900   1  1.726698E-04 -5.698233E-05 -5.695703E-05  3.134946E-06  1.347979E-06 -1.076388E-08
     10901   1  1.726698E-04 -5.701506E-05 -5.692860E-05  3.648024E-06  6.234937E-07 -1.748331E-08
     10902   1  1.381359E-04 -4.558860E-05 -4.560138E-05  9.932600E-06 -2.312802E-07 -1.136153E-08
     10903   1  1.381359E-04 -4.557829E-05 -4.558336E-05  8.856095E-06 -6.334179E-07  1.107518E-08
     10904   1  1.381359E-04 -4.558768E-05 -4.557296E-05  8.266721E-06 -7.743578E-07  7.916304E-09
     10905   1  1.381359E-04 -4.559099E-05 -4.557324E-05  7.924963E-06 -6.407717E-07  2.326488E-09
     10906   1  1.381359E-04 -4.558790E-05 -4.557305E-05  7.736567E-06 -3.580959E-07  1.939764E-09
     10907   1  1.381359E-04 -4.559238E-05 -4.557226E-05  7.679061E-06 -7.635119E-12  9.817028E-14
     10908   1  1.381359E-04 -4.558790E-05 -4.557305E-05  7.736568E-06  3.580826E-07 -1.941230E-09
     10909   1  1.381359E-04 -4.559098E-05 -4.557323E-05  7.924966E-06  6.407577E-07 -2.325022E-09
     10910   1  1.381358E-04 -4.558767E-05 -4.557295E-05  8.266726E-06  7.743468E-07 -7.915659E-09
     10911   1  1.381358E-04 -4.557828E-05 -4.558334E-05  8.856105E-06  6.334096E-07 -1.107205E-08
     10912   1  1.381358E-04 -4.558859E-05 -4.560136E-05  9.932615E-06  2.312768E-07  1.136246E-08
     10913   1  1.036019E-04 -3.420428E-05 -3.417074E-05  1.452033E-05 -1.262008E-07  1.209753E-09
     10914   1  1.036019E-04 -3.418866E-05 -3.419315E-05  1.331918E-05 -3.183564E-07 -1.211188E-08
     10915   1  1.036019E-04 -3.418228E-05 -3.419043E-05  1.249380E-05 -4.059941E-07  4.799445E-09
     10916   1  1.036019E-04 -3.419052E-05 -3.418145E-05  1.198339E-05 -3.623599E-07  1.286798E-09
     10917   1  1.036019E-04 -3.419045E-05 -3.418281E-05  1.170198E-05 -2.069314E-07  1.042263E-09
     10918   1  1.036019E-04 -3.419096E-05 -3.418021E-05  1.161084E-05 -4.138820E-12 -9.581500E-13
     10919   1  1.036019E-04 -3.419045E-05 -3.418281E-05  1.170198E-05  2.069229E-07 -1.045421E-09
     10920   1  1.036019E-04 -3.419052E-05 -3.418144E-05  1.198340E-05  3.623521E-07 -1.287070E-09
     10921   1  1.036019E-04 -3.418227E-05 -3.419043E-05  1.249381E-05  4.059868E-07 -4.800136E-09
     10922   1  1.036019E-04 -3.418865E-05 -3.419314E-05  1.331919E-05  3.183510E-07  1.211348E-08
     10923   1  1.036019E-04 -3.420426E-05 -3.417072E-05  1.452034E-05  1.261990E-07 -1.210608E-09
     10924   1  6.906795E-05 -2.279518E-05 -2.279685E-05  1.772535E-05 -5.843351E-08 -4.820504E-09
     10925   1  6.906794E-05 -2.279488E-05 -2.278795E-05  1.645284E-05 -1.613835E-07  3.882541E-10
     10926   1  6.906794E-05 -2.279223E-05 -2.279262E-05  1.553576E-05 -2.068072E-07 -9.189957E-09
     10927   1  6.906794E-05 -2.278877E-05 -2.279329E-05  1.492193E-05 -1.868217E-07  1.421487E-09
     10928   1  6.906793E-05 -2.279361E-05 -2.278772E-05  1.457597E-05 -1.104273E-07 -1.395727E-09
     10929   1  6.906793E-05 -2.279196E-05 -2.279018E-05  1.446381E-05 -2.084068E-12 -2.041140E-12
     10930   1  6.906793E-05 -2.279361E-05 -2.278772E-05  1.457597E-05  1.104229E-07  1.390302E-09
     10931   1  6.906793E-05 -2.278877E-05 -2.279329E-05  1.492194E-05  1.868176E-07 -1.423397E-09
     10932   1  6.906793E-05 -2.279222E-05 -2.279262E-05  1.553577E-05  2.068034E-07  9.188228E-09
     10933   1  6.906792E-05 -2.279488E-05 -2.278794E-05  1.645286E-05  1.613809E-07 -3.861784E-10
     10934   1  6.906792E-05 -2.279517E-05 -2.279684E-05  1.772538E-05  5.843229E-08  4.820743E-09
     10935   1  3.453398E-05 -1.140084E-05 -1.139137E-05  1.962261E-05 -2.573192E-08 -6.384773E-10
     10936   1  3.453398E-05 -1.139648E-05 -1.139773E-05  1.832412E-05 -6.642489E-08 -9.326014E-09
     10937   1  3.453397E-05 -1.139527E-05 -1.139597E-05  1.735703E-05 -8.711559E-08 -6.514413E-10
     10938   1  3.453397E-05 -1.139626E-05 -1.139529E-05  1.669890E-05 -7.935476E-08 -7.249576E-09
     10939   1  3.453397E-05 -1.139461E-05 -1.139645E-05  1.631658E-05 -4.673749E-08  1.209459E-10
     10940   1  3.453397E-05 -1.139680E-05 -1.139389E-05  1.619261E-05 -8.015812E-13 -2.864565E-12
     10941   1  3.453397E-05 -1.139460E-05 -1.139645E-05  1.631658E-05  4.673565E-08 -1.281468E-10
     10942   1  3.453397E-05 -1.139626E-05 -1.139529E-05  1.669890E-05  7.935315E-08  7.246070E-09
     10943   1  3.453397E-05 -1.139527E-05 -1.139597E-05  1.735703E-05  8.711391E-08  6.477854E-10
     10944   1  3.453397E-05 -1.139647E-05 -1.139772E-05  1.832413E-05  6.642371E-08  9.325839E-09
     10945   1  3.453396E-05 -1.140083E-05 -1.139137E-05  1.962262E-05  2.573153E-08  6.368576E-10
     10946   1  5.740643E-12 -5.288464E-12 -3.175730E-13  2.025231E-05 -5.875065E-13 -3.746757E-09
     10947   1  4.137902E-12 -2.874465E-12  7.195491E-14  1.894417E-05 -1.575415E-12 -1.576858E-09
     10948   1  2.028387E-12 -2.400857E-13  8.893179E-13  1.796587E-05 -1.872048E-12 -9.973345E-09
     10949   1  2.387849E-13  1.526460E-12  1.629736E-12  1.729130E-05 -1.707496E-12 -6.140710E-10
     10950   1 -9.089425E-13  2.336922E-12  2.265197E-12  1.690023E-05 -8.939286E-13 -4.146721E-09
     10951   1 -1.251423E-12  2.540843E-12  2.392270E-12  1.677111E-05 -5.622884E-14 -3.194655E-12
     10952   1 -9.239129E-13  2.331413E-12  2.285578E-12  1.690023E-05  1.019103E-12  4.138891E-09
     10953   1  2.580294E-13  1.562750E-12  1.589000E-12  1.729130E-05  1.615156E-12  6.101635E-10
     10954   1  1.867150E-12  1.096762E-13  9.266069E-13  1.796588E-05  1.940906E-12  9.969812E-09
     10955   1  3.812047E-12 -1.760203E-12  3.291789E-14  1.894419E-05  1.519176E-12  1.577878E-09
     10956   1  5.171651E-12 -3.398920E-12 -3.150700E-13  2.025234E-05  6.154331E-13  3.746356E-09
     10957   1 -3.453397E-05  1.140083E-05  1.139137E-05  1.962260E-05  2.573074E-08 -6.384868E-10
     10958   1 -3.453397E-05  1.139647E-05  1.139773E-05  1.832412E-05  6.642183E-08 -9.325989E-09
     10959   1 -3.453397E-05  1.139526E-05  1.139597E-05  1.735702E-05  8.711193E-08 -6.514557E-10
     10960   1 -3.453397E-05  1.139624E-05  1.139530E-05  1.669890E-05  7.935134E-08 -7.249580E-09
     10961   1 -3.453397E-05  1.139459E-05  1.139646E-05  1.631658E-05  4.673570E-08  1.209172E-10
     10962   1 -3.453396E-05  1.139678E-05  1.139389E-05  1.619261E-05  6.799626E-13 -2.854548E-12
     10963   1 -3.453396E-05  1.139459E-05  1.139646E-05  1.631658E-05 -4.673359E-08 -1.281497E-10
     10964   1 -3.453396E-05  1.139624E-05  1.139530E-05  1.669890E-05 -7.934992E-08  7.246095E-09
     10965   1 -3.453396E-05  1.139526E-05  1.139597E-05  1.735703E-05 -8.711005E-08  6.477740E-10
     10966   1 -3.453396E-05  1.139646E-05  1.139772E-05  1.832413E-05 -6.642072E-08  9.325839E-09
     10967   1 -3.453395E-05  1.140082E-05  1.139137E-05  1.962262E-05 -2.573033E-08  6.368357E-10
     10968   1 -6.906794E-05  2.279517E-05  2.279685E-05  1.772534E-05  5.843227E-08 -4.820500E-09
     10969   1 -6.906794E-05  2.279488E-05  2.278795E-05  1.645284E-05  1.613801E-07  3.882868E-10
     10970   1 -6.906794E-05  2.279223E-05  2.279263E-05  1.553576E-05  2.068032E-07 -9.190025E-09
     10971   1 -6.906794E-05  2.278877E-05  2.279329E-05  1.492193E-05  1.868181E-07  1.421484E-09
     10972   1 -6.906794E-05  2.279362E-05  2.278773E-05  1.457597E-05  1.104253E-07 -1.395807E-09
     10973   1 -6.906793E-05  2.279196E-05  2.279018E-05  1.446381E-05  2.085226E-12 -1.998079E-12
     10974   1 -6.906793E-05  2.279362E-05  2.278773E-05  1.457597E-05 -1.104208E-07  1.390276E-09
     10975   1 -6.906793E-05  2.278877E-05  2.279329E-05  1.492193E-05 -1.868140E-07 -1.423317E-09
     10976   1 -6.906793E-05  2.279223E-05  2.279263E-05  1.553577E-05 -2.067994E-07  9.188204E-09
     10977   1 -6.906792E-05  2.279488E-05  2.278794E-05  1.645286E-05 -1.613776E-07 -3.861609E-10
     10978   1 -6.906792E-05  2.279516E-05  2.279684E-05  1.772537E-05 -5.843100E-08  4.820696E-09
     10979   1 -1.036019E-04  3.420427E-05  3.417075E-05  1.452033E-05  1.261995E-07  1.209730E-09
     10980   1 -1.036019E-04  3.418865E-05  3.419314E-05  1.331918E-05  3.183529E-07 -1.211184E-08
     10981   1 -1.036019E-04  3.418227E-05  3.419045E-05  1.249380E-05  4.059897E-07  4.799386E-09
     10982   1 -1.036019E-04  3.419051E-05  3.418144E-05  1.198339E-05  3.623562E-07  1.286758E-09
     10983   1 -1.036019E-04  3.419044E-05  3.418282E-05  1.170197E-05  2.069289E-07  1.042161E-09
     10984   1 -1.036019E-04  3.419095E-05  3.418021E-05  1.161083E-05  4.500337E-12 -9.043783E-13
     10985   1 -1.036019E-04  3.419044E-05  3.418282E-05  1.170197E-05 -2.069211E-07 -1.045449E-09
     10986   1 -1.036019E-04  3.419050E-05  3.418144E-05  1.198339E-05 -3.623477E-07 -1.286938E-09
     10987   1 -1.036019E-04  3.418226E-05  3.419044E-05  1.249380E-05 -4.059829E-07 -4.800164E-09
     10988   1 -1.036019E-04  3.418864E-05  3.419313E-05  1.331919E-05 -3.183472E-07  1.211352E-08
     10989   1 -1.036019E-04  3.420425E-05  3.417073E-05  1.452034E-05 -1.261978E-07 -1.210651E-09
     10990   1 -1.381359E-04  4.558860E-05  4.560139E-05  9.932593E-06  2.312786E-07 -1.136141E-08
     10991   1 -1.381359E-04  4.557829E-05  4.558334E-05  8.856091E-06  6.334135E-07  1.107511E-08
     10992   1 -1.381359E-04  4.558768E-05  4.557298E-05  8.266716E-06  7.743524E-07  7.916194E-09
     10993   1 -1.381359E-04  4.559100E-05  4.557323E-05  7.924959E-06  6.407675E-07  2.326412E-09
     10994   1 -1.381359E-04  4.558791E-05  4.557308E-05  7.736563E-06  3.580927E-07  1.939678E-09
     10995   1 -1.381359E-04  4.559239E-05  4.557225E-05  7.679057E-06  8.394320E-12  1.164006E-13
     10996   1 -1.381359E-04  4.558791E-05  4.557307E-05  7.736564E-06 -3.580809E-07 -1.941202E-09
     10997   1 -1.381359E-04  4.559099E-05  4.557322E-05  7.924962E-06 -6.407523E-07 -2.324920E-09
     10998   1 -1.381359E-04  4.558767E-05  4.557297E-05  8.266722E-06 -7.743424E-07 -7.915587E-09
     10999   1 -1.381358E-04  4.557828E-05  4.558333E-05  8.856100E-06 -6.334046E-07 -1.107201E-08
     11000   1 -1.381358E-04  4.558859E-05  4.560138E-05  9.932608E-06 -2.312753E-07  1.136241E-08
     11001   1 -1.726699E-04  5.701509E-05  5.692864E-05  3.648019E-06  6.234949E-07  1.748114E-08
     11002   1 -1.726698E-04  5.698235E-05  5.695702E-05  3.134941E-06  1.347987E-06  1.076576E-08
     11003   1 -1.726699E-04  5.699871E-05  5.695629E-05  2.938749E-06  1.372506E-06  2.106216E-09
     11004   1 -1.726698E-04  5.698394E-05  5.696538E-05  2.809204E-06  1.070275E-06  2.517770E-09
     11005   1 -1.726698E-04  5.699374E-05  5.696236E-05  2.747207E-06  5.776215E-07  3.540564E-10
     11006   1 -1.726698E-04  5.698445E-05  5.696681E-05  2.724422E-06  1.347663E-11  4.662547E-13
     11007   1 -1.726698E-04  5.699374E-05  5.696236E-05  2.747208E-06 -5.776042E-07 -3.548904E-10
     11008   1 -1.726698E-04  5.698393E-05  5.696537E-05  2.809206E-06 -1.070251E-06 -2.516384E-09
     11009   1 -1.726698E-04  5.699870E-05  5.695627E-05  2.938751E-06 -1.372493E-06 -2.106638E-09
     11010   1 -1.726698E-04  5.698233E-05  5.695701E-05  3.134944E-06 -1.347973E-06 -1.076409E-08
     11011   1 -1.726698E-04  5.701506E-05  5.692862E-05  3.648022E-06 -6.234917E-07 -1.748298E-08
     11012   1  1.681259E-04 -5.551468E-05 -5.543050E-05  3.648018E-06 -6.234993E-07  1.702528E-08
     11013   1  1.681259E-04 -5.548281E-05 -5.545818E-05  3.134943E-06 -1.347991E-06  1.048137E-08
     11014   1  1.681259E-04 -5.549874E-05 -5.545741E-05  2.938750E-06 -1.372517E-06  2.052567E-09
     11015   1  1.681259E-04 -5.548436E-05 -5.546630E-05  2.809207E-06 -1.070278E-06  2.449719E-09
     11016   1  1.681259E-04 -5.549391E-05 -5.546333E-05  2.747209E-06 -5.776289E-07  3.453126E-10
     11017   1  1.681259E-04 -5.548486E-05 -5.546769E-05  2.724424E-06 -9.345742E-12 -1.526223E-12
     11018   1  1.681259E-04 -5.549390E-05 -5.546332E-05  2.747209E-06  5.776036E-07 -3.451902E-10
     11019   1  1.681259E-04 -5.548435E-05 -5.546629E-05  2.809207E-06  1.070261E-06 -2.451768E-09
     11020   1  1.681259E-04 -5.549873E-05 -5.545740E-05  2.938752E-06  1.372497E-06 -2.050476E-09
     11021   1  1.681259E-04 -5.548279E-05 -5.545815E-05  3.134946E-06  1.347981E-06 -1.048174E-08
     11022   1  1.681258E-04 -5.551466E-05 -5.543048E-05  3.648025E-06  6.234935E-07 -1.702174E-08
     11023   1  1.345007E-04 -4.438892E-05 -4.440134E-05  9.932609E-06 -2.312798E-07 -1.106354E-08
     11024   1  1.345007E-04 -4.437887E-05 -4.438380E-05  8.856100E-06 -6.334185E-07  1.078112E-08
     11025   1  1.345007E-04 -4.438801E-05 -4.437368E-05  8.266723E-06 -7.743584E-07  7.707461E-09
     11026   1  1.345007E-04 -4.439123E-05 -4.437394E-05  7.924964E-06 -6.407704E-07  2.262081E-09
     11027   1  1.345007E-04 -4.438823E-05 -4.437376E-05  7.736568E-06 -3.580958E-07  1.887622E-09
     11028   1  1.345007E-04 -4.439259E-05 -4.437298E-05  7.679061E-06 -5.096292E-12 -3.510984E-12
     11029   1  1.345007E-04 -4.438823E-05 -4.437376E-05  7.736568E-06  3.580833E-07 -1.891123E-09
     11030   1  1.345007E-04 -4.439123E-05 -4.437393E-05  7.924966E-06  6.407603E-07 -2.266603E-09
     11031   1  1.345007E-04 -4.438800E-05 -4.437366E-05  8.266726E-06  7.743476E-07 -7.707150E-09
     11032   1  1.345007E-04 -4.437885E-05 -4.438378E-05  8.856106E-06  6.334108E-07 -1.078206E-08
     11033   1  1.345007E-04 -4.438889E-05 -4.440132E-05  9.932616E-06  2.312770E-07  1.106423E-08
     11034   1  1.008756E-04 -3.330416E-05 -3.327151E-05  1.452032E-05 -1.262013E-07  1.180325E-09
     11035   1  1.008755E-04 -3.328895E-05 -3.329333E-05  1.331918E-05 -3.183560E-07 -1.179395E-08
     11036   1  1.008755E-04 -3.328274E-05 -3.329069E-05  1.249380E-05 -4.059934E-07  4.672541E-09
     11037   1  1.008755E-04 -3.329076E-05 -3.328193E-05  1.198339E-05 -3.623591E-07  1.248973E-09
     11038   1  1.008755E-04 -3.329069E-05 -3.328326E-05  1.170198E-05 -2.069296E-07  1.012098E-09
     11039   1  1.008755E-04 -3.329119E-05 -3.328073E-05  1.161084E-05 -2.220079E-12 -5.916012E-12
     11040   1  1.008755E-04 -3.329069E-05 -3.328326E-05  1.170198E-05  2.069253E-07 -1.020491E-09
     11041   1  1.008755E-04 -3.329075E-05 -3.328193E-05  1.198340E-05  3.623542E-07 -1.257128E-09
     11042   1  1.008755E-04 -3.328273E-05 -3.329068E-05  1.249381E-05  4.059888E-07 -4.674629E-09
     11043   1  1.008755E-04 -3.328894E-05 -3.329332E-05  1.331919E-05  3.183523E-07  1.179288E-08
     11044   1  1.008755E-04 -3.330414E-05 -3.327149E-05  1.452035E-05  1.261995E-07 -1.177688E-09
     11045   1  6.725038E-05 -2.219531E-05 -2.219693E-05  1.772537E-05 -5.843313E-08 -4.694722E-09
     11046   1  6.725037E-05 -2.219503E-05 -2.218827E-05  1.645285E-05 -1.613837E-07  3.734431E-10
     11047   1  6.725037E-05 -2.219244E-05 -2.219282E-05  1.553577E-05 -2.068068E-07 -8.950868E-09
     11048   1  6.725036E-05 -2.218908E-05 -2.219347E-05  1.492194E-05 -1.868209E-07  1.378403E-09
     11049   1  6.725036E-05 -2.219380E-05 -2.218805E-05  1.457597E-05 -1.104257E-07 -1.362916E-09
     11050   1  6.725036E-05 -2.219218E-05 -2.219044E-05  1.446381E-05 -3.915031E-13 -8.381461E-12
     11051   1  6.725035E-05 -2.219379E-05 -2.218804E-05  1.457597E-05  1.104251E-07  1.350027E-09
     11052   1  6.725035E-05 -2.218907E-05 -2.219347E-05  1.492194E-05  1.868196E-07 -1.391089E-09
     11053   1  6.725035E-05 -2.219244E-05 -2.219281E-05  1.553577E-05  2.068052E-07  8.944812E-09
     11054   1  6.725035E-05 -2.219502E-05 -2.218826E-05  1.645286E-05  1.613820E-07 -3.788569E-10
     11055   1  6.725035E-05 -2.219530E-05 -2.219692E-05  1.772538E-05  5.843276E-08  4.694419E-09
     11056   1  3.362519E-05 -1.110081E-05 -1.109160E-05  1.962259E-05 -2.573221E-08 -6.197753E-10
     11057   1  3.362519E-05 -1.109657E-05 -1.109779E-05  1.832411E-05 -6.642502E-08 -9.082620E-09
     11058   1  3.362518E-05 -1.109539E-05 -1.109608E-05  1.735703E-05 -8.711557E-08 -6.362818E-10
     11059   1  3.362518E-05 -1.109635E-05 -1.109542E-05  1.669890E-05 -7.935463E-08 -7.064992E-09
     11060   1  3.362518E-05 -1.109474E-05 -1.109654E-05  1.631658E-05 -4.673669E-08  1.131071E-10
     11061   1  3.362518E-05 -1.109687E-05 -1.109404E-05  1.619261E-05  1.286058E-13 -1.017951E-11
     11062   1  3.362518E-05 -1.109474E-05 -1.109654E-05  1.631658E-05  4.673717E-08 -1.292208E-10
     11063   1  3.362518E-05 -1.109635E-05 -1.109542E-05  1.669890E-05  7.935452E-08  7.049327E-09
     11064   1  3.362518E-05 -1.109539E-05 -1.109607E-05  1.735703E-05  8.711548E-08  6.285902E-10
     11065   1  3.362518E-05 -1.109656E-05 -1.109778E-05  1.832413E-05  6.642472E-08  9.077252E-09
     11066   1  3.362518E-05 -1.110081E-05 -1.109160E-05  1.962262E-05  2.573198E-08  6.209266E-10
     11067   1  8.689969E-12 -6.034284E-12 -1.019634E-12  2.025233E-05 -8.663856E-13 -3.649248E-09
     11068   1  7.228082E-12 -7.129061E-12 -2.284893E-13  1.894418E-05 -2.103399E-12 -1.540957E-09
     11069   1  5.779118E-12 -8.878578E-12  8.489896E-13  1.796588E-05 -2.655631E-12 -9.714563E-09
     11070   1  4.369946E-12 -9.961226E-12  1.970666E-12  1.729130E-05 -2.198721E-12 -6.048254E-10
     11071   1  3.281062E-12 -1.029139E-11  2.687974E-12  1.690023E-05 -1.385913E-12 -4.042590E-09
     11072   1  2.835317E-12 -1.031548E-11  3.045506E-12  1.677111E-05  9.448489E-14 -1.079681E-11
     11073   1  3.308007E-12 -1.028108E-11  2.653271E-12  1.690023E-05  1.229259E-12  4.025247E-09
     11074   1  4.345741E-12 -9.991633E-12  2.023460E-12  1.729130E-05  2.356929E-12  5.878047E-10
     11075   1  5.997196E-12 -9.280882E-12  7.780157E-13  1.796588E-05  2.573672E-12  9.705045E-09
     11076   1  7.637410E-12 -8.473722E-12 -1.836327E-13  1.894419E-05  2.199911E-12  1.532731E-09
     11077   1  9.419839E-12 -8.350001E-12 -1.052856E-12  2.025234E-05  8.370962E-13  3.648226E-09
     11078   1 -3.362517E-05  1.110080E-05  1.109160E-05  1.962259E-05  2.573041E-08 -6.197568E-10
     11079   1 -3.362518E-05  1.109656E-05  1.109779E-05  1.832411E-05  6.642057E-08 -9.082660E-09
     11080   1 -3.362518E-05  1.109539E-05  1.109608E-05  1.735702E-05  8.710998E-08 -6.363020E-10
     11081   1 -3.362518E-05  1.109635E-05  1.109542E-05  1.669890E-05  7.935010E-08 -7.065049E-09
     11082   1 -3.362518E-05  1.109474E-05  1.109655E-05  1.631658E-05  4.673385E-08  1.131010E-10
     11083   1 -3.362518E-05  1.109688E-05  1.109405E-05  1.619260E-05  6.879144E-14 -1.020133E-11
     11084   1 -3.362518E-05  1.109474E-05  1.109655E-05  1.631658E-05 -4.673466E-08 -1.291837E-10
     11085   1 -3.362518E-05  1.109635E-05  1.109542E-05  1.669890E-05 -7.934966E-08  7.049340E-09
     11086   1 -3.362517E-05  1.109539E-05  1.109608E-05  1.735703E-05 -8.711016E-08  6.286367E-10
     11087   1 -3.362517E-05  1.109656E-05  1.109778E-05  1.832413E-05 -6.642014E-08  9.077246E-09
     11088   1 -3.362516E-05  1.110080E-05  1.109160E-05  1.962262E-05 -2.573021E-08  6.209463E-10
     11089   1 -6.725036E-05  2.219530E-05  2.219692E-05  1.772536E-05  5.843128E-08 -4.694695E-09
     11090   1 -6.725036E-05  2.219502E-05  2.218827E-05  1.645285E-05  1.613792E-07  3.733914E-10
     11091   1 -6.725036E-05  2.219243E-05  2.219282E-05  1.553576E-05  2.068011E-07 -8.950861E-09
     11092   1 -6.725036E-05  2.218906E-05  2.219348E-05  1.492193E-05  1.868161E-07  1.378269E-09
     11093   1 -6.725035E-05  2.219378E-05  2.218805E-05  1.457597E-05  1.104229E-07 -1.362900E-09
     11094   1 -6.725036E-05  2.219216E-05  2.219045E-05  1.446381E-05  3.931856E-13 -8.458517E-12
     11095   1 -6.725035E-05  2.219378E-05  2.218805E-05  1.457597E-05 -1.104223E-07  1.350139E-09
     11096   1 -6.725035E-05  2.218906E-05  2.219348E-05  1.492193E-05 -1.868147E-07 -1.391096E-09
     11097   1 -6.725034E-05  2.219242E-05  2.219281E-05  1.553576E-05 -2.067996E-07  8.944920E-09
     11098   1 -6.725034E-05  2.219501E-05  2.218826E-05  1.645285E-05 -1.613775E-07 -3.788945E-10
     11099   1 -6.725033E-05  2.219529E-05  2.219691E-05  1.772537E-05 -5.843095E-08  4.694457E-09
     11100   1 -1.008755E-04  3.330415E-05  3.327149E-05  1.452031E-05  1.261993E-07  1.180379E-09
     11101   1 -1.008755E-04  3.328895E-05  3.329334E-05  1.331917E-05  3.183508E-07 -1.179403E-08
     11102   1 -1.008755E-04  3.328274E-05  3.329068E-05  1.249379E-05  4.059872E-07  4.672462E-09
     11103   1 -1.008755E-04  3.329077E-05  3.328195E-05  1.198339E-05  3.623535E-07  1.248803E-09
     11104   1 -1.008755E-04  3.329070E-05  3.328326E-05  1.170197E-05  2.069269E-07  1.012100E-09
     11105   1 -1.008755E-04  3.329120E-05  3.328075E-05  1.161083E-05  1.665818E-12 -6.013700E-12
     11106   1 -1.008755E-04  3.329070E-05  3.328325E-05  1.170197E-05 -2.069216E-07 -1.020335E-09
     11107   1 -1.008755E-04  3.329076E-05  3.328195E-05  1.198339E-05 -3.623495E-07 -1.257128E-09
     11108   1 -1.008755E-04  3.328274E-05  3.329067E-05  1.249380E-05 -4.059820E-07 -4.674446E-09
     11109   1 -1.008755E-04  3.328894E-05  3.329333E-05  1.331918E-05 -3.183476E-07  1.179283E-08
     11110   1 -1.008755E-04  3.330414E-05  3.327148E-05  1.452034E-05 -1.261972E-07 -1.177662E-09
     11111   1 -1.345007E-04  4.438892E-05  4.440132E-05  9.932601E-06  2.312773E-07 -1.106366E-08
     11112   1 -1.345007E-04  4.437887E-05  4.438382E-05  8.856093E-06  6.334127E-07  1.078113E-08
     11113   1 -1.345007E-04  4.438800E-05  4.437366E-05  8.266718E-06  7.743516E-07  7.707358E-09
     11114   1 -1.345007E-04  4.439122E-05  4.437397E-05  7.924959E-06  6.407637E-07  2.261928E-09
     11115   1 -1.345007E-04  4.438822E-05  4.437375E-05  7.736563E-06  3.580932E-07  1.887578E-09
     11116   1 -1.345007E-04  4.439257E-05  4.437301E-05  7.679056E-06  3.933959E-12 -3.554115E-12
     11117   1 -1.345007E-04  4.438821E-05  4.437375E-05  7.736563E-06 -3.580786E-07 -1.891028E-09
     11118   1 -1.345007E-04  4.439122E-05  4.437396E-05  7.924961E-06 -6.407555E-07 -2.266516E-09
     11119   1 -1.345007E-04  4.438799E-05  4.437365E-05  8.266721E-06 -7.743393E-07 -7.707015E-09
     11120   1 -1.345007E-04  4.437884E-05  4.438380E-05  8.856099E-06 -6.334057E-07 -1.078205E-08
     11121   1 -1.345007E-04  4.438888E-05  4.440130E-05  9.932608E-06 -2.312744E-07  1.106427E-08
     11122   1 -1.681259E-04  5.551468E-05  5.543048E-05  3.648014E-06  6.234959E-07  1.702570E-08
     11123   1 -1.681259E-04  5.548281E-05  5.545820E-05  3.134941E-06  1.347983E-06  1.048106E-08
     11124   1 -1.681259E-04  5.549875E-05  5.545740E-05  2.938747E-06  1.372508E-06  2.052606E-09
     11125   1 -1.681259E-04  5.548437E-05  5.546633E-05  2.809205E-06  1.070269E-06  2.449611E-09
     11126   1 -1.681259E-04  5.549392E-05  5.546332E-05  2.747206E-06  5.776259E-07  3.452600E-10
     11127   1 -1.681259E-04  5.548487E-05  5.546772E-05  2.724422E-06  7.855610E-12 -1.465937E-12
     11128   1 -1.681259E-04  5.549392E-05  5.546331E-05  2.747206E-06 -5.775979E-07 -3.452666E-10
     11129   1 -1.681259E-04  5.548436E-05  5.546632E-05  2.809205E-06 -1.070255E-06 -2.451559E-09
     11130   1 -1.681259E-04  5.549874E-05  5.545738E-05  2.938749E-06 -1.372486E-06 -2.050618E-09
     11131   1 -1.681259E-04  5.548280E-05  5.545818E-05  3.134944E-06 -1.347974E-06 -1.048141E-08
     11132   1 -1.681258E-04  5.551466E-05  5.543045E-05  3.648020E-06 -6.234896E-07 -1.702213E-08
     11133   1  1.635820E-04 -5.401430E-05 -5.393239E-05  3.648023E-06 -6.234976E-07  1.655981E-08
     11134   1  1.635820E-04 -5.398329E-05 -5.395930E-05  3.134945E-06 -1.347995E-06  1.019911E-08
     11135   1  1.635820E-04 -5.399879E-05 -5.395857E-05  2.938752E-06 -1.372513E-06  1.993787E-09
     11136   1  1.635820E-04 -5.398479E-05 -5.396721E-05  2.809207E-06 -1.070281E-06  2.384216E-09
     11137   1  1.635819E-04 -5.399409E-05 -5.396432E-05  2.747210E-06 -5.776235E-07  3.328490E-10
     11138   1  1.635819E-04 -5.398528E-05 -5.396856E-05  2.724424E-06 -1.202528E-11 -1.147804E-12
     11139   1  1.635819E-04 -5.399408E-05 -5.396431E-05  2.747209E-06  5.776096E-07 -3.387617E-10
     11140   1  1.635819E-04 -5.398479E-05 -5.396720E-05  2.809207E-06  1.070259E-06 -2.384769E-09
     11141   1  1.635819E-04 -5.399877E-05 -5.395855E-05  2.938752E-06  1.372502E-06 -1.997166E-09
     11142   1  1.635819E-04 -5.398326E-05 -5.395928E-05  3.134946E-06  1.347981E-06 -1.019692E-08
     11143   1  1.635819E-04 -5.401426E-05 -5.393235E-05  3.648025E-06  6.234947E-07 -1.656366E-08
     11144   1  1.308656E-04 -4.318920E-05 -4.320131E-05  9.932600E-06 -2.312806E-07 -1.076335E-08
     11145   1  1.308656E-04 -4.317943E-05 -4.318423E-05  8.856097E-06 -6.334178E-07  1.049196E-08
     11146   1  1.308656E-04 -4.318832E-05 -4.317439E-05  8.266724E-06 -7.743566E-07  7.496261E-09
     11147   1  1.308656E-04 -4.319146E-05 -4.317464E-05  7.924967E-06 -6.407695E-07  2.199740E-09
     11148   1  1.308656E-04 -4.318853E-05 -4.317447E-05  7.736570E-06 -3.580916E-07  1.831052E-09
     11149   1  1.308655E-04 -4.319277E-05 -4.317371E-05  7.679062E-06 -2.936200E-12 -5.811986E-12
     11150   1  1.308655E-04 -4.318853E-05 -4.317447E-05  7.736568E-06  3.580885E-07 -1.845432E-09
     11151   1  1.308655E-04 -4.319145E-05 -4.317464E-05  7.924965E-06  6.407628E-07 -2.206610E-09
     11152   1  1.308655E-04 -4.318831E-05 -4.317437E-05  8.266726E-06  7.743515E-07 -7.502160E-09
     11153   1  1.308655E-04 -4.317942E-05 -4.318422E-05  8.856106E-06  6.334123E-07 -1.048967E-08
     11154   1  1.308655E-04 -4.318919E-05 -4.320128E-05  9.932619E-06  2.312778E-07  1.076405E-08
     11155   1  9.814920E-05 -3.240406E-05 -3.237228E-05  1.452034E-05 -1.262004E-07  1.143932E-09
     11156   1  9.814919E-05 -3.238926E-05 -3.239351E-05  1.331919E-05 -3.183557E-07 -1.147775E-08
     11157   1  9.814918E-05 -3.238322E-05 -3.239094E-05  1.249381E-05 -4.059921E-07  4.540250E-09
     11158   1  9.814917E-05 -3.239102E-05 -3.238242E-05  1.198340E-05 -3.623563E-07  1.211134E-09
     11159   1  9.814917E-05 -3.239096E-05 -3.238371E-05  1.170198E-05 -2.069263E-07  9.769939E-10
     11160   1  9.814917E-05 -3.239144E-05 -3.238125E-05  1.161084E-05  2.052094E-12 -1.085193E-11
     11161   1  9.814916E-05 -3.239096E-05 -3.238371E-05  1.170198E-05  2.069294E-07 -1.000492E-09
     11162   1  9.814916E-05 -3.239102E-05 -3.238242E-05  1.198339E-05  3.623583E-07 -1.226573E-09
     11163   1  9.814916E-05 -3.238321E-05 -3.239093E-05  1.249381E-05  4.059920E-07 -4.553145E-09
     11164   1  9.814915E-05 -3.238925E-05 -3.239350E-05  1.331919E-05  3.183544E-07  1.147383E-08
     11165   1  9.814915E-05 -3.240403E-05 -3.237226E-05  1.452035E-05  1.262003E-07 -1.148118E-09
     11166   1  6.543280E-05 -2.159543E-05 -2.159701E-05  1.772535E-05 -5.843348E-08 -4.568282E-09
     11167   1  6.543279E-05 -2.159515E-05 -2.158858E-05  1.645285E-05 -1.613826E-07  3.639326E-10
     11168   1  6.543278E-05 -2.159264E-05 -2.159301E-05  1.553577E-05 -2.068055E-07 -8.714985E-09
     11169   1  6.543278E-05 -2.158936E-05 -2.159364E-05  1.492194E-05 -1.868187E-07  1.335936E-09
     11170   1  6.543278E-05 -2.159395E-05 -2.158837E-05  1.457598E-05 -1.104231E-07 -1.336012E-09
     11171   1  6.543277E-05 -2.159238E-05 -2.159069E-05  1.446381E-05  3.248370E-12 -1.514247E-11
     11172   1  6.543277E-05 -2.159395E-05 -2.158837E-05  1.457597E-05  1.104286E-07  1.303752E-09
     11173   1  6.543277E-05 -2.158936E-05 -2.159364E-05  1.492194E-05  1.868233E-07 -1.358575E-09
     11174   1  6.543277E-05 -2.159263E-05 -2.159301E-05  1.553577E-05  2.068082E-07  8.696506E-09
     11175   1  6.543277E-05 -2.159515E-05 -2.158858E-05  1.645286E-05  1.613843E-07 -3.695191E-10
     11176   1  6.543277E-05 -2.159542E-05 -2.159700E-05  1.772538E-05  5.843351E-08  4.565226E-09
     11177   1  3.271641E-05 -1.080080E-05 -1.079183E-05  1.962262E-05 -2.573197E-08 -6.082909E-10
     11178   1  3.271640E-05 -1.079667E-05 -1.079785E-05  1.832413E-05 -6.642505E-08 -8.841764E-09
     11179   1  3.271640E-05 -1.079552E-05 -1.079618E-05  1.735703E-05 -8.711529E-08 -6.283220E-10
     11180   1  3.271640E-05 -1.079646E-05 -1.079554E-05  1.669890E-05 -7.935354E-08 -6.880940E-09
     11181   1  3.271639E-05 -1.079489E-05 -1.079664E-05  1.631658E-05 -4.673541E-08  9.858067E-11
     11182   1  3.271639E-05 -1.079697E-05 -1.079421E-05  1.619261E-05  2.273986E-12 -1.809649E-11
     11183   1  3.271639E-05 -1.079489E-05 -1.079664E-05  1.631658E-05  4.673920E-08 -1.369791E-10
     11184   1  3.271639E-05 -1.079646E-05 -1.079554E-05  1.669890E-05  7.935702E-08  6.852682E-09
     11185   1  3.271639E-05 -1.079552E-05 -1.079618E-05  1.735703E-05  8.711736E-08  6.038082E-10
     11186   1  3.271639E-05 -1.079666E-05 -1.079785E-05  1.832413E-05  6.642633E-08  8.830056E-09
     11187   1  3.271639E-05 -1.080079E-05 -1.079183E-05  1.962262E-05  2.573252E-08  6.008747E-10
     11188   1  1.241936E-11 -8.717874E-12 -2.009076E-12  2.025230E-05 -1.205042E-12 -3.551897E-09
     11189   1  8.648090E-12 -4.641051E-12 -8.975022E-13  1.894417E-05 -3.104055E-12 -1.499500E-09
     11190   1  4.482966E-12 -3.903267E-13  6.446997E-13  1.796588E-05 -3.521217E-12 -9.459679E-09
     11191   1  1.060211E-12  2.398790E-12  2.048725E-12  1.729130E-05 -3.144884E-12 -5.952708E-10
     11192   1 -9.996210E-13  3.656533E-12  3.060808E-12  1.690023E-05 -1.590234E-12 -3.945258E-09
     11193   1 -1.657459E-12  3.970754E-12  3.314573E-12  1.677111E-05 -1.203213E-13 -1.920298E-11
     11194   1 -1.036090E-12  3.655257E-12  3.105373E-12  1.690022E-05  1.848894E-12  3.904717E-09
     11195   1  1.110049E-12  2.447875E-12  1.955703E-12  1.729130E-05  2.946925E-12  5.653322E-10
     11196   1  4.220413E-12  1.083300E-13  7.314980E-13  1.796588E-05  3.671145E-12  9.434620E-09
     11197   1  8.184239E-12 -2.971554E-12 -9.989937E-13  1.894418E-05  2.985882E-12  1.489592E-09
     11198   1  1.154692E-11 -5.822828E-12 -1.987900E-12  2.025234E-05  1.248268E-12  3.546683E-09
     11199   1 -3.271639E-05  1.080079E-05  1.079183E-05  1.962261E-05  2.572959E-08 -6.083366E-10
     11200   1 -3.271638E-05  1.079665E-05  1.079785E-05  1.832413E-05  6.641901E-08 -8.841782E-09
     11201   1 -3.271638E-05  1.079550E-05  1.079618E-05  1.735703E-05  8.710837E-08 -6.284134E-10
     11202   1 -3.271639E-05  1.079644E-05  1.079554E-05  1.669890E-05  7.934724E-08 -6.880976E-09
     11203   1 -3.271639E-05  1.079487E-05  1.079664E-05  1.631658E-05  4.673221E-08  9.851362E-11
     11204   1 -3.271639E-05  1.079694E-05  1.079421E-05  1.619260E-05 -2.528870E-12 -1.807191E-11
     11205   1 -3.271639E-05  1.079487E-05  1.079664E-05  1.631657E-05 -4.673546E-08 -1.369699E-10
     11206   1 -3.271638E-05  1.079644E-05  1.079554E-05  1.669889E-05 -7.935114E-08  6.852768E-09
     11207   1 -3.271638E-05  1.079550E-05  1.079618E-05  1.735702E-05 -8.711002E-08  6.038491E-10
     11208   1 -3.271637E-05  1.079664E-05  1.079784E-05  1.832412E-05 -6.642043E-08  8.830134E-09
     11209   1 -3.271637E-05  1.080077E-05  1.079182E-05  1.962262E-05 -2.573006E-08  6.008661E-10
     11210   1 -6.543278E-05  2.159542E-05  2.159702E-05  1.772534E-05  5.843093E-08 -4.568368E-09
     11211   1 -6.543278E-05  2.159515E-05  2.158858E-05  1.645284E-05  1.613761E-07  3.638814E-10
     11212   1 -6.543278E-05  2.159264E-05  2.159302E-05  1.553576E-05  2.067979E-07 -8.715211E-09
     11213   1 -6.543278E-05  2.158937E-05  2.159364E-05  1.492193E-05  1.868122E-07  1.335902E-09
     11214   1 -6.543279E-05  2.159396E-05  2.158838E-05  1.457597E-05  1.104194E-07 -1.336184E-09
     11215   1 -6.543278E-05  2.159239E-05  2.159070E-05  1.446381E-05 -3.222575E-12 -1.504351E-11
     11216   1 -6.543278E-05  2.159396E-05  2.158838E-05  1.457596E-05 -1.104250E-07  1.303712E-09
     11217   1 -6.543277E-05  2.158936E-05  2.159364E-05  1.492193E-05 -1.868168E-07 -1.358361E-09
     11218   1 -6.543277E-05  2.159264E-05  2.159302E-05  1.553576E-05 -2.068007E-07  8.696542E-09
     11219   1 -6.543276E-05  2.159515E-05  2.158857E-05  1.645285E-05 -1.613778E-07 -3.693552E-10
     11220   1 -6.543275E-05  2.159541E-05  2.159701E-05  1.772537E-05 -5.843091E-08  4.565198E-09
     11221   1 -9.814920E-05  3.240405E-05  3.237229E-05  1.452033E-05  1.261976E-07  1.143856E-09
     11222   1 -9.814917E-05  3.238925E-05  3.239350E-05  1.331918E-05  3.183490E-07 -1.147777E-08
     11223   1 -9.814918E-05  3.238320E-05  3.239096E-05  1.249380E-05  4.059838E-07  4.540046E-09
     11224   1 -9.814917E-05  3.239100E-05  3.238241E-05  1.198339E-05  3.623498E-07  1.211062E-09
     11225   1 -9.814918E-05  3.239094E-05  3.238373E-05  1.170197E-05  2.069217E-07  9.767838E-10
     11226   1 -9.814917E-05  3.239142E-05  3.238125E-05  1.161083E-05 -1.219116E-12 -1.072645E-11
     11227   1 -9.814917E-05  3.239094E-05  3.238373E-05  1.170197E-05 -2.069265E-07 -1.000553E-09
     11228   1 -9.814916E-05  3.239100E-05  3.238241E-05  1.198339E-05 -3.623504E-07 -1.226284E-09
     11229   1 -9.814916E-05  3.238319E-05  3.239095E-05  1.249380E-05 -4.059847E-07 -4.553129E-09
     11230   1 -9.814914E-05  3.238923E-05  3.239349E-05  1.331918E-05 -3.183470E-07  1.147402E-08
     11231   1 -9.814914E-05  3.240402E-05  3.237228E-05  1.452033E-05 -1.261978E-07 -1.148152E-09
     11232   1 -1.308656E-04  4.318920E-05  4.320133E-05  9.932587E-06  2.312775E-07 -1.076323E-08
     11233   1 -1.308656E-04  4.317943E-05  4.318421E-05  8.856088E-06  6.334097E-07  1.049177E-08
     11234   1 -1.308656E-04  4.318833E-05  4.317442E-05  8.266716E-06  7.743465E-07  7.496042E-09
     11235   1 -1.308656E-04  4.319147E-05  4.317463E-05  7.924959E-06  6.407625E-07  2.199610E-09
     11236   1 -1.308656E-04  4.318855E-05  4.317450E-05  7.736562E-06  3.580857E-07  1.830910E-09
     11237   1 -1.308656E-04  4.319279E-05  4.317370E-05  7.679055E-06  4.636331E-12 -5.768525E-12
     11238   1 -1.308656E-04  4.318855E-05  4.317450E-05  7.736561E-06 -3.580860E-07 -1.845402E-09
     11239   1 -1.308655E-04  4.319147E-05  4.317462E-05  7.924957E-06 -6.407530E-07 -2.206419E-09
     11240   1 -1.308656E-04  4.318832E-05  4.317440E-05  8.266718E-06 -7.743435E-07 -7.502018E-09
     11241   1 -1.308655E-04  4.317942E-05  4.318420E-05  8.856097E-06 -6.334030E-07 -1.048953E-08
     11242   1 -1.308655E-04  4.318919E-05  4.320131E-05  9.932606E-06 -2.312749E-07  1.076401E-08
     11243   1 -1.635820E-04  5.401430E-05  5.393242E-05  3.648019E-06  6.234929E-07  1.655933E-08
     11244   1 -1.635820E-04  5.398328E-05  5.395928E-05  3.134940E-06  1.347985E-06  1.019937E-08
     11245   1 -1.635820E-04  5.399878E-05  5.395861E-05  2.938749E-06  1.372501E-06  1.993586E-09
     11246   1 -1.635820E-04  5.398478E-05  5.396719E-05  2.809204E-06  1.070273E-06  2.384173E-09
     11247   1 -1.635820E-04  5.399407E-05  5.396436E-05  2.747207E-06  5.776165E-07  3.328474E-10
     11248   1 -1.635819E-04  5.398527E-05  5.396855E-05  2.724421E-06  1.416224E-11 -1.247913E-12
     11249   1 -1.635820E-04  5.399407E-05  5.396435E-05  2.747206E-06 -5.776068E-07 -3.385810E-10
     11250   1 -1.635819E-04  5.398477E-05  5.396718E-05  2.809204E-06 -1.070248E-06 -2.384897E-09
     11251   1 -1.635819E-04  5.399876E-05  5.395858E-05  2.938749E-06 -1.372492E-06 -1.996819E-09
     11252   1 -1.635819E-04  5.398325E-05  5.395926E-05  3.134942E-06 -1.347969E-06 -1.019722E-08
     11253   1 -1.635819E-04  5.401426E-05  5.393238E-05  3.648021E-06 -6.234908E-07 -1.656318E-08
     11254   1  1.590380E-04 -5.251388E-05 -5.243426E-05  3.648019E-06 -6.235007E-07  1.610741E-08
     11255   1  1.590380E-04 -5.248373E-05 -5.246044E-05  3.134944E-06 -1.347990E-06  9.913890E-09
     11256   1  1.590380E-04 -5.249881E-05 -5.245971E-05  2.938752E-06 -1.372517E-06  1.941248E-09
     11257   1  1.590380E-04 -5.248520E-05 -5.246812E-05  2.809209E-06 -1.070273E-06  2.313879E-09
     11258   1  1.590380E-04 -5.249423E-05 -5.246531E-05  2.747210E-06 -5.776259E-07  3.240525E-10
     11259   1  1.590380E-04 -5.248567E-05 -5.246943E-05  2.724425E-06 -1.845243E-12 -5.804854E-12
     11260   1  1.590380E-04 -5.249423E-05 -5.246530E-05  2.747209E-06  5.776088E-07 -3.290809E-10
     11261   1  1.590380E-04 -5.248519E-05 -5.246810E-05  2.809207E-06  1.070269E-06 -2.322426E-09
     11262   1  1.590380E-04 -5.249879E-05 -5.245970E-05  2.938751E-06  1.372502E-06 -1.940250E-09
     11263   1  1.590380E-04 -5.248371E-05 -5.246041E-05  3.134946E-06  1.347986E-06 -9.916128E-09
     11264   1  1.590379E-04 -5.251386E-05 -5.243423E-05  3.648026E-06  6.234947E-07 -1.610065E-08
     11265   1  1.272304E-04 -4.198953E-05 -4.200127E-05  9.932619E-06 -2.312790E-07 -1.046655E-08
     11266   1  1.272304E-04 -4.198002E-05 -4.198467E-05  8.856109E-06 -6.334170E-07  1.019469E-08
     11267   1  1.272304E-04 -4.198866E-05 -4.197510E-05  8.266730E-06 -7.743547E-07  7.285958E-09
     11268   1  1.272304E-04 -4.199171E-05 -4.197535E-05  7.924970E-06 -6.407634E-07  2.130883E-09
     11269   1  1.272304E-04 -4.198887E-05 -4.197518E-05  7.736572E-06 -3.580873E-07  1.776331E-09
     11270   1  1.272304E-04 -4.199299E-05 -4.197444E-05  7.679063E-06  5.838958E-12 -1.464491E-11
     11271   1  1.272304E-04 -4.198887E-05 -4.197518E-05  7.736568E-06  3.580937E-07 -1.797898E-09
     11272   1  1.272304E-04 -4.199171E-05 -4.197534E-05  7.924964E-06  6.407708E-07 -2.152414E-09
     11273   1  1.272304E-04 -4.198865E-05 -4.197509E-05  8.266724E-06  7.743554E-07 -7.294553E-09
     11274   1  1.272304E-04 -4.198000E-05 -4.198466E-05  8.856105E-06  6.334162E-07 -1.020179E-08
     11275   1  1.272304E-04 -4.198949E-05 -4.200125E-05  9.932618E-06  2.312788E-07  1.046641E-08
     11276   1  9.542282E-05 -3.150393E-05 -3.147305E-05  1.452032E-05 -1.262009E-07  1.116668E-09
     11277   1  9.542281E-05 -3.148954E-05 -3.149369E-05  1.331918E-05 -3.183531E-07 -1.116158E-08
     11278   1  9.542280E-05 -3.148367E-05 -3.149119E-05  1.249381E-05 -4.059883E-07  4.411334E-09
     11279   1  9.542280E-05 -3.149125E-05 -3.148291E-05  1.198340E-05 -3.623515E-07  1.167418E-09
     11280   1  9.542279E-05 -3.149119E-05 -3.148416E-05  1.170198E-05 -2.069197E-07  9.419660E-10
     11281   1  9.542279E-05 -3.149166E-05 -3.148177E-05  1.161084E-05  9.043510E-12 -2.318520E-11
     11282   1  9.542279E-05 -3.149119E-05 -3.148416E-05  1.170198E-05  2.069370E-07 -9.804287E-10
     11283   1  9.542279E-05 -3.149125E-05 -3.148291E-05  1.198339E-05  3.623650E-07 -1.202782E-09
     11284   1  9.542279E-05 -3.148366E-05 -3.149118E-05  1.249380E-05  4.059977E-07 -4.430150E-09
     11285   1  9.542279E-05 -3.148954E-05 -3.149368E-05  1.331919E-05  3.183583E-07  1.115014E-08
     11286   1  9.542278E-05 -3.150392E-05 -3.147303E-05  1.452035E-05  1.262015E-07 -1.114489E-09
     11287   1  6.361523E-05 -2.099558E-05 -2.099710E-05  1.772538E-05 -5.843226E-08 -4.443962E-09
     11288   1  6.361522E-05 -2.099530E-05 -2.098890E-05  1.645287E-05 -1.613817E-07  3.432697E-10
     11289   1  6.361521E-05 -2.099285E-05 -2.099320E-05  1.553578E-05 -2.068027E-07 -8.480311E-09
     11290   1  6.361521E-05 -2.098967E-05 -2.099382E-05  1.492195E-05 -1.868148E-07  1.284882E-09
     11291   1  6.361520E-05 -2.099413E-05 -2.098869E-05  1.457598E-05 -1.104176E-07 -1.309620E-09
     11292   1  6.361520E-05 -2.099261E-05 -2.099095E-05  1.446381E-05  8.843329E-12 -3.079025E-11
     11293   1  6.361520E-05 -2.099413E-05 -2.098869E-05  1.457597E-05  1.104349E-07  1.257026E-09
     11294   1  6.361520E-05 -2.098967E-05 -2.099382E-05  1.492193E-05  1.868288E-07 -1.334188E-09
     11295   1  6.361520E-05 -2.099285E-05 -2.099320E-05  1.553576E-05  2.068130E-07  8.449339E-09
     11296   1  6.361520E-05 -2.099529E-05 -2.098890E-05  1.645285E-05  1.613874E-07 -3.666707E-10
     11297   1  6.361520E-05 -2.099555E-05 -2.099709E-05  1.772538E-05  5.843476E-08  4.438994E-09
     11298   1  3.180762E-05 -1.050077E-05 -1.049206E-05  1.962259E-05 -2.573224E-08 -5.880859E-10
     11299   1  3.180761E-05 -1.049675E-05 -1.049791E-05  1.832412E-05 -6.642444E-08 -8.601847E-09
     11300   1  3.180761E-05 -1.049564E-05 -1.049629E-05  1.735704E-05 -8.711396E-08 -6.170747E-10
     11301   1  3.180760E-05 -1.049654E-05 -1.049566E-05  1.669891E-05 -7.935186E-08 -6.705160E-09
     11302   1  3.180760E-05 -1.049502E-05 -1.049673E-05  1.631658E-05 -4.673246E-08  8.330919E-11
     11303   1  3.180760E-05 -1.049703E-05 -1.049437E-05  1.619261E-05  5.238057E-12 -3.600852E-11
     11304   1  3.180760E-05 -1.049502E-05 -1.049673E-05  1.631657E-05  4.674307E-08 -1.455538E-10
     11305   1  3.180760E-05 -1.049654E-05 -1.049566E-05  1.669889E-05  7.936029E-08  6.646785E-09
     11306   1  3.180760E-05 -1.049564E-05 -1.049629E-05  1.735702E-05  8.712081E-08  5.800526E-10
     11307   1  3.180761E-05 -1.049675E-05 -1.049791E-05  1.832412E-05  6.642853E-08  8.576422E-09
     11308   1  3.180761E-05 -1.050077E-05 -1.049206E-05  1.962262E-05  2.573346E-08  5.852394E-10
     11309   1  1.688165E-11 -8.410980E-12 -3.687484E-12  2.025234E-05 -1.582537E-12 -3.455927E-09
     11310   1  1.315604E-11 -9.781037E-12 -2.000744E-12  1.894420E-05 -3.724982E-12 -1.470678E-09
     11311   1  9.844368E-12 -1.228628E-11  2.453493E-14  1.796589E-05 -4.538863E-12 -9.206511E-09
     11312   1  7.153019E-12 -1.380478E-11  1.748788E-12  1.729131E-05 -3.569861E-12 -5.955513E-10
     11313   1  5.173124E-12 -1.420601E-11  2.858757E-12  1.690023E-05 -2.263725E-12 -3.848957E-09
     11314   1  4.446986E-12 -1.420362E-11  3.346284E-12  1.677111E-05  1.912261E-13 -3.778599E-11
     11315   1  5.222275E-12 -1.418154E-11  2.782183E-12  1.690022E-05  1.928140E-12  3.783196E-09
     11316   1  7.067249E-12 -1.380766E-11  1.864105E-12  1.729129E-05  3.889914E-12  5.334828E-10
     11317   1  1.017253E-11 -1.280437E-11 -1.393643E-13  1.796587E-05  4.350129E-12  9.164971E-09
     11318   1  1.369938E-11 -1.173085E-11 -1.886804E-12  1.894418E-05  3.919032E-12  1.438904E-09
     11319   1  1.796893E-11 -1.188860E-11 -3.783696E-12  2.025233E-05  1.539873E-12  3.448489E-09
     11320   1 -3.180759E-05  1.050075E-05  1.049205E-05  1.962258E-05  2.572889E-08 -5.881175E-10
     11321   1 -3.180759E-05  1.049674E-05  1.049790E-05  1.832411E-05  6.641656E-08 -8.602040E-09
     11322   1 -3.180760E-05  1.049564E-05  1.049629E-05  1.735703E-05  8.710449E-08 -6.171876E-10
     11323   1 -3.180760E-05  1.049655E-05  1.049567E-05  1.669890E-05  7.934454E-08 -6.705312E-09
     11324   1 -3.180760E-05  1.049503E-05  1.049674E-05  1.631658E-05  4.672785E-08  8.329111E-11
     11325   1 -3.180760E-05  1.049705E-05  1.049437E-05  1.619260E-05 -4.837390E-12 -3.604574E-11
     11326   1 -3.180760E-05  1.049503E-05  1.049674E-05  1.631657E-05 -4.673916E-08 -1.454575E-10
     11327   1 -3.180760E-05  1.049655E-05  1.049567E-05  1.669889E-05 -7.935229E-08  6.646861E-09
     11328   1 -3.180759E-05  1.049564E-05  1.049629E-05  1.735702E-05 -8.711187E-08  5.802317E-10
     11329   1 -3.180759E-05  1.049674E-05  1.049790E-05  1.832412E-05 -6.642040E-08  8.576519E-09
     11330   1 -3.180758E-05  1.050075E-05  1.049205E-05  1.962261E-05 -2.573022E-08  5.853393E-10
     11331   1 -6.361520E-05  2.099556E-05  2.099708E-05  1.772537E-05  5.842893E-08 -4.443957E-09
     11332   1 -6.361520E-05  2.099529E-05  2.098890E-05  1.645286E-05  1.613738E-07  3.429957E-10
     11333   1 -6.361520E-05  2.099283E-05  2.099320E-05  1.553577E-05  2.067933E-07 -8.480409E-09
     11334   1 -6.361520E-05  2.098964E-05  2.099383E-05  1.492194E-05  1.868070E-07  1.284566E-09
     11335   1 -6.361520E-05  2.099411E-05  2.098869E-05  1.457597E-05  1.104132E-07 -1.309579E-09
     11336   1 -6.361520E-05  2.099258E-05  2.099097E-05  1.446381E-05 -8.864560E-12 -3.094143E-11
     11337   1 -6.361520E-05  2.099411E-05  2.098869E-05  1.457596E-05 -1.104304E-07  1.257282E-09
     11338   1 -6.361520E-05  2.098964E-05  2.099383E-05  1.492192E-05 -1.868210E-07 -1.334148E-09
     11339   1 -6.361519E-05  2.099283E-05  2.099320E-05  1.553575E-05 -2.068036E-07  8.449698E-09
     11340   1 -6.361518E-05  2.099527E-05  2.098890E-05  1.645284E-05 -1.613793E-07 -3.665748E-10
     11341   1 -6.361516E-05  2.099553E-05  2.099708E-05  1.772536E-05 -5.843146E-08  4.439165E-09
     11342   1 -9.542280E-05  3.150392E-05  3.147303E-05  1.452031E-05  1.261972E-07  1.116627E-09
     11343   1 -9.542281E-05  3.148954E-05  3.149371E-05  1.331917E-05  3.183439E-07 -1.116193E-08
     11344   1 -9.542280E-05  3.148368E-05  3.149117E-05  1.249380E-05  4.059783E-07  4.411129E-09
     11345   1 -9.542282E-05  3.149127E-05  3.148293E-05  1.198339E-05  3.623423E-07  1.167056E-09
     11346   1 -9.542281E-05  3.149121E-05  3.148415E-05  1.170197E-05  2.069159E-07  9.420167E-10
     11347   1 -9.542282E-05  3.149168E-05  3.148180E-05  1.161083E-05 -1.027594E-11 -2.338356E-11
     11348   1 -9.542281E-05  3.149121E-05  3.148415E-05  1.170196E-05 -2.069309E-07 -9.801065E-10
     11349   1 -9.542281E-05  3.149127E-05  3.148293E-05  1.198338E-05 -3.623578E-07 -1.202771E-09
     11350   1 -9.542279E-05  3.148367E-05  3.149117E-05  1.249379E-05 -4.059863E-07 -4.429691E-09
     11351   1 -9.542279E-05  3.148954E-05  3.149370E-05  1.331918E-05 -3.183502E-07  1.115022E-08
     11352   1 -9.542276E-05  3.150391E-05  3.147301E-05  1.452033E-05 -1.261975E-07 -1.114314E-09
     11353   1 -1.272304E-04  4.198953E-05  4.200124E-05  9.932605E-06  2.312749E-07 -1.046675E-08
     11354   1 -1.272304E-04  4.198001E-05  4.198471E-05  8.856096E-06  6.334067E-07  1.019462E-08
     11355   1 -1.272304E-04  4.198865E-05  4.197507E-05  8.266721E-06  7.743440E-07  7.285755E-09
     11356   1 -1.272304E-04  4.199169E-05  4.197538E-05  7.924960E-06  6.407523E-07  2.130640E-09
     11357   1 -1.272304E-04  4.198885E-05  4.197516E-05  7.736563E-06  3.580842E-07  1.776294E-09
     11358   1 -1.272304E-04  4.199298E-05  4.197448E-05  7.679054E-06 -8.373597E-12 -1.472427E-11
     11359   1 -1.272304E-04  4.198885E-05  4.197516E-05  7.736558E-06 -3.580857E-07 -1.797733E-09
     11360   1 -1.272304E-04  4.199169E-05  4.197538E-05  7.924954E-06 -6.407640E-07 -2.152292E-09
     11361   1 -1.272304E-04  4.198864E-05  4.197507E-05  8.266714E-06 -7.743415E-07 -7.294267E-09
     11362   1 -1.272304E-04  4.197999E-05  4.198469E-05  8.856093E-06 -6.334077E-07 -1.020166E-08
     11363   1 -1.272303E-04  4.198948E-05  4.200122E-05  9.932604E-06 -2.312742E-07  1.046653E-08
     11364   1 -1.590380E-04  5.251388E-05  5.243422E-05  3.648011E-06  6.234949E-07  1.610789E-08
     11365   1 -1.590381E-04  5.248374E-05  5.246048E-05  3.134940E-06  1.347976E-06  9.913439E-09
     11366   1 -1.590380E-04  5.249882E-05  5.245969E-05  2.938747E-06  1.372504E-06  1.941225E-09
     11367   1 -1.590381E-04  5.248522E-05  5.246817E-05  2.809205E-06  1.070260E-06  2.313790E-09
     11368   1 -1.590380E-04  5.249426E-05  5.246529E-05  2.747206E-06  5.776225E-07  3.239292E-10
     11369   1 -1.590380E-04  5.248570E-05  5.246948E-05  2.724421E-06 -1.356007E-12 -5.662827E-12
     11370   1 -1.590380E-04  5.249426E-05  5.246528E-05  2.747204E-06 -5.775994E-07 -3.292452E-10
     11371   1 -1.590380E-04  5.248522E-05  5.246815E-05  2.809203E-06 -1.070261E-06 -2.322093E-09
     11372   1 -1.590380E-04  5.249881E-05  5.245968E-05  2.938747E-06 -1.372485E-06 -1.940469E-09
     11373   1 -1.590380E-04  5.248373E-05  5.246045E-05  3.134942E-06 -1.347974E-06 -9.915610E-09
     11374   1 -1.590379E-04  5.251386E-05  5.243420E-05  3.648018E-06 -6.234879E-07 -1.610119E-08
     11375   1  1.544941E-04 -5.101352E-05 -5.093615E-05  3.648029E-06 -6.234961E-07  1.563648E-08
     11376   1  1.544941E-04 -5.098422E-05 -5.096156E-05  3.134949E-06 -1.347995E-06  9.632369E-09
     11377   1  1.544941E-04 -5.099886E-05 -5.096087E-05  2.938756E-06 -1.372506E-06  1.878783E-09
     11378   1  1.544941E-04 -5.098564E-05 -5.096903E-05  2.809210E-06 -1.070275E-06  2.248575E-09
     11379   1  1.544941E-04 -5.099442E-05 -5.096630E-05  2.747212E-06 -5.776100E-07  3.078511E-10
     11380   1  1.544940E-04 -5.098610E-05 -5.097030E-05  2.724425E-06 -1.285708E-12 -5.772530E-12
     11381   1  1.544940E-04 -5.099442E-05 -5.096629E-05  2.747209E-06  5.776251E-07 -3.262507E-10
     11382   1  1.544940E-04 -5.098564E-05 -5.096902E-05  2.809206E-06  1.070270E-06 -2.255321E-09
     11383   1  1.544940E-04 -5.099884E-05 -5.096084E-05  2.938750E-06  1.372514E-06 -1.889540E-09
     11384   1  1.544940E-04 -5.098419E-05 -5.096154E-05  3.134945E-06  1.347987E-06 -9.630025E-09
     11385   1  1.544940E-04 -5.101346E-05 -5.093610E-05  3.648025E-06  6.234978E-07 -1.564463E-08
     11386   1  1.235953E-04 -4.078979E-05 -4.080123E-05  9.932602E-06 -2.312798E-07 -1.016533E-08
     11387   1  1.235953E-04 -4.078056E-05 -4.078511E-05  8.856104E-06 -6.334127E-07  9.907173E-09
     11388   1  1.235952E-04 -4.078896E-05 -4.077581E-05  8.266733E-06 -7.743471E-07  7.070775E-09
     11389   1  1.235952E-04 -4.079192E-05 -4.077605E-05  7.924975E-06 -6.407567E-07  2.065901E-09
     11390   1  1.235952E-04 -4.078916E-05 -4.077589E-05  7.736575E-06 -3.580741E-07  1.712510E-09
     11391   1  1.235952E-04 -4.079317E-05 -4.077517E-05  7.679064E-06  1.512884E-11 -2.118232E-11
     11392   1  1.235952E-04 -4.078916E-05 -4.077588E-05  7.736566E-06  3.581081E-07 -1.759526E-09
     11393   1  1.235952E-04 -4.079192E-05 -4.077605E-05  7.924960E-06  6.407795E-07 -2.095426E-09
     11394   1  1.235952E-04 -4.078896E-05 -4.077580E-05  8.266720E-06  7.743658E-07 -7.094331E-09
     11395   1  1.235952E-04 -4.078056E-05 -4.078510E-05  8.856102E-06  6.334211E-07 -9.909279E-09
     11396   1  1.235952E-04 -4.078978E-05 -4.080121E-05  9.932618E-06  2.312809E-07  1.016472E-08
     11397   1  9.269648E-05 -3.060385E-05 -3.057382E-05  1.452036E-05 -1.261982E-07  1.075319E-09
     11398   1  9.269646E-05 -3.058986E-05 -3.059387E-05  1.331921E-05 -3.183504E-07 -1.084886E-08
     11399   1  9.269644E-05 -3.058415E-05 -3.059144E-05  1.249382E-05 -4.059824E-07  4.271498E-09
     11400   1  9.269643E-05 -3.059152E-05 -3.058339E-05  1.198341E-05 -3.623422E-07  1.123625E-09
     11401   1  9.269643E-05 -3.059146E-05 -3.058461E-05  1.170199E-05 -2.069091E-07  8.966921E-10
     11402   1  9.269643E-05 -3.059192E-05 -3.058229E-05  1.161084E-05  2.134551E-11 -3.577328E-11
     11403   1  9.269644E-05 -3.059146E-05 -3.058461E-05  1.170197E-05  2.069488E-07 -9.708343E-10
     11404   1  9.269644E-05 -3.059152E-05 -3.058339E-05  1.198339E-05  3.623761E-07 -1.178156E-09
     11405   1  9.269644E-05 -3.058415E-05 -3.059144E-05  1.249380E-05  4.060064E-07 -4.315802E-09
     11406   1  9.269643E-05 -3.058985E-05 -3.059386E-05  1.331918E-05  3.183640E-07  1.082939E-08
     11407   1  9.269642E-05 -3.060381E-05 -3.057381E-05  1.452034E-05  1.262038E-07 -1.087816E-09
     11408   1  6.179764E-05 -2.039568E-05 -2.039718E-05  1.772535E-05 -5.843234E-08 -4.318462E-09
     11409   1  6.179763E-05 -2.039542E-05 -2.038922E-05  1.645286E-05 -1.613779E-07  3.332124E-10
     11410   1  6.179762E-05 -2.039304E-05 -2.039340E-05  1.553578E-05 -2.067977E-07 -8.252453E-09
     11411   1  6.179762E-05 -2.038994E-05 -2.039399E-05  1.492195E-05 -1.868075E-07  1.234918E-09
     11412   1  6.179762E-05 -2.039428E-05 -2.038901E-05  1.457598E-05 -1.104094E-07 -1.295600E-09
     11413   1  6.179762E-05 -2.039280E-05 -2.039121E-05  1.446381E-05  1.872431E-11 -4.755486E-11
     11414   1  6.179762E-05 -2.039428E-05 -2.038901E-05  1.457597E-05  1.104442E-07  1.197518E-09
     11415   1  6.179762E-05 -2.038995E-05 -2.039400E-05  1.492192E-05  1.868380E-07 -1.309810E-09
     11416   1  6.179763E-05 -2.039304E-05 -2.039340E-05  1.553575E-05  2.068203E-07  8.191566E-09
     11417   1  6.179763E-05 -2.039542E-05 -2.038922E-05  1.645285E-05  1.613927E-07 -3.600367E-10
     11418   1  6.179762E-05 -2.039567E-05 -2.039718E-05  1.772537E-05  5.843656E-08  4.306590E-09
     11419   1  3.089884E-05 -1.020076E-05 -1.019229E-05  1.962265E-05 -2.573131E-08 -5.825302E-10
     11420   1  3.089883E-05 -1.019685E-05 -1.019797E-05  1.832416E-05 -6.642327E-08 -8.366833E-09
     11421   1  3.089882E-05 -1.019577E-05 -1.019639E-05  1.735705E-05 -8.711176E-08 -6.204290E-10
     11422   1  3.089882E-05 -1.019666E-05 -1.019579E-05  1.669892E-05 -7.934783E-08 -6.530368E-09
     11423   1  3.089882E-05 -1.019518E-05 -1.019682E-05  1.631659E-05 -4.672822E-08  5.414473E-11
     11424   1  3.089882E-05 -1.019714E-05 -1.019453E-05  1.619261E-05  1.089898E-11 -5.540385E-11
     11425   1  3.089882E-05 -1.019518E-05 -1.019682E-05  1.631657E-05  4.674803E-08 -1.683547E-10
     11426   1  3.089882E-05 -1.019666E-05 -1.019579E-05  1.669888E-05  7.936582E-08  6.440638E-09
     11427   1  3.089882E-05 -1.019578E-05 -1.019640E-05  1.735701E-05  8.712481E-08  5.442330E-10
     11428   1  3.089883E-05 -1.019685E-05 -1.019797E-05  1.832411E-05  6.643186E-08  8.325367E-09
     11429   1  3.089883E-05 -1.020075E-05 -1.019228E-05  1.962261E-05  2.573459E-08  5.609491E-10
     11430   1  2.177554E-11 -1.027640E-11 -6.043806E-12  2.025231E-05 -1.995813E-12 -3.360488E-09
     11431   1  1.425952E-11 -3.827716E-12 -3.696942E-12  1.894418E-05 -4.927503E-12 -1.430754E-09
     11432   1  7.116348E-12  2.656667E-12 -1.301433E-12  1.796589E-05 -5.193384E-12 -8.961559E-09
     11433   1  1.598611E-12  6.778009E-12  6.959309E-13  1.729132E-05 -4.542842E-12 -5.953480E-10
     11434   1 -1.442089E-12  8.558293E-12  1.908208E-12  1.690024E-05 -2.111038E-12 -3.766832E-09
     11435   1 -2.431890E-12  8.986978E-12  2.189850E-12  1.677111E-05 -2.571078E-13 -5.827100E-11
     11436   1 -1.532688E-12  8.579235E-12  2.002670E-12  1.690021E-05  2.623069E-12  3.647031E-09
     11437   1  1.695452E-12  6.863080E-12  4.929022E-13  1.729128E-05  4.116480E-12  5.009281E-10
     11438   1  6.658662E-12  3.385597E-12 -1.106806E-12  1.796586E-05  5.499217E-12  8.883049E-09
     11439   1  1.359722E-11 -1.311146E-12 -3.936872E-12  1.894416E-05  4.673903E-12  1.391959E-09
     11440   1  2.041478E-11 -5.826756E-12 -5.968116E-12  2.025233E-05  2.053108E-12  3.342964E-09
     11441   1 -3.089880E-05  1.020075E-05  1.019227E-05  1.962264E-05  2.572747E-08 -5.826726E-10
     11442   1 -3.089880E-05  1.019684E-05  1.019796E-05  1.832415E-05  6.641376E-08 -8.367000E-09
     11443   1 -3.089880E-05  1.019575E-05  1.019639E-05  1.735705E-05  8.710160E-08 -6.207170E-10
     11444   1 -3.089880E-05  1.019663E-05  1.019579E-05  1.669891E-05  7.933878E-08 -6.530480E-09
     11445   1 -3.089881E-05  1.019515E-05  1.019683E-05  1.631658E-05  4.672400E-08  5.400763E-11
     11446   1 -3.089881E-05  1.019711E-05  1.019453E-05  1.619260E-05 -1.144244E-11 -5.534150E-11
     11447   1 -3.089881E-05  1.019515E-05  1.019683E-05  1.631656E-05 -4.674273E-08 -1.683072E-10
     11448   1 -3.089881E-05  1.019663E-05  1.019579E-05  1.669888E-05 -7.935768E-08  6.440873E-09
     11449   1 -3.089880E-05  1.019575E-05  1.019640E-05  1.735700E-05 -8.711383E-08  5.444340E-10
     11450   1 -3.089879E-05  1.019683E-05  1.019796E-05  1.832410E-05 -6.642267E-08  8.325675E-09
     11451   1 -3.089878E-05  1.020072E-05  1.019227E-05  1.962260E-05 -2.573055E-08  5.610036E-10
     11452   1 -6.179761E-05  2.039566E-05  2.039718E-05  1.772534E-05  5.842813E-08 -4.318822E-09
     11453   1 -6.179761E-05  2.039541E-05  2.038920E-05  1.645285E-05  1.613677E-07  3.328837E-10
     11454   1 -6.179762E-05  2.039305E-05  2.039341E-05  1.553577E-05  2.067865E-07 -8.253050E-09
     11455   1 -6.179762E-05  2.038996E-05  2.039399E-05  1.492194E-05  1.867985E-07  1.234822E-09
     11456   1 -6.179763E-05  2.039430E-05  2.038903E-05  1.457597E-05  1.104045E-07 -1.295939E-09
     11457   1 -6.179763E-05  2.039282E-05  2.039121E-05  1.446380E-05 -1.865975E-11 -4.732224E-11
     11458   1 -6.179763E-05  2.039430E-05  2.038903E-05  1.457595E-05 -1.104394E-07  1.197453E-09
     11459   1 -6.179763E-05  2.038996E-05  2.039399E-05  1.492191E-05 -1.868289E-07 -1.309296E-09
     11460   1 -6.179763E-05  2.039305E-05  2.039341E-05  1.553574E-05 -2.068093E-07  8.191793E-09
     11461   1 -6.179761E-05  2.039542E-05  2.038920E-05  1.645283E-05 -1.613827E-07 -3.594518E-10
     11462   1 -6.179760E-05  2.039567E-05  2.039718E-05  1.772536E-05 -5.843232E-08  4.306667E-09
     11463   1 -9.269646E-05  3.060384E-05  3.057384E-05  1.452035E-05  1.261937E-07  1.075095E-09
     11464   1 -9.269643E-05  3.058985E-05  3.059385E-05  1.331920E-05  3.183404E-07 -1.084909E-08
     11465   1 -9.269644E-05  3.058413E-05  3.059146E-05  1.249381E-05  4.059702E-07  4.270965E-09
     11466   1 -9.269643E-05  3.059150E-05  3.058338E-05  1.198340E-05  3.623339E-07  1.123544E-09
     11467   1 -9.269644E-05  3.059144E-05  3.058464E-05  1.170197E-05  2.069024E-07  8.962990E-10
     11468   1 -9.269643E-05  3.059190E-05  3.058228E-05  1.161083E-05 -1.952345E-11 -3.547509E-11
     11469   1 -9.269645E-05  3.059144E-05  3.058464E-05  1.170196E-05 -2.069456E-07 -9.709794E-10
     11470   1 -9.269643E-05  3.059150E-05  3.058338E-05  1.198337E-05 -3.623648E-07 -1.177551E-09
     11471   1 -9.269644E-05  3.058413E-05  3.059146E-05  1.249378E-05 -4.059964E-07 -4.315654E-09
     11472   1 -9.269641E-05  3.058983E-05  3.059384E-05  1.331917E-05 -3.183524E-07  1.083003E-08
     11473   1 -9.269640E-05  3.060379E-05  3.057382E-05  1.452032E-05 -1.261998E-07 -1.087769E-09
     11474   1 -1.235953E-04  4.078978E-05  4.080127E-05  9.932583E-06  2.312747E-07 -1.016534E-08
     11475   1 -1.235952E-04  4.078057E-05  4.078507E-05  8.856090E-06  6.334010E-07  9.906682E-09
     11476   1 -1.235953E-04  4.078898E-05  4.077585E-05  8.266720E-06  7.743322E-07  7.070385E-09
     11477   1 -1.235953E-04  4.079195E-05  4.077602E-05  7.924963E-06  6.407485E-07  2.065740E-09
     11478   1 -1.235953E-04  4.078920E-05  4.077593E-05  7.736562E-06  3.580653E-07  1.712322E-09
     11479   1 -1.235953E-04  4.079320E-05  4.077515E-05  7.679052E-06 -1.145174E-11 -2.107194E-11
     11480   1 -1.235953E-04  4.078920E-05  4.077593E-05  7.736554E-06 -3.581064E-07 -1.759533E-09
     11481   1 -1.235953E-04  4.079195E-05  4.077602E-05  7.924948E-06 -6.407652E-07 -2.095106E-09
     11482   1 -1.235953E-04  4.078898E-05  4.077584E-05  8.266708E-06 -7.743556E-07 -7.094082E-09
     11483   1 -1.235952E-04  4.078057E-05  4.078506E-05  8.856088E-06 -6.334068E-07 -9.908883E-09
     11484   1 -1.235952E-04  4.078978E-05  4.080124E-05  9.932599E-06 -2.312765E-07  1.016478E-08
     11485   1 -1.544942E-04  5.101353E-05  5.093620E-05  3.648022E-06  6.234886E-07  1.563594E-08
     11486   1 -1.544941E-04  5.098422E-05  5.096152E-05  3.134942E-06  1.347981E-06  9.632661E-09
     11487   1 -1.544941E-04  5.099885E-05  5.096093E-05  2.938752E-06  1.372488E-06  1.878598E-09
     11488   1 -1.544941E-04  5.098562E-05  5.096900E-05  2.809205E-06  1.070266E-06  2.248452E-09
     11489   1 -1.544941E-04  5.099440E-05  5.096636E-05  2.747207E-06  5.775996E-07  3.079618E-10
     11490   1 -1.544941E-04  5.098609E-05  5.097028E-05  2.724420E-06  5.840277E-12 -5.990320E-12
     11491   1 -1.544941E-04  5.099440E-05  5.096634E-05  2.747204E-06 -5.776236E-07 -3.259404E-10
     11492   1 -1.544941E-04  5.098562E-05  5.096899E-05  2.809200E-06 -1.070254E-06 -2.255580E-09
     11493   1 -1.544941E-04  5.099883E-05  5.096089E-05  2.938746E-06 -1.372502E-06 -1.888995E-09
     11494   1 -1.544940E-04  5.098418E-05  5.096151E-05  3.134939E-06 -1.347969E-06 -9.630442E-09
     11495   1 -1.544940E-04  5.101346E-05  5.093615E-05  3.648019E-06 -6.234918E-07 -1.564392E-08
     11496   1  1.499501E-04 -4.951307E-05 -4.943801E-05  3.648020E-06 -6.235007E-07  1.519171E-08
     11497   1  1.499501E-04 -4.948465E-05 -4.946270E-05  3.134948E-06 -1.347981E-06  9.345096E-09
     11498   1  1.499501E-04 -4.949886E-05 -4.946201E-05  2.938756E-06 -1.372507E-06  1.828647E-09
     11499   1  1.499501E-04 -4.948603E-05 -4.946995E-05  2.809214E-06 -1.070252E-06  2.173542E-09
     11500   1  1.499501E-04 -4.949455E-05 -4.946728E-05  2.747213E-06 -5.776070E-07  2.988108E-10
     11501   1  1.499501E-04 -4.948648E-05 -4.947117E-05  2.724426E-06  2.502601E-11 -1.587961E-11
     11502   1  1.499501E-04 -4.949455E-05 -4.946728E-05  2.747207E-06  5.776301E-07 -3.170985E-10
     11503   1  1.499501E-04 -4.948603E-05 -4.946992E-05  2.809204E-06  1.070293E-06 -2.197659E-09
     11504   1  1.499501E-04 -4.949886E-05 -4.946200E-05  2.938748E-06  1.372518E-06 -1.831816E-09
     11505   1  1.499501E-04 -4.948464E-05 -4.946266E-05  3.134943E-06  1.347999E-06 -9.352098E-09
     11506   1  1.499501E-04 -4.951306E-05 -4.943799E-05  3.648025E-06  6.234984E-07 -1.517882E-08
     11507   1  1.199601E-04 -3.959015E-05 -3.960120E-05  9.932640E-06 -2.312751E-07 -9.870991E-09
     11508   1  1.199601E-04 -3.958117E-05 -3.958554E-05  8.856126E-06 -6.334077E-07  9.603364E-09
     11509   1  1.199601E-04 -3.958931E-05 -3.957651E-05  8.266746E-06 -7.743382E-07  6.857404E-09
     11510   1  1.199601E-04 -3.959218E-05 -3.957675E-05  7.924981E-06 -6.407388E-07  1.987926E-09
     11511   1  1.199601E-04 -3.958951E-05 -3.957659E-05  7.736579E-06 -3.580593E-07  1.652225E-09
     11512   1  1.199601E-04 -3.959340E-05 -3.957590E-05  7.679064E-06  3.824442E-11 -4.102438E-11
     11513   1  1.199601E-04 -3.958951E-05 -3.957659E-05  7.736563E-06  3.581241E-07 -1.717863E-09
     11514   1  1.199601E-04 -3.959219E-05 -3.957675E-05  7.924955E-06  6.407998E-07 -2.050462E-09
     11515   1  1.199601E-04 -3.958931E-05 -3.957652E-05  8.266713E-06  7.743773E-07 -6.889223E-09
     11516   1  1.199601E-04 -3.958115E-05 -3.958554E-05  8.856094E-06  6.334310E-07 -9.626084E-09
     11517   1  1.199601E-04 -3.959009E-05 -3.960118E-05  9.932610E-06  2.312838E-07  9.868154E-09
     11518   1  8.997008E-05 -2.970369E-05 -2.967459E-05  1.452033E-05 -1.261981E-07  1.052416E-09
     11519   1  8.997006E-05 -2.969013E-05 -2.969405E-05  1.331920E-05 -3.183424E-07 -1.053634E-08
     11520   1  8.997005E-05 -2.968459E-05 -2.969169E-05  1.249383E-05 -4.059708E-07  4.138385E-09
     11521   1  8.997005E-05 -2.969174E-05 -2.968388E-05  1.198342E-05 -3.623281E-07  1.067762E-09
     11522   1  8.997005E-05 -2.969168E-05 -2.968506E-05  1.170199E-05 -2.068911E-07  8.514614E-10
     11523   1  8.997006E-05 -2.969213E-05 -2.968281E-05  1.161084E-05  4.003010E-11 -6.366814E-11
     11524   1  8.997006E-05 -2.969169E-05 -2.968507E-05  1.170197E-05  2.069680E-07 -9.614596E-10
     11525   1  8.997007E-05 -2.969175E-05 -2.968389E-05  1.198338E-05  3.623931E-07 -1.167859E-09
     11526   1  8.997007E-05 -2.968460E-05 -2.969169E-05  1.249378E-05  4.060205E-07 -4.198847E-09
     11527   1  8.997007E-05 -2.969014E-05 -2.969405E-05  1.331917E-05  3.183735E-07  1.049865E-08
     11528   1  8.997006E-05 -2.970369E-05 -2.967458E-05  1.452034E-05  1.262069E-07 -1.053028E-09
     11529   1  5.998008E-05 -1.979584E-05 -1.979726E-05  1.772542E-05 -5.842912E-08 -4.197064E-09
     11530   1  5.998006E-05 -1.979557E-05 -1.978953E-05  1.645291E-05 -1.613739E-07  3.007893E-10
     11531   1  5.998005E-05 -1.979326E-05 -1.979359E-05  1.553581E-05 -2.067891E-07 -8.026562E-09
     11532   1  5.998004E-05 -1.979026E-05 -1.979417E-05  1.492197E-05 -1.867963E-07  1.167658E-09
     11533   1  5.998004E-05 -1.979447E-05 -1.978933E-05  1.457599E-05 -1.103952E-07 -1.282472E-09
     11534   1  5.998005E-05 -1.979304E-05 -1.979147E-05  1.446381E-05  3.314239E-11 -8.276535E-11
     11535   1  5.998006E-05 -1.979448E-05 -1.978934E-05  1.457596E-05  1.104595E-07  1.136804E-09
     11536   1  5.998006E-05 -1.979027E-05 -1.979418E-05  1.492191E-05  1.868511E-07 -1.302729E-09
     11537   1  5.998007E-05 -1.979327E-05 -1.979360E-05  1.553574E-05  2.068315E-07  7.935678E-09
     11538   1  5.998007E-05 -1.979557E-05 -1.978954E-05  1.645283E-05  1.613999E-07 -3.672328E-10
     11539   1  5.998006E-05 -1.979581E-05 -1.979726E-05  1.772536E-05  5.843941E-08  4.180282E-09
     11540   1  2.999004E-05 -9.900721E-06 -9.892516E-06  1.962260E-05 -2.573124E-08 -5.592201E-10
     11541   1  2.999003E-05 -9.896926E-06 -9.898027E-06  1.832414E-05 -6.642041E-08 -8.133987E-09
     11542   1  2.999002E-05 -9.895875E-06 -9.896502E-06  1.735706E-05 -8.710677E-08 -6.170294E-10
     11543   1  2.999002E-05 -9.896729E-06 -9.895910E-06  1.669893E-05 -7.934211E-08 -6.372523E-09
     11544   1  2.999002E-05 -9.895292E-06 -9.896919E-06  1.631660E-05 -4.672015E-08  2.358048E-11
     11545   1  2.999002E-05 -9.897196E-06 -9.894689E-06  1.619261E-05  1.839361E-11 -9.550225E-11
     11546   1  2.999002E-05 -9.895295E-06 -9.896921E-06  1.631656E-05  4.675676E-08 -1.930950E-10
     11547   1  2.999003E-05 -9.896734E-06 -9.895916E-06  1.669887E-05  7.937273E-08  6.214822E-09
     11548   1  2.999004E-05 -9.895881E-06 -9.896507E-06  1.735699E-05  8.713172E-08  5.099885E-10
     11549   1  2.999004E-05 -9.896931E-06 -9.898032E-06  1.832409E-05  6.643614E-08  8.060369E-09
     11550   1  2.999004E-05 -9.900718E-06 -9.892518E-06  1.962260E-05  2.573639E-08  5.455689E-10
     11551   1  2.599925E-11 -5.367123E-12 -9.441003E-12  2.025239E-05 -2.221355E-12 -3.267538E-09
     11552   1  1.881013E-11 -7.687420E-12 -6.408911E-12  1.894424E-05 -4.924805E-12 -1.416069E-09
     11553   1  1.335210E-11 -1.184372E-11 -3.516440E-12  1.796592E-05 -5.713067E-12 -8.719469E-09
     11554   1  9.733451E-12 -1.440052E-11 -1.694514E-12  1.729133E-05 -3.980109E-12 -6.148684E-10
     11555   1  7.204947E-12 -1.513040E-11 -6.797536E-13  1.690024E-05 -2.660904E-12 -3.686579E-09
     11556   1  6.365938E-12 -1.515613E-11 -2.226070E-13  1.677111E-05  3.692833E-13 -9.981460E-11
     11557   1  7.283326E-12 -1.506652E-11 -8.424072E-13  1.690021E-05  1.941365E-12  3.508559E-09
     11558   1  9.489719E-12 -1.431438E-11 -1.449173E-12  1.729127E-05  4.597241E-12  4.484464E-10
     11559   1  1.381175E-11 -1.244654E-11 -3.873038E-12  1.796584E-05  5.283345E-12  8.602243E-09
     11560   1  1.942758E-11 -1.043746E-11 -6.135157E-12  1.894414E-05  5.301060E-12  1.328923E-09
     11561   1  2.754848E-11 -1.051315E-11 -9.676209E-12  2.025231E-05  2.166515E-12  3.244344E-09
     11562   1 -2.998999E-05  9.900704E-06  9.892497E-06  1.962259E-05  2.572635E-08 -5.594095E-10
     11563   1 -2.999000E-05  9.896926E-06  9.898015E-06  1.832413E-05  6.640988E-08 -8.134555E-09
     11564   1 -2.999001E-05  9.895890E-06  9.896495E-06  1.735706E-05  8.709485E-08 -6.173610E-10
     11565   1 -2.999002E-05  9.896754E-06  9.895908E-06  1.669893E-05  7.933399E-08 -6.372862E-09
     11566   1 -2.999002E-05  9.895321E-06  9.896917E-06  1.631659E-05  4.671476E-08  2.355416E-11
     11567   1 -2.999003E-05  9.897226E-06  9.894690E-06  1.619260E-05 -1.759783E-11 -9.555013E-11
     11568   1 -2.999003E-05  9.895324E-06  9.896919E-06  1.631655E-05 -4.675290E-08 -1.928699E-10
     11569   1 -2.999003E-05  9.896759E-06  9.895914E-06  1.669886E-05 -7.936328E-08  6.215049E-09
     11570   1 -2.999002E-05  9.895898E-06  9.896498E-06  1.735699E-05 -8.712093E-08  5.104874E-10
     11571   1 -2.999001E-05  9.896937E-06  9.898022E-06  1.832409E-05 -6.642511E-08  8.060755E-09
     11572   1 -2.998999E-05  9.900712E-06  9.892498E-06  1.962260E-05 -2.573182E-08  5.458767E-10
     11573   1 -5.998003E-05  1.979583E-05  1.979724E-05  1.772541E-05  5.842453E-08 -4.197130E-09
     11574   1 -5.998004E-05  1.979556E-05  1.978953E-05  1.645289E-05  1.613634E-07  2.999596E-10
     11575   1 -5.998002E-05  1.979324E-05  1.979358E-05  1.553580E-05  2.067778E-07 -8.026916E-09
     11576   1 -5.998003E-05  1.979023E-05  1.979418E-05  1.492196E-05  1.867876E-07  1.166998E-09
     11577   1 -5.998003E-05  1.979444E-05  1.978933E-05  1.457598E-05  1.103906E-07 -1.282331E-09
     11578   1 -5.998005E-05  1.979301E-05  1.979148E-05  1.446380E-05 -3.320271E-11 -8.304087E-11
     11579   1 -5.998005E-05  1.979445E-05  1.978933E-05  1.457595E-05 -1.104547E-07  1.137362E-09
     11580   1 -5.998005E-05  1.979024E-05  1.979419E-05  1.492190E-05 -1.868425E-07 -1.302581E-09
     11581   1 -5.998004E-05  1.979324E-05  1.979358E-05  1.553573E-05 -2.068201E-07  7.936631E-09
     11582   1 -5.998004E-05  1.979555E-05  1.978954E-05  1.645282E-05 -1.613893E-07 -3.667405E-10
     11583   1 -5.998001E-05  1.979578E-05  1.979724E-05  1.772535E-05 -5.843479E-08  4.180805E-09
     11584   1 -8.997003E-05  2.970368E-05  2.967455E-05  1.452031E-05  1.261931E-07  1.052056E-09
     11585   1 -8.997006E-05  2.969013E-05  2.969407E-05  1.331918E-05  3.183302E-07 -1.053738E-08
     11586   1 -8.997005E-05  2.968461E-05  2.969166E-05  1.249381E-05  4.059598E-07  4.137954E-09
     11587   1 -8.997008E-05  2.969177E-05  2.968391E-05  1.198340E-05  3.623172E-07  1.067076E-09
     11588   1 -8.997007E-05  2.969172E-05  2.968504E-05  1.170198E-05  2.068886E-07  8.517072E-10
     11589   1 -8.997009E-05  2.969217E-05  2.968284E-05  1.161083E-05 -4.264686E-11 -6.404999E-11
     11590   1 -8.997008E-05  2.969172E-05  2.968505E-05  1.170195E-05 -2.069605E-07 -9.608107E-10
     11591   1 -8.997010E-05  2.969178E-05  2.968391E-05  1.198336E-05 -3.623866E-07 -1.167863E-09
     11592   1 -8.997007E-05  2.968462E-05  2.969167E-05  1.249377E-05 -4.060061E-07 -4.197791E-09
     11593   1 -8.997007E-05  2.969015E-05  2.969407E-05  1.331916E-05 -3.183635E-07  1.049910E-08
     11594   1 -8.997002E-05  2.970369E-05  2.967454E-05  1.452032E-05 -1.262011E-07 -1.052443E-09
     11595   1 -1.199601E-04  3.959014E-05  3.960114E-05  9.932623E-06  2.312699E-07 -9.871340E-09
     11596   1 -1.199601E-04  3.958116E-05  3.958559E-05  8.856111E-06  6.333943E-07  9.603117E-09
     11597   1 -1.199601E-04  3.958929E-05  3.957647E-05  8.266733E-06  7.743276E-07  6.857077E-09
     11598   1 -1.199601E-04  3.959216E-05  3.957680E-05  7.924969E-06  6.407257E-07  1.987636E-09
     11599   1 -1.199601E-04  3.958949E-05  3.957656E-05  7.736566E-06  3.580591E-07  1.652298E-09
     11600   1 -1.199601E-04  3.959338E-05  3.957595E-05  7.679052E-06 -4.358248E-11 -4.115257E-11
     11601   1 -1.199601E-04  3.958949E-05  3.957656E-05  7.736551E-06 -3.581135E-07 -1.717603E-09
     11602   1 -1.199601E-04  3.959217E-05  3.957680E-05  7.924942E-06 -6.407955E-07 -2.050363E-09
     11603   1 -1.199601E-04  3.958929E-05  3.957648E-05  8.266700E-06 -7.743599E-07 -6.888673E-09
     11604   1 -1.199601E-04  3.958113E-05  3.958558E-05  8.856080E-06 -6.334215E-07 -9.625698E-09
     11605   1 -1.199600E-04  3.959007E-05  3.960113E-05  9.932594E-06 -2.312773E-07  9.868498E-09
     11606   1 -1.499501E-04  4.951307E-05  4.943795E-05  3.648009E-06  6.234933E-07  1.519206E-08
     11607   1 -1.499502E-04  4.948467E-05  4.946277E-05  3.134943E-06  1.347962E-06  9.344483E-09
     11608   1 -1.499501E-04  4.949889E-05  4.946197E-05  2.938749E-06  1.372494E-06  1.828476E-09
     11609   1 -1.499502E-04  4.948608E-05  4.947001E-05  2.809208E-06  1.070236E-06  2.173621E-09
     11610   1 -1.499501E-04  4.949460E-05  4.946725E-05  2.747206E-06  5.776073E-07  2.985612E-10
     11611   1 -1.499502E-04  4.948653E-05  4.947123E-05  2.724420E-06 -3.168805E-11 -1.554783E-11
     11612   1 -1.499501E-04  4.949460E-05  4.946724E-05  2.747201E-06 -5.776178E-07 -3.174673E-10
     11613   1 -1.499502E-04  4.948608E-05  4.946998E-05  2.809198E-06 -1.070289E-06 -2.197157E-09
     11614   1 -1.499501E-04  4.949889E-05  4.946196E-05  2.938741E-06 -1.372497E-06 -1.832196E-09
     11615   1 -1.499501E-04  4.948467E-05  4.946272E-05  3.134938E-06 -1.347986E-06 -9.351285E-09
     11616   1 -1.499500E-04  4.951307E-05  4.943794E-05  3.648014E-06 -6.234889E-07 -1.517953E-08
     11617   1  1.454062E-04 -4.801275E-05 -4.793991E-05  3.648039E-06 -6.234893E-07  1.470985E-08
     11618   1  1.454062E-04 -4.798515E-05 -4.796381E-05  3.134957E-06 -1.347984E-06  9.064951E-09
     11619   1  1.454062E-04 -4.799892E-05 -4.796317E-05  2.938764E-06 -1.372478E-06  1.758860E-09
     11620   1  1.454061E-04 -4.798648E-05 -4.797085E-05  2.809216E-06 -1.070246E-06  2.108613E-09
     11621   1  1.454061E-04 -4.799474E-05 -4.796828E-05  2.747215E-06 -5.775676E-07  2.750774E-10
     11622   1  1.454062E-04 -4.798692E-05 -4.797205E-05  2.724425E-06  3.568424E-11 -1.675543E-11
     11623   1  1.454062E-04 -4.799475E-05 -4.796827E-05  2.747206E-06  5.776690E-07 -3.217456E-10
     11624   1  1.454062E-04 -4.798649E-05 -4.797084E-05  2.809200E-06  1.070304E-06 -2.130710E-09
     11625   1  1.454062E-04 -4.799893E-05 -4.796314E-05  2.938743E-06  1.372545E-06 -1.786617E-09
     11626   1  1.454061E-04 -4.798513E-05 -4.796381E-05  3.134939E-06  1.348004E-06 -9.063651E-09
     11627   1  1.454061E-04 -4.801267E-05 -4.793986E-05  3.648019E-06  6.235052E-07 -1.472694E-08
     11628   1  1.163249E-04 -3.839036E-05 -3.840115E-05  9.932607E-06 -2.312753E-07 -9.567671E-09
     11629   1  1.163249E-04 -3.838168E-05 -3.838598E-05  8.856117E-06 -6.333949E-07  9.319176E-09
     11630   1  1.163249E-04 -3.838959E-05 -3.837722E-05  8.266750E-06 -7.743174E-07  6.634252E-09
     11631   1  1.163249E-04 -3.839238E-05 -3.837745E-05  7.924991E-06 -6.407183E-07  1.917572E-09
     11632   1  1.163249E-04 -3.838978E-05 -3.837730E-05  7.736584E-06 -3.580261E-07  1.573700E-09
     11633   1  1.163249E-04 -3.839356E-05 -3.837663E-05  7.679064E-06  6.432081E-11 -5.652798E-11
     11634   1  1.163249E-04 -3.838979E-05 -3.837730E-05  7.736557E-06  3.581591E-07 -1.694883E-09
     11635   1  1.163249E-04 -3.839240E-05 -3.837746E-05  7.924943E-06  6.408231E-07 -2.000423E-09
     11636   1  1.163249E-04 -3.838961E-05 -3.837723E-05  8.266699E-06  7.744022E-07 -6.699479E-09
     11637   1  1.163249E-04 -3.838171E-05 -3.838598E-05  8.856081E-06  6.334438E-07 -9.334006E-09
     11638   1  1.163249E-04 -3.839038E-05 -3.840115E-05  9.932602E-06  2.312888E-07  9.563104E-09
     11639   1  8.724374E-05 -2.880364E-05 -2.877535E-05  1.452041E-05 -1.261916E-07  1.001117E-09
     11640   1  8.724370E-05 -2.879046E-05 -2.879422E-05  1.331925E-05 -3.183338E-07 -1.023033E-08
     11641   1  8.724368E-05 -2.878508E-05 -2.879193E-05  1.249385E-05 -4.059545E-07  3.983754E-09
     11642   1  8.724368E-05 -2.879201E-05 -2.878436E-05  1.198343E-05 -3.623042E-07  1.012320E-09
     11643   1  8.724369E-05 -2.879196E-05 -2.878551E-05  1.170200E-05 -2.068643E-07  7.856594E-10
     11644   1  8.724370E-05 -2.879240E-05 -2.878333E-05  1.161084E-05  6.995390E-11 -9.208336E-11
     11645   1  8.724372E-05 -2.879197E-05 -2.878552E-05  1.170196E-05  2.069967E-07 -9.737749E-10
     11646   1  8.724373E-05 -2.879204E-05 -2.878438E-05  1.198336E-05  3.624195E-07 -1.156325E-09
     11647   1  8.724374E-05 -2.878510E-05 -2.879195E-05  1.249376E-05  4.060412E-07 -4.100217E-09
     11648   1  8.724373E-05 -2.879046E-05 -2.879424E-05  1.331915E-05  3.183871E-07  1.017357E-08
     11649   1  8.724372E-05 -2.880358E-05 -2.877537E-05  1.452031E-05  1.262123E-07 -1.032637E-09
     11650   1  5.816247E-05 -1.919591E-05 -1.919734E-05  1.772536E-05 -5.842834E-08 -4.073331E-09
     11651   1  5.816245E-05 -1.919566E-05 -1.918985E-05  1.645288E-05 -1.613638E-07  2.900365E-10
     11652   1  5.816244E-05 -1.919343E-05 -1.919378E-05  1.553582E-05 -2.067754E-07 -7.814462E-09
     11653   1  5.816244E-05 -1.919051E-05 -1.919434E-05  1.492198E-05 -1.867779E-07  1.103079E-09
     11654   1  5.816245E-05 -1.919460E-05 -1.918966E-05  1.457600E-05 -1.103746E-07 -1.294384E-09
     11655   1  5.816246E-05 -1.919321E-05 -1.919173E-05  1.446381E-05  5.647342E-11 -1.200002E-10
     11656   1  5.816247E-05 -1.919461E-05 -1.918967E-05  1.457595E-05  1.104812E-07  1.049529E-09
     11657   1  5.816248E-05 -1.919053E-05 -1.919436E-05  1.492189E-05  1.868719E-07 -1.296058E-09
     11658   1  5.816250E-05 -1.919345E-05 -1.919380E-05  1.553571E-05  2.068479E-07  7.657147E-09
     11659   1  5.816250E-05 -1.919569E-05 -1.918986E-05  1.645280E-05  1.614116E-07 -3.672039E-10
     11660   1  5.816250E-05 -1.919592E-05 -1.919736E-05  1.772534E-05  5.844337E-08  4.040747E-09
     11661   1  2.908126E-05 -9.600716E-06 -9.592740E-06  1.962271E-05 -2.572854E-08 -5.654865E-10
     11662   1  2.908125E-05 -9.597033E-06 -9.598091E-06  1.832422E-05 -6.641588E-08 -7.909950E-09
     11663   1  2.908123E-05 -9.596016E-06 -9.596604E-06  1.735710E-05 -8.709961E-08 -6.423304E-10
     11664   1  2.908123E-05 -9.596850E-06 -9.596038E-06  1.669895E-05 -7.933105E-08 -6.215528E-09
     11665   1  2.908123E-05 -9.595461E-06 -9.597011E-06  1.631661E-05 -4.670919E-08 -3.489018E-11
     11666   1  2.908124E-05 -9.597309E-06 -9.594855E-06  1.619261E-05  3.159409E-11 -1.382795E-10
     11667   1  2.908125E-05 -9.595467E-06 -9.597017E-06  1.631655E-05  4.676767E-08 -2.473642E-10
     11668   1  2.908126E-05 -9.596860E-06 -9.596047E-06  1.669885E-05  7.938413E-08  5.988120E-09
     11669   1  2.908126E-05 -9.596027E-06 -9.596617E-06  1.735696E-05  8.713956E-08  4.500964E-10
     11670   1  2.908127E-05 -9.597035E-06 -9.598100E-06  1.832406E-05  6.644250E-08  7.800332E-09
     11671   1  2.908127E-05 -9.600697E-06 -9.592751E-06  1.962257E-05  2.573852E-08  5.120826E-10
     11672   1  2.828867E-11 -1.721734E-12 -1.389117E-11  2.025232E-05 -2.376519E-12 -3.175776E-09
     11673   1  1.580044E-11  7.334078E-12 -9.979418E-12  1.894422E-05 -5.397355E-12 -1.378634E-09
     11674   1  5.949500E-12  1.625551E-11 -7.431769E-12  1.796594E-05 -4.573128E-12 -8.493848E-09
     11675   1 -7.496102E-13  2.162281E-11 -5.953286E-12  1.729135E-05 -3.848430E-12 -6.327396E-10
     11676   1 -3.720262E-12  2.370321E-11 -5.531068E-12  1.690026E-05 -1.148054E-12 -3.634878E-09
     11677   1 -4.655575E-12  2.414724E-11 -5.680780E-12  1.677111E-05 -5.504583E-13 -1.448644E-10
     11678   1 -3.943965E-12  2.379540E-11 -5.335688E-12  1.690019E-05  2.108916E-12  3.339729E-09
     11679   1 -6.071466E-13  2.181608E-11 -6.376819E-12  1.729124E-05  2.925361E-12  3.941181E-10
     11680   1  5.087405E-12  1.736938E-11 -7.006843E-12  1.796581E-05  5.153641E-12  8.295241E-09
     11681   1  1.482950E-11  1.115491E-11 -1.050599E-11  1.894411E-05  4.841407E-12  1.273001E-09
     11682   1  2.610309E-11  5.135725E-12 -1.366783E-11  2.025229E-05  2.419739E-12  3.130041E-09
     11683   1 -2.908121E-05  9.600718E-06  9.592714E-06  1.962271E-05  2.572437E-08 -5.658286E-10
     11684   1 -2.908121E-05  9.597029E-06  9.598071E-06  1.832422E-05  6.640588E-08 -7.910462E-09
     11685   1 -2.908121E-05  9.596000E-06  9.596591E-06  1.735710E-05  8.709101E-08 -6.430189E-10
     11686   1 -2.908121E-05  9.596827E-06  9.596026E-06  1.669895E-05  7.932359E-08 -6.215764E-09
     11687   1 -2.908122E-05  9.595436E-06  9.597001E-06  1.631660E-05  4.670706E-08 -3.511998E-11
     11688   1 -2.908123E-05  9.597284E-06  9.594843E-06  1.619260E-05 -3.276966E-11 -1.381183E-10
     11689   1 -2.908123E-05  9.595442E-06  9.597008E-06  1.631655E-05 -4.676341E-08 -2.472274E-10
     11690   1 -2.908124E-05  9.596838E-06  9.596033E-06  1.669884E-05 -7.937865E-08  5.988667E-09
     11691   1 -2.908124E-05  9.596010E-06  9.596605E-06  1.735696E-05 -8.712940E-08  4.506630E-10
     11692   1 -2.908123E-05  9.597024E-06  9.598078E-06  1.832406E-05 -6.643323E-08  7.801177E-09
     11693   1 -2.908121E-05  9.600686E-06  9.592726E-06  1.962257E-05 -2.573383E-08  5.123015E-10
     11694   1 -5.816242E-05  1.919591E-05  1.919733E-05  1.772535E-05  5.842338E-08 -4.074370E-09
     11695   1 -5.816242E-05  1.919567E-05  1.918982E-05  1.645288E-05  1.613532E-07  2.890565E-10
     11696   1 -5.816244E-05  1.919346E-05  1.919378E-05  1.553581E-05  2.067658E-07 -7.815800E-09
     11697   1 -5.816245E-05  1.919056E-05  1.919432E-05  1.492197E-05  1.867714E-07  1.102947E-09
     11698   1 -5.816247E-05  1.919465E-05  1.918966E-05  1.457599E-05  1.103715E-07 -1.294972E-09
     11699   1 -5.816247E-05  1.919326E-05  1.919171E-05  1.446380E-05 -5.638200E-11 -1.194465E-10
     11700   1 -5.816249E-05  1.919466E-05  1.918967E-05  1.457594E-05 -1.104783E-07  1.049408E-09
     11701   1 -5.816249E-05  1.919057E-05  1.919434E-05  1.492188E-05 -1.868653E-07 -1.294938E-09
     11702   1 -5.816250E-05  1.919348E-05  1.919380E-05  1.553570E-05 -2.068385E-07  7.657802E-09
     11703   1 -5.816247E-05  1.919571E-05  1.918984E-05  1.645280E-05 -1.614013E-07 -3.656354E-10
     11704   1 -5.816245E-05  1.919593E-05  1.919735E-05  1.772533E-05 -5.843850E-08  4.041107E-09
     11705   1 -8.724372E-05  2.880364E-05  2.877537E-05  1.452040E-05  1.261866E-07  1.000579E-09
     11706   1 -8.724367E-05  2.879045E-05  2.879418E-05  1.331924E-05  3.183249E-07 -1.023103E-08
     11707   1 -8.724369E-05  2.878506E-05  2.879196E-05  1.249384E-05  4.059438E-07  3.982590E-09
     11708   1 -8.724366E-05  2.879199E-05  2.878432E-05  1.198342E-05  3.623008E-07  1.012397E-09
     11709   1 -8.724370E-05  2.879194E-05  2.878554E-05  1.170199E-05  2.068583E-07  7.850120E-10
     11710   1 -8.724369E-05  2.879238E-05  2.878329E-05  1.161083E-05 -6.611556E-11 -9.136561E-11
     11711   1 -8.724373E-05  2.879195E-05  2.878555E-05  1.170195E-05 -2.069980E-07 -9.741388E-10
     11712   1 -8.724372E-05  2.879201E-05  2.878435E-05  1.198335E-05 -3.624097E-07 -1.155139E-09
     11713   1 -8.724374E-05  2.878508E-05  2.879198E-05  1.249375E-05 -4.060353E-07 -4.099808E-09
     11714   1 -8.724370E-05  2.879044E-05  2.879420E-05  1.331914E-05 -3.183748E-07  1.017525E-08
     11715   1 -8.724369E-05  2.880357E-05  2.877538E-05  1.452030E-05 -1.262083E-07 -1.032351E-09
     11716   1 -1.163249E-04  3.839035E-05  3.840121E-05  9.932590E-06  2.312696E-07 -9.568099E-09
     11717   1 -1.163249E-04  3.838170E-05  3.838592E-05  8.856106E-06  6.333853E-07  9.318052E-09
     11718   1 -1.163250E-04  3.838963E-05  3.837728E-05  8.266737E-06  7.743040E-07  6.633684E-09
     11719   1 -1.163249E-04  3.839243E-05  3.837739E-05  7.924978E-06  6.407178E-07  1.917540E-09
     11720   1 -1.163250E-04  3.838984E-05  3.837735E-05  7.736570E-06  3.580170E-07  1.573577E-09
     11721   1 -1.163249E-04  3.839362E-05  3.837658E-05  7.679051E-06 -5.657251E-11 -5.623934E-11
     11722   1 -1.163250E-04  3.838985E-05  3.837735E-05  7.736544E-06 -3.581646E-07 -1.695041E-09
     11723   1 -1.163250E-04  3.839245E-05  3.837741E-05  7.924931E-06 -6.408098E-07 -1.999958E-09
     11724   1 -1.163250E-04  3.838965E-05  3.837728E-05  8.266687E-06 -7.743986E-07 -6.699135E-09
     11725   1 -1.163249E-04  3.838173E-05  3.838593E-05  8.856069E-06 -6.334284E-07 -9.333039E-09
     11726   1 -1.163249E-04  3.839039E-05  3.840119E-05  9.932586E-06 -2.312850E-07  9.563441E-09
     11727   1 -1.454063E-04  4.801276E-05  4.793998E-05  3.648034E-06  6.234811E-07  1.470948E-08
     11728   1 -1.454062E-04  4.798515E-05  4.796375E-05  3.134950E-06  1.347974E-06  9.065206E-09
     11729   1 -1.454062E-04  4.799891E-05  4.796325E-05  2.938760E-06  1.372463E-06  1.758915E-09
     11730   1 -1.454062E-04  4.798646E-05  4.797079E-05  2.809209E-06  1.070247E-06  2.108360E-09
     11731   1 -1.454062E-04  4.799473E-05  4.796834E-05  2.747210E-06  5.775570E-07  2.755333E-10
     11732   1 -1.454062E-04  4.798691E-05  4.797199E-05  2.724419E-06 -2.619337E-11 -1.721492E-11
     11733   1 -1.454062E-04  4.799474E-05  4.796833E-05  2.747201E-06 -5.776766E-07 -3.212180E-10
     11734   1 -1.454062E-04  4.798648E-05  4.797079E-05  2.809194E-06 -1.070289E-06 -2.131281E-09
     11735   1 -1.454062E-04  4.799892E-05  4.796321E-05  2.938738E-06 -1.372543E-06 -1.785807E-09
     11736   1 -1.454061E-04  4.798512E-05  4.796376E-05  3.134932E-06 -1.347985E-06 -9.064221E-09
     11737   1 -1.454061E-04  4.801266E-05  4.793992E-05  3.648014E-06 -6.235001E-07 -1.472589E-08
     11738   1  1.408622E-04 -4.651223E-05 -4.644175E-05  3.648021E-06 -6.234956E-07  1.428036E-08
     11739   1  1.408622E-04 -4.648554E-05 -4.646496E-05  3.134955E-06 -1.347950E-06  8.773742E-09
     11740   1  1.408622E-04 -4.649890E-05 -4.646430E-05  2.938765E-06 -1.372469E-06  1.713540E-09
     11741   1  1.408622E-04 -4.648685E-05 -4.647177E-05  2.809222E-06 -1.070192E-06  2.024291E-09
     11742   1  1.408622E-04 -4.649485E-05 -4.646926E-05  2.747217E-06 -5.775495E-07  2.655290E-10
     11743   1  1.408622E-04 -4.648728E-05 -4.647292E-05  2.724426E-06  9.666915E-11 -3.785521E-11
     11744   1  1.408622E-04 -4.649487E-05 -4.646926E-05  2.747202E-06  5.776900E-07 -3.139715E-10
     11745   1  1.408622E-04 -4.648688E-05 -4.647174E-05  2.809194E-06  1.070355E-06 -2.082818E-09
     11746   1  1.408622E-04 -4.649893E-05 -4.646431E-05  2.938735E-06  1.372561E-06 -1.727753E-09
     11747   1  1.408622E-04 -4.648558E-05 -4.646493E-05  3.134930E-06  1.348032E-06 -8.791764E-09
     11748   1  1.408622E-04 -4.651228E-05 -4.644176E-05  3.648014E-06  6.235074E-07 -1.425570E-08
     11749   1  1.126898E-04 -3.719077E-05 -3.720112E-05  9.932678E-06 -2.312643E-07 -9.278235E-09
     11750   1  1.126898E-04 -3.718231E-05 -3.718640E-05  8.856160E-06 -6.333806E-07  9.002568E-09
     11751   1  1.126897E-04 -3.718994E-05 -3.717792E-05  8.266774E-06 -7.742928E-07  6.415284E-09
     11752   1  1.126897E-04 -3.719265E-05 -3.717814E-05  7.925003E-06 -6.406756E-07  1.821938E-09
     11753   1  1.126897E-04 -3.719014E-05 -3.717800E-05  7.736590E-06 -3.579879E-07  1.502500E-09
     11754   1  1.126898E-04 -3.719380E-05 -3.717736E-05  7.679063E-06  1.181131E-10 -9.860900E-11
     11755   1  1.126898E-04 -3.719016E-05 -3.717802E-05  7.736547E-06  3.581995E-07 -1.665717E-09
     11756   1  1.126898E-04 -3.719268E-05 -3.717817E-05  7.924927E-06  6.408702E-07 -1.975034E-09
     11757   1  1.126898E-04 -3.718998E-05 -3.717796E-05  8.266677E-06  7.744312E-07 -6.500522E-09
     11758   1  1.126898E-04 -3.718231E-05 -3.718643E-05  8.856056E-06  6.334670E-07 -9.061135E-09
     11759   1  1.126898E-04 -3.719069E-05 -3.720113E-05  9.932575E-06  2.312963E-07  9.268466E-09
     11760   1  8.451730E-05 -2.790342E-05 -2.787611E-05  1.452034E-05 -1.261902E-07  9.873236E-10
     11761   1  8.451727E-05 -2.789068E-05 -2.789439E-05  1.331923E-05 -3.183146E-07 -9.924499E-09
     11762   1  8.451727E-05 -2.788549E-05 -2.789217E-05  1.249387E-05 -4.059267E-07  3.843165E-09
     11763   1  8.451727E-05 -2.789221E-05 -2.788484E-05  1.198345E-05 -3.622701E-07  9.329443E-10
     11764   1  8.451729E-05 -2.789216E-05 -2.788596E-05  1.170201E-05 -2.068223E-07  7.206032E-10
     11765   1  8.451731E-05 -2.789259E-05 -2.788385E-05  1.161084E-05  1.136303E-10 -1.513553E-10
     11766   1  8.451734E-05 -2.789218E-05 -2.788598E-05  1.170194E-05  2.070410E-07 -9.866036E-10
     11767   1  8.451737E-05 -2.789225E-05 -2.788488E-05  1.198333E-05  3.624588E-07 -1.174673E-09
     11768   1  8.451739E-05 -2.788554E-05 -2.789222E-05  1.249373E-05  4.060736E-07 -3.996940E-09
     11769   1  8.451740E-05 -2.789074E-05 -2.789444E-05  1.331911E-05  3.184090E-07  9.827088E-09
     11770   1  8.451738E-05 -2.790347E-05 -2.787615E-05  1.452028E-05  1.262193E-07 -9.959865E-10
     11771   1  5.634491E-05 -1.859610E-05 -1.859742E-05  1.772550E-05 -5.842087E-08 -3.957364E-09
     11772   1  5.634487E-05 -1.859583E-05 -1.859016E-05  1.645298E-05 -1.613529E-07  2.351869E-10
     11773   1  5.634485E-05 -1.859365E-05 -1.859397E-05  1.553587E-05 -2.067546E-07 -7.604328E-09
     11774   1  5.634486E-05 -1.859083E-05 -1.859452E-05  1.492201E-05 -1.867510E-07  1.004814E-09
     11775   1  5.634487E-05 -1.859480E-05 -1.858998E-05  1.457601E-05 -1.103419E-07 -1.306713E-09
     11776   1  5.634489E-05 -1.859346E-05 -1.859199E-05  1.446381E-05  8.949118E-11 -1.945351E-10
     11777   1  5.634492E-05 -1.859481E-05 -1.858999E-05  1.457593E-05  1.105152E-07  9.600357E-10
     11778   1  5.634494E-05 -1.859087E-05 -1.859455E-05  1.492186E-05  1.869012E-07 -1.325574E-09
     11779   1  5.634495E-05 -1.859369E-05 -1.859400E-05  1.553567E-05  2.068725E-07  7.381964E-09
     11780   1  5.634496E-05 -1.859584E-05 -1.859020E-05  1.645275E-05  1.614275E-07 -3.964319E-10
     11781   1  5.634494E-05 -1.859605E-05 -1.859745E-05  1.772529E-05  5.844956E-08  3.913870E-09
     11782   1  2.817244E-05 -9.300647E-06 -9.292973E-06  1.962262E-05 -2.572743E-08 -5.352165E-10
     11783   1  2.817242E-05 -9.297080E-06 -9.298145E-06  1.832419E-05 -6.640762E-08 -7.690084E-09
     11784   1  2.817242E-05 -9.296094E-06 -9.296716E-06  1.735712E-05 -8.708609E-08 -6.527378E-10
     11785   1  2.817242E-05 -9.296898E-06 -9.296158E-06  1.669898E-05 -7.931625E-08 -6.092020E-09
     11786   1  2.817242E-05 -9.295551E-06 -9.297111E-06  1.631662E-05 -4.669006E-08 -9.471643E-11
     11787   1  2.817243E-05 -9.297342E-06 -9.295018E-06  1.619260E-05  4.849815E-11 -2.228192E-10
     11788   1  2.817245E-05 -9.295560E-06 -9.297120E-06  1.631653E-05  4.678616E-08 -3.052208E-10
     11789   1  2.817246E-05 -9.296915E-06 -9.296176E-06  1.669881E-05  7.939799E-08  5.720301E-09
     11790   1  2.817247E-05 -9.296117E-06 -9.296734E-06  1.735691E-05  8.715288E-08  3.928036E-10
     11791   1  2.817248E-05 -9.297104E-06 -9.298167E-06  1.832401E-05  6.645040E-08  7.510356E-09
     11792   1  2.817249E-05 -9.300655E-06 -9.292992E-06  1.962254E-05  2.574181E-08  4.966487E-10
     11793   1  2.527484E-11  1.631092E-11 -1.958039E-11  2.025249E-05 -1.622177E-12 -3.088217E-09
     11794   1  1.502257E-11  1.063309E-11 -1.530355E-11  1.894434E-05 -2.669266E-12 -1.390637E-09
     11795   1  9.654669E-12  2.384773E-12 -1.306459E-11  1.796600E-05 -2.400773E-12 -8.271508E-09
     11796   1  8.128068E-12 -2.892034E-12 -1.333018E-11  1.729139E-05  1.142341E-13 -6.887954E-10
     11797   1  7.289525E-12 -4.797218E-12 -1.423940E-11  1.690028E-05 -6.364279E-13 -3.585242E-09
     11798   1  7.189646E-12 -5.079645E-12 -1.438985E-11  1.677112E-05  6.715222E-13 -2.323394E-10
     11799   1  7.385989E-12 -4.632753E-12 -1.457012E-11  1.690018E-05 -9.109058E-13  3.166560E-09
     11800   1  7.497393E-12 -2.570916E-12 -1.281801E-11  1.729121E-05  1.003352E-12  2.981693E-10
     11801   1  1.019225E-11  1.843525E-12 -1.379742E-11  1.796576E-05  1.425840E-12  7.990010E-09
     11802   1  1.543019E-11  6.930082E-12 -1.466331E-11  1.894406E-05  3.366374E-12  1.183028E-09
     11803   1  2.728890E-11  8.866172E-12 -2.008743E-11  2.025224E-05  1.574548E-12  3.030082E-09
     11804   1 -2.817239E-05  9.300666E-06  9.292935E-06  1.962263E-05  2.572311E-08 -5.357768E-10
     11805   1 -2.817240E-05  9.297120E-06  9.298116E-06  1.832419E-05  6.640127E-08 -7.691409E-09
     11806   1 -2.817242E-05  9.296155E-06  9.296690E-06  1.735712E-05  8.708085E-08 -6.534510E-10
     11807   1 -2.817243E-05  9.296970E-06  9.296132E-06  1.669898E-05  7.931660E-08 -6.092636E-09
     11808   1 -2.817244E-05  9.295627E-06  9.297083E-06  1.631662E-05  4.668885E-08 -9.468276E-11
     11809   1 -2.817245E-05  9.297419E-06  9.294990E-06  1.619261E-05 -4.696606E-11 -2.228384E-10
     11810   1 -2.817246E-05  9.295637E-06  9.297091E-06  1.631653E-05 -4.678829E-08 -3.047435E-10
     11811   1 -2.817247E-05  9.296988E-06  9.296152E-06  1.669881E-05 -7.939579E-08  5.720817E-09
     11812   1 -2.817247E-05  9.296180E-06  9.296706E-06  1.735692E-05 -8.715009E-08  3.939420E-10
     11813   1 -2.817246E-05  9.297153E-06  9.298141E-06  1.832402E-05 -6.644314E-08  7.511359E-09
     11814   1 -2.817244E-05  9.300692E-06  9.292951E-06  1.962254E-05 -2.573837E-08  4.974039E-10
     11815   1 -5.634485E-05  1.859612E-05  1.859738E-05  1.772551E-05  5.841776E-08 -3.957517E-09
     11816   1 -5.634485E-05  1.859584E-05  1.859015E-05  1.645298E-05  1.613474E-07  2.332518E-10
     11817   1 -5.634483E-05  1.859365E-05  1.859393E-05  1.553587E-05  2.067517E-07 -7.605089E-09
     11818   1 -5.634485E-05  1.859082E-05  1.859450E-05  1.492201E-05  1.867512E-07  1.003649E-09
     11819   1 -5.634485E-05  1.859478E-05  1.858994E-05  1.457601E-05  1.103429E-07 -1.306205E-09
     11820   1 -5.634488E-05  1.859344E-05  1.859197E-05  1.446381E-05 -8.960066E-11 -1.949904E-10
     11821   1 -5.634490E-05  1.859480E-05  1.858995E-05  1.457593E-05 -1.105161E-07  9.611896E-10
     11822   1 -5.634493E-05  1.859085E-05  1.859454E-05  1.492186E-05 -1.869016E-07 -1.325278E-09
     11823   1 -5.634493E-05  1.859368E-05  1.859397E-05  1.553567E-05 -2.068694E-07  7.384117E-09
     11824   1 -5.634493E-05  1.859584E-05  1.859018E-05  1.645276E-05 -1.614217E-07 -3.950876E-10
     11825   1 -5.634488E-05  1.859605E-05  1.859741E-05  1.772530E-05 -5.844626E-08  3.915162E-09
     11826   1 -8.451722E-05  2.790342E-05  2.787604E-05  1.452034E-05  1.261868E-07  9.861607E-10
     11827   1 -8.451728E-05  2.789071E-05  2.789442E-05  1.331923E-05  3.183072E-07 -9.926989E-09
     11828   1 -8.451726E-05  2.788554E-05  2.789212E-05  1.249386E-05  4.059271E-07  3.842499E-09
     11829   1 -8.451731E-05  2.789228E-05  2.788486E-05  1.198345E-05  3.622679E-07  9.318522E-10
     11830   1 -8.451730E-05  2.789223E-05  2.788590E-05  1.170200E-05  2.068291E-07  7.214899E-10
     11831   1 -8.451735E-05  2.789266E-05  2.788386E-05  1.161083E-05 -1.189922E-10 -1.520456E-10
     11832   1 -8.451736E-05  2.789225E-05  2.788592E-05  1.170194E-05 -2.070372E-07 -9.853298E-10
     11833   1 -8.451741E-05  2.789231E-05  2.788489E-05  1.198333E-05 -3.624656E-07 -1.174864E-09
     11834   1 -8.451739E-05  2.788559E-05  2.789216E-05  1.249373E-05 -4.060670E-07 -3.994737E-09
     11835   1 -8.451740E-05  2.789078E-05  2.789446E-05  1.331911E-05 -3.184063E-07  9.828359E-09
     11836   1 -8.451732E-05  2.790348E-05  2.787608E-05  1.452029E-05 -1.262145E-07 -9.944572E-10
     11837   1 -1.126898E-04  3.719077E-05  3.720102E-05  9.932676E-06  2.312621E-07 -9.278772E-09
     11838   1 -1.126898E-04  3.718230E-05  3.718647E-05  8.856155E-06  6.333738E-07  9.002032E-09
     11839   1 -1.126897E-04  3.718993E-05  3.717784E-05  8.266770E-06  7.742986E-07  6.414953E-09
     11840   1 -1.126898E-04  3.719263E-05  3.717820E-05  7.924996E-06  6.406718E-07  1.821872E-09
     11841   1 -1.126897E-04  3.719012E-05  3.717792E-05  7.736584E-06  3.580013E-07  1.503010E-09
     11842   1 -1.126898E-04  3.719378E-05  3.717739E-05  7.679056E-06 -1.290332E-10 -9.876628E-11
     11843   1 -1.126898E-04  3.719014E-05  3.717794E-05  7.736541E-06 -3.581914E-07 -1.665344E-09
     11844   1 -1.126899E-04  3.719266E-05  3.717821E-05  7.924921E-06 -6.408847E-07 -1.975191E-09
     11845   1 -1.126898E-04  3.718996E-05  3.717789E-05  8.266672E-06 -7.744226E-07 -6.499588E-09
     11846   1 -1.126898E-04  3.718230E-05  3.718648E-05  8.856052E-06 -6.334686E-07 -9.060232E-09
     11847   1 -1.126897E-04  3.719068E-05  3.720105E-05  9.932573E-06 -2.312911E-07  9.269329E-09
     11848   1 -1.408622E-04  4.651223E-05  4.644166E-05  3.648013E-06  6.234925E-07  1.428001E-08
     11849   1 -1.408623E-04  4.648557E-05  4.646505E-05  3.134954E-06  1.347940E-06  8.773034E-09
     11850   1 -1.408622E-04  4.649896E-05  4.646422E-05  2.938759E-06  1.372478E-06  1.713064E-09
     11851   1 -1.408623E-04  4.648693E-05  4.647184E-05  2.809218E-06  1.070188E-06  2.024961E-09
     11852   1 -1.408622E-04  4.649494E-05  4.646917E-05  2.747211E-06  5.775666E-07  2.650655E-10
     11853   1 -1.408623E-04  4.648737E-05  4.647297E-05  2.724421E-06 -1.101399E-10 -3.708448E-11
     11854   1 -1.408623E-04  4.649496E-05  4.646917E-05  2.747196E-06 -5.776811E-07 -3.147983E-10
     11855   1 -1.408623E-04  4.648696E-05  4.647180E-05  2.809190E-06 -1.070374E-06 -2.082119E-09
     11856   1 -1.408623E-04  4.649900E-05  4.646424E-05  2.938731E-06 -1.372552E-06 -1.728497E-09
     11857   1 -1.408623E-04  4.648562E-05  4.646500E-05  3.134928E-06 -1.348033E-06 -8.790519E-09
     11858   1 -1.408622E-04  4.651229E-05  4.644168E-05  3.648007E-06 -6.235002E-07 -1.425656E-08
     11859   1  1.363183E-04 -4.501198E-05 -4.494366E-05  3.648057E-06 -6.234702E-07  1.377661E-08
     11860   1  1.363182E-04 -4.498607E-05 -4.496605E-05  3.134971E-06 -1.347949E-06  8.496324E-09
     11861   1  1.363182E-04 -4.499896E-05 -4.496547E-05  2.938778E-06 -1.372404E-06  1.629604E-09
     11862   1  1.363182E-04 -4.498730E-05 -4.497266E-05  2.809225E-06 -1.070167E-06  1.960564E-09
     11863   1  1.363182E-04 -4.499506E-05 -4.497026E-05  2.747221E-06 -5.774615E-07  2.271075E-10
     11864   1  1.363183E-04 -4.498775E-05 -4.497379E-05  2.724423E-06  1.324389E-10 -4.055400E-11
     11865   1  1.363183E-04 -4.499510E-05 -4.497025E-05  2.747197E-06  5.777768E-07 -3.338181E-10
     11866   1  1.363183E-04 -4.498737E-05 -4.497267E-05  2.809184E-06  1.070389E-06 -2.016722E-09
     11867   1  1.363183E-04 -4.499903E-05 -4.496545E-05  2.938723E-06  1.372622E-06 -1.694114E-09
     11868   1  1.363183E-04 -4.498609E-05 -4.496610E-05  3.134917E-06  1.348046E-06 -8.499068E-09
     11869   1  1.363183E-04 -4.501190E-05 -4.494363E-05  3.647997E-06  6.235223E-07 -1.381213E-08
     11870   1  1.090545E-04 -3.599090E-05 -3.600106E-05  9.932611E-06 -2.312631E-07 -8.970354E-09
     11871   1  1.090545E-04 -3.598277E-05 -3.598683E-05  8.856141E-06 -6.333502E-07  8.725767E-09
     11872   1  1.090545E-04 -3.599019E-05 -3.597862E-05  8.266783E-06 -7.742454E-07  6.177288E-09
     11873   1  1.090545E-04 -3.599282E-05 -3.597884E-05  7.925019E-06 -6.406263E-07  1.741990E-09
     11874   1  1.090545E-04 -3.599039E-05 -3.597870E-05  7.736598E-06 -3.579139E-07  1.395532E-09
     11875   1  1.090546E-04 -3.599394E-05 -3.597809E-05  7.679059E-06  1.805254E-10 -1.318354E-10
     11876   1  1.090546E-04 -3.599043E-05 -3.597873E-05  7.736531E-06  3.582781E-07 -1.674116E-09
     11877   1  1.090547E-04 -3.599288E-05 -3.597890E-05  7.924898E-06  6.409267E-07 -1.940184E-09
     11878   1  1.090547E-04 -3.599028E-05 -3.597868E-05  8.266641E-06  7.744876E-07 -6.333346E-09
     11879   1  1.090547E-04 -3.598287E-05 -3.598690E-05  8.856017E-06  6.334980E-07 -8.771149E-09
     11880   1  1.090547E-04 -3.599100E-05 -3.600111E-05  9.932542E-06  2.313080E-07  8.956020E-09
     11881   1  8.179096E-05 -2.700343E-05 -2.697688E-05  1.452049E-05 -1.261760E-07  9.164469E-10
     11882   1  8.179090E-05 -2.699104E-05 -2.699456E-05  1.331932E-05 -3.182944E-07 -9.630178E-09
     11883   1  8.179088E-05 -2.698598E-05 -2.699241E-05  1.249391E-05 -4.058896E-07  3.661321E-09
     11884   1  8.179088E-05 -2.699249E-05 -2.698532E-05  1.198348E-05 -3.622173E-07  8.567645E-10
     11885   1  8.179092E-05 -2.699245E-05 -2.698641E-05  1.170202E-05 -2.067625E-07  6.153999E-10
     11886   1  8.179096E-05 -2.699287E-05 -2.698437E-05  1.161083E-05  1.799483E-10 -2.106801E-10
     11887   1  8.179101E-05 -2.699249E-05 -2.698644E-05  1.170192E-05  2.071054E-07 -1.043558E-09
     11888   1  8.179106E-05 -2.699255E-05 -2.698538E-05  1.198329E-05  3.625182E-07 -1.190856E-09
     11889   1  8.179109E-05 -2.698605E-05 -2.699249E-05  1.249367E-05  4.061210E-07 -3.932140E-09
     11890   1  8.179110E-05 -2.699107E-05 -2.699464E-05  1.331905E-05  3.184401E-07  9.491707E-09
     11891   1  8.179108E-05 -2.700336E-05 -2.697695E-05  1.452022E-05  1.262317E-07 -9.891146E-10
     11892   1  5.452724E-05 -1.799611E-05 -1.799750E-05  1.772538E-05 -5.841830E-08 -3.836274E-09
     11893   1  5.452722E-05 -1.799587E-05 -1.799047E-05  1.645294E-05 -1.613302E-07  2.254497E-10
     11894   1  5.452722E-05 -1.799379E-05 -1.799416E-05  1.553589E-05 -2.067236E-07 -7.420911E-09
     11895   1  5.452723E-05 -1.799106E-05 -1.799468E-05  1.492204E-05 -1.867102E-07  9.143372E-10
     11896   1  5.452725E-05 -1.799490E-05 -1.799030E-05  1.457603E-05 -1.102963E-07 -1.368285E-09
     11897   1  5.452729E-05 -1.799360E-05 -1.799225E-05  1.446381E-05  1.402168E-10 -2.713898E-10
     11898   1  5.452733E-05 -1.799492E-05 -1.799033E-05  1.457590E-05  1.105629E-07  8.163654E-10
     11899   1  5.452737E-05 -1.799111E-05 -1.799474E-05  1.492181E-05  1.869461E-07 -1.355965E-09
     11900   1  5.452740E-05 -1.799385E-05 -1.799422E-05  1.553560E-05  2.069081E-07  7.058919E-09
     11901   1  5.452741E-05 -1.799595E-05 -1.799053E-05  1.645268E-05  1.614525E-07 -4.116853E-10
     11902   1  5.452740E-05 -1.799616E-05 -1.799757E-05  1.772523E-05  5.845810E-08  3.758680E-09
     11903   1  2.726365E-05 -9.000647E-06 -8.993190E-06  1.962284E-05 -2.572080E-08 -5.643500E-10
     11904   1  2.726363E-05 -8.997186E-06 -8.998211E-06  1.832434E-05 -6.639550E-08 -7.484633E-09
     11905   1  2.726361E-05 -8.996232E-06 -8.996814E-06  1.735720E-05 -8.706824E-08 -7.178762E-10
     11906   1  2.726362E-05 -8.997019E-06 -8.996290E-06  1.669903E-05 -7.929036E-08 -5.966224E-09
     11907   1  2.726364E-05 -8.995723E-06 -8.997204E-06  1.631665E-05 -4.666530E-08 -2.090120E-10
     11908   1  2.726366E-05 -8.997461E-06 -8.995192E-06  1.619261E-05  7.704507E-11 -3.106981E-10
     11909   1  2.726368E-05 -8.995739E-06 -8.997221E-06  1.631650E-05  4.680885E-08 -4.232422E-10
     11910   1  2.726370E-05 -8.997048E-06 -8.996316E-06  1.669876E-05  7.942089E-08  5.450772E-09
     11911   1  2.726371E-05 -8.996266E-06 -8.996850E-06  1.735684E-05  8.716794E-08  2.815220E-10
     11912   1  2.726371E-05 -8.997204E-06 -8.998244E-06  1.832393E-05  6.646238E-08  7.230203E-09
     11913   1  2.726371E-05 -9.000622E-06 -8.993231E-06  1.962245E-05  2.574572E-08  4.433711E-10
     11914   1  1.306551E-11  3.641748E-11 -2.608315E-11  2.025238E-05 -6.151124E-13 -3.002675E-09
     11915   1 -2.540265E-12  4.642502E-11 -2.146660E-11  1.894430E-05  1.410747E-13 -1.354999E-09
     11916   1 -1.048013E-11  5.646027E-11 -2.183522E-11  1.796604E-05  4.409668E-12 -8.080709E-09
     11917   1 -1.329831E-11  6.177160E-11 -2.458933E-11  1.729144E-05  4.169672E-12 -7.384980E-10
     11918   1 -1.214297E-11  6.313183E-11 -2.782568E-11  1.690031E-05  4.483654E-12 -3.591416E-09
     11919   1 -1.157928E-11  6.322752E-11 -2.967866E-11  1.677112E-05 -1.180804E-12 -3.247204E-10
     11920   1 -1.268312E-11  6.341123E-11 -2.742784E-11  1.690015E-05 -2.803826E-12  2.931630E-09
     11921   1 -1.318973E-11  6.225384E-11 -2.543112E-11  1.729116E-05 -6.177810E-12  1.984904E-10
     11922   1 -1.221259E-11  5.824873E-11 -2.092137E-11  1.796569E-05 -3.405143E-12  7.629426E-09
     11923   1 -4.054820E-12  5.225448E-11 -2.254192E-11  1.894399E-05 -1.384555E-12  1.106757E-09
     11924   1  9.397767E-12  4.698715E-11 -2.547386E-11  2.025219E-05  5.234957E-13  2.896626E-09
     11925   1 -2.726362E-05  9.000723E-06  8.993139E-06  1.962287E-05  2.572139E-08 -5.649892E-10
     11926   1 -2.726362E-05  8.997244E-06  8.998169E-06  1.832436E-05  6.639763E-08 -7.485708E-09
     11927   1 -2.726361E-05  8.996267E-06  8.996771E-06  1.735722E-05  8.707848E-08 -7.191823E-10
     11928   1 -2.726361E-05  8.997039E-06  8.996241E-06  1.669904E-05  7.929949E-08 -5.966524E-09
     11929   1 -2.726362E-05  8.995737E-06  8.997149E-06  1.631666E-05  4.667493E-08 -2.092643E-10
     11930   1 -2.726364E-05  8.997474E-06  8.995132E-06  1.619262E-05 -7.961436E-11 -3.102841E-10
     11931   1 -2.726367E-05  8.995753E-06  8.997166E-06  1.631652E-05 -4.681448E-08 -4.229404E-10
     11932   1 -2.726369E-05  8.997069E-06  8.996264E-06  1.669877E-05 -7.943437E-08  5.451857E-09
     11933   1 -2.726371E-05  8.996300E-06  8.996811E-06  1.735686E-05 -8.717530E-08  2.827347E-10
     11934   1 -2.726370E-05  8.997254E-06  8.998198E-06  1.832395E-05 -6.646623E-08  7.232068E-09
     11935   1 -2.726368E-05  9.000680E-06  8.993183E-06  1.962248E-05 -2.574508E-08  4.438986E-10
     11936   1 -5.452720E-05  1.799615E-05  1.799746E-05  1.772542E-05  5.841731E-08 -3.838765E-09
     11937   1 -5.452720E-05  1.799594E-05  1.799041E-05  1.645297E-05  1.613327E-07  2.233126E-10
     11938   1 -5.452724E-05  1.799388E-05  1.799413E-05  1.553591E-05  2.067336E-07 -7.423411E-09
     11939   1 -5.452724E-05  1.799117E-05  1.799462E-05  1.492206E-05  1.867228E-07  9.144868E-10
     11940   1 -5.452728E-05  1.799501E-05  1.799026E-05  1.457605E-05  1.103051E-07 -1.369095E-09
     11941   1 -5.452730E-05  1.799371E-05  1.799218E-05  1.446382E-05 -1.402283E-10 -2.700710E-10
     11942   1 -5.452735E-05  1.799504E-05  1.799029E-05  1.457592E-05 -1.105720E-07  8.160675E-10
     11943   1 -5.452738E-05  1.799122E-05  1.799467E-05  1.492182E-05 -1.869588E-07 -1.353776E-09
     11944   1 -5.452742E-05  1.799395E-05  1.799419E-05  1.553562E-05 -2.069185E-07  7.060253E-09
     11945   1 -5.452740E-05  1.799603E-05  1.799048E-05  1.645271E-05 -1.614557E-07 -4.081983E-10
     11946   1 -5.452737E-05  1.799622E-05  1.799754E-05  1.772526E-05 -5.845756E-08  3.759585E-09
     11947   1 -8.179094E-05  2.700346E-05  2.697689E-05  1.452052E-05  1.261763E-07  9.154407E-10
     11948   1 -8.179086E-05  2.699106E-05  2.699448E-05  1.331935E-05  3.183028E-07 -9.631599E-09
     11949   1 -8.179088E-05  2.698598E-05  2.699243E-05  1.249393E-05  4.059002E-07  3.659237E-09
     11950   1 -8.179085E-05  2.699248E-05  2.698522E-05  1.198349E-05  3.622394E-07  8.576676E-10
     11951   1 -8.179091E-05  2.699244E-05  2.698640E-05  1.170204E-05  2.067669E-07  6.145472E-10
     11952   1 -8.179092E-05  2.699286E-05  2.698427E-05  1.161085E-05 -1.721000E-10 -2.089488E-10
     11953   1 -8.179100E-05  2.699248E-05  2.698643E-05  1.170193E-05 -2.071243E-07 -1.044486E-09
     11954   1 -8.179103E-05  2.699255E-05  2.698529E-05  1.198331E-05 -3.625272E-07 -1.188705E-09
     11955   1 -8.179109E-05  2.698605E-05  2.699250E-05  1.249369E-05 -4.061414E-07 -3.931459E-09
     11956   1 -8.179105E-05  2.699108E-05  2.699456E-05  1.331908E-05 -3.184416E-07  9.495473E-09
     11957   1 -8.179104E-05  2.700337E-05  2.697696E-05  1.452025E-05 -1.262338E-07 -9.883695E-10
     11958   1 -1.090545E-04  3.599089E-05  3.600113E-05  9.932626E-06  2.312631E-07 -8.971914E-09
     11959   1 -1.090545E-04  3.598280E-05  3.598672E-05  8.856155E-06  6.333630E-07  8.723491E-09
     11960   1 -1.090546E-04  3.599026E-05  3.597868E-05  8.266789E-06  7.742564E-07  6.176820E-09
     11961   1 -1.090545E-04  3.599291E-05  3.597871E-05  7.925025E-06  6.406594E-07  1.742658E-09
     11962   1 -1.090546E-04  3.599049E-05  3.597873E-05  7.736601E-06  3.579143E-07  1.395875E-09
     11963   1 -1.090546E-04  3.599404E-05  3.597795E-05  7.679062E-06 -1.645308E-10 -1.310757E-10
     11964   1 -1.090547E-04  3.599053E-05  3.597875E-05  7.736535E-06 -3.583081E-07 -1.674706E-09
     11965   1 -1.090547E-04  3.599297E-05  3.597878E-05  7.924904E-06 -6.409331E-07 -1.939678E-09
     11966   1 -1.090548E-04  3.599035E-05  3.597872E-05  8.266649E-06 -7.745189E-07 -6.333153E-09
     11967   1 -1.090547E-04  3.598292E-05  3.598681E-05  8.856031E-06 -6.334985E-07 -8.769087E-09
     11968   1 -1.090547E-04  3.599102E-05  3.600117E-05  9.932559E-06 -2.313122E-07  8.956964E-09
     11969   1 -1.363184E-04  4.501200E-05  4.494377E-05  3.648065E-06  6.234712E-07  1.377720E-08
     11970   1 -1.363182E-04  4.498608E-05  4.496594E-05  3.134972E-06  1.347970E-06  8.496368E-09
     11971   1 -1.363183E-04  4.499896E-05  4.496556E-05  2.938781E-06  1.372421E-06  1.630570E-09
     11972   1 -1.363182E-04  4.498729E-05  4.497252E-05  2.809225E-06  1.070210E-06  1.960117E-09
     11973   1 -1.363183E-04  4.499505E-05  4.497030E-05  2.747222E-06  5.774628E-07  2.284851E-10
     11974   1 -1.363182E-04  4.498773E-05  4.497364E-05  2.724423E-06 -1.130183E-10 -4.149556E-11
     11975   1 -1.363183E-04  4.499509E-05  4.497028E-05  2.747198E-06 -5.778144E-07 -3.329130E-10
     11976   1 -1.363183E-04  4.498736E-05  4.497255E-05  2.809185E-06 -1.070399E-06 -2.018007E-09
     11977   1 -1.363184E-04  4.499903E-05  4.496552E-05  2.938725E-06 -1.372664E-06 -1.693024E-09
     11978   1 -1.363183E-04  4.498609E-05  4.496601E-05  3.134919E-06 -1.348051E-06 -8.499853E-09
     11979   1 -1.363183E-04  4.501189E-05  4.494372E-05  3.648004E-06 -6.235291E-07 -1.381062E-08
     11980   1  1.317742E-04 -4.351134E-05 -4.344546E-05  3.648018E-06 -6.234792E-07  1.337788E-08
     11981   1  1.317742E-04 -4.348639E-05 -4.346721E-05  3.134967E-06 -1.347874E-06  8.197880E-09
     11982   1  1.317741E-04 -4.349890E-05 -4.346658E-05  2.938779E-06 -1.372376E-06  1.594440E-09
     11983   1  1.317742E-04 -4.348763E-05 -4.347358E-05  2.809237E-06 -1.070051E-06  1.858487E-09
     11984   1  1.317742E-04 -4.349514E-05 -4.347124E-05  2.747223E-06 -5.774096E-07  2.171525E-10
     11985   1  1.317743E-04 -4.348808E-05 -4.347467E-05  2.724423E-06  2.643726E-10 -8.326272E-11
     11986   1  1.317744E-04 -4.349520E-05 -4.347126E-05  2.747187E-06  5.778365E-07 -3.290268E-10
     11987   1  1.317744E-04 -4.348775E-05 -4.347358E-05  2.809169E-06  1.070502E-06 -1.988941E-09
     11988   1  1.317745E-04 -4.349904E-05 -4.346665E-05  2.938703E-06  1.372666E-06 -1.633824E-09
     11989   1  1.317745E-04 -4.348656E-05 -4.346722E-05  3.134894E-06  1.348106E-06 -8.239871E-09
     11990   1  1.317745E-04 -4.351153E-05 -4.344557E-05  3.647978E-06  6.235291E-07 -1.333044E-08
     11991   1  1.054194E-04 -3.479139E-05 -3.480101E-05  9.932739E-06 -2.312399E-07 -8.690543E-09
     11992   1  1.054193E-04 -3.478343E-05 -3.478724E-05  8.856218E-06 -6.333187E-07  8.385050E-09
     11993   1  1.054193E-04 -3.479055E-05 -3.477931E-05  8.266825E-06 -7.741907E-07  5.949714E-09
     11994   1  1.054193E-04 -3.479309E-05 -3.477952E-05  7.925041E-06 -6.405358E-07  1.613998E-09
     11995   1  1.054194E-04 -3.479076E-05 -3.477940E-05  7.736609E-06 -3.578282E-07  1.304697E-09
     11996   1  1.054195E-04 -3.479421E-05 -3.477882E-05  7.679055E-06  2.965437E-10 -2.172894E-10
     11997   1  1.054195E-04 -3.479082E-05 -3.477946E-05  7.736508E-06  3.583717E-07 -1.670282E-09
     11998   1  1.054196E-04 -3.479320E-05 -3.477961E-05  7.924858E-06  6.410314E-07 -1.955450E-09
     11999   1  1.054197E-04 -3.479068E-05 -3.477944E-05  8.266584E-06  7.745571E-07 -6.148646E-09
     12000   1  1.054197E-04 -3.478350E-05 -3.478737E-05  8.855952E-06  6.335513E-07 -8.520729E-09
     12001   1  1.054197E-04 -3.479133E-05 -3.480113E-05  9.932466E-06  2.313259E-07  8.664822E-09
     12002   1  7.906442E-05 -2.610310E-05 -2.607762E-05  1.452035E-05 -1.261727E-07  9.222925E-10
     12003   1  7.906440E-05 -2.609119E-05 -2.609472E-05  1.331928E-05 -3.182543E-07 -9.334900E-09
     12004   1  7.906441E-05 -2.608635E-05 -2.609264E-05  1.249393E-05 -4.058319E-07  3.509886E-09
     12005   1  7.906444E-05 -2.609265E-05 -2.608579E-05  1.198351E-05 -3.621453E-07  7.346103E-10
     12006   1  7.906449E-05 -2.609262E-05 -2.608685E-05  1.170204E-05 -2.066737E-07  5.145038E-10
     12007   1  7.906456E-05 -2.609303E-05 -2.608490E-05  1.161083E-05  2.741813E-10 -3.308910E-10
     12008   1  7.906464E-05 -2.609267E-05 -2.608690E-05  1.170188E-05  2.072017E-07 -1.100643E-09
     12009   1  7.906472E-05 -2.609275E-05 -2.608590E-05  1.198323E-05  3.626055E-07 -1.268647E-09
     12010   1  7.906478E-05 -2.608649E-05 -2.609277E-05  1.249359E-05  4.061933E-07 -3.858768E-09
     12011   1  7.906482E-05 -2.609136E-05 -2.609486E-05  1.331895E-05  3.184896E-07  9.110722E-09
     12012   1  7.906480E-05 -2.610325E-05 -2.607776E-05  1.452013E-05  1.262477E-07 -9.495910E-10
     12013   1  5.270967E-05 -1.739633E-05 -1.739756E-05  1.772564E-05 -5.840277E-08 -3.729592E-09
     12014   1  5.270962E-05 -1.739605E-05 -1.739077E-05  1.645311E-05 -1.613065E-07  1.301734E-10
     12015   1  5.270960E-05 -1.739401E-05 -1.739433E-05  1.553598E-05 -2.066798E-07 -7.235598E-09
     12016   1  5.270962E-05 -1.739138E-05 -1.739485E-05  1.492209E-05 -1.866534E-07  7.602582E-10
     12017   1  5.270966E-05 -1.739510E-05 -1.739062E-05  1.457606E-05 -1.102279E-07 -1.426091E-09
     12018   1  5.270972E-05 -1.739386E-05 -1.739252E-05  1.446381E-05  2.104483E-10 -4.221089E-10
     12019   1  5.270978E-05 -1.739514E-05 -1.739066E-05  1.457587E-05  1.106351E-07  6.699777E-10
     12020   1  5.270984E-05 -1.739146E-05 -1.739494E-05  1.492173E-05  1.870094E-07 -1.461162E-09
     12021   1  5.270988E-05 -1.739411E-05 -1.739443E-05  1.553550E-05  2.069611E-07  6.742325E-09
     12022   1  5.270990E-05 -1.739611E-05 -1.739088E-05  1.645256E-05  1.614873E-07 -4.885912E-10
     12023   1  5.270988E-05 -1.739628E-05 -1.739768E-05  1.772510E-05  5.847150E-08  3.629934E-09
     12024   1  2.635477E-05 -8.700517E-06 -8.693424E-06  1.962268E-05 -2.571752E-08 -5.176215E-10
     12025   1  2.635475E-05 -8.697183E-06 -8.698255E-06  1.832429E-05 -6.637637E-08 -7.285829E-09
     12026   1  2.635476E-05 -8.696268E-06 -8.696928E-06  1.735724E-05 -8.703750E-08 -7.486859E-10
     12027   1  2.635478E-05 -8.697026E-06 -8.696407E-06  1.669909E-05 -7.925768E-08 -5.904500E-09
     12028   1  2.635480E-05 -8.695774E-06 -8.697313E-06  1.631669E-05 -4.662415E-08 -3.209912E-10
     12029   1  2.635483E-05 -8.697457E-06 -8.695359E-06  1.619261E-05  1.124601E-10 -4.810383E-10
     12030   1  2.635487E-05 -8.695798E-06 -8.697336E-06  1.631647E-05  4.684686E-08 -5.463509E-10
     12031   1  2.635490E-05 -8.697071E-06 -8.696453E-06  1.669868E-05  7.944846E-08  5.096292E-09
     12032   1  2.635492E-05 -8.696328E-06 -8.696979E-06  1.735673E-05  8.719391E-08  1.749805E-10
     12033   1  2.635493E-05 -8.697250E-06 -8.698319E-06  1.832381E-05  6.647722E-08  6.886072E-09
     12034   1  2.635493E-05 -8.700558E-06 -8.693485E-06  1.962235E-05  2.575183E-08  4.268144E-10
     12035   1 -1.570027E-11  8.453867E-11 -3.311329E-11  2.025270E-05  3.158741E-12 -2.923601E-09
     12036   1 -2.246360E-11  6.887066E-11 -2.977570E-11  1.894453E-05  1.037216E-11 -1.414376E-09
     12037   1 -1.835038E-11  5.069206E-11 -3.332085E-11  1.796616E-05  1.415925E-11 -7.889327E-09
     12038   1 -8.169386E-12  3.869788E-11 -4.153829E-11  1.729152E-05  1.659895E-11 -8.597081E-10
     12039   1 -6.026425E-13  3.348537E-11 -4.900970E-11  1.690036E-05  8.087851E-12 -3.596216E-09
     12040   1  2.440416E-12  3.233694E-11 -5.117791E-11  1.677114E-05  1.124217E-12 -5.007492E-10
     12041   1 -5.628654E-13  3.388663E-11 -4.964982E-11  1.690013E-05 -1.142066E-11  2.690101E-09
     12042   1 -9.705898E-12  3.956162E-11 -4.048177E-11  1.729109E-05 -1.474733E-11  1.291924E-11
     12043   1 -1.803215E-11  5.060798E-11 -3.473252E-11  1.796559E-05 -1.636333E-11  7.272113E-09
     12044   1 -2.311660E-11  6.425580E-11 -2.829615E-11  1.894387E-05 -9.155029E-12  9.587182E-10
     12045   1 -1.356443E-11  7.408386E-11 -3.407692E-11  2.025207E-05 -3.118650E-12  2.793111E-09
     12046   1 -2.635479E-05  8.700657E-06  8.693360E-06  1.962273E-05  2.572120E-08 -5.188921E-10
     12047   1 -2.635480E-05  8.697341E-06  8.698196E-06  1.832433E-05  6.639570E-08 -7.288358E-09
     12048   1 -2.635482E-05  8.696447E-06  8.696863E-06  1.735728E-05  8.706588E-08 -7.497708E-10
     12049   1 -2.635482E-05  8.697215E-06  8.696323E-06  1.669912E-05  7.929197E-08 -5.905285E-09
     12050   1 -2.635484E-05  8.695963E-06  8.697213E-06  1.631672E-05  4.664073E-08 -3.206016E-10
     12051   1 -2.635487E-05  8.697646E-06  8.695255E-06  1.619264E-05 -1.096262E-10 -4.808818E-10
     12052   1 -2.635490E-05  8.695988E-06  8.697235E-06  1.631649E-05 -4.687076E-08 -5.454475E-10
     12053   1 -2.635495E-05  8.697261E-06  8.696373E-06  1.669871E-05 -7.947809E-08  5.097198E-09
     12054   1 -2.635497E-05  8.696512E-06  8.696909E-06  1.735677E-05 -8.722768E-08  1.771265E-10
     12055   1 -2.635499E-05  8.697423E-06  8.698265E-06  1.832385E-05 -6.649505E-08  6.888066E-09
     12056   1 -2.635496E-05  8.700724E-06  8.693416E-06  1.962240E-05 -2.575782E-08  4.283722E-10
     12057   1 -5.270965E-05  1.739644E-05  1.739749E-05  1.772573E-05  5.841022E-08 -3.729505E-09
     12058   1 -5.270964E-05  1.739614E-05  1.739073E-05  1.645318E-05  1.613294E-07  1.265976E-10
     12059   1 -5.270960E-05  1.739407E-05  1.739425E-05  1.553604E-05  2.067147E-07 -7.236520E-09
     12060   1 -5.270961E-05  1.739142E-05  1.739478E-05  1.492214E-05  1.866895E-07  7.587230E-10
     12061   1 -5.270963E-05  1.739513E-05  1.739050E-05  1.457611E-05  1.102500E-07 -1.424397E-09
     12062   1 -5.270969E-05  1.739389E-05  1.739242E-05  1.446385E-05 -2.105776E-10 -4.227558E-10
     12063   1 -5.270975E-05  1.739518E-05  1.739054E-05  1.457592E-05 -1.106576E-07  6.722224E-10
     12064   1 -5.270984E-05  1.739150E-05  1.739487E-05  1.492179E-05 -1.870457E-07 -1.460927E-09
     12065   1 -5.270988E-05  1.739416E-05  1.739435E-05  1.553556E-05 -2.069962E-07  6.746478E-09
     12066   1 -5.270991E-05  1.739619E-05  1.739085E-05  1.645263E-05 -1.615096E-07 -4.859348E-10
     12067   1 -5.270985E-05  1.739637E-05  1.739760E-05  1.772519E-05 -5.847830E-08  3.632647E-09
     12068   1 -7.906434E-05  2.610315E-05  2.607750E-05  1.452044E-05  1.261806E-07  9.194550E-10
     12069   1 -7.906442E-05  2.609127E-05  2.609474E-05  1.331934E-05  3.182767E-07 -9.339918E-09
     12070   1 -7.906440E-05  2.608646E-05  2.609251E-05  1.249399E-05  4.058784E-07  3.509595E-09
     12071   1 -7.906447E-05  2.609279E-05  2.608576E-05  1.198356E-05  3.621801E-07  7.333990E-10
     12072   1 -7.906447E-05  2.609276E-05  2.608668E-05  1.170208E-05  2.067099E-07  5.172705E-10
     12073   1 -7.906457E-05  2.609318E-05  2.608484E-05  1.161087E-05 -2.848474E-10 -3.320491E-10
     12074   1 -7.906462E-05  2.609281E-05  2.608674E-05  1.170193E-05 -2.072166E-07 -1.098209E-09
     12075   1 -7.906475E-05  2.609289E-05  2.608586E-05  1.198328E-05 -3.626583E-07 -1.269678E-09
     12076   1 -7.906478E-05  2.608661E-05  2.609266E-05  1.249364E-05 -4.062258E-07 -3.854725E-09
     12077   1 -7.906484E-05  2.609146E-05  2.609487E-05  1.331902E-05 -3.185216E-07  9.113239E-09
     12078   1 -7.906473E-05  2.610332E-05  2.607765E-05  1.452022E-05 -1.262530E-07 -9.462040E-10
     12079   1 -1.054193E-04  3.479142E-05  3.480085E-05  9.932805E-06  2.312533E-07 -8.691001E-09
     12080   1 -1.054194E-04  3.478345E-05  3.478732E-05  8.856263E-06  6.333485E-07  8.384414E-09
     12081   1 -1.054192E-04  3.479055E-05  3.477914E-05  8.266864E-06  7.742564E-07  5.950046E-09
     12082   1 -1.054193E-04  3.479308E-05  3.477954E-05  7.925073E-06  6.405730E-07  1.615089E-09
     12083   1 -1.054193E-04  3.479074E-05  3.477919E-05  7.736640E-06  3.578812E-07  1.306525E-09
     12084   1 -1.054194E-04  3.479419E-05  3.477878E-05  7.679084E-06 -3.183202E-10 -2.173373E-10
     12085   1 -1.054195E-04  3.479081E-05  3.477926E-05  7.736539E-06 -3.583809E-07 -1.669791E-09
     12086   1 -1.054196E-04  3.479319E-05  3.477961E-05  7.924891E-06 -6.411053E-07 -1.956556E-09
     12087   1 -1.054196E-04  3.479068E-05  3.477930E-05  8.266623E-06 -7.745930E-07 -6.147355E-09
     12088   1 -1.054197E-04  3.478351E-05  3.478742E-05  8.856000E-06 -6.335983E-07 -8.519111E-09
     12089   1 -1.054196E-04  3.479133E-05  3.480100E-05  9.932531E-06 -2.313328E-07  8.666715E-09
     12090   1 -1.317741E-04  4.351133E-05  4.344531E-05  3.648034E-06  6.234984E-07  1.337526E-08
     12091   1 -1.317743E-04  4.348644E-05  4.346733E-05  3.134984E-06  1.347913E-06  8.197468E-09
     12092   1 -1.317742E-04  4.349900E-05  4.346640E-05  2.938787E-06  1.372460E-06  1.593373E-09
     12093   1 -1.317743E-04  4.348776E-05  4.347362E-05  2.809247E-06  1.070099E-06  1.860836E-09
     12094   1 -1.317742E-04  4.349528E-05  4.347100E-05  2.747230E-06  5.774748E-07  2.163308E-10
     12095   1 -1.317743E-04  4.348822E-05  4.347465E-05  2.724431E-06 -2.908781E-10 -8.148441E-11
     12096   1 -1.317744E-04  4.349534E-05  4.347104E-05  2.747195E-06 -5.778487E-07 -3.308316E-10
     12097   1 -1.317745E-04  4.348787E-05  4.347359E-05  2.809179E-06 -1.070594E-06 -1.988086E-09
     12098   1 -1.317745E-04  4.349915E-05  4.346651E-05  2.938713E-06 -1.372714E-06 -1.635413E-09
     12099   1 -1.317746E-04  4.348663E-05  4.346731E-05  3.134911E-06 -1.348169E-06 -8.238093E-09
     12100   1 -1.317744E-04  4.351156E-05  4.344546E-05  3.647996E-06 -6.235399E-07 -1.333128E-08
     12101   1  1.272303E-04 -4.201123E-05 -4.194739E-05  3.648082E-06 -6.234268E-07  1.283027E-08
     12102   1  1.272302E-04 -4.198698E-05 -4.196825E-05  3.134994E-06 -1.347865E-06  7.926231E-09
     12103   1  1.272302E-04 -4.199898E-05 -4.196775E-05  2.938803E-06 -1.372241E-06  1.483920E-09
     12104   1  1.272302E-04 -4.198810E-05 -4.197445E-05  2.809242E-06 -1.069988E-06  1.798939E-09
     12105   1  1.272303E-04 -4.199537E-05 -4.197224E-05  2.747231E-06 -5.772269E-07  1.509354E-10
     12106   1  1.272304E-04 -4.198857E-05 -4.197555E-05  2.724418E-06  3.559175E-10 -8.891245E-11
     12107   1  1.272305E-04 -4.199548E-05 -4.197225E-05  2.747176E-06  5.780220E-07 -3.792332E-10
     12108   1  1.272306E-04 -4.198829E-05 -4.197454E-05  2.809147E-06  1.070591E-06 -1.925322E-09
     12109   1  1.272307E-04 -4.199919E-05 -4.196780E-05  2.938672E-06  1.372799E-06 -1.624271E-09
     12110   1  1.272307E-04 -4.198712E-05 -4.196845E-05  3.134860E-06  1.348148E-06 -7.939546E-09
     12111   1  1.272307E-04 -4.201118E-05 -4.194746E-05  3.647934E-06  6.235614E-07 -1.290358E-08
     12112   1  1.017840E-04 -3.359135E-05 -3.360092E-05  9.932604E-06 -2.312375E-07 -8.372268E-09
     12113   1  1.017840E-04 -3.358378E-05 -3.358765E-05  8.856178E-06 -6.332573E-07  8.125704E-09
     12114   1  1.017840E-04 -3.359075E-05 -3.357998E-05  8.266839E-06 -7.740962E-07  5.686157E-09
     12115   1  1.017840E-04 -3.359321E-05 -3.358020E-05  7.925071E-06 -6.404331E-07  1.519433E-09
     12116   1  1.017841E-04 -3.359097E-05 -3.358009E-05  7.736624E-06 -3.576762E-07  1.145081E-09
     12117   1  1.017843E-04 -3.359431E-05 -3.357955E-05  7.679046E-06  4.330806E-10 -2.835461E-10
     12118   1  1.017844E-04 -3.359107E-05 -3.358017E-05  7.736472E-06  3.585399E-07 -1.741131E-09
     12119   1  1.017845E-04 -3.359339E-05 -3.358036E-05  7.924793E-06  6.411613E-07 -1.952611E-09
     12120   1  1.017846E-04 -3.359099E-05 -3.358018E-05  8.266499E-06  7.746828E-07 -6.029429E-09
     12121   1  1.017847E-04 -3.358409E-05 -3.358788E-05  8.855853E-06  6.336249E-07 -8.237284E-09
     12122   1  1.017847E-04 -3.359166E-05 -3.360115E-05  9.932374E-06  2.313531E-07  8.336190E-09
     12123   1  7.633810E-05 -2.520320E-05 -2.517837E-05  1.452062E-05 -1.261449E-07  8.136245E-10
     12124   1  7.633800E-05 -2.519158E-05 -2.519487E-05  1.331945E-05 -3.182155E-07 -9.058455E-09
     12125   1  7.633797E-05 -2.518684E-05 -2.519286E-05  1.249402E-05 -4.057586E-07  3.281507E-09
     12126   1  7.633801E-05 -2.519293E-05 -2.518625E-05  1.198356E-05 -3.620403E-07  6.254938E-10
     12127   1  7.633809E-05 -2.519292E-05 -2.518728E-05  1.170207E-05 -2.065515E-07  3.371911E-10
     12128   1  7.633821E-05 -2.519334E-05 -2.518541E-05  1.161082E-05  4.121481E-10 -4.475804E-10
     12129   1  7.633834E-05 -2.519300E-05 -2.518738E-05  1.170184E-05  2.073398E-07 -1.246235E-09
     12130   1  7.633846E-05 -2.519309E-05 -2.518641E-05  1.198314E-05  3.627351E-07 -1.341760E-09
     12131   1  7.633856E-05 -2.518704E-05 -2.519308E-05  1.249346E-05  4.062995E-07 -3.865684E-09
     12132   1  7.633860E-05 -2.519172E-05 -2.519509E-05  1.331880E-05  3.185604E-07  8.751785E-09
     12133   1  7.633857E-05 -2.520315E-05 -2.517860E-05  1.451996E-05  1.262758E-07 -9.717164E-10
     12134   1  5.089189E-05 -1.679621E-05 -1.679763E-05  1.772542E-05 -5.839787E-08 -3.610775E-09
     12135   1  5.089187E-05 -1.679601E-05 -1.679106E-05  1.645304E-05 -1.612625E-07  1.301109E-10
     12136   1  5.089190E-05 -1.679408E-05 -1.679451E-05  1.553602E-05 -2.066184E-07 -7.100038E-09
     12137   1  5.089194E-05 -1.679155E-05 -1.679501E-05  1.492216E-05 -1.865725E-07  6.289332E-10
     12138   1  5.089201E-05 -1.679515E-05 -1.679094E-05  1.457610E-05 -1.101352E-07 -1.578373E-09
     12139   1  5.089209E-05 -1.679396E-05 -1.679277E-05  1.446380E-05  3.144613E-10 -5.718555E-10
     12140   1  5.089219E-05 -1.679522E-05 -1.679101E-05  1.457581E-05  1.107356E-07  4.146397E-10
     12141   1  5.089228E-05 -1.679168E-05 -1.679513E-05  1.492163E-05  1.871049E-07 -1.566963E-09
     12142   1  5.089235E-05 -1.679425E-05 -1.679467E-05  1.553534E-05  2.070384E-07  6.325245E-09
     12143   1  5.089239E-05 -1.679621E-05 -1.679124E-05  1.645239E-05  1.615415E-07 -5.381145E-10
     12144   1  5.089238E-05 -1.679638E-05 -1.679782E-05  1.772494E-05  5.849027E-08  3.440614E-09
     12145   1  2.544595E-05 -8.400523E-06 -8.393625E-06  1.962309E-05 -2.570322E-08 -5.896882E-10
     12146   1  2.544593E-05 -8.397282E-06 -8.398323E-06  1.832457E-05 -6.634974E-08 -7.107407E-09
     12147   1  2.544592E-05 -8.396394E-06 -8.397015E-06  1.735739E-05 -8.699999E-08 -8.808039E-10
     12148   1  2.544596E-05 -8.397141E-06 -8.396545E-06  1.669918E-05 -7.920378E-08 -5.827443E-09
     12149   1  2.544600E-05 -8.395945E-06 -8.397404E-06  1.631675E-05 -4.657353E-08 -5.366932E-10
     12150   1  2.544605E-05 -8.397579E-06 -8.395545E-06  1.619263E-05  1.709510E-10 -6.516689E-10
     12151   1  2.544610E-05 -8.395982E-06 -8.397443E-06  1.631642E-05  4.689283E-08 -7.903170E-10
     12152   1  2.544614E-05 -8.397211E-06 -8.396608E-06  1.669858E-05  7.949490E-08  4.739931E-09
     12153   1  2.544616E-05 -8.396480E-06 -8.397106E-06  1.735658E-05  8.722395E-08 -4.444554E-11
     12154   1  2.544617E-05 -8.397341E-06 -8.398411E-06  1.832362E-05  6.650084E-08  6.561884E-09
     12155   1  2.544616E-05 -8.400499E-06 -8.393736E-06  1.962215E-05  2.575941E-08  3.311292E-10
     12156   1 -7.043142E-11  1.415554E-10 -3.852645E-11  2.025249E-05  7.113320E-12 -2.846713E-09
     12157   1 -7.763598E-11  1.461243E-10 -3.759936E-11  1.894448E-05  2.172933E-11 -1.372475E-09
     12158   1 -6.820982E-11  1.523242E-10 -4.916062E-11  1.796624E-05  3.427982E-11 -7.755804E-09
     12159   1 -5.272243E-11  1.536193E-10 -6.506300E-11  1.729162E-05  3.001787E-11 -9.593668E-10
     12160   1 -3.707333E-11  1.516135E-10 -7.831318E-11  1.690043E-05  2.099462E-11 -3.707295E-09
     12161   1 -3.138754E-11  1.504726E-10 -8.465575E-11  1.677116E-05 -2.530408E-12 -6.799175E-10
     12162   1 -3.833115E-11  1.523179E-10 -7.751169E-11  1.690009E-05 -1.834593E-11  2.324732E-09
     12163   1 -5.295167E-11  1.547739E-10 -6.663912E-11  1.729099E-05 -3.438953E-11 -1.787598E-10
     12164   1 -7.181309E-11  1.552841E-10 -4.721002E-11  1.796544E-05 -3.276884E-11  6.798647E-09
     12165   1 -8.023179E-11  1.549631E-10 -3.962911E-11  1.894370E-05 -2.455185E-11  8.374126E-10
     12166   1 -7.694548E-11  1.577464E-10 -3.692543E-11  2.025193E-05 -7.738299E-12  2.618094E-09
     12167   1 -2.544606E-05  8.400799E-06  8.393545E-06  1.962318E-05  2.572262E-08 -5.904582E-10
     12168   1 -2.544605E-05  8.397510E-06  8.398250E-06  1.832465E-05  6.639756E-08 -7.108872E-09
     12169   1 -2.544600E-05  8.396570E-06  8.396913E-06  1.735746E-05  8.707210E-08 -8.825625E-10
     12170   1 -2.544600E-05  8.397282E-06  8.396414E-06  1.669925E-05  7.926583E-08 -5.827264E-09
     12171   1 -2.544600E-05  8.396071E-06  8.397243E-06  1.631681E-05  4.661754E-08 -5.365437E-10
     12172   1 -2.544604E-05  8.397701E-06  8.395372E-06  1.619269E-05 -1.765875E-10 -6.506350E-10
     12173   1 -2.544611E-05  8.396109E-06  8.397285E-06  1.631648E-05 -4.692963E-08 -7.897996E-10
     12174   1 -2.544618E-05  8.397354E-06  8.396472E-06  1.669865E-05 -7.956659E-08  4.741686E-09
     12175   1 -2.544625E-05  8.396656E-06  8.397011E-06  1.735665E-05 -8.729104E-08 -4.249703E-11
     12176   1 -2.544629E-05  8.397558E-06  8.398330E-06  1.832370E-05 -6.655259E-08  6.565228E-09
     12177   1 -2.544627E-05  8.400750E-06  8.393664E-06  1.962225E-05 -2.577591E-08  3.320114E-10
     12178   1 -5.089195E-05  1.679640E-05  1.679757E-05  1.772558E-05  5.841393E-08 -3.615998E-09
     12179   1 -5.089194E-05  1.679622E-05  1.679097E-05  1.645317E-05  1.613133E-07  1.266996E-10
     12180   1 -5.089198E-05  1.679432E-05  1.679443E-05  1.553613E-05  2.066935E-07 -7.103576E-09
     12181   1 -5.089197E-05  1.679180E-05  1.679485E-05  1.492226E-05  1.866438E-07  6.307158E-10
     12182   1 -5.089203E-05  1.679540E-05  1.679078E-05  1.457619E-05  1.101795E-07 -1.578912E-09
     12183   1 -5.089209E-05  1.679421E-05  1.679257E-05  1.446390E-05 -3.150820E-10 -5.687482E-10
     12184   1 -5.089221E-05  1.679546E-05  1.679086E-05  1.457590E-05 -1.107801E-07  4.137568E-10
     12185   1 -5.089231E-05  1.679192E-05  1.679498E-05  1.492173E-05 -1.871776E-07 -1.563261E-09
     12186   1 -5.089244E-05  1.679449E-05  1.679459E-05  1.553546E-05 -2.071141E-07  6.326978E-09
     12187   1 -5.089247E-05  1.679644E-05  1.679114E-05  1.645252E-05 -1.615944E-07 -5.316488E-10
     12188   1 -5.089246E-05  1.679660E-05  1.679777E-05  1.772510E-05 -5.850786E-08  3.442172E-09
     12189   1 -7.633812E-05  2.520332E-05  2.517839E-05  1.452079E-05  1.261664E-07  8.124839E-10
     12190   1 -7.633797E-05  2.519168E-05  2.519471E-05  1.331959E-05  3.182829E-07 -9.059962E-09
     12191   1 -7.633798E-05  2.518690E-05  2.519284E-05  1.249414E-05  4.058397E-07  3.278820E-09
     12192   1 -7.633791E-05  2.519297E-05  2.518602E-05  1.198367E-05  3.621355E-07  6.293493E-10
     12193   1 -7.633802E-05  2.519294E-05  2.518717E-05  1.170217E-05  2.065893E-07  3.366422E-10
     12194   1 -7.633807E-05  2.519336E-05  2.518514E-05  1.161093E-05 -3.965049E-10 -4.434417E-10
     12195   1 -7.633826E-05  2.519303E-05  2.518726E-05  1.170194E-05 -2.074062E-07 -1.248589E-09
     12196   1 -7.633838E-05  2.519313E-05  2.518620E-05  1.198325E-05 -3.628042E-07 -1.338295E-09
     12197   1 -7.633856E-05  2.518710E-05  2.519303E-05  1.249358E-05 -4.064001E-07 -3.865481E-09
     12198   1 -7.633857E-05  2.519180E-05  2.519496E-05  1.331895E-05 -3.186141E-07  8.758935E-09
     12199   1 -7.633858E-05  2.520324E-05  2.517860E-05  1.452014E-05 -1.263006E-07 -9.705134E-10
     12200   1 -1.017840E-04  3.359137E-05  3.360103E-05  9.932731E-06  2.312602E-07 -8.376404E-09
     12201   1 -1.017839E-04  3.358386E-05  3.358744E-05  8.856280E-06  6.333435E-07  8.121799E-09
     12202   1 -1.017841E-04  3.359087E-05  3.358002E-05  8.266920E-06  7.741883E-07  5.687038E-09
     12203   1 -1.017840E-04  3.359336E-05  3.357991E-05  7.925146E-06  6.405588E-07  1.522444E-09
     12204   1 -1.017841E-04  3.359113E-05  3.358001E-05  7.736692E-06  3.577101E-07  1.147035E-09
     12205   1 -1.017841E-04  3.359447E-05  3.357922E-05  7.679115E-06 -4.006263E-10 -2.815802E-10
     12206   1 -1.017844E-04  3.359122E-05  3.358008E-05  7.736542E-06 -3.586323E-07 -1.742779E-09
     12207   1 -1.017845E-04  3.359354E-05  3.358010E-05  7.924868E-06 -6.412326E-07 -1.952503E-09
     12208   1 -1.017847E-04  3.359112E-05  3.358018E-05  8.266584E-06 -7.748153E-07 -6.030415E-09
     12209   1 -1.017847E-04  3.358419E-05  3.358772E-05  8.855958E-06 -6.336856E-07 -8.233550E-09
     12210   1 -1.017847E-04  3.359172E-05  3.360120E-05  9.932507E-06 -2.313852E-07  8.338090E-09
     12211   1 -1.272304E-04  4.201126E-05  4.194755E-05  3.648138E-06  6.234634E-07  1.283409E-08
     12212   1 -1.272301E-04  4.198700E-05  4.196804E-05  3.135026E-06  1.347987E-06  7.925728E-09
     12213   1 -1.272302E-04  4.199897E-05  4.196782E-05  2.938835E-06  1.372363E-06  1.487585E-09
     12214   1 -1.272300E-04  4.198808E-05  4.197413E-05  2.809267E-06  1.070144E-06  1.798201E-09
     12215   1 -1.272302E-04  4.199535E-05  4.197216E-05  2.747257E-06  5.772690E-07  1.545852E-10
     12216   1 -1.272302E-04  4.198855E-05  4.197517E-05  2.724442E-06 -3.167802E-10 -9.079611E-11
     12217   1 -1.272304E-04  4.199545E-05  4.197215E-05  2.747202E-06 -5.781347E-07 -3.776325E-10
     12218   1 -1.272305E-04  4.198827E-05  4.197426E-05  2.809174E-06 -1.070681E-06 -1.928161E-09
     12219   1 -1.272307E-04  4.199919E-05  4.196782E-05  2.938703E-06 -1.372969E-06 -1.623101E-09
     12220   1 -1.272307E-04  4.198712E-05  4.196829E-05  3.134895E-06 -1.348236E-06 -7.940711E-09
     12221   1 -1.272307E-04  4.201117E-05  4.194757E-05  3.647987E-06 -6.236092E-07 -1.290158E-08
     12222   1  1.226860E-04 -4.051033E-05 -4.044912E-05  3.648003E-06 -6.234425E-07  1.249377E-08
     12223   1  1.226860E-04 -4.048715E-05 -4.046942E-05  3.134984E-06 -1.347716E-06  7.615127E-09
     12224   1  1.226860E-04 -4.049883E-05 -4.046881E-05  2.938802E-06 -1.372179E-06  1.470968E-09
     12225   1  1.226861E-04 -4.048837E-05 -4.047538E-05  2.809263E-06 -1.069759E-06  1.664026E-09
     12226   1  1.226862E-04 -4.049539E-05 -4.047320E-05  2.747234E-06 -5.771073E-07  1.424505E-10
     12227   1  1.226864E-04 -4.048887E-05 -4.047642E-05  2.724418E-06  6.273060E-10 -1.731525E-10
     12228   1  1.226866E-04 -4.049556E-05 -4.047328E-05  2.747156E-06  5.781691E-07 -3.801849E-10
     12229   1  1.226868E-04 -4.048867E-05 -4.047545E-05  2.809115E-06  1.070835E-06 -1.938488E-09
     12230   1  1.226870E-04 -4.049923E-05 -4.046906E-05  2.938627E-06  1.372914E-06 -1.562685E-09
     12231   1  1.226870E-04 -4.048763E-05 -4.046960E-05  3.134806E-06  1.348280E-06 -7.706968E-09
     12232   1  1.226870E-04 -4.051088E-05 -4.044950E-05  3.647882E-06  6.235812E-07 -1.240177E-08
     12233   1  9.814894E-05 -3.239202E-05 -3.240087E-05  9.932829E-06 -2.311935E-07 -8.111077E-09
     12234   1  9.814878E-05 -3.238452E-05 -3.238802E-05  8.856309E-06 -6.332004E-07  7.741391E-09
     12235   1  9.814872E-05 -3.239112E-05 -3.238064E-05  8.266912E-06 -7.739918E-07  5.449050E-09
     12236   1  9.814879E-05 -3.239349E-05 -3.238085E-05  7.925112E-06 -6.402587E-07  1.335596E-09
     12237   1  9.814893E-05 -3.239136E-05 -3.238077E-05  7.736648E-06 -3.575016E-07  1.022203E-09
     12238   1  9.814913E-05 -3.239461E-05 -3.238026E-05  7.679041E-06  6.699262E-10 -4.510138E-10
     12239   1  9.814935E-05 -3.239151E-05 -3.238091E-05  7.736426E-06  3.587451E-07 -1.786670E-09
     12240   1  9.814956E-05 -3.239377E-05 -3.238110E-05  7.924708E-06  6.413875E-07 -2.050949E-09
     12241   1  9.814975E-05 -3.239146E-05 -3.238099E-05  8.266373E-06  7.748444E-07 -5.876516E-09
     12242   1  9.814982E-05 -3.238478E-05 -3.238839E-05  8.855702E-06  6.337466E-07 -8.035281E-09
     12243   1  9.814981E-05 -3.239202E-05 -3.240124E-05  9.932190E-06  2.313960E-07  8.051098E-09
     12244   1  7.361137E-05 -2.430266E-05 -2.427908E-05  1.452035E-05 -1.261411E-07  8.627005E-10
     12245   1  7.361135E-05 -2.429160E-05 -2.429500E-05  1.331936E-05 -3.181429E-07 -8.775807E-09
     12246   1  7.361139E-05 -2.428713E-05 -2.429306E-05  1.249406E-05 -4.056531E-07  3.120222E-09
     12247   1  7.361147E-05 -2.429303E-05 -2.428669E-05  1.198363E-05 -3.619033E-07  4.305719E-10
     12248   1  7.361160E-05 -2.429303E-05 -2.428770E-05  1.170211E-05 -2.063776E-07  1.764533E-10
     12249   1  7.361177E-05 -2.429345E-05 -2.428593E-05  1.161081E-05  6.041588E-10 -6.822801E-10
     12250   1  7.361197E-05 -2.429315E-05 -2.428784E-05  1.170177E-05  2.075415E-07 -1.388515E-09
     12251   1  7.361217E-05 -2.429327E-05 -2.428695E-05  1.198301E-05  3.629241E-07 -1.540774E-09
     12252   1  7.361233E-05 -2.428748E-05 -2.429338E-05  1.249327E-05  4.064594E-07 -3.856059E-09
     12253   1  7.361243E-05 -2.429203E-05 -2.429536E-05  1.331858E-05  3.186721E-07  8.295914E-09
     12254   1  7.361242E-05 -2.430305E-05 -2.427946E-05  1.451975E-05  1.263128E-07 -9.280010E-10
     12255   1  4.907430E-05 -1.619651E-05 -1.619767E-05  1.772589E-05 -5.836889E-08 -3.518299E-09
     12256   1  4.907423E-05 -1.619621E-05 -1.619135E-05  1.645334E-05 -1.612196E-07 -3.344483E-11
     12257   1  4.907421E-05 -1.619429E-05 -1.619466E-05  1.553618E-05 -2.065379E-07 -6.946061E-09
     12258   1  4.907427E-05 -1.619187E-05 -1.619516E-05  1.492226E-05 -1.864646E-07  3.809356E-10
     12259   1  4.907438E-05 -1.619536E-05 -1.619123E-05  1.457617E-05 -1.100025E-07 -1.711099E-09
     12260   1  4.907451E-05 -1.619423E-05 -1.619304E-05  1.446381E-05  4.559827E-10 -8.654316E-10
     12261   1  4.907465E-05 -1.619546E-05 -1.619134E-05  1.457575E-05  1.108843E-07  1.595718E-10
     12262   1  4.907480E-05 -1.619206E-05 -1.619536E-05  1.492148E-05  1.872400E-07 -1.825984E-09
     12263   1  4.907490E-05 -1.619453E-05 -1.619491E-05  1.553513E-05  2.071533E-07  5.921733E-09
     12264   1  4.907495E-05 -1.619639E-05 -1.619163E-05  1.645211E-05  1.616187E-07 -7.172331E-10
     12265   1  4.907492E-05 -1.619648E-05 -1.619796E-05  1.772464E-05  5.851994E-08  3.306890E-09
     12266   1  2.453696E-05 -8.100277E-06 -8.093855E-06  1.962277E-05 -2.569690E-08 -5.032211E-10
     12267   1  2.453695E-05 -8.097188E-06 -8.098344E-06  1.832448E-05 -6.631253E-08 -6.936701E-09
     12268   1  2.453700E-05 -8.096359E-06 -8.097131E-06  1.735748E-05 -8.693920E-08 -9.325652E-10
     12269   1  2.453705E-05 -8.097081E-06 -8.096649E-06  1.669931E-05 -7.914035E-08 -5.869520E-09
     12270   1  2.453712E-05 -8.095930E-06 -8.097520E-06  1.631683E-05 -4.649192E-08 -7.344058E-10
     12271   1  2.453719E-05 -8.097514E-06 -8.095711E-06  1.619264E-05  2.411050E-10 -9.823170E-10
     12272   1  2.453727E-05 -8.095984E-06 -8.097573E-06  1.631636E-05  4.696992E-08 -1.037750E-09
     12273   1  2.453733E-05 -8.097183E-06 -8.096755E-06  1.669842E-05  7.955114E-08  4.209656E-09
     12274   1  2.453737E-05 -8.096499E-06 -8.097252E-06  1.735635E-05  8.727726E-08 -2.540631E-10
     12275   1  2.453739E-05 -8.097351E-06 -8.098500E-06  1.832335E-05  6.653107E-08  6.101467E-09
     12276   1  2.453738E-05 -8.100396E-06 -8.094011E-06  1.962190E-05  2.577171E-08  3.105090E-10
     12277   1 -1.640014E-10  2.472778E-10 -4.106950E-11  2.025310E-05  1.809630E-11 -2.778420E-09
     12278   1 -1.447949E-10  2.062917E-10 -4.613670E-11  1.894490E-05  4.840326E-11 -1.509906E-09
     12279   1 -1.060950E-10  1.660074E-10 -6.781827E-11  1.796648E-05  6.022496E-11 -7.603339E-09
     12280   1 -6.149390E-11  1.391615E-10 -9.636777E-11  1.729179E-05  5.961098E-11 -1.188782E-09
     12281   1 -3.030750E-11  1.262272E-10 -1.198165E-10  1.690055E-05  3.101189E-11 -3.801398E-09
     12282   1 -1.888663E-11  1.229297E-10 -1.266987E-10  1.677121E-05  1.655895E-12 -1.021132E-09
     12283   1 -3.056021E-11  1.271163E-10 -1.209799E-10  1.690006E-05 -3.816457E-11  1.952886E-09
     12284   1 -6.502762E-11  1.411115E-10 -9.419951E-11  1.729087E-05 -5.694974E-11 -5.460352E-10
     12285   1 -1.068976E-10  1.671967E-10 -7.032196E-11  1.796524E-05 -6.516445E-11  6.332448E-09
     12286   1 -1.485903E-10  2.012140E-10 -4.273291E-11  1.894344E-05 -4.642660E-11  5.652661E-10
     12287   1 -1.628704E-10  2.329813E-10 -4.261350E-11  2.025164E-05 -1.769796E-11  2.505905E-09
     12288   1 -2.453725E-05  8.100710E-06  8.093778E-06  1.962293E-05  2.572652E-08 -5.055758E-10
     12289   1 -2.453722E-05  8.097620E-06  8.098246E-06  1.832461E-05  6.640734E-08 -6.940385E-09
     12290   1 -2.453722E-05  8.096795E-06  8.096996E-06  1.735760E-05  8.706109E-08 -9.330847E-10
     12291   1 -2.453720E-05  8.097513E-06  8.096448E-06  1.669942E-05  7.926312E-08 -5.869539E-09
     12292   1 -2.453721E-05  8.096353E-06  8.097277E-06  1.631694E-05  4.655498E-08 -7.327097E-10
     12293   1 -2.453726E-05  8.097933E-06  8.095450E-06  1.619274E-05 -2.361188E-10 -9.815630E-10
     12294   1 -2.453736E-05  8.096409E-06  8.097326E-06  1.631646E-05 -4.704908E-08 -1.036289E-09
     12295   1 -2.453748E-05  8.097618E-06  8.096562E-06  1.669853E-05 -7.966588E-08  4.210651E-09
     12296   1 -2.453759E-05  8.096943E-06  8.097108E-06  1.735647E-05 -8.741111E-08 -2.509746E-10
     12297   1 -2.453768E-05  8.097804E-06  8.098414E-06  1.832349E-05 -6.662391E-08  6.104324E-09
     12298   1 -2.453768E-05  8.100870E-06  8.093922E-06  1.962207E-05 -2.580722E-08  3.131707E-10
     12299   1 -4.907447E-05  1.619686E-05  1.619757E-05  1.772617E-05  5.840871E-08 -3.516301E-09
     12300   1 -4.907440E-05  1.619649E-05  1.619127E-05  1.645358E-05  1.613249E-07 -3.802555E-11
     12301   1 -4.907429E-05  1.619451E-05  1.619450E-05  1.553639E-05  2.066752E-07 -6.945147E-09
     12302   1 -4.907428E-05  1.619204E-05  1.619497E-05  1.492245E-05  1.865942E-07  3.804088E-10
     12303   1 -4.907430E-05  1.619551E-05  1.619095E-05  1.457635E-05  1.100776E-07 -1.705968E-09
     12304   1 -4.907443E-05  1.619438E-05  1.619278E-05  1.446399E-05 -4.559754E-10 -8.661007E-10
     12305   1 -4.907458E-05  1.619561E-05  1.619105E-05  1.457593E-05 -1.109622E-07  1.636140E-10
     12306   1 -4.907481E-05  1.619223E-05  1.619517E-05  1.492167E-05 -1.873698E-07 -1.827012E-09
     12307   1 -4.907498E-05  1.619475E-05  1.619474E-05  1.553534E-05 -2.072926E-07  5.928233E-09
     12308   1 -4.907512E-05  1.619666E-05  1.619155E-05  1.645235E-05 -1.617228E-07 -7.137856E-10
     12309   1 -4.907508E-05  1.619680E-05  1.619785E-05  1.772492E-05 -5.855796E-08  3.311665E-09
     12310   1 -7.361136E-05  2.430284E-05  2.427889E-05  1.452066E-05  1.261830E-07  8.569380E-10
     12311   1 -7.361146E-05  2.429181E-05  2.429501E-05  1.331960E-05  3.182528E-07 -8.784054E-09
     12312   1 -7.361138E-05  2.428738E-05  2.429280E-05  1.249428E-05  4.058211E-07  3.123131E-09
     12313   1 -7.361147E-05  2.429329E-05  2.428656E-05  1.198382E-05  3.620357E-07  4.308244E-10
     12314   1 -7.361146E-05  2.429329E-05  2.428732E-05  1.170229E-05  2.064842E-07  1.842828E-10
     12315   1 -7.361168E-05  2.429371E-05  2.428570E-05  1.161100E-05 -6.248395E-10 -6.840575E-10
     12316   1 -7.361184E-05  2.429342E-05  2.428747E-05  1.170196E-05 -2.076062E-07 -1.384004E-09
     12317   1 -7.361215E-05  2.429353E-05  2.428679E-05  1.198320E-05 -3.630916E-07 -1.544712E-09
     12318   1 -7.361233E-05  2.428773E-05  2.429315E-05  1.249349E-05 -4.065997E-07 -3.849950E-09
     12319   1 -7.361253E-05  2.429227E-05  2.429534E-05  1.331884E-05 -3.188011E-07  8.299005E-09
     12320   1 -7.361244E-05  2.430328E-05  2.427930E-05  1.452006E-05 -1.263505E-07 -9.215831E-10
     12321   1 -9.814880E-05  3.239211E-05  3.240060E-05  9.933082E-06  2.312520E-07 -8.109901E-09
     12322   1 -9.814883E-05  3.238458E-05  3.238812E-05  8.856499E-06  6.333349E-07  7.742242E-09
     12323   1 -9.814855E-05  3.239113E-05  3.238030E-05  8.267077E-06  7.742107E-07  5.452337E-09
     12324   1 -9.814866E-05  3.239348E-05  3.238076E-05  7.925258E-06  6.404043E-07  1.340435E-09
     12325   1 -9.814861E-05  3.239134E-05  3.238029E-05  7.736792E-06  3.576469E-07  1.027518E-09
     12326   1 -9.814887E-05  3.239459E-05  3.238005E-05  7.679181E-06 -7.123652E-10 -4.504841E-10
     12327   1 -9.814904E-05  3.239148E-05  3.238045E-05  7.736572E-06 -3.588021E-07 -1.786053E-09
     12328   1 -9.814940E-05  3.239376E-05  3.238096E-05  7.924859E-06 -6.416050E-07 -2.054812E-09
     12329   1 -9.814960E-05  3.239147E-05  3.238070E-05  8.266541E-06 -7.750030E-07 -5.875559E-09
     12330   1 -9.814982E-05  3.238482E-05  3.238842E-05  8.855896E-06 -6.339156E-07 -8.033552E-09
     12331   1 -9.814968E-05  3.239207E-05  3.240104E-05  9.932443E-06 -2.314403E-07  8.054653E-09
     12332   1 -1.226858E-04  4.051032E-05  4.044887E-05  3.648090E-06  6.235256E-07  1.248491E-08
     12333   1 -1.226861E-04  4.048723E-05  4.046956E-05  3.135055E-06  1.347897E-06  7.616371E-09
     12334   1 -1.226859E-04  4.049898E-05  4.046843E-05  2.938856E-06  1.372454E-06  1.468769E-09
     12335   1 -1.226860E-04  4.048855E-05  4.047529E-05  2.809316E-06  1.069940E-06  1.670658E-09
     12336   1 -1.226859E-04  4.049557E-05  4.047266E-05  2.747283E-06  5.772832E-07  1.410004E-10
     12337   1 -1.226862E-04  4.048904E-05  4.047619E-05  2.724467E-06 -6.780847E-10 -1.690972E-10
     12338   1 -1.226863E-04  4.049573E-05  4.047276E-05  2.747207E-06 -5.782389E-07 -3.839663E-10
     12339   1 -1.226867E-04  4.048884E-05  4.047531E-05  2.809167E-06 -1.071101E-06 -1.937706E-09
     12340   1 -1.226869E-04  4.049937E-05  4.046875E-05  2.938686E-06 -1.373117E-06 -1.566195E-09
     12341   1 -1.226871E-04  4.048773E-05  4.046966E-05  3.134877E-06 -1.348505E-06 -7.704876E-09
     12342   1 -1.226870E-04  4.051092E-05  4.044931E-05  3.647975E-06 -6.236480E-07 -1.240221E-08
     12343   1  1.181422E-04 -3.901050E-05 -3.895108E-05  3.648113E-06 -6.233423E-07  1.185803E-08
     12344   1  1.181419E-04 -3.898785E-05 -3.897038E-05  3.135027E-06 -1.347702E-06  7.356233E-09
     12345   1  1.181419E-04 -3.899893E-05 -3.896999E-05  2.938844E-06 -1.371926E-06  1.311843E-09
     12346   1  1.181420E-04 -3.898884E-05 -3.897620E-05  2.809273E-06 -1.069629E-06  1.617709E-09
     12347   1  1.181422E-04 -3.899565E-05 -3.897419E-05  2.747253E-06 -5.767491E-07  2.506858E-11
     12348   1  1.181425E-04 -3.898941E-05 -3.897730E-05  2.724411E-06  8.339467E-10 -1.822019E-10
     12349   1  1.181428E-04 -3.899590E-05 -3.897426E-05  2.747137E-06  5.785528E-07 -4.901029E-10
     12350   1  1.181432E-04 -3.898931E-05 -3.897647E-05  2.809070E-06  1.071051E-06 -1.880789E-09
     12351   1  1.181434E-04 -3.899949E-05 -3.897023E-05  2.938562E-06  1.373203E-06 -1.602950E-09
     12352   1  1.181436E-04 -3.898830E-05 -3.897094E-05  3.134728E-06  1.348392E-06 -7.393057E-09
     12353   1  1.181435E-04 -3.901061E-05 -3.895144E-05  3.647778E-06  6.236527E-07 -1.200847E-08
     12354   1  9.451325E-05 -3.119165E-05 -3.120073E-05  9.932556E-06 -2.311948E-07 -7.768361E-09
     12355   1  9.451322E-05 -3.118469E-05 -3.118840E-05  8.856228E-06 -6.330933E-07  7.524211E-09
     12356   1  9.451328E-05 -3.119122E-05 -3.118127E-05  8.266938E-06 -7.738247E-07  5.145551E-09
     12357   1  9.451338E-05 -3.119354E-05 -3.118149E-05  7.925172E-06 -6.400673E-07  1.224291E-09
     12358   1  9.451359E-05 -3.119150E-05 -3.118142E-05  7.736683E-06 -3.572097E-07  7.693179E-10
     12359   1  9.451388E-05 -3.119466E-05 -3.118098E-05  7.679032E-06  9.506758E-10 -5.753361E-10
     12360   1  9.451421E-05 -3.119172E-05 -3.118162E-05  7.736364E-06  3.590926E-07 -1.979247E-09
     12361   1  9.451457E-05 -3.119395E-05 -3.118189E-05  7.924579E-06  6.416763E-07 -2.113586E-09
     12362   1  9.451486E-05 -3.119179E-05 -3.118178E-05  8.266193E-06  7.751207E-07 -5.857996E-09
     12363   1  9.451508E-05 -3.118543E-05 -3.118900E-05  8.855480E-06  6.339193E-07 -7.769294E-09
     12364   1  9.451509E-05 -3.119244E-05 -3.120134E-05  9.931964E-06  2.314594E-07  7.687184E-09
     12365   1  7.088506E-05 -2.340295E-05 -2.337981E-05  1.452082E-05 -1.260925E-07  6.823082E-10
     12366   1  7.088491E-05 -2.339207E-05 -2.339511E-05  1.331965E-05 -3.180825E-07 -8.520869E-09
     12367   1  7.088485E-05 -2.338763E-05 -2.339324E-05  1.249421E-05 -4.055270E-07  2.819285E-09
     12368   1  7.088494E-05 -2.339330E-05 -2.338710E-05  1.198373E-05 -3.617138E-07  2.776339E-10
     12369   1  7.088513E-05 -2.339333E-05 -2.338810E-05  1.170217E-05 -2.061451E-07 -1.266153E-10
     12370   1  7.088539E-05 -2.339378E-05 -2.338641E-05  1.161082E-05  8.774234E-10 -9.001436E-10
     12371   1  7.088569E-05 -2.339353E-05 -2.338831E-05  1.170169E-05  2.078273E-07 -1.706262E-09
     12372   1  7.088599E-05 -2.339367E-05 -2.338748E-05  1.198284E-05  3.632013E-07 -1.727829E-09
     12373   1  7.088625E-05 -2.338810E-05 -2.339374E-05  1.249301E-05  4.066944E-07 -4.013029E-09
     12374   1  7.088639E-05 -2.339245E-05 -2.339565E-05  1.331824E-05  3.188331E-07  7.884696E-09
     12375   1  7.088639E-05 -2.340298E-05 -2.338039E-05  1.451936E-05  1.263771E-07 -1.012166E-09
     12376   1  4.725630E-05 -1.559617E-05 -1.559771E-05  1.772545E-05 -5.836425E-08 -3.395946E-09
     12377   1  4.725630E-05 -1.559601E-05 -1.559160E-05  1.645321E-05 -1.611461E-07  5.433460E-12
     12378   1  4.725638E-05 -1.559427E-05 -1.559481E-05  1.553627E-05 -2.064319E-07 -6.881570E-09
     12379   1  4.725648E-05 -1.559196E-05 -1.559528E-05  1.492240E-05 -1.863196E-07  1.960052E-10
     12380   1  4.725663E-05 -1.559533E-05 -1.559153E-05  1.457626E-05 -1.098276E-07 -2.021358E-09
     12381   1  4.725682E-05 -1.559426E-05 -1.559327E-05  1.446383E-05  6.594665E-10 -1.142493E-09
     12382   1  4.725704E-05 -1.559547E-05 -1.559169E-05  1.457565E-05  1.110902E-07 -3.120971E-10
     12383   1  4.725725E-05 -1.559223E-05 -1.559556E-05  1.492128E-05  1.874411E-07 -2.081444E-09
     12384   1  4.725743E-05 -1.559466E-05 -1.559518E-05  1.553481E-05  2.073218E-07  5.308516E-09
     12385   1  4.725754E-05 -1.559649E-05 -1.559201E-05  1.645173E-05  1.617386E-07 -8.416933E-10
     12386   1  4.725754E-05 -1.559657E-05 -1.559817E-05  1.772426E-05  5.856229E-08  3.043546E-09
     12387   1  2.362806E-05 -7.800299E-06 -7.794019E-06  1.962350E-05 -2.566959E-08 -6.536185E-10
     12388   1  2.362806E-05 -7.797281E-06 -7.798408E-06  1.832497E-05 -6.626317E-08 -6.786932E-09
     12389   1  2.362808E-05 -7.796463E-06 -7.797188E-06  1.735776E-05 -8.687200E-08 -1.166561E-09
     12390   1  2.362817E-05 -7.797181E-06 -7.796788E-06  1.669951E-05 -7.903952E-08 -5.855679E-09
     12391   1  2.362827E-05 -7.796096E-06 -7.797597E-06  1.631698E-05 -4.639732E-08 -1.125611E-09
     12392   1  2.362839E-05 -7.797637E-06 -7.795907E-06  1.619271E-05  3.558996E-10 -1.297165E-09
     12393   1  2.362849E-05 -7.796176E-06 -7.797682E-06  1.631630E-05  4.706213E-08 -1.525163E-09
     12394   1  2.362858E-05 -7.797334E-06 -7.796928E-06  1.669824E-05  7.964787E-08  3.681429E-09
     12395   1  2.362863E-05 -7.796657E-06 -7.797392E-06  1.735604E-05  8.734160E-08 -6.982417E-10
     12396   1  2.362864E-05 -7.797431E-06 -7.798613E-06  1.832293E-05  6.658191E-08  5.682745E-09
     12397   1  2.362860E-05 -7.800297E-06 -7.794281E-06  1.962144E-05  2.578812E-08  1.242726E-10
     12398   1 -3.144299E-10  3.700141E-10 -3.401514E-11  2.025269E-05  2.744869E-11 -2.708815E-09
     12399   1 -2.795134E-10  3.536694E-10 -4.910354E-11  1.894480E-05  7.660360E-11 -1.430623E-09
     12400   1 -2.158603E-10  3.445745E-10 -8.942481E-11  1.796665E-05  1.056870E-10 -7.552855E-09
     12401   1 -1.507002E-10  3.334491E-10 -1.357588E-10  1.729201E-05  9.037061E-11 -1.353738E-09
     12402   1 -9.956977E-11  3.228846E-10 -1.703991E-10  1.690072E-05  5.795284E-11 -4.093413E-09
     12403   1 -8.155930E-11  3.188143E-10 -1.862891E-10  1.677129E-05 -5.380995E-12 -1.351544E-09
     12404   1 -1.023515E-10  3.244099E-10 -1.687898E-10  1.690001E-05 -5.445616E-11  1.335670E-09
     12405   1 -1.520825E-10  3.359283E-10 -1.384794E-10  1.729069E-05 -9.981705E-11 -9.200397E-10
     12406   1 -2.233339E-10  3.493505E-10 -8.527304E-11  1.796493E-05 -1.039722E-10  5.624072E-09
     12407   1 -2.844000E-10  3.666360E-10 -5.256808E-11  1.894307E-05 -8.305271E-11  3.463108E-10
     12408   1 -3.267388E-10  3.943830E-10 -2.991247E-11  2.025130E-05 -2.976927E-11  2.241137E-09
     12409   1 -2.362862E-05  7.801009E-06  7.793937E-06  1.962376E-05  2.573824E-08 -6.532474E-10
     12410   1 -2.362854E-05  7.797869E-06  7.798311E-06  1.832519E-05  6.642646E-08 -6.786858E-09
     12411   1 -2.362840E-05  7.796937E-06  7.796995E-06  1.735795E-05  8.709153E-08 -1.166976E-09
     12412   1 -2.362834E-05  7.797579E-06  7.796513E-06  1.669969E-05  7.922449E-08 -5.852972E-09
     12413   1 -2.362833E-05  7.796458E-06  7.797241E-06  1.631715E-05  4.651835E-08 -1.123622E-09
     12414   1 -2.362841E-05  7.797989E-06  7.795526E-06  1.619288E-05 -3.682094E-10 -1.294697E-09
     12415   1 -2.362856E-05  7.796540E-06  7.797332E-06  1.631648E-05 -4.717092E-08 -1.524609E-09
     12416   1 -2.362875E-05  7.797738E-06  7.796642E-06  1.669843E-05 -7.985412E-08  3.683304E-09
     12417   1 -2.362897E-05  7.797135E-06  7.797215E-06  1.735623E-05 -8.755298E-08 -6.966212E-10
     12418   1 -2.362912E-05  7.798007E-06  7.798502E-06  1.832316E-05 -6.675397E-08  5.687091E-09
     12419   1 -2.362917E-05  7.800971E-06  7.794217E-06  1.962170E-05 -2.585003E-08  1.249328E-10
     12420   1 -4.725669E-05  1.559669E-05  1.559765E-05  1.772589E-05  5.842523E-08 -3.405648E-09
     12421   1 -4.725663E-05  1.559652E-05  1.559147E-05  1.645358E-05  1.613181E-07  2.849812E-12
     12422   1 -4.725662E-05  1.559479E-05  1.559463E-05  1.553659E-05  2.066625E-07 -6.883550E-09
     12423   1 -4.725657E-05  1.559246E-05  1.559495E-05  1.492271E-05  1.865253E-07  2.037010E-10
     12424   1 -4.725663E-05  1.559582E-05  1.559117E-05  1.457655E-05  1.099520E-07 -2.019752E-09
     12425   1 -4.725677E-05  1.559475E-05  1.559284E-05  1.446412E-05 -6.622399E-10 -1.135344E-09
     12426   1 -4.725705E-05  1.559597E-05  1.559133E-05  1.457595E-05 -1.112143E-07 -3.148044E-10
     12427   1 -4.725734E-05  1.559274E-05  1.559523E-05  1.492158E-05 -1.876521E-07 -2.076555E-09
     12428   1 -4.725768E-05  1.559518E-05  1.559501E-05  1.553514E-05 -2.075535E-07  5.308067E-09
     12429   1 -4.725788E-05  1.559703E-05  1.559187E-05  1.645211E-05 -1.619165E-07 -8.324163E-10
     12430   1 -4.725796E-05  1.559714E-05  1.559812E-05  1.772471E-05 -5.862772E-08  3.044787E-09
     12431   1 -7.088528E-05  2.340329E-05  2.337985E-05  1.452132E-05  1.261696E-07  6.834669E-10
     12432   1 -7.088496E-05  2.339233E-05  2.339485E-05  1.332008E-05  3.182942E-07 -8.518223E-09
     12433   1 -7.088488E-05  2.338780E-05  2.339313E-05  1.249457E-05  4.057758E-07  2.818768E-09
     12434   1 -7.088472E-05  2.339342E-05  2.338664E-05  1.198407E-05  3.619727E-07  2.903276E-10
     12435   1 -7.088488E-05  2.339343E-05  2.338778E-05  1.170249E-05  2.062596E-07 -1.251042E-10
     12436   1 -7.088502E-05  2.339387E-05  2.338584E-05  1.161115E-05 -8.469728E-10 -8.904459E-10
     12437   1 -7.088543E-05  2.339362E-05  2.338797E-05  1.170202E-05 -2.079967E-07 -1.712133E-09
     12438   1 -7.088579E-05  2.339380E-05  2.338704E-05  1.198318E-05 -3.634094E-07 -1.723322E-09
     12439   1 -7.088625E-05  2.338827E-05  2.339359E-05  1.249339E-05 -4.069810E-07 -4.016751E-09
     12440   1 -7.088646E-05  2.339269E-05  2.339543E-05  1.331867E-05 -3.190179E-07  7.895535E-09
     12441   1 -7.088658E-05  2.340327E-05  2.338039E-05  1.451987E-05 -1.264594E-07 -1.011806E-09
     12442   1 -9.451331E-05  3.119174E-05  3.120089E-05  9.932962E-06  2.312763E-07 -7.777811E-09
     12443   1 -9.451308E-05  3.118484E-05  3.118803E-05  8.856551E-06  6.333563E-07  7.519237E-09
     12444   1 -9.451325E-05  3.119142E-05  3.118124E-05  8.267209E-06  7.741086E-07  5.151732E-09
     12445   1 -9.451305E-05  3.119376E-05  3.118089E-05  7.925428E-06  6.403966E-07  1.233843E-09
     12446   1 -9.451329E-05  3.119172E-05  3.118112E-05  7.736925E-06  3.573212E-07  7.756917E-10
     12447   1 -9.451341E-05  3.119488E-05  3.118027E-05  7.679278E-06 -8.858389E-10 -5.704188E-10
     12448   1 -9.451389E-05  3.119194E-05  3.118128E-05  7.736609E-06 -3.593172E-07 -1.983271E-09
     12449   1 -9.451427E-05  3.119417E-05  3.118134E-05  7.924838E-06 -6.418965E-07 -2.115159E-09
     12450   1 -9.451478E-05  3.119200E-05  3.118165E-05  8.266474E-06 -7.754837E-07 -5.863420E-09
     12451   1 -9.451500E-05  3.118561E-05  3.118872E-05  8.855810E-06 -6.341303E-07 -7.764125E-09
     12452   1 -9.451513E-05  3.119259E-05  3.120140E-05  9.932384E-06 -2.315607E-07  7.689755E-09
     12453   1 -1.181423E-04  3.901055E-05  3.895130E-05  3.648289E-06  6.234708E-07  1.187137E-08
     12454   1 -1.181417E-04  3.898787E-05  3.896998E-05  3.135143E-06  1.348063E-06  7.354626E-09
     12455   1 -1.181418E-04  3.899889E-05  3.896996E-05  2.938952E-06  1.372291E-06  1.322675E-09
     12456   1 -1.181415E-04  3.898876E-05  3.897551E-05  2.809368E-06  1.070032E-06  1.616416E-09
     12457   1 -1.181417E-04  3.899555E-05  3.897385E-05  2.747347E-06  5.768852E-07  3.401175E-11
     12458   1 -1.181418E-04  3.898930E-05  3.897649E-05  2.724504E-06 -7.561527E-10 -1.858973E-10
     12459   1 -1.181423E-04  3.899580E-05  3.897388E-05  2.747231E-06 -5.788225E-07 -4.871366E-10
     12460   1 -1.181427E-04  3.898923E-05  3.897585E-05  2.809168E-06 -1.071323E-06 -1.886786E-09
     12461   1 -1.181432E-04  3.899945E-05  3.897010E-05  2.938669E-06 -1.373660E-06 -1.602557E-09
     12462   1 -1.181434E-04  3.898829E-05  3.897064E-05  3.134849E-06 -1.348686E-06 -7.395083E-09
     12463   1 -1.181435E-04  3.901060E-05  3.895155E-05  3.647950E-06 -6.238021E-07 -1.200643E-08
     12464   1  1.135975E-04 -3.750913E-05 -3.745269E-05  3.647955E-06 -6.233779E-07  1.164820E-08
     12465   1  1.135975E-04 -3.748777E-05 -3.747158E-05  3.135008E-06 -1.347432E-06  7.024124E-09
     12466   1  1.135976E-04 -3.749866E-05 -3.747097E-05  2.938842E-06 -1.371821E-06  1.348217E-09
     12467   1  1.135977E-04 -3.748902E-05 -3.747712E-05  2.809317E-06 -1.069206E-06  1.423829E-09
     12468   1  1.135980E-04 -3.749557E-05 -3.747513E-05  2.747263E-06 -5.765051E-07  2.559743E-11
     12469   1  1.135984E-04 -3.748963E-05 -3.747815E-05  2.724417E-06  1.369880E-09 -3.446513E-10
     12470   1  1.135990E-04 -3.749595E-05 -3.747533E-05  2.747104E-06  5.788860E-07 -5.009162E-10
     12471   1  1.135994E-04 -3.748969E-05 -3.747739E-05  2.809009E-06  1.071562E-06 -1.976358E-09
     12472   1  1.135999E-04 -3.749959E-05 -3.747162E-05  2.938470E-06  1.373485E-06 -1.541413E-09
     12473   1  1.136002E-04 -3.748893E-05 -3.747215E-05  3.134611E-06  1.348680E-06 -7.216021E-09
     12474   1  1.136004E-04 -3.751048E-05 -3.745368E-05  3.647656E-06  6.237075E-07 -1.146799E-08
     12475   1  9.087828E-05 -2.999267E-05 -3.000066E-05  9.932941E-06 -2.311204E-07 -7.543045E-09
     12476   1  9.087799E-05 -2.998557E-05 -2.998872E-05  8.856449E-06 -6.330117E-07  7.064298E-09
     12477   1  9.087787E-05 -2.999160E-05 -2.998188E-05  8.267067E-06 -7.736521E-07  4.908072E-09
     12478   1  9.087800E-05 -2.999381E-05 -2.998208E-05  7.925258E-06 -6.397585E-07  9.505006E-10
     12479   1  9.087829E-05 -2.999190E-05 -2.998206E-05  7.736749E-06 -3.568787E-07  6.006891E-10
     12480   1  9.087871E-05 -2.999500E-05 -2.998164E-05  7.679045E-06  1.413117E-09 -8.934776E-10
     12481   1  9.087923E-05 -2.999223E-05 -2.998237E-05  7.736295E-06  3.595235E-07 -2.117512E-09
     12482   1  9.087975E-05 -2.999444E-05 -2.998264E-05  7.924422E-06  6.421534E-07 -2.379053E-09
     12483   1  9.088025E-05 -2.999239E-05 -2.998268E-05  8.265941E-06  7.754871E-07 -5.773542E-09
     12484   1  9.088054E-05 -2.998625E-05 -2.998961E-05  8.855155E-06  6.341940E-07 -7.670684E-09
     12485   1  9.088062E-05 -2.999290E-05 -3.000159E-05  9.931556E-06  2.315606E-07  7.412985E-09
     12486   1  6.815801E-05 -2.250202E-05 -2.248046E-05  1.452029E-05 -1.260980E-07  8.275088E-10
     12487   1  6.815801E-05 -2.249185E-05 -2.249519E-05  1.331948E-05 -3.179715E-07 -8.242589E-09
     12488   1  6.815809E-05 -2.248780E-05 -2.249337E-05  1.249430E-05 -4.053593E-07  2.666553E-09
     12489   1  6.815823E-05 -2.249330E-05 -2.248749E-05  1.198387E-05 -3.614774E-07 -3.157255E-11
     12490   1  6.815848E-05 -2.249334E-05 -2.248845E-05  1.170228E-05 -2.058258E-07 -3.776171E-10
     12491   1  6.815885E-05 -2.249381E-05 -2.248689E-05  1.161084E-05  1.251085E-09 -1.343325E-09
     12492   1  6.815930E-05 -2.249362E-05 -2.248875E-05  1.170160E-05  2.082369E-07 -2.007061E-09
     12493   1  6.815977E-05 -2.249383E-05 -2.248805E-05  1.198259E-05  3.636014E-07 -2.170009E-09
     12494   1  6.816019E-05 -2.248855E-05 -2.249410E-05  1.249264E-05  4.070440E-07 -4.135905E-09
     12495   1  6.816050E-05 -2.249282E-05 -2.249602E-05  1.331778E-05  3.190839E-07  7.268137E-09
     12496   1  6.816055E-05 -2.250296E-05 -2.248136E-05  1.451886E-05  1.264623E-07 -9.626889E-10
     12497   1  4.543869E-05 -1.499662E-05 -1.499771E-05  1.772626E-05 -5.831655E-08 -3.321577E-09
     12498   1  4.543859E-05 -1.499627E-05 -1.499186E-05  1.645373E-05 -1.610843E-07 -2.645130E-10
     12499   1  4.543856E-05 -1.499447E-05 -1.499490E-05  1.553656E-05 -2.063044E-07 -6.747349E-09
     12500   1  4.543868E-05 -1.499225E-05 -1.499539E-05  1.492261E-05 -1.861346E-07 -1.976338E-10
     12501   1  4.543889E-05 -1.499553E-05 -1.499178E-05  1.457644E-05 -1.095872E-07 -2.264935E-09
     12502   1  4.543918E-05 -1.499454E-05 -1.499352E-05  1.446390E-05  9.322935E-10 -1.695882E-09
     12503   1  4.543949E-05 -1.499575E-05 -1.499200E-05  1.457558E-05  1.113892E-07 -7.677841E-10
     12504   1  4.543982E-05 -1.499266E-05 -1.499580E-05  1.492102E-05  1.877263E-07 -2.648023E-09
     12505   1  4.544009E-05 -1.499500E-05 -1.499544E-05  1.553439E-05  2.075715E-07  4.726714E-09
     12506   1  4.544026E-05 -1.499671E-05 -1.499247E-05  1.645115E-05  1.619121E-07 -1.237725E-09
     12507   1  4.544023E-05 -1.499668E-05 -1.499838E-05  1.772360E-05  5.862928E-08  2.898036E-09
     12508   1  2.271887E-05 -7.499856E-06 -7.494237E-06  1.962289E-05 -2.566257E-08 -4.715289E-10
     12509   1  2.271890E-05 -7.497041E-06 -7.498375E-06  1.832479E-05 -6.620375E-08 -6.638779E-09
     12510   1  2.271903E-05 -7.496321E-06 -7.497296E-06  1.735794E-05 -8.676757E-08 -1.213814E-09
     12511   1  2.271914E-05 -7.497019E-06 -7.496853E-06  1.669977E-05 -7.893157E-08 -6.058255E-09
     12512   1  2.271929E-05 -7.495982E-06 -7.497712E-06  1.631720E-05 -4.624698E-08 -1.449871E-09
     12513   1  2.271945E-05 -7.497480E-06 -7.496056E-06  1.619279E-05  4.883682E-10 -1.918207E-09
     12514   1  2.271961E-05 -7.496096E-06 -7.497822E-06  1.631623E-05  4.721762E-08 -2.001634E-09
     12515   1  2.271974E-05 -7.497236E-06 -7.497079E-06  1.669796E-05  7.976632E-08  2.800326E-09
     12516   1  2.271984E-05 -7.496623E-06 -7.497560E-06  1.735558E-05  8.745765E-08 -1.118987E-09
     12517   1  2.271988E-05 -7.497403E-06 -7.498721E-06  1.832235E-05  6.664981E-08  4.975282E-09
     12518   1  2.271984E-05 -7.500150E-06 -7.494588E-06  1.962086E-05  2.581564E-08  9.260345E-11
     12519   1 -5.395619E-10  5.647158E-10 -1.466424E-11  2.025375E-05  5.301352E-11 -2.647651E-09
     12520   1 -4.389952E-10  4.680350E-10 -4.623397E-11  1.894553E-05  1.331675E-10 -1.684547E-09
     12521   1 -3.126751E-10  3.838858E-10 -1.099946E-10  1.796708E-05  1.590051E-10 -7.424944E-09
     12522   1 -1.902581E-10  3.283795E-10 -1.800264E-10  1.729235E-05  1.483980E-10 -1.747552E-09
     12523   1 -1.076269E-10  3.002917E-10 -2.349627E-10  1.690101E-05  7.781352E-11 -4.319188E-09
     12524   1 -7.864880E-11  2.926969E-10 -2.504741E-10  1.677146E-05  1.897012E-12 -1.991403E-09
     12525   1 -1.087333E-10  3.019956E-10 -2.368909E-10  1.690002E-05 -9.297491E-11  7.234446E-10
     12526   1 -1.978604E-10  3.320809E-10 -1.755750E-10  1.729048E-05 -1.455619E-10 -1.649748E-09
     12527   1 -3.167219E-10  3.875715E-10 -1.139116E-10  1.796453E-05 -1.698688E-10  4.934966E-09
     12528   1 -4.502308E-10  4.633056E-10 -3.842726E-11  1.894249E-05 -1.301959E-10 -1.884628E-10
     12529   1 -5.416827E-10  5.448199E-10 -1.641587E-11  2.025065E-05 -5.141007E-11  2.109188E-09
     12530   1 -2.271986E-05  7.500869E-06  7.494214E-06  1.962327E-05  2.575185E-08 -4.750025E-10
     12531   1 -2.271972E-05  7.497990E-06  7.498264E-06  1.832512E-05  6.646643E-08 -6.641383E-09
     12532   1 -2.271964E-05  7.497229E-06  7.497075E-06  1.735824E-05  8.708968E-08 -1.209896E-09
     12533   1 -2.271952E-05  7.497887E-06  7.496469E-06  1.670004E-05  7.923725E-08 -6.054153E-09
     12534   1 -2.271952E-05  7.496817E-06  7.497232E-06  1.631746E-05  4.640435E-08 -1.444318E-09
     12535   1 -2.271962E-05  7.498303E-06  7.495531E-06  1.619306E-05 -4.801145E-10 -1.915827E-09
     12536   1 -2.271983E-05  7.496935E-06  7.497335E-06  1.631650E-05 -4.741003E-08 -1.999873E-09
     12537   1 -2.272014E-05  7.498110E-06  7.496710E-06  1.669824E-05 -8.005916E-08  2.799650E-09
     12538   1 -2.272045E-05  7.497542E-06  7.497320E-06  1.735588E-05 -8.780611E-08 -1.116981E-09
     12539   1 -2.272073E-05  7.498382E-06  7.498634E-06  1.832269E-05 -6.691132E-08  4.976611E-09
     12540   1 -2.272084E-05  7.501223E-06  7.494545E-06  1.962126E-05 -2.591963E-08  9.595045E-11
     12541   1 -4.543938E-05  1.499745E-05  1.499762E-05  1.772695E-05  5.843135E-08 -3.311850E-09
     12542   1 -4.543914E-05  1.499693E-05  1.499175E-05  1.645430E-05  1.613736E-07 -2.647342E-10
     12543   1 -4.543885E-05  1.499498E-05  1.499462E-05  1.553707E-05  2.066587E-07 -6.737274E-09
     12544   1 -4.543875E-05  1.499267E-05  1.499500E-05  1.492309E-05  1.864575E-07 -1.921895E-10
     12545   1 -4.543877E-05  1.499590E-05  1.499122E-05  1.457690E-05  1.097681E-07 -2.250771E-09
     12546   1 -4.543901E-05  1.499490E-05  1.499297E-05  1.446435E-05 -9.316387E-10 -1.695965E-09
     12547   1 -4.543937E-05  1.499612E-05  1.499144E-05  1.457605E-05 -1.115803E-07 -7.612168E-10
     12548   1 -4.543990E-05  1.499308E-05  1.499542E-05  1.492150E-05 -1.880489E-07 -2.654461E-09
     12549   1 -4.544038E-05  1.499552E-05  1.499514E-05  1.553491E-05 -2.079335E-07  4.733247E-09
     12550   1 -4.544082E-05  1.499735E-05  1.499238E-05  1.645173E-05 -1.621983E-07 -1.238064E-09
     12551   1 -4.544092E-05  1.499745E-05  1.499829E-05  1.772428E-05 -5.873939E-08  2.904460E-09
     12552   1 -6.815826E-05  2.250248E-05  2.248021E-05  1.452107E-05  1.262170E-07  8.176544E-10
     12553   1 -6.815832E-05  2.249232E-05  2.249519E-05  1.332011E-05  3.182753E-07 -8.252005E-09
     12554   1 -6.815807E-05  2.248828E-05  2.249290E-05  1.249486E-05  4.057816E-07  2.681804E-09
     12555   1 -6.815812E-05  2.249376E-05  2.248715E-05  1.198439E-05  3.618106E-07 -2.484236E-11
     12556   1 -6.815810E-05  2.249379E-05  2.248770E-05  1.170279E-05  2.060721E-07 -3.571445E-10
     12557   1 -6.815850E-05  2.249425E-05  2.248636E-05  1.161134E-05 -1.290294E-09 -1.345825E-09
     12558   1 -6.815893E-05  2.249407E-05  2.248802E-05  1.170211E-05 -2.084026E-07 -1.998987E-09
     12559   1 -6.815964E-05  2.249430E-05  2.248766E-05  1.198313E-05 -3.640017E-07 -2.182529E-09
     12560   1 -6.816021E-05  2.248903E-05  2.249368E-05  1.249322E-05 -4.074131E-07 -4.130034E-09
     12561   1 -6.816078E-05  2.249332E-05  2.249596E-05  1.331844E-05 -3.194255E-07  7.266607E-09
     12562   1 -6.816085E-05  2.250348E-05  2.248116E-05  1.451966E-05 -1.265752E-07 -9.527106E-10
     12563   1 -9.087813E-05  2.999289E-05  3.000024E-05  9.933612E-06  2.312800E-07 -7.534466E-09
     12564   1 -9.087803E-05  2.998570E-05  2.998883E-05  8.856964E-06  6.333755E-07  7.072788E-09
     12565   1 -9.087742E-05  2.999162E-05  2.998121E-05  8.267521E-06  7.741876E-07  4.920826E-09
     12566   1 -9.087751E-05  2.999377E-05  2.998177E-05  7.925674E-06  6.401242E-07  9.654125E-10
     12567   1 -9.087742E-05  2.999183E-05  2.998110E-05  7.737161E-06  3.572054E-07  6.143760E-10
     12568   1 -9.087793E-05  2.999491E-05  2.998110E-05  7.679449E-06 -1.494143E-09 -8.911552E-10
     12569   1 -9.087839E-05  2.999215E-05  2.998145E-05  7.736709E-06 -3.596753E-07 -2.116628E-09
     12570   1 -9.087920E-05  2.999439E-05  2.998224E-05  7.924848E-06 -6.426572E-07 -2.389997E-09
     12571   1 -9.087986E-05  2.999241E-05  2.998213E-05  8.266401E-06 -7.759020E-07 -5.775621E-09
     12572   1 -9.088048E-05  2.998635E-05  2.998957E-05  8.855680E-06 -6.346256E-07 -7.672606E-09
     12573   1 -9.088052E-05  2.999304E-05  3.000130E-05  9.932227E-06 -2.316899E-07  7.418311E-09
     12574   1 -1.135972E-04  3.750910E-05  3.745225E-05  3.648208E-06  6.236034E-07  1.162339E-08
     12575   1 -1.135975E-04  3.748785E-05  3.747171E-05  3.135204E-06  1.347923E-06  7.031035E-09
     12576   1 -1.135970E-04  3.749880E-05  3.747020E-05  2.939008E-06  1.372486E-06  1.343698E-09
     12577   1 -1.135972E-04  3.748918E-05  3.747676E-05  2.809475E-06  1.069655E-06  1.440689E-09
     12578   1 -1.135971E-04  3.749572E-05  3.747401E-05  2.747417E-06  5.768961E-07  2.285264E-11
     12579   1 -1.135976E-04  3.748977E-05  3.747751E-05  2.724568E-06 -1.464643E-09 -3.355644E-10
     12580   1 -1.135980E-04  3.749609E-05  3.747427E-05  2.747260E-06 -5.790676E-07 -5.084596E-10
     12581   1 -1.135988E-04  3.748985E-05  3.747691E-05  2.809167E-06 -1.072172E-06 -1.976323E-09
     12582   1 -1.135995E-04  3.749973E-05  3.747098E-05  2.938644E-06 -1.374008E-06 -1.549104E-09
     12583   1 -1.136001E-04  3.748903E-05  3.747211E-05  3.134809E-06 -1.349255E-06 -7.215075E-09
     12584   1 -1.136002E-04  3.751053E-05  3.745339E-05  3.647924E-06 -6.239013E-07 -1.146722E-08
     12585   1  1.090540E-04 -3.600986E-05 -3.595473E-05  3.648144E-06 -6.231990E-07  1.083470E-08
     12586   1  1.090534E-04 -3.598869E-05 -3.597241E-05  3.135075E-06 -1.347437E-06  6.793911E-09
     12587   1  1.090534E-04 -3.599877E-05 -3.597215E-05  2.938921E-06 -1.371376E-06  1.102387E-09
     12588   1  1.090535E-04 -3.598947E-05 -3.597786E-05  2.809343E-06 -1.068974E-06  1.415271E-09
     12589   1  1.090539E-04 -3.599584E-05 -3.597608E-05  2.747315E-06 -5.758337E-07 -1.836807E-10
     12590   1  1.090545E-04 -3.599022E-05 -3.597903E-05  2.724420E-06  1.801027E-09 -3.538962E-10
     12591   1  1.090552E-04 -3.599639E-05 -3.597630E-05  2.747081E-06  5.796539E-07 -7.264658E-10
     12592   1  1.090561E-04 -3.599050E-05 -3.597851E-05  2.808931E-06  1.072055E-06 -1.931106E-09
     12593   1  1.090568E-04 -3.600006E-05 -3.597284E-05  2.938344E-06  1.374100E-06 -1.683690E-09
     12594   1  1.090574E-04 -3.598981E-05 -3.597373E-05  3.134450E-06  1.348962E-06 -6.877898E-09
     12595   1  1.090575E-04 -3.601040E-05 -3.595577E-05  3.647433E-06  6.238657E-07 -1.114207E-08
     12596   1  8.724214E-05 -2.879170E-05 -2.880044E-05  9.932404E-06 -2.311444E-07 -7.142275E-09
     12597   1  8.724209E-05 -2.878541E-05 -2.878904E-05  8.856298E-06 -6.328536E-07  6.948043E-09
     12598   1  8.724216E-05 -2.879154E-05 -2.878241E-05  8.267130E-06 -7.733911E-07  4.550242E-09
     12599   1  8.724232E-05 -2.879373E-05 -2.878263E-05  7.925398E-06 -6.394335E-07  8.342566E-10
     12600   1  8.724271E-05 -2.879191E-05 -2.878261E-05  7.736855E-06 -3.563479E-07  1.898036E-10
     12601   1  8.724331E-05 -2.879495E-05 -2.878232E-05  7.679076E-06  1.962977E-09 -1.113314E-09
     12602   1  8.724407E-05 -2.879239E-05 -2.878304E-05  7.736215E-06  3.602177E-07 -2.542536E-09
     12603   1  8.724492E-05 -2.879461E-05 -2.878349E-05  7.924201E-06  6.427719E-07 -2.571369E-09
     12604   1  8.724568E-05 -2.879279E-05 -2.878355E-05  8.265593E-06  7.760805E-07 -5.963350E-09
     12605   1  8.724631E-05 -2.878705E-05 -2.879040E-05  8.854700E-06  6.345891E-07 -7.446870E-09
     12606   1  8.724652E-05 -2.879351E-05 -2.880188E-05  9.931056E-06  2.317060E-07  6.972769E-09
     12607   1  6.543178E-05 -2.160269E-05 -2.158116E-05  1.452108E-05 -1.260232E-07  5.125662E-10
     12608   1  6.543149E-05 -2.159248E-05 -2.159522E-05  1.331997E-05 -3.179056E-07 -7.998843E-09
     12609   1  6.543135E-05 -2.158829E-05 -2.159347E-05  1.249457E-05 -4.051736E-07  2.266721E-09
     12610   1  6.543149E-05 -2.159355E-05 -2.158779E-05  1.198411E-05 -3.611663E-07 -2.230023E-10
     12611   1  6.543184E-05 -2.159366E-05 -2.158877E-05  1.170247E-05 -2.054098E-07 -8.891350E-10
     12612   1  6.543236E-05 -2.159416E-05 -2.158730E-05  1.161093E-05  1.769970E-09 -1.729701E-09
     12613   1  6.543302E-05 -2.159406E-05 -2.158921E-05  1.170151E-05  2.088096E-07 -2.651981E-09
     12614   1  6.543373E-05 -2.159434E-05 -2.158859E-05  1.198232E-05  3.641799E-07 -2.578566E-09
     12615   1  6.543440E-05 -2.158932E-05 -2.159454E-05  1.249214E-05  4.075537E-07 -4.602043E-09
     12616   1  6.543484E-05 -2.159338E-05 -2.159643E-05  1.331709E-05  3.194447E-07  6.744778E-09
     12617   1  6.543497E-05 -2.160297E-05 -2.158247E-05  1.451803E-05  1.266079E-07 -1.179002E-09
     12618   1  4.362035E-05 -1.439589E-05 -1.439770E-05  1.772541E-05 -5.832544E-08 -3.173286E-09
     12619   1  4.362038E-05 -1.439583E-05 -1.439203E-05  1.645347E-05 -1.609864E-07 -1.039678E-10
     12620   1  4.362051E-05 -1.439432E-05 -1.439499E-05  1.553674E-05 -2.061490E-07 -6.770178E-09
     12621   1  4.362067E-05 -1.439222E-05 -1.439542E-05  1.492293E-05 -1.859014E-07 -4.273232E-10
     12622   1  4.362094E-05 -1.439538E-05 -1.439202E-05  1.457668E-05 -1.092780E-07 -2.836900E-09
     12623   1  4.362133E-05 -1.439447E-05 -1.439369E-05  1.446402E-05  1.314150E-09 -2.182361E-09
     12624   1  4.362181E-05 -1.439568E-05 -1.439234E-05  1.457548E-05  1.118001E-07 -1.649628E-09
     12625   1  4.362230E-05 -1.439280E-05 -1.439601E-05  1.492067E-05  1.881441E-07 -3.192201E-09
     12626   1  4.362276E-05 -1.439513E-05 -1.439577E-05  1.553377E-05  2.079371E-07  3.710575E-09
     12627   1  4.362306E-05 -1.439685E-05 -1.439293E-05  1.645037E-05  1.621783E-07 -1.521252E-09
     12628   1  4.362313E-05 -1.439682E-05 -1.439871E-05  1.772275E-05  5.872585E-08  2.475368E-09
     12629   1  2.180986E-05 -7.199950E-06 -7.194321E-06  1.962413E-05 -2.561670E-08 -7.614977E-10
     12630   1  2.180991E-05 -7.197156E-06 -7.198424E-06  1.832562E-05 -6.612853E-08 -6.490213E-09
     12631   1  2.180996E-05 -7.196408E-06 -7.197279E-06  1.735842E-05 -8.666857E-08 -1.580782E-09
     12632   1  2.181015E-05 -7.197108E-06 -7.196973E-06  1.670019E-05 -7.876275E-08 -6.095609E-09
     12633   1  2.181034E-05 -7.196148E-06 -7.197734E-06  1.631755E-05 -4.608550E-08 -2.129665E-09
     12634   1  2.181057E-05 -7.197614E-06 -7.196242E-06  1.619302E-05  7.054191E-10 -2.469858E-09
     12635   1  2.181080E-05 -7.196313E-06 -7.197909E-06  1.631620E-05  4.740110E-08 -2.949568E-09
     12636   1  2.181100E-05 -7.197425E-06 -7.197261E-06  1.669766E-05  7.997219E-08  1.941186E-09
     12637   1  2.181114E-05 -7.196821E-06 -7.197709E-06  1.735497E-05  8.760310E-08 -2.023185E-09
     12638   1  2.181119E-05 -7.197499E-06 -7.198865E-06  1.832149E-05  6.676720E-08  4.358704E-09
     12639   1  2.181111E-05 -7.200020E-06 -7.194890E-06  1.961984E-05  2.585466E-08 -2.857793E-10
     12640   1 -8.629626E-10  7.714609E-10  3.375856E-11  2.025293E-05  6.856880E-11 -2.569606E-09
     12641   1 -7.119292E-10  7.060528E-10 -2.403492E-11  1.894534E-05  1.861784E-10 -1.475894E-09
     12642   1 -5.240960E-10  6.622193E-10 -1.234163E-10  1.796741E-05  2.427680E-10 -7.471140E-09
     12643   1 -3.546368E-10  6.254584E-10 -2.270635E-10  1.729282E-05  2.030372E-10 -1.966991E-09
     12644   1 -2.341707E-10  5.987457E-10 -2.986632E-10  1.690141E-05  1.249727E-10 -4.907067E-09
     12645   1 -1.924859E-10  5.892906E-10 -3.314634E-10  1.677171E-05 -1.124184E-11 -2.570401E-09
     12646   1 -2.399035E-10  6.014760E-10 -2.954122E-10  1.690001E-05 -1.220343E-10 -3.695690E-10
     12647   1 -3.588953E-10  6.298905E-10 -2.311823E-10  1.729019E-05 -2.230552E-10 -2.375470E-09
     12648   1 -5.389429E-10  6.688599E-10 -1.145903E-10  1.796392E-05 -2.423148E-10  3.745158E-09
     12649   1 -7.215988E-10  7.233528E-10 -2.910092E-11  1.894170E-05 -2.008531E-10 -6.135969E-10
     12650   1 -8.875635E-10  8.068760E-10  4.401074E-11  2.024983E-05 -7.571501E-11  1.652141E-09
     12651   1 -2.181143E-05  7.201426E-06  7.194348E-06  1.962469E-05  2.578880E-08 -7.553534E-10
     12652   1 -2.181116E-05  7.198358E-06  7.198372E-06  1.832610E-05  6.652367E-08 -6.481366E-09
     12653   1 -2.181079E-05  7.197382E-06  7.196995E-06  1.735886E-05  8.717126E-08 -1.573342E-09
     12654   1 -2.181062E-05  7.197932E-06  7.196509E-06  1.670059E-05  7.917596E-08 -6.084564E-09
     12655   1 -2.181056E-05  7.196896E-06  7.197100E-06  1.631794E-05  4.634701E-08 -2.121981E-09
     12656   1 -2.181071E-05  7.198340E-06  7.195561E-06  1.619341E-05 -7.319375E-10 -2.464328E-09
     12657   1 -2.181103E-05  7.197064E-06  7.197286E-06  1.631660E-05 -4.764326E-08 -2.949965E-09
     12658   1 -2.181147E-05  7.198258E-06  7.196778E-06  1.669808E-05 -8.043162E-08  1.940369E-09
     12659   1 -2.181200E-05  7.197803E-06  7.197457E-06  1.735541E-05 -8.809370E-08 -2.026668E-09
     12660   1 -2.181244E-05  7.198690E-06  7.198787E-06  1.832197E-05 -6.718113E-08  4.360060E-09
     12661   1 -2.181271E-05  7.201445E-06  7.194959E-06  1.962040E-05 -2.601103E-08 -2.879708E-10
     12662   1 -4.362153E-05  1.439701E-05  1.439772E-05  1.772638E-05  5.847806E-08 -3.189242E-09
     12663   1 -4.362128E-05  1.439687E-05  1.439190E-05  1.645429E-05  1.613988E-07 -9.667674E-11
     12664   1 -4.362108E-05  1.439529E-05  1.439469E-05  1.553748E-05  2.066783E-07 -6.760772E-09
     12665   1 -4.362088E-05  1.439314E-05  1.439485E-05  1.492363E-05  1.863543E-07 -4.023217E-10
     12666   1 -4.362094E-05  1.439625E-05  1.439135E-05  1.457736E-05  1.095494E-07 -2.828032E-09
     12667   1 -4.362121E-05  1.439533E-05  1.439289E-05  1.446470E-05 -1.323226E-09 -2.166525E-09
     12668   1 -4.362181E-05  1.439656E-05  1.439167E-05  1.457616E-05 -1.120692E-07 -1.657518E-09
     12669   1 -4.362251E-05  1.439372E-05  1.439542E-05  1.492138E-05 -1.886140E-07 -3.189328E-09
     12670   1 -4.362335E-05  1.439612E-05  1.439549E-05  1.553452E-05 -2.084681E-07  3.698500E-09
     12671   1 -4.362397E-05  1.439792E-05  1.439277E-05  1.645121E-05 -1.626072E-07 -1.514664E-09
     12672   1 -4.362436E-05  1.439801E-05  1.439876E-05  1.772374E-05 -5.889064E-08  2.471674E-09
     12673   1 -6.543250E-05  2.160343E-05  2.158130E-05  1.452223E-05  1.262165E-07  5.250074E-10
     12674   1 -6.543175E-05  2.159303E-05  2.159483E-05  1.332094E-05  3.184024E-07 -7.976770E-09
     12675   1 -6.543141E-05  2.158865E-05  2.159325E-05  1.249542E-05  4.057411E-07  2.278004E-09
     12676   1 -6.543101E-05  2.159379E-05  2.158696E-05  1.198491E-05  3.617253E-07 -1.868869E-10
     12677   1 -6.543124E-05  2.159383E-05  2.158812E-05  1.170324E-05  2.056619E-07 -8.811413E-10
     12678   1 -6.543155E-05  2.159432E-05  2.158626E-05  1.161171E-05 -1.712109E-09 -1.707675E-09
     12679   1 -6.543241E-05  2.159424E-05  2.158852E-05  1.170229E-05 -2.091651E-07 -2.666246E-09
     12680   1 -6.543329E-05  2.159458E-05  2.158781E-05  1.198313E-05 -3.646425E-07 -2.575470E-09
     12681   1 -6.543440E-05  2.158968E-05  2.159424E-05  1.249301E-05 -4.081932E-07 -4.620646E-09
     12682   1 -6.543515E-05  2.159390E-05  2.159612E-05  1.331807E-05 -3.198901E-07  6.754555E-09
     12683   1 -6.543563E-05  2.160364E-05  2.158253E-05  1.451920E-05 -1.268086E-07 -1.185133E-09
     12684   1 -8.724238E-05  2.879193E-05  2.880072E-05  9.933373E-06  2.313443E-07 -7.162090E-09
     12685   1 -8.724181E-05  2.878567E-05  2.878839E-05  8.857065E-06  6.334625E-07  6.946440E-09
     12686   1 -8.724189E-05  2.879183E-05  2.878225E-05  8.267797E-06  7.740342E-07  4.572162E-09
     12687   1 -8.724141E-05  2.879400E-05  2.878150E-05  7.926039E-06  6.401345E-07  8.600171E-10
     12688   1 -8.724179E-05  2.879215E-05  2.878194E-05  7.737470E-06  3.565947E-07  2.067126E-10
     12689   1 -8.724209E-05  2.879517E-05  2.878100E-05  7.679699E-06 -1.835455E-09 -1.101577E-09
     12690   1 -8.724309E-05  2.879262E-05  2.878230E-05  7.736838E-06 -3.606788E-07 -2.551559E-09
     12691   1 -8.724407E-05  2.879488E-05  2.878249E-05  7.924849E-06 -6.432575E-07 -2.577681E-09
     12692   1 -8.724529E-05  2.879308E-05  2.878321E-05  8.266281E-06 -7.768755E-07 -5.982079E-09
     12693   1 -8.724614E-05  2.878734E-05  2.878995E-05  8.855487E-06 -6.350941E-07 -7.444024E-09
     12694   1 -8.724667E-05  2.879382E-05  2.880195E-05  9.932055E-06 -2.319470E-07  6.972890E-09
     12695   1 -1.090540E-04  3.600992E-05  3.595503E-05  3.648566E-06  6.235151E-07  1.087413E-08
     12696   1 -1.090528E-04  3.598864E-05  3.597164E-05  3.135370E-06  1.348262E-06  6.790376E-09
     12697   1 -1.090527E-04  3.599858E-05  3.597191E-05  2.939190E-06  1.372195E-06  1.131005E-09
     12698   1 -1.090520E-04  3.598917E-05  3.597652E-05  2.809593E-06  1.069820E-06  1.412330E-09
     12699   1 -1.090524E-04  3.599550E-05  3.597527E-05  2.747558E-06  5.761331E-07 -1.629674E-10
     12700   1 -1.090527E-04  3.598985E-05  3.597748E-05  2.724668E-06 -1.648511E-09 -3.610826E-10
     12701   1 -1.090537E-04  3.599604E-05  3.597540E-05  2.747325E-06 -5.801999E-07 -7.207096E-10
     12702   1 -1.090547E-04  3.599020E-05  3.597731E-05  2.809189E-06 -1.072644E-06 -1.943021E-09
     12703   1 -1.090559E-04  3.599985E-05  3.597240E-05  2.938613E-06 -1.375089E-06 -1.686665E-09
     12704   1 -1.090568E-04  3.598972E-05  3.597319E-05  3.134755E-06 -1.349655E-06 -6.882091E-09
     12705   1 -1.090573E-04  3.601034E-05  3.595584E-05  3.647849E-06 -6.242199E-07 -1.114213E-08
     12706   1  1.045086E-04 -3.450761E-05 -3.445615E-05  3.647833E-06 -6.232898E-07  1.088432E-08
     12707   1  1.045087E-04 -3.448816E-05 -3.447365E-05  3.135048E-06 -1.346977E-06  6.428906E-09
     12708   1  1.045086E-04 -3.449828E-05 -3.447297E-05  2.938927E-06 -1.371231E-06  1.247845E-09
     12709   1  1.045089E-04 -3.448945E-05 -3.447874E-05  2.809446E-06 -1.068221E-06  1.117825E-09
     12710   1  1.045094E-04 -3.449557E-05 -3.447696E-05  2.747358E-06 -5.753691E-07 -1.514705E-10
     12711   1  1.045103E-04 -3.449029E-05 -3.447984E-05  2.724463E-06  2.822332E-09 -6.608390E-10
     12712   1  1.045114E-04 -3.449636E-05 -3.447744E-05  2.747046E-06  5.803581E-07 -7.515727E-10
     12713   1  1.045126E-04 -3.449090E-05 -3.447945E-05  2.808835E-06  1.073086E-06 -2.190021E-09
     12714   1  1.045139E-04 -3.450029E-05 -3.447446E-05  2.938175E-06  1.374743E-06 -1.625878E-09
     12715   1  1.045148E-04 -3.449070E-05 -3.447511E-05  3.134220E-06  1.349579E-06 -6.815704E-09
     12716   1  1.045154E-04 -3.451063E-05 -3.445844E-05  3.647172E-06  6.240054E-07 -1.052710E-08
     12717   1  8.360743E-05 -2.759342E-05 -2.760037E-05  9.933058E-06 -2.310326E-07 -6.986986E-09
     12718   1  8.360680E-05 -2.758657E-05 -2.758925E-05  8.856668E-06 -6.327763E-07  6.362060E-09
     12719   1  8.360647E-05 -2.759192E-05 -2.758291E-05  8.267376E-06 -7.731435E-07  4.351515E-09
     12720   1  8.360662E-05 -2.759397E-05 -2.758307E-05  7.925607E-06 -6.389240E-07  4.271816E-10
     12721   1  8.360713E-05 -2.759230E-05 -2.758314E-05  7.737055E-06 -3.557530E-07 -3.011186E-11
     12722   1  8.360797E-05 -2.759532E-05 -2.758288E-05  7.679183E-06  2.830977E-09 -1.700573E-09
     12723   1  8.360911E-05 -2.759299E-05 -2.758379E-05  7.736165E-06  3.610841E-07 -2.847596E-09
     12724   1  8.361035E-05 -2.759528E-05 -2.758427E-05  7.923959E-06  6.437430E-07 -3.166729E-09
     12725   1  8.361160E-05 -2.759364E-05 -2.758463E-05  8.265136E-06  7.768766E-07 -6.020215E-09
     12726   1  8.361249E-05 -2.758814E-05 -2.759122E-05  8.854057E-06  6.351909E-07 -7.565815E-09
     12727   1  8.361294E-05 -2.759419E-05 -2.760247E-05  9.930212E-06  2.319370E-07  6.718799E-09
     12728   1  6.270423E-05 -2.070111E-05 -2.068172E-05  1.452006E-05 -1.260703E-07  8.712219E-10
     12729   1  6.270419E-05 -2.069190E-05 -2.069523E-05  1.331966E-05 -3.177733E-07 -7.684195E-09
     12730   1  6.270425E-05 -2.068830E-05 -2.069346E-05  1.249477E-05 -4.049501E-07  2.189529E-09
     12731   1  6.270442E-05 -2.069339E-05 -2.068804E-05  1.198445E-05 -3.607940E-07 -6.942029E-10
     12732   1  6.270484E-05 -2.069350E-05 -2.068898E-05  1.170279E-05 -2.048553E-07 -1.256568E-09
     12733   1  6.270558E-05 -2.069406E-05 -2.068769E-05  1.161109E-05  2.468227E-09 -2.540940E-09
     12734   1  6.270653E-05 -2.069408E-05 -2.068959E-05  1.170145E-05  2.096133E-07 -3.236195E-09
     12735   1  6.270762E-05 -2.069449E-05 -2.068919E-05  1.198193E-05  3.650007E-07 -3.498937E-09
     12736   1  6.270866E-05 -2.068986E-05 -2.069498E-05  1.249146E-05  4.082973E-07 -4.991208E-09
     12737   1  6.270951E-05 -2.069393E-05 -2.069699E-05  1.331616E-05  3.199953E-07  5.788775E-09
     12738   1  6.270983E-05 -2.070316E-05 -2.068368E-05  1.451699E-05  1.268006E-07 -1.121076E-09
     12739   1  4.180275E-05 -1.379670E-05 -1.379762E-05  1.772677E-05 -5.825859E-08 -3.113932E-09
     12740   1  4.180256E-05 -1.379625E-05 -1.379222E-05  1.645433E-05 -1.609296E-07 -5.230303E-10
     12741   1  4.180246E-05 -1.379452E-05 -1.379496E-05  1.553727E-05 -2.059849E-07 -6.586287E-09
     12742   1  4.180262E-05 -1.379250E-05 -1.379543E-05  1.492340E-05 -1.856157E-07 -1.023795E-09
     12743   1  4.180299E-05 -1.379559E-05 -1.379214E-05  1.457714E-05 -1.088697E-07 -3.218181E-09
     12744   1  4.180353E-05 -1.379478E-05 -1.379386E-05  1.446429E-05  1.819758E-09 -3.194236E-09
     12745   1  4.180421E-05 -1.379602E-05 -1.379258E-05  1.457548E-05  1.123845E-07 -2.460888E-09
     12746   1  4.180496E-05 -1.379334E-05 -1.379626E-05  1.492028E-05  1.887327E-07 -4.361677E-09
     12747   1  4.180564E-05 -1.379563E-05 -1.379607E-05  1.553300E-05  2.084721E-07  2.774389E-09
     12748   1  4.180614E-05 -1.379722E-05 -1.379351E-05  1.644920E-05  1.625643E-07 -2.370753E-09
     12749   1  4.180622E-05 -1.379700E-05 -1.379907E-05  1.772135E-05  5.887680E-08  2.305357E-09
     12750   1  2.090037E-05 -6.899224E-06 -6.894516E-06  1.962291E-05 -2.562265E-08 -3.538118E-10
     12751   1  2.090047E-05 -6.896730E-06 -6.898276E-06  1.832527E-05 -6.606022E-08 -6.316632E-09
     12752   1  2.090071E-05 -6.896146E-06 -6.897354E-06  1.735881E-05 -8.651770E-08 -1.523576E-09
     12753   1  2.090090E-05 -6.896824E-06 -6.896933E-06  1.670075E-05 -7.860614E-08 -6.520639E-09
     12754   1  2.090118E-05 -6.895909E-06 -6.897810E-06  1.631808E-05 -4.582745E-08 -2.610506E-09
     12755   1  2.090148E-05 -6.897344E-06 -6.896318E-06  1.619333E-05  9.445074E-10 -3.601014E-09
     12756   1  2.090181E-05 -6.896140E-06 -6.898030E-06  1.631621E-05  4.771181E-08 -3.831421E-09
     12757   1  2.090213E-05 -6.897264E-06 -6.897390E-06  1.669722E-05  8.022478E-08  3.737632E-10
     12758   1  2.090238E-05 -6.896760E-06 -6.897892E-06  1.735411E-05  8.786316E-08 -2.863580E-09
     12759   1  2.090252E-05 -6.897483E-06 -6.898997E-06  1.832030E-05  6.692766E-08  3.134681E-09
     12760   1  2.090246E-05 -6.899884E-06 -6.895252E-06  1.961856E-05  2.592018E-08 -3.422517E-10
     12761   1 -1.303407E-09  1.057252E-09  1.148078E-10  2.025467E-05  1.197883E-10 -2.493119E-09
     12762   1 -1.011259E-09  8.541563E-10  2.150691E-11  1.894652E-05  2.864434E-10 -1.879600E-09
     12763   1 -7.066468E-10  6.949080E-10 -1.214499E-10  1.796816E-05  3.290390E-10 -7.282864E-09
     12764   1 -4.410725E-10  5.932166E-10 -2.599294E-10  1.729350E-05  2.959744E-10 -2.581510E-09
     12765   1 -2.677765E-10  5.410284E-10 -3.652070E-10  1.690207E-05  1.532656E-10 -5.296115E-09
     12766   1 -2.091805E-10  5.266036E-10 -3.924145E-10  1.677216E-05  7.768657E-13 -3.733541E-09
     12767   1 -2.707729E-10  5.435048E-10 -3.679146E-10  1.690015E-05 -1.846246E-10 -1.408166E-09
     12768   1 -4.560525E-10  5.984631E-10 -2.507401E-10  1.728987E-05 -2.955584E-10 -3.813723E-09
     12769   1 -7.179076E-10  7.015984E-10 -1.262215E-10  1.796317E-05 -3.521465E-10  2.613196E-09
     12770   1 -1.036962E-09  8.492067E-10  3.929275E-11  1.894049E-05 -2.821182E-10 -1.695488E-09
     12771   1 -1.310596E-09  1.024908E-09  1.149422E-10  2.024839E-05 -1.144142E-10  1.479157E-09
     12772   1 -2.090278E-05  6.901140E-06  6.894750E-06  1.962365E-05  2.581891E-08 -3.573079E-10
     12773   1 -2.090236E-05  6.898453E-06  6.898269E-06  1.832591E-05  6.662286E-08 -6.309816E-09
     12774   1 -2.090206E-05  6.897737E-06  6.897104E-06  1.735939E-05  8.718316E-08 -1.504045E-09
     12775   1 -2.090173E-05  6.898311E-06  6.896357E-06  1.670131E-05  7.921705E-08 -6.503298E-09
     12776   1 -2.090168E-05  6.897323E-06  6.897059E-06  1.631863E-05  4.613509E-08 -2.595229E-09
     12777   1 -2.090186E-05  6.898731E-06  6.895483E-06  1.619387E-05 -9.317985E-10 -3.594837E-09
     12778   1 -2.090232E-05  6.897559E-06  6.897265E-06  1.631676E-05 -4.809424E-08 -3.830935E-09
     12779   1 -2.090299E-05  6.898760E-06  6.896847E-06  1.669778E-05 -8.081692E-08  3.657125E-10
     12780   1 -2.090373E-05  6.898365E-06  6.897608E-06  1.735471E-05 -8.858548E-08 -2.870321E-09
     12781   1 -2.090447E-05  6.899243E-06  6.899043E-06  1.832096E-05 -6.749462E-08  3.125471E-09
     12782   1 -2.090491E-05  6.901885E-06  6.895452E-06  1.961933E-05 -2.615244E-08 -3.410944E-10
     12783   1 -4.180459E-05  1.379829E-05  1.379773E-05  1.772812E-05  5.851553E-08 -3.079689E-09
     12784   1 -4.180389E-05  1.379748E-05  1.379216E-05  1.645548E-05  1.615518E-07 -5.000700E-10
     12785   1 -4.180316E-05  1.379545E-05  1.379457E-05  1.553832E-05  2.067084E-07 -6.546509E-09
     12786   1 -4.180282E-05  1.379324E-05  1.379479E-05  1.492438E-05  1.862608E-07 -9.991675E-10
     12787   1 -4.180280E-05  1.379623E-05  1.379123E-05  1.457812E-05  1.092181E-07 -3.182498E-09
     12788   1 -4.180326E-05  1.379540E-05  1.379295E-05  1.446525E-05 -1.817027E-09 -3.192404E-09
     12789   1 -4.180402E-05  1.379667E-05  1.379167E-05  1.457646E-05 -1.127634E-07 -2.451765E-09
     12790   1 -4.180518E-05  1.379409E-05  1.379565E-05  1.492128E-05 -1.893754E-07 -4.384917E-09
     12791   1 -4.180635E-05  1.379657E-05  1.379566E-05  1.553406E-05 -2.092186E-07  2.770435E-09
     12792   1 -4.180749E-05  1.379843E-05  1.379349E-05  1.645037E-05 -1.631787E-07 -2.391070E-09
     12793   1 -4.180805E-05  1.379851E-05  1.379915E-05  1.772271E-05 -5.912152E-08  2.309127E-09
     12794   1 -6.270513E-05  2.070204E-05  2.068147E-05  1.452166E-05  1.263284E-07  8.575472E-10
     12795   1 -6.270492E-05  2.069275E-05  2.069529E-05  1.332097E-05  3.184225E-07 -7.684288E-09
     12796   1 -6.270423E-05  2.068907E-05  2.069271E-05  1.249597E-05  4.058047E-07  2.241675E-09
     12797   1 -6.270410E-05  2.069410E-05  2.068746E-05  1.198557E-05  3.614535E-07 -6.686536E-10
     12798   1 -6.270400E-05  2.069414E-05  2.068772E-05  1.170390E-05  2.053288E-07 -1.206845E-09
     12799   1 -6.270476E-05  2.069468E-05  2.068676E-05  1.161219E-05 -2.541192E-09 -2.544475E-09
     12800   1 -6.270571E-05  2.069472E-05  2.068837E-05  1.170257E-05 -2.099356E-07 -3.222248E-09
     12801   1 -6.270725E-05  2.069519E-05  2.068852E-05  1.198308E-05 -3.657858E-07 -3.533946E-09
     12802   1 -6.270871E-05  2.069064E-05  2.069433E-05  1.249268E-05 -4.090525E-07 -4.995582E-09
     12803   1 -6.271018E-05  2.069481E-05  2.069692E-05  1.331752E-05 -3.207175E-07  5.764266E-09
     12804   1 -6.271083E-05  2.070419E-05  2.068355E-05  1.451861E-05 -1.270526E-07 -1.110498E-09
     12805   1 -8.360738E-05  2.759385E-05  2.759973E-05  9.934480E-06  2.313800E-07 -6.953240E-09
     12806   1 -8.360681E-05  2.758677E-05  2.758941E-05  8.857781E-06  6.335416E-07  6.396720E-09
     12807   1 -8.360545E-05  2.759188E-05  2.758175E-05  8.268373E-06  7.742159E-07  4.389817E-09
     12808   1 -8.360541E-05  2.759377E-05  2.758247E-05  7.926540E-06  6.396356E-07  4.657878E-10
     12809   1 -8.360522E-05  2.759202E-05  2.758148E-05  7.737986E-06  3.563788E-07  1.955974E-12
     12810   1 -8.360618E-05  2.759500E-05  2.758187E-05  7.680101E-06 -2.983050E-09 -1.693895E-09
     12811   1 -8.360725E-05  2.759270E-05  2.758222E-05  7.737102E-06 -3.613684E-07 -2.845708E-09
     12812   1 -8.360901E-05  2.759507E-05  2.758348E-05  7.924912E-06 -6.447154E-07 -3.194272E-09
     12813   1 -8.361069E-05  2.759359E-05  2.758371E-05  8.266147E-06 -7.777117E-07 -6.032932E-09
     12814   1 -8.361229E-05  2.758829E-05  2.759107E-05  8.855188E-06 -6.360868E-07 -7.584387E-09
     12815   1 -8.361298E-05  2.759451E-05  2.760212E-05  9.931637E-06 -2.322205E-07  6.723480E-09
     12816   1 -1.045080E-04  3.450752E-05  3.445538E-05  3.648403E-06  6.237732E-07  1.082005E-08
     12817   1 -1.045082E-04  3.448813E-05  3.447371E-05  3.135476E-06  1.348011E-06  6.452188E-09
     12818   1 -1.045071E-04  3.449828E-05  3.447155E-05  2.939313E-06  1.372547E-06  1.237795E-09
     12819   1 -1.045073E-04  3.448941E-05  3.447795E-05  2.809809E-06  1.069091E-06  1.157929E-09
     12820   1 -1.045070E-04  3.449547E-05  3.447497E-05  2.747725E-06  5.761087E-07 -1.575280E-10
     12821   1 -1.045080E-04  3.449016E-05  3.447860E-05  2.724817E-06 -2.994888E-09 -6.409839E-10
     12822   1 -1.045091E-04  3.449625E-05  3.447556E-05  2.747418E-06 -5.806900E-07 -7.657556E-10
     12823   1 -1.045108E-04  3.449084E-05  3.447844E-05  2.809201E-06 -1.074249E-06 -2.192431E-09
     12824   1 -1.045126E-04  3.450027E-05  3.447330E-05  2.938577E-06 -1.375780E-06 -1.642028E-09
     12825   1 -1.045141E-04  3.449071E-05  3.447483E-05  3.134656E-06 -1.350767E-06 -6.821153E-09
     12826   1 -1.045149E-04  3.451064E-05  3.445798E-05  3.647769E-06 -6.244283E-07 -1.052362E-08
     12827   1  9.996567E-05 -3.300945E-05 -3.295836E-05  3.648163E-06 -6.229845E-07  9.709653E-09
     12828   1  9.996443E-05 -3.298946E-05 -3.297424E-05  3.135153E-06 -1.347065E-06  6.262491E-09
     12829   1  9.996408E-05 -3.299838E-05 -3.297415E-05  2.939089E-06 -1.370478E-06  8.499076E-10
     12830   1  9.996419E-05 -3.298981E-05 -3.297936E-05  2.809525E-06 -1.067828E-06  1.207624E-09
     12831   1  9.996492E-05 -3.299578E-05 -3.297787E-05  2.747505E-06 -5.741442E-07 -5.226933E-10
     12832   1  9.996621E-05 -3.299087E-05 -3.298076E-05  2.724519E-06  3.670718E-09 -6.553814E-10
     12833   1  9.996776E-05 -3.299690E-05 -3.297841E-05  2.747054E-06  5.818314E-07 -1.196984E-09
     12834   1  9.996978E-05 -3.299194E-05 -3.298080E-05  2.808728E-06  1.074124E-06 -2.167350E-09
     12835   1  9.997150E-05 -3.300112E-05 -3.297582E-05  2.937960E-06  1.375988E-06 -1.973652E-09
     12836   1  9.997318E-05 -3.299202E-05 -3.297717E-05  3.133915E-06  1.350224E-06 -6.433245E-09
     12837   1  9.997385E-05 -3.301097E-05 -3.296088E-05  3.646727E-06  6.243440E-07 -1.033615E-08
     12838   1  7.997062E-05 -2.639140E-05 -2.640003E-05  9.932033E-06 -2.311308E-07 -6.448791E-09
     12839   1  7.997037E-05 -2.638587E-05 -2.638950E-05  8.856424E-06 -6.325860E-07  6.480333E-09
     12840   1  7.997028E-05 -2.639162E-05 -2.638327E-05  8.267561E-06 -7.727811E-07  3.935516E-09
     12841   1  7.997040E-05 -2.639363E-05 -2.638348E-05  7.925968E-06 -6.384037E-07  3.574049E-10
     12842   1  7.997103E-05 -2.639206E-05 -2.638351E-05  7.737380E-06 -3.548245E-07 -6.968699E-10
     12843   1  7.997221E-05 -2.639505E-05 -2.638350E-05  7.679392E-06  3.863436E-09 -2.064331E-09
     12844   1  7.997381E-05 -2.639302E-05 -2.638441E-05  7.736155E-06  3.624140E-07 -3.706161E-09
     12845   1  7.997575E-05 -2.639545E-05 -2.638526E-05  7.923657E-06  6.449997E-07 -3.604824E-09
     12846   1  7.997762E-05 -2.639419E-05 -2.638567E-05  8.264538E-06  7.780953E-07 -6.631865E-09
     12847   1  7.997930E-05 -2.638928E-05 -2.639238E-05  8.853196E-06  6.360512E-07 -7.434833E-09
     12848   1  7.998016E-05 -2.639527E-05 -2.640319E-05  9.929192E-06  2.322573E-07  6.115346E-09
     12849   1  5.997829E-05 -1.980256E-05 -1.978240E-05  1.452139E-05 -1.259713E-07  3.044373E-10
     12850   1  5.997760E-05 -1.979286E-05 -1.979511E-05  1.332048E-05 -3.177646E-07 -7.400649E-09
     12851   1  5.997716E-05 -1.978880E-05 -1.979340E-05  1.249530E-05 -4.047249E-07  1.684074E-09
     12852   1  5.997723E-05 -1.979361E-05 -1.978814E-05  1.198501E-05 -3.603233E-07 -8.659921E-10
     12853   1  5.997779E-05 -1.979379E-05 -1.978913E-05  1.170331E-05 -2.041451E-07 -2.095508E-09
     12854   1  5.997878E-05 -1.979443E-05 -1.978795E-05  1.161148E-05  3.415481E-09 -3.188237E-09
     12855   1  5.998018E-05 -1.979461E-05 -1.978999E-05  1.170148E-05  2.107164E-07 -4.487690E-09
     12856   1  5.998178E-05 -1.979520E-05 -1.978975E-05  1.198157E-05  3.661593E-07 -4.321008E-09
     12857   1  5.998340E-05 -1.979092E-05 -1.979558E-05  1.249060E-05  4.093589E-07 -6.080599E-09
     12858   1  5.998466E-05 -1.979482E-05 -1.979762E-05  1.331485E-05  3.207743E-07  5.036225E-09
     12859   1  5.998528E-05 -1.980343E-05 -1.978518E-05  1.451529E-05  1.271204E-07 -1.616582E-09
     12860   1  3.998396E-05 -1.319539E-05 -1.319755E-05  1.772511E-05 -5.832109E-08 -2.874396E-09
     12861   1  3.998395E-05 -1.319550E-05 -1.319225E-05  1.645386E-05 -1.608505E-07 -3.287670E-11
     12862   1  3.998405E-05 -1.319422E-05 -1.319492E-05  1.553769E-05 -2.058046E-07 -6.677268E-09
     12863   1  3.998421E-05 -1.319232E-05 -1.319526E-05  1.492413E-05 -1.852821E-07 -1.220039E-09
     12864   1  3.998464E-05 -1.319527E-05 -1.319223E-05  1.457780E-05 -1.083524E-07 -4.201517E-09
     12865   1  3.998538E-05 -1.319457E-05 -1.319387E-05  1.446477E-05  2.508185E-09 -3.998957E-09
     12866   1  3.998636E-05 -1.319587E-05 -1.319286E-05  1.457551E-05  1.131780E-07 -4.101550E-09
     12867   1  3.998748E-05 -1.319347E-05 -1.319643E-05  1.491980E-05  1.895750E-07 -5.441209E-09
     12868   1  3.998859E-05 -1.319585E-05 -1.319648E-05  1.553190E-05  2.092423E-07  9.483439E-10
     12869   1  3.998945E-05 -1.319756E-05 -1.319408E-05  1.644767E-05  1.631431E-07 -2.977536E-09
     12870   1  3.998981E-05 -1.319737E-05 -1.319965E-05  1.771958E-05  5.909243E-08  1.543861E-09
     12871   1  1.999126E-05 -6.599569E-06 -6.594446E-06  1.962490E-05 -2.555632E-08 -8.895698E-10
     12872   1  1.999139E-05 -6.596991E-06 -6.598292E-06  1.832660E-05 -6.597634E-08 -6.060284E-09
     12873   1  1.999144E-05 -6.596288E-06 -6.597172E-06  1.735964E-05 -8.641363E-08 -2.018278E-09
     12874   1  1.999171E-05 -6.596962E-06 -6.596985E-06  1.670164E-05 -7.835600E-08 -6.513236E-09
     12875   1  1.999203E-05 -6.596134E-06 -6.597686E-06  1.631893E-05 -4.557697E-08 -3.739761E-09
     12876   1  1.999247E-05 -6.597549E-06 -6.596439E-06  1.619398E-05  1.340948E-09 -4.512041E-09
     12877   1  1.999293E-05 -6.596458E-06 -6.598030E-06  1.631637E-05  4.806998E-08 -5.629061E-09
     12878   1  1.999341E-05 -6.597591E-06 -6.597550E-06  1.669681E-05  8.066104E-08 -1.098335E-09
     12879   1  1.999381E-05 -6.597121E-06 -6.598033E-06  1.735300E-05  8.819287E-08 -4.688626E-09
     12880   1  1.999402E-05 -6.597724E-06 -6.599179E-06  1.831856E-05  6.720279E-08  2.120133E-09
     12881   1  1.999394E-05 -6.599835E-06 -6.595615E-06  1.961640E-05  2.601507E-08 -1.123832E-09
     12882   1 -1.857129E-09  1.287658E-09  2.641480E-10  2.025298E-05  1.326503E-10 -2.351278E-09
     12883   1 -1.462706E-09  1.138809E-09  1.169085E-10  1.894608E-05  3.584240E-10 -1.307091E-09
     12884   1 -1.048637E-09  1.040354E-09 -8.118543E-11  1.796878E-05  4.506924E-10 -7.388380E-09
     12885   1 -7.044170E-10  9.663483E-10 -2.712419E-10  1.729447E-05  3.661372E-10 -2.761579E-09
     12886   1 -4.767888E-10  9.179335E-10 -3.908459E-10  1.690297E-05  2.189813E-10 -6.340490E-09
     12887   1 -3.993647E-10  9.011653E-10 -4.476125E-10  1.677284E-05 -2.277639E-11 -4.690977E-09
     12888   1 -4.874828E-10  9.212678E-10 -3.841686E-10  1.690032E-05 -2.212065E-10 -3.377652E-09
     12889   1 -7.142608E-10  9.715622E-10 -2.759089E-10  1.728944E-05 -4.070745E-10 -5.192528E-09
     12890   1 -1.075480E-09  1.045167E-09 -6.247886E-11  1.796202E-05 -4.556106E-10  4.586275E-10
     12891   1 -1.481483E-09  1.156241E-09  1.115583E-10  1.893886E-05 -3.912636E-10 -2.538391E-09
     12892   1 -1.908319E-09  1.336276E-09  2.889425E-10  2.024654E-05 -1.525684E-10  6.155256E-10
     12893   1 -1.999472E-05  6.602064E-06  6.594879E-06  1.962587E-05  2.590784E-08 -8.644021E-10
     12894   1 -1.999400E-05  6.598939E-06  6.598506E-06  1.832744E-05  6.674399E-08 -6.022474E-09
     12895   1 -1.999313E-05  6.597823E-06  6.596923E-06  1.736042E-05  8.734756E-08 -1.985539E-09
     12896   1 -1.999272E-05  6.598239E-06  6.596423E-06  1.670238E-05  7.909613E-08 -6.480314E-09
     12897   1 -1.999255E-05  6.597278E-06  6.596830E-06  1.631967E-05  4.603861E-08 -3.717721E-09
     12898   1 -1.999283E-05  6.598656E-06  6.595512E-06  1.619472E-05 -1.396751E-09 -4.500671E-09
     12899   1 -1.999348E-05  6.597606E-06  6.597198E-06  1.631711E-05 -4.850339E-08 -5.633502E-09
     12900   1 -1.999441E-05  6.598877E-06  6.596954E-06  1.669758E-05 -8.149887E-08 -1.110223E-09
     12901   1 -1.999558E-05  6.598668E-06  6.597854E-06  1.735379E-05 -8.911074E-08 -4.711237E-09
     12902   1 -1.999664E-05  6.599655E-06  6.599353E-06  1.831942E-05 -6.800773E-08  2.105247E-09
     12903   1 -1.999746E-05  6.602235E-06  6.596141E-06  1.961737E-05 -2.632920E-08 -1.136786E-09
     12904   1 -3.998668E-05  1.319732E-05  1.319790E-05  1.772684E-05  5.861960E-08 -2.897779E-09
     12905   1 -3.998591E-05  1.319719E-05  1.319229E-05  1.645534E-05  1.616398E-07  9.913565E-12
     12906   1 -3.998521E-05  1.319574E-05  1.319458E-05  1.553904E-05  2.067879E-07 -6.629975E-09
     12907   1 -3.998466E-05  1.319371E-05  1.319450E-05  1.492545E-05  1.860857E-07 -1.151558E-09
     12908   1 -3.998467E-05  1.319656E-05  1.319127E-05  1.457909E-05  1.088333E-07 -4.174228E-09
     12909   1 -3.998520E-05  1.319582E-05  1.319275E-05  1.446606E-05 -2.533823E-09 -3.965701E-09
     12910   1 -3.998640E-05  1.319717E-05  1.319192E-05  1.457681E-05 -1.136503E-07 -4.122748E-09
     12911   1 -3.998793E-05  1.319486E-05  1.319565E-05  1.492113E-05 -1.904256E-07 -5.450983E-09
     12912   1 -3.998980E-05  1.319738E-05  1.319619E-05  1.553329E-05 -2.102271E-07  8.986229E-10
     12913   1 -3.999142E-05  1.319929E-05  1.319408E-05  1.644918E-05 -1.639758E-07 -2.994058E-09
     12914   1 -3.999262E-05  1.319941E-05  1.320007E-05  1.772134E-05 -5.942281E-08  1.521039E-09
     12915   1 -5.998008E-05  1.980389E-05  1.978286E-05  1.452350E-05  1.263630E-07  3.543619E-10
     12916   1 -5.997830E-05  1.979376E-05  1.979463E-05  1.332230E-05  3.187148E-07 -7.315679E-09
     12917   1 -5.997726E-05  1.978932E-05  1.979314E-05  1.249691E-05  4.057630E-07  1.731826E-09
     12918   1 -5.997634E-05  1.979387E-05  1.978689E-05  1.198657E-05  3.613164E-07 -7.741467E-10
     12919   1 -5.997663E-05  1.979393E-05  1.978817E-05  1.170484E-05  2.045764E-07 -2.072505E-09
     12920   1 -5.997727E-05  1.979453E-05  1.978638E-05  1.161302E-05 -3.308471E-09 -3.140293E-09
     12921   1 -5.997898E-05  1.979474E-05  1.978897E-05  1.170302E-05 -2.113389E-07 -4.521035E-09
     12922   1 -5.998095E-05  1.979546E-05  1.978859E-05  1.198315E-05 -3.669742E-07 -4.327082E-09
     12923   1 -5.998341E-05  1.979143E-05  1.979516E-05  1.249225E-05 -4.105314E-07 -6.142569E-09
     12924   1 -5.998544E-05  1.979568E-05  1.979732E-05  1.331667E-05 -3.216281E-07  5.025284E-09
     12925   1 -5.998694E-05  1.980464E-05  1.978547E-05  1.451744E-05 -1.275183E-07 -1.646361E-09
     12926   1 -7.997130E-05  2.639183E-05  2.640062E-05  9.933911E-06  2.315154E-07 -6.489022E-09
     12927   1 -7.996981E-05  2.638620E-05  2.638845E-05  8.857914E-06  6.337408E-07  6.496618E-09
     12928   1 -7.996949E-05  2.639189E-05  2.638302E-05  8.268892E-06  7.739344E-07  3.997035E-09
     12929   1 -7.996842E-05  2.639380E-05  2.638165E-05  7.927271E-06  6.396459E-07  4.192752E-10
     12930   1 -7.996896E-05  2.639212E-05  2.638247E-05  7.738645E-06  3.552269E-07 -6.579740E-10
     12931   1 -7.996965E-05  2.639508E-05  2.638142E-05  7.680678E-06 -3.617011E-09 -2.037906E-09
     12932   1 -7.997165E-05  2.639308E-05  2.638322E-05  7.737434E-06 -3.632164E-07 -3.725125E-09
     12933   1 -7.997389E-05  2.639560E-05  2.638367E-05  7.924976E-06 -6.458237E-07 -3.621940E-09
     12934   1 -7.997660E-05  2.639445E-05  2.638504E-05  8.265910E-06 -7.795359E-07 -6.685269E-09
     12935   1 -7.997895E-05  2.638966E-05  2.639173E-05  8.854727E-06 -6.370020E-07 -7.448171E-09
     12936   1 -7.998063E-05  2.639581E-05  2.640332E-05  9.931119E-06 -2.327275E-07  6.101249E-09
     12937   1 -9.996547E-05  3.300946E-05  3.295877E-05  3.648994E-06  6.236067E-07  9.817702E-09
     12938   1 -9.996284E-05  3.298918E-05  3.297287E-05  3.135756E-06  1.348612E-06  6.255607E-09
     12939   1 -9.996214E-05  3.299774E-05  3.297362E-05  2.939638E-06  1.371940E-06  9.204094E-10
     12940   1 -9.996087E-05  3.298892E-05  3.297710E-05  2.810057E-06  1.069302E-06  1.198558E-09
     12941   1 -9.996156E-05  3.299477E-05  3.297651E-05  2.748017E-06  5.746324E-07 -4.769598E-10
     12942   1 -9.996226E-05  3.298981E-05  3.297825E-05  2.725053E-06 -3.376378E-09 -6.694496E-10
     12943   1 -9.996428E-05  3.299588E-05  3.297688E-05  2.747569E-06 -5.827637E-07 -1.185517E-09
     12944   1 -9.996659E-05  3.299105E-05  3.297882E-05  2.809275E-06 -1.075101E-06 -2.189000E-09
     12945   1 -9.996927E-05  3.300045E-05  3.297487E-05  2.938512E-06 -1.377757E-06 -1.986769E-09
     12946   1 -9.997173E-05  3.299164E-05  3.297622E-05  3.134533E-06 -1.351516E-06 -6.442530E-09
     12947   1 -9.997327E-05  3.301079E-05  3.296082E-05  3.647547E-06 -6.250324E-07 -1.034534E-08
     12948   1  9.541932E-05 -3.150560E-05 -3.145946E-05  3.647575E-06 -6.232027E-07  1.029435E-08
     12949   1  9.541904E-05 -3.148817E-05 -3.147559E-05  3.135146E-06 -1.346299E-06  5.848302E-09
     12950   1  9.541860E-05 -3.149748E-05 -3.147474E-05  2.939142E-06 -1.370291E-06  1.231599E-09
     12951   1  9.541884E-05 -3.148938E-05 -3.148022E-05  2.809783E-06 -1.066491E-06  7.295964E-10
     12952   1  9.541977E-05 -3.149505E-05 -3.147876E-05  2.747661E-06 -5.732768E-07 -4.002421E-10
     12953   1  9.542141E-05 -3.149057E-05 -3.148161E-05  2.724691E-06  5.553716E-09 -1.224344E-09
     12954   1  9.542393E-05 -3.149664E-05 -3.147980E-05  2.747076E-06  5.832070E-07 -1.235519E-09
     12955   1  9.542657E-05 -3.149231E-05 -3.148186E-05  2.808623E-06  1.076083E-06 -2.743037E-09
     12956   1  9.542969E-05 -3.150157E-05 -3.147794E-05  2.937693E-06  1.377314E-06 -1.925039E-09
     12957   1  9.543207E-05 -3.149342E-05 -3.147889E-05  3.133502E-06  1.351467E-06 -6.604912E-09
     12958   1  9.543402E-05 -3.151197E-05 -3.146442E-05  3.646213E-06  6.246602E-07 -9.576517E-09
     12959   1  7.633656E-05 -2.519449E-05 -2.520003E-05  9.933147E-06 -2.309772E-07 -6.435397E-09
     12960   1  7.633503E-05 -2.518754E-05 -2.518953E-05  8.857070E-06 -6.325901E-07  5.689313E-09
     12961   1  7.633403E-05 -2.519196E-05 -2.518362E-05  8.268084E-06 -7.724546E-07  3.886381E-09
     12962   1  7.633400E-05 -2.519374E-05 -2.518369E-05  7.926515E-06 -6.375859E-07 -2.278796E-10
     12963   1  7.633480E-05 -2.519232E-05 -2.518393E-05  7.737974E-06 -3.537802E-07 -9.412798E-10
     12964   1  7.633639E-05 -2.519535E-05 -2.518392E-05  7.679827E-06  5.432661E-09 -3.118563E-09
     12965   1  7.633875E-05 -2.519367E-05 -2.518524E-05  7.736300E-06  3.640610E-07 -4.293829E-09
     12966   1  7.634151E-05 -2.519635E-05 -2.518613E-05  7.923396E-06  6.468657E-07 -4.834285E-09
     12967   1  7.634447E-05 -2.519546E-05 -2.518710E-05  8.263818E-06  7.797092E-07 -6.963058E-09
     12968   1  7.634690E-05 -2.519092E-05 -2.519362E-05  8.852028E-06  6.372940E-07 -8.001370E-09
     12969   1  7.634846E-05 -2.519647E-05 -2.520445E-05  9.927552E-06  2.327536E-07  5.902989E-09
     12970   1  5.725010E-05 -1.889992E-05 -1.888285E-05  1.451945E-05 -1.261390E-07  1.132068E-09
     12971   1  5.724974E-05 -1.889178E-05 -1.889501E-05  1.331998E-05 -3.176747E-07 -6.928033E-09
     12972   1  5.724947E-05 -1.888859E-05 -1.889316E-05  1.249584E-05 -4.044869E-07  1.861429E-09
     12973   1  5.724947E-05 -1.889319E-05 -1.888817E-05  1.198586E-05 -3.597707E-07 -1.536293E-09
     12974   1  5.725010E-05 -1.889335E-05 -1.888910E-05  1.170421E-05 -2.032160E-07 -2.570683E-09
     12975   1  5.725146E-05 -1.889408E-05 -1.888819E-05  1.161209E-05  4.670801E-09 -4.628545E-09
     12976   1  5.725341E-05 -1.889448E-05 -1.889029E-05  1.170171E-05  2.122207E-07 -5.551367E-09
     12977   1  5.725582E-05 -1.889535E-05 -1.889043E-05  1.198111E-05  3.677573E-07 -6.156472E-09
     12978   1  5.725829E-05 -1.889167E-05 -1.889619E-05  1.248950E-05  4.108568E-07 -6.978228E-09
     12979   1  5.726049E-05 -1.889582E-05 -1.889857E-05  1.331312E-05  3.219241E-07  3.379466E-09
     12980   1  5.726169E-05 -1.890417E-05 -1.888687E-05  1.451322E-05  1.275344E-07 -1.539892E-09
     12981   1  3.816662E-05 -1.259701E-05 -1.259737E-05  1.772729E-05 -5.824649E-08 -2.807791E-09
     12982   1  3.816611E-05 -1.259632E-05 -1.259233E-05  1.645523E-05 -1.608712E-07 -6.326629E-10
     12983   1  3.816565E-05 -1.259452E-05 -1.259465E-05  1.553868E-05 -2.056591E-07 -6.230477E-09
     12984   1  3.816572E-05 -1.259265E-05 -1.259507E-05  1.492520E-05 -1.848796E-07 -2.058321E-09
     12985   1  3.816624E-05 -1.259553E-05 -1.259210E-05  1.457898E-05 -1.076948E-07 -4.694941E-09
     12986   1  3.816723E-05 -1.259495E-05 -1.259389E-05  1.446562E-05  3.410401E-09 -5.794937E-09
     12987   1  3.816863E-05 -1.259637E-05 -1.259297E-05  1.457588E-05  1.142742E-07 -5.508187E-09
     12988   1  3.817030E-05 -1.259429E-05 -1.259669E-05  1.491934E-05  1.907371E-07 -7.760682E-09
     12989   1  3.817196E-05 -1.259673E-05 -1.259684E-05  1.553062E-05  2.103397E-07 -6.587461E-10
     12990   1  3.817333E-05 -1.259835E-05 -1.259489E-05  1.644545E-05  1.639661E-07 -4.753430E-09
     12991   1  3.817390E-05 -1.259789E-05 -1.260030E-05  1.771673E-05  5.942093E-08  1.333063E-09
     12992   1  1.908149E-05 -6.298558E-06 -6.294619E-06  1.962244E-05 -2.561785E-08  3.501809E-11
     12993   1  1.908162E-05 -6.296432E-06 -6.297916E-06  1.832588E-05 -6.595978E-08 -5.707690E-09
     12994   1  1.908193E-05 -6.295983E-06 -6.297166E-06  1.736042E-05 -8.624557E-08 -1.580959E-09
     12995   1  1.908214E-05 -6.296608E-06 -6.296710E-06  1.670286E-05 -7.817547E-08 -7.201270E-09
     12996   1  1.908256E-05 -6.295800E-06 -6.297647E-06  1.632022E-05 -4.516095E-08 -4.346241E-09
     12997   1  1.908310E-05 -6.297201E-06 -6.296331E-06  1.619490E-05  1.752849E-09 -6.510797E-09
     12998   1  1.908379E-05 -6.296246E-06 -6.298067E-06  1.631674E-05  4.867618E-08 -7.189332E-09
     12999   1  1.908453E-05 -6.297460E-06 -6.297598E-06  1.669623E-05  8.118590E-08 -3.971566E-09
     13000   1  1.908520E-05 -6.297183E-06 -6.298210E-06  1.735149E-05  8.876481E-08 -6.325069E-09
     13001   1  1.908568E-05 -6.297928E-06 -6.299350E-06  1.831621E-05  6.757476E-08 -1.579951E-10
     13002   1  1.908574E-05 -6.299947E-06 -6.296079E-06  1.961366E-05  2.616976E-08 -1.223700E-09
     13003   1 -2.546384E-09  1.544562E-09  4.813871E-10  2.025558E-05  2.236090E-10 -2.191792E-09
     13004   1 -1.886533E-09  1.169783E-09  2.715937E-10  1.894784E-05  5.020342E-10 -1.856402E-09
     13005   1 -1.288555E-09  9.081573E-10  9.770157E-12  1.797001E-05  5.463811E-10 -6.881634E-09
     13006   1 -8.178528E-10  7.528082E-10 -2.113769E-10  1.729583E-05  4.744801E-10 -3.618555E-09
     13007   1 -5.234851E-10  6.747221E-10 -3.751366E-10  1.690446E-05  2.369072E-10 -6.863482E-09
     13008   1 -4.282597E-10  6.529814E-10 -4.092306E-10  1.677397E-05 -4.115861E-12 -6.741002E-09
     13009   1 -5.295925E-10  6.757386E-10 -3.775395E-10  1.690086E-05 -2.992030E-10 -5.132238E-09
     13010   1 -8.437320E-10  7.546686E-10 -1.922298E-10  1.728902E-05 -4.832610E-10 -7.977468E-09
     13011   1 -1.312079E-09  9.126746E-10  7.872607E-12  1.796063E-05 -5.929634E-10 -1.512660E-09
     13012   1 -1.932958E-09  1.154618E-09  3.115248E-10  1.893639E-05 -4.945874E-10 -4.732424E-09
     13013   1 -2.549900E-09  1.472109E-09  4.900430E-10  2.024340E-05 -2.068306E-10  3.700059E-10
     13014   1 -1.908623E-05  6.301345E-06  6.295583E-06  1.962359E-05  2.595259E-08  3.436622E-11
     13015   1 -1.908516E-05  6.298839E-06  6.298348E-06  1.832689E-05  6.692883E-08 -5.670126E-09
     13016   1 -1.908440E-05  6.298143E-06  6.297170E-06  1.736136E-05  8.734499E-08 -1.519948E-09
     13017   1 -1.908365E-05  6.298585E-06  6.296175E-06  1.670378E-05  7.915995E-08 -7.150341E-09
     13018   1 -1.908353E-05  6.297660E-06  6.296867E-06  1.632113E-05  4.562884E-08 -4.310023E-09
     13019   1 -1.908386E-05  6.299018E-06  6.295422E-06  1.619582E-05 -1.734729E-09 -6.497021E-09
     13020   1 -1.908476E-05  6.298110E-06  6.297262E-06  1.631766E-05 -4.929898E-08 -7.194883E-09
     13021   1 -1.908611E-05  6.299442E-06  6.297133E-06  1.669716E-05 -8.214533E-08 -4.001303E-09
     13022   1 -1.908767E-05  6.299341E-06  6.298156E-06  1.735245E-05 -8.998237E-08 -6.360896E-09
     13023   1 -1.908934E-05  6.300361E-06  6.299896E-06  1.831724E-05 -6.856666E-08 -2.021972E-10
     13024   1 -1.909056E-05  6.302848E-06  6.296988E-06  1.961482E-05 -2.659056E-08 -1.233598E-09
     13025   1 -3.817049E-05  1.259942E-05  1.259808E-05  1.772939E-05  5.872085E-08 -2.706374E-09
     13026   1 -3.816868E-05  1.259805E-05  1.259259E-05  1.645708E-05  1.619611E-07 -5.365167E-10
     13027   1 -3.816701E-05  1.259573E-05  1.259440E-05  1.554040E-05  2.068446E-07 -6.113294E-09
     13028   1 -3.816614E-05  1.259352E-05  1.259440E-05  1.492686E-05  1.859157E-07 -1.986418E-09
     13029   1 -3.816603E-05  1.259624E-05  1.259108E-05  1.458065E-05  1.082211E-07 -4.613422E-09
     13030   1 -3.816687E-05  1.259561E-05  1.259284E-05  1.446728E-05 -3.401882E-09 -5.789574E-09
     13031   1 -3.816841E-05  1.259707E-05  1.259192E-05  1.457755E-05 -1.148819E-07 -5.498709E-09
     13032   1 -3.817076E-05  1.259516E-05  1.259606E-05  1.492103E-05 -1.917633E-07 -7.827007E-09
     13033   1 -3.817332E-05  1.259793E-05  1.259653E-05  1.553236E-05 -2.115858E-07 -7.028200E-10
     13034   1 -3.817597E-05  1.260003E-05  1.259525E-05  1.644731E-05 -1.650340E-07 -4.836747E-09
     13035   1 -3.817773E-05  1.260016E-05  1.260096E-05  1.771886E-05 -5.986290E-08  1.319995E-09
     13036   1 -5.725228E-05  1.890140E-05  1.888284E-05  1.452210E-05  1.265859E-07  1.118131E-09
     13037   1 -5.725120E-05  1.889296E-05  1.889536E-05  1.332215E-05  3.187834E-07 -6.890452E-09
     13038   1 -5.724946E-05  1.888957E-05  1.889220E-05  1.249788E-05  4.058910E-07  2.007323E-09
     13039   1 -5.724887E-05  1.889399E-05  1.888753E-05  1.198782E-05  3.607906E-07 -1.468005E-09
     13040   1 -5.724861E-05  1.889401E-05  1.888746E-05  1.170618E-05  2.039632E-07 -2.459056E-09
     13041   1 -5.724999E-05  1.889469E-05  1.888709E-05  1.161405E-05 -4.804838E-09 -4.635444E-09
     13042   1 -5.725197E-05  1.889514E-05  1.888872E-05  1.170369E-05 -2.126924E-07 -5.527715E-09
     13043   1 -5.725511E-05  1.889614E-05  1.888962E-05  1.198311E-05 -3.690083E-07 -6.243963E-09
     13044   1 -5.725839E-05  1.889265E-05  1.889544E-05  1.249157E-05 -4.120806E-07 -7.020737E-09
     13045   1 -5.726182E-05  1.889705E-05  1.889868E-05  1.331538E-05 -3.231719E-07  3.282412E-09
     13046   1 -5.726406E-05  1.890578E-05  1.888711E-05  1.451588E-05 -1.279843E-07 -1.541720E-09
     13047   1 -7.633686E-05  2.519518E-05  2.519917E-05  9.935585E-06  2.316049E-07 -6.327642E-09
     13048   1 -7.633495E-05  2.518771E-05  2.518991E-05  8.859020E-06  6.338691E-07  5.797666E-09
     13049   1 -7.633199E-05  2.519161E-05  2.518185E-05  8.269877E-06  7.742147E-07  3.984789E-09
     13050   1 -7.633157E-05  2.519303E-05  2.518297E-05  7.928227E-06  6.386341E-07 -1.407138E-10
     13051   1 -7.633123E-05  2.519144E-05  2.518159E-05  7.739707E-06  3.547873E-07 -8.729752E-10
     13052   1 -7.633301E-05  2.519440E-05  2.518265E-05  7.681539E-06 -5.714832E-09 -3.103433E-09
     13053   1 -7.633527E-05  2.519278E-05  2.518307E-05  7.738045E-06 -3.644141E-07 -4.287935E-09
     13054   1 -7.633883E-05  2.519564E-05  2.518503E-05  7.925144E-06 -6.484001E-07 -4.897227E-09
     13055   1 -7.634265E-05  2.519509E-05  2.518582E-05  8.265632E-06 -7.810101E-07 -7.003535E-09
     13056   1 -7.634640E-05  2.519099E-05  2.519339E-05  8.854003E-06 -6.388209E-07 -8.072063E-09
     13057   1 -7.634897E-05  2.519698E-05  2.520420E-05  9.930000E-06 -2.332471E-07  5.897485E-09
     13058   1 -9.541795E-05  3.150531E-05  3.145819E-05  3.648609E-06  6.240451E-07  1.013342E-08
     13059   1 -9.541750E-05  3.148775E-05  3.147556E-05  3.135912E-06  1.348030E-06  5.914359E-09
     13060   1 -9.541515E-05  3.149696E-05  3.147241E-05  2.939871E-06  1.372403E-06  1.205941E-09
     13061   1 -9.541515E-05  3.148868E-05  3.147907E-05  2.810468E-06  1.067768E-06  8.201759E-10
     13062   1 -9.541483E-05  3.149419E-05  3.147584E-05  2.748378E-06  5.744426E-07 -4.162437E-10
     13063   1 -9.541675E-05  3.148964E-05  3.147990E-05  2.725368E-06 -5.861876E-09 -1.182433E-09
     13064   1 -9.541908E-05  3.149576E-05  3.147709E-05  2.747801E-06 -5.835930E-07 -1.260088E-09
     13065   1 -9.542257E-05  3.149157E-05  3.148029E-05  2.809315E-06 -1.077881E-06 -2.751797E-09
     13066   1 -9.542646E-05  3.150101E-05  3.147611E-05  2.938450E-06 -1.378889E-06 -1.956236E-09
     13067   1 -9.543011E-05  3.149306E-05  3.147820E-05  3.134286E-06 -1.353471E-06 -6.632157E-09
     13068   1 -9.543298E-05  3.151184E-05  3.146374E-05  3.647289E-06 -6.253901E-07 -9.567397E-09
     13069   1  9.087755E-05 -3.000956E-05 -2.996206E-05  3.648167E-06 -6.226729E-07  8.378164E-09
     13070   1  9.087457E-05 -2.999010E-05 -2.997579E-05  3.135329E-06 -1.346551E-06  5.819349E-09
     13071   1  9.087331E-05 -2.999740E-05 -2.997597E-05  2.939505E-06 -1.368947E-06  5.669941E-10
     13072   1  9.087317E-05 -2.998936E-05 -2.998077E-05  2.810025E-06 -1.065757E-06  1.055783E-09
     13073   1  9.087438E-05 -2.999492E-05 -2.997982E-05  2.748068E-06 -5.710377E-07 -1.054186E-09
     13074   1  9.087689E-05 -2.999088E-05 -2.998290E-05  2.724934E-06  7.143007E-09 -1.158320E-09
     13075   1  9.088011E-05 -2.999711E-05 -2.998102E-05  2.747233E-06  5.858643E-07 -2.088995E-09
     13076   1  9.088444E-05 -2.999357E-05 -2.998382E-05  2.808550E-06  1.078027E-06 -2.751545E-09
     13077   1  9.088852E-05 -3.000293E-05 -2.997963E-05  2.937383E-06  1.379618E-06 -2.676381E-09
     13078   1  9.089274E-05 -2.999549E-05 -2.998187E-05  3.132982E-06  1.352764E-06 -6.135472E-09
     13079   1  9.089526E-05 -3.001315E-05 -2.996760E-05  3.645379E-06  6.253290E-07 -9.654864E-09
     13080   1  7.269884E-05 -2.399067E-05 -2.399956E-05  9.931257E-06 -2.312544E-07 -5.575990E-09
     13081   1  7.269775E-05 -2.398598E-05 -2.398971E-05  8.856769E-06 -6.323905E-07  6.329702E-09
     13082   1  7.269693E-05 -2.399124E-05 -2.398372E-05  8.268640E-06 -7.719579E-07  3.437875E-09
     13083   1  7.269667E-05 -2.399289E-05 -2.398397E-05  7.927462E-06 -6.367195E-07 -1.107784E-10
     13084   1  7.269760E-05 -2.399150E-05 -2.398415E-05  7.738913E-06 -3.521701E-07 -2.005578E-09
     13085   1  7.269981E-05 -2.399457E-05 -2.398462E-05  7.680609E-06  7.295911E-09 -3.671002E-09
     13086   1  7.270305E-05 -2.399338E-05 -2.398593E-05  7.736657E-06  3.664598E-07 -5.936749E-09
     13087   1  7.270719E-05 -2.399643E-05 -2.398747E-05  7.923178E-06  6.492153E-07 -5.707382E-09
     13088   1  7.271151E-05 -2.399628E-05 -2.398853E-05  8.262938E-06  7.820214E-07 -8.402424E-09
     13089   1  7.271567E-05 -2.399273E-05 -2.399550E-05  8.850543E-06  6.390158E-07 -8.052568E-09
     13090   1  7.271845E-05 -2.399853E-05 -2.400606E-05  9.925607E-06  2.334071E-07  4.955481E-09
     13091   1  5.452500E-05 -1.800296E-05 -1.798360E-05  1.452164E-05 -1.260232E-07  8.767383E-11
     13092   1  5.452317E-05 -1.799343E-05 -1.799468E-05  1.332139E-05 -3.178495E-07 -6.462353E-09
     13093   1  5.452178E-05 -1.798915E-05 -1.799288E-05  1.249694E-05 -4.042577E-07  1.304988E-09
     13094   1  5.452146E-05 -1.799334E-05 -1.798798E-05  1.198725E-05 -3.590713E-07 -1.504385E-09
     13095   1  5.452223E-05 -1.799356E-05 -1.798905E-05  1.170563E-05 -2.020248E-07 -3.896854E-09
     13096   1  5.452402E-05 -1.799442E-05 -1.798829E-05  1.161335E-05  6.332909E-09 -5.638326E-09
     13097   1  5.452682E-05 -1.799512E-05 -1.799070E-05  1.170226E-05  2.142276E-07 -7.892225E-09
     13098   1  5.453026E-05 -1.799640E-05 -1.799107E-05  1.198090E-05  3.699232E-07 -7.703186E-09
     13099   1  5.453401E-05 -1.799332E-05 -1.799711E-05  1.248819E-05  4.129163E-07 -9.284754E-09
     13100   1  5.453727E-05 -1.799745E-05 -1.799964E-05  1.331080E-05  3.234910E-07  2.192357E-09
     13101   1  5.453937E-05 -1.800513E-05 -1.798915E-05  1.450995E-05  1.281953E-07 -2.617652E-09
     13102   1  3.634748E-05 -1.199495E-05 -1.199727E-05  1.772409E-05 -5.845526E-08 -2.313135E-09
     13103   1  3.634704E-05 -1.199529E-05 -1.199212E-05  1.645444E-05 -1.609253E-07  6.627546E-10
     13104   1  3.634676E-05 -1.199418E-05 -1.199440E-05  1.553965E-05 -2.055162E-07 -6.282322E-09
     13105   1  3.634665E-05 -1.199233E-05 -1.199458E-05  1.492691E-05 -1.844455E-07 -1.976199E-09
     13106   1  3.634721E-05 -1.199501E-05 -1.199198E-05  1.458067E-05 -1.068538E-07 -6.292115E-09
     13107   1  3.634852E-05 -1.199458E-05 -1.199368E-05  1.446709E-05  4.600587E-09 -7.026872E-09
     13108   1  3.635049E-05 -1.199616E-05 -1.199316E-05  1.457648E-05  1.157297E-07 -8.508772E-09
     13109   1  3.635292E-05 -1.199453E-05 -1.199682E-05  1.491893E-05  1.923385E-07 -9.773329E-09
     13110   1  3.635553E-05 -1.199730E-05 -1.199740E-05  1.552884E-05  2.118640E-07 -4.061670E-09
     13111   1  3.635780E-05 -1.199929E-05 -1.199571E-05  1.644263E-05  1.651550E-07 -5.973908E-09
     13112   1  3.635914E-05 -1.199897E-05 -1.200139E-05  1.771318E-05  5.987538E-08 -1.365432E-10
     13113   1  1.817253E-05 -5.999637E-06 -5.994285E-06  1.962538E-05 -2.553663E-08 -9.390808E-10
     13114   1  1.817262E-05 -5.997203E-06 -5.997887E-06  1.832787E-05 -6.592544E-08 -5.047474E-09
     13115   1  1.817244E-05 -5.996430E-06 -5.996660E-06  1.736186E-05 -8.622204E-08 -2.097341E-09
     13116   1  1.817271E-05 -5.997003E-06 -5.996616E-06  1.670474E-05 -7.784845E-08 -6.851798E-09
     13117   1  1.817311E-05 -5.996273E-06 -5.997220E-06  1.632219E-05 -4.480803E-08 -6.138328E-09
     13118   1  1.817387E-05 -5.997664E-06 -5.996300E-06  1.619663E-05  2.452535E-09 -7.903773E-09
     13119   1  1.817483E-05 -5.996886E-06 -5.997871E-06  1.631751E-05  4.934557E-08 -1.050465E-08
     13120   1  1.817594E-05 -5.998203E-06 -5.997677E-06  1.669588E-05  8.207383E-08 -6.512395E-09
     13121   1  1.817703E-05 -5.998050E-06 -5.998316E-06  1.734960E-05  8.947274E-08 -9.933747E-09
     13122   1  1.817779E-05 -5.998699E-06 -5.999587E-06  1.831289E-05  6.819202E-08 -1.923275E-09
     13123   1  1.817799E-05 -6.000371E-06 -5.996583E-06  1.960920E-05  2.638984E-08 -2.836682E-09
     13124   1 -3.204058E-09  1.478873E-09  8.324299E-10  2.025204E-05  1.941399E-10 -1.838655E-09
     13125   1 -2.415464E-09  1.248926E-09  5.333152E-10  1.894682E-05  5.387778E-10 -3.854088E-10
     13126   1 -1.692156E-09  1.111636E-09  2.114474E-10  1.797113E-05  6.567874E-10 -6.884810E-09
     13127   1 -1.137274E-09  1.015846E-09 -6.733347E-11  1.729778E-05  5.064073E-10 -3.467960E-09
     13128   1 -8.001966E-10  9.578334E-10 -2.148330E-10  1.690643E-05  2.933799E-10 -8.570102E-09
     13129   1 -6.883703E-10  9.367597E-10 -2.934374E-10  1.677568E-05 -4.398696E-11 -8.210286E-09
     13130   1 -8.171882E-10  9.567409E-10 -2.007664E-10  1.690158E-05 -3.116789E-10 -8.663749E-09
     13131   1 -1.154396E-09  1.012477E-09 -6.785620E-11  1.728854E-05 -5.854200E-10 -1.049850E-08
     13132   1 -1.732054E-09  1.096938E-09  2.507577E-10  1.795854E-05 -6.757028E-10 -5.537169E-09
     13133   1 -2.448171E-09  1.248157E-09  5.331697E-10  1.893310E-05 -6.100422E-10 -6.368179E-09
     13134   1 -3.312558E-09  1.540994E-09  8.897062E-10  2.023932E-05 -2.460490E-10 -1.336934E-09
     13135   1 -1.817870E-05  6.002669E-06  5.995756E-06  1.962660E-05  2.613333E-08 -8.621194E-10
     13136   1 -1.817703E-05  5.999288E-06  5.998904E-06  1.832898E-05  6.711591E-08 -4.934226E-09
     13137   1 -1.817521E-05  5.997886E-06  5.996908E-06  1.736293E-05  8.758969E-08 -2.001658E-09
     13138   1 -1.817438E-05  5.998101E-06  5.996459E-06  1.670579E-05  7.885658E-08 -6.771632E-09
     13139   1 -1.817405E-05  5.997196E-06  5.996662E-06  1.632326E-05  4.543899E-08 -6.086013E-09
     13140   1 -1.817459E-05  5.998537E-06  5.995674E-06  1.619771E-05 -2.566025E-09 -7.883211E-09
     13141   1 -1.817581E-05  5.997803E-06  5.997366E-06  1.631858E-05 -4.993811E-08 -1.052056E-08
     13142   1 -1.817761E-05  5.999290E-06  5.997465E-06  1.669696E-05 -8.328014E-08 -6.554319E-09
     13143   1 -1.817993E-05  5.999495E-06  5.998713E-06  1.735067E-05 -9.082044E-08 -1.000807E-08
     13144   1 -1.818220E-05  6.000719E-06  6.000545E-06  1.831401E-05 -6.944713E-08 -1.986760E-09
     13145   1 -1.818422E-05  6.003170E-06  5.998256E-06  1.961043E-05 -2.689537E-08 -2.879581E-09
     13146   1 -3.635250E-05  1.199734E-05  1.199849E-05  1.772642E-05  5.890419E-08 -2.346494E-09
     13147   1 -3.635049E-05  1.199722E-05  1.199283E-05  1.645646E-05  1.621072E-07  7.973389E-10
     13148   1 -3.634871E-05  1.199582E-05  1.199443E-05  1.554155E-05  2.069491E-07 -6.140618E-09
     13149   1 -3.634746E-05  1.199375E-05  1.199412E-05  1.492882E-05  1.855278E-07 -1.813528E-09
     13150   1 -3.634736E-05  1.199627E-05  1.199125E-05  1.458259E-05  1.075088E-07 -6.228143E-09
     13151   1 -3.634838E-05  1.199578E-05  1.199277E-05  1.446903E-05 -4.666463E-09 -6.962068E-09
     13152   1 -3.635068E-05  1.199742E-05  1.199248E-05  1.457841E-05 -1.163585E-07 -8.560388E-09
     13153   1 -3.635372E-05  1.199593E-05  1.199630E-05  1.492086E-05 -1.935389E-07 -9.820768E-09
     13154   1 -3.635756E-05  1.199891E-05  1.199755E-05  1.553080E-05 -2.132933E-07 -4.207797E-09
     13155   1 -3.636124E-05  1.200124E-05  1.199632E-05  1.644468E-05 -1.664445E-07 -6.066407E-09
     13156   1 -3.636437E-05  1.200149E-05  1.200278E-05  1.771551E-05 -6.040500E-08 -2.135021E-10
     13157   1 -5.452866E-05  1.800477E-05  1.798489E-05  1.452456E-05  1.266708E-07  2.411701E-10
     13158   1 -5.452454E-05  1.799440E-05  1.799435E-05  1.332401E-05  3.193067E-07 -6.208673E-09
     13159   1 -5.452197E-05  1.798943E-05  1.799297E-05  1.249934E-05  4.057066E-07  1.437971E-09
     13160   1 -5.452004E-05  1.799317E-05  1.798665E-05  1.198965E-05  3.604491E-07 -1.294698E-09
     13161   1 -5.452042E-05  1.799317E-05  1.798834E-05  1.170803E-05  2.025340E-07 -3.849027E-09
     13162   1 -5.452170E-05  1.799396E-05  1.798671E-05  1.161578E-05 -6.141422E-09 -5.539678E-09
     13163   1 -5.452494E-05  1.799472E-05  1.798987E-05  1.170468E-05 -2.150868E-07 -7.965858E-09
     13164   1 -5.452896E-05  1.799622E-05  1.798995E-05  1.198333E-05 -3.709820E-07 -7.735111E-09
     13165   1 -5.453402E-05  1.799358E-05  1.799691E-05  1.249065E-05 -4.146098E-07 -9.452315E-09
     13166   1 -5.453880E-05  1.799833E-05  1.799967E-05  1.331340E-05 -3.247706E-07  2.107503E-09
     13167   1 -5.454280E-05  1.800674E-05  1.799012E-05  1.451296E-05 -1.288334E-07 -2.713869E-09
     13168   1 -7.270044E-05  2.399125E-05  2.400088E-05  9.934119E-06  2.318159E-07 -5.661013E-09
     13169   1 -7.269670E-05  2.398617E-05  2.398821E-05  8.859050E-06  6.341476E-07  6.398089E-09
     13170   1 -7.269532E-05  2.399115E-05  2.398375E-05  8.270750E-06  7.734764E-07  3.584907E-09
     13171   1 -7.269313E-05  2.399253E-05  2.398164E-05  7.929596E-06  6.384644E-07  2.171763E-11
     13172   1 -7.269399E-05  2.399091E-05  2.398331E-05  7.741009E-06  3.525491E-07 -1.928536E-09
     13173   1 -7.269547E-05  2.399391E-05  2.398225E-05  7.682757E-06 -6.830056E-09 -3.615706E-09
     13174   1 -7.269926E-05  2.399278E-05  2.398481E-05  7.738775E-06 -3.675794E-07 -5.973928E-09
     13175   1 -7.270387E-05  2.399604E-05  2.398563E-05  7.925335E-06 -6.501647E-07 -5.743662E-09
     13176   1 -7.270944E-05  2.399616E-05  2.398782E-05  8.265113E-06 -7.840763E-07 -8.535690E-09
     13177   1 -7.271504E-05  2.399298E-05  2.399482E-05  8.852887E-06 -6.403781E-07 -8.118544E-09
     13178   1 -7.271961E-05  2.399927E-05  2.400646E-05  9.928508E-06 -2.341473E-07  4.893698E-09
     13179   1 -9.087689E-05  3.000939E-05  2.996268E-05  3.649466E-06  6.236404E-07  8.661491E-09
     13180   1 -9.087106E-05  2.998920E-05  2.997354E-05  3.136319E-06  1.348846E-06  5.804664E-09
     13181   1 -9.086910E-05  2.999571E-05  2.997534E-05  2.940409E-06  1.370868E-06  7.312752E-10
     13182   1 -9.086681E-05  2.998716E-05  2.997771E-05  2.810952E-06  1.067751E-06  1.023770E-09
     13183   1 -9.086809E-05  2.999244E-05  2.997845E-05  2.748942E-06  5.715035E-07 -9.579847E-10
     13184   1 -9.086973E-05  2.998831E-05  2.997985E-05  2.725879E-06 -6.586177E-09 -1.186567E-09
     13185   1 -9.087358E-05  2.999461E-05  2.997935E-05  2.748113E-06 -5.871173E-07 -2.066162E-09
     13186   1 -9.087830E-05  2.999135E-05  2.998127E-05  2.809497E-06 -1.079080E-06 -2.784993E-09
     13187   1 -9.088373E-05  3.000119E-05  2.997821E-05  2.938295E-06 -1.382078E-06 -2.715470E-09
     13188   1 -9.088949E-05  2.999441E-05  2.998044E-05  3.133987E-06 -1.354574E-06 -6.154387E-09
     13189   1 -9.089387E-05  3.001267E-05  2.996730E-05  3.646664E-06 -6.264035E-07 -9.693063E-09
     13190   1  8.632951E-05 -2.850280E-05 -2.846266E-05  3.647092E-06 -6.231105E-07  1.007458E-08
     13191   1  8.632794E-05 -2.848741E-05 -2.847737E-05  3.135455E-06 -1.345128E-06  5.330659E-09
     13192   1  8.632633E-05 -2.849565E-05 -2.847632E-05  2.939730E-06 -1.368517E-06  1.442774E-09
     13193   1  8.632626E-05 -2.848795E-05 -2.848194E-05  2.810682E-06 -1.063198E-06  2.570609E-10
     13194   1  8.632786E-05 -2.849307E-05 -2.848125E-05  2.748548E-06 -5.693356E-07 -7.057528E-10
     13195   1  8.633101E-05 -2.848959E-05 -2.848437E-05  2.725478E-06  1.050446E-08 -2.193194E-09
     13196   1  8.633603E-05 -2.849612E-05 -2.848342E-05  2.747495E-06  5.882676E-07 -2.115769E-09
     13197   1  8.634157E-05 -2.849361E-05 -2.848547E-05  2.808555E-06  1.081359E-06 -3.921977E-09
     13198   1  8.634835E-05 -2.850360E-05 -2.848284E-05  2.937055E-06  1.381937E-06 -2.633468E-09
     13199   1  8.635426E-05 -2.849776E-05 -2.848432E-05  3.132315E-06  1.354977E-06 -6.772864E-09
     13200   1  8.635971E-05 -2.851564E-05 -2.847279E-05  3.644439E-06  6.259257E-07 -8.609827E-09
     13201   1  6.906628E-05 -2.279637E-05 -2.279982E-05  9.933192E-06 -2.310192E-07 -5.868174E-09
     13202   1  6.906233E-05 -2.278854E-05 -2.278948E-05  8.857971E-06 -6.325512E-07  5.200831E-09
     13203   1  6.905956E-05 -2.279135E-05 -2.278398E-05  8.269844E-06 -7.714042E-07  3.794817E-09
     13204   1  6.905890E-05 -2.279256E-05 -2.278405E-05  7.928888E-06 -6.352982E-07 -9.082082E-10
     13205   1  6.906005E-05 -2.279129E-05 -2.278477E-05  7.740544E-06 -3.502858E-07 -2.166806E-09
     13206   1  6.906301E-05 -2.279449E-05 -2.278526E-05  7.681973E-06  1.002676E-08 -5.510456E-09
     13207   1  6.906763E-05 -2.279386E-05 -2.278728E-05  7.737519E-06  3.693391E-07 -6.958964E-09
     13208   1  6.907337E-05 -2.279757E-05 -2.278880E-05  7.923208E-06  6.524681E-07 -8.109857E-09
     13209   1  6.907987E-05 -2.279818E-05 -2.279075E-05  8.262035E-06  7.849353E-07 -9.216407E-09
     13210   1  6.908586E-05 -2.279536E-05 -2.279759E-05  8.848612E-06  6.413308E-07 -9.511081E-09
     13211   1  6.909050E-05 -2.280082E-05 -2.280865E-05  9.922598E-06  2.343733E-07  4.842998E-09
     13212   1  5.179622E-05 -1.709872E-05 -1.708395E-05  1.451804E-05 -1.264630E-07  1.927741E-09
     13213   1  5.179461E-05 -1.709169E-05 -1.709445E-05  1.332072E-05 -3.178916E-07 -5.538627E-09
     13214   1  5.179317E-05 -1.708872E-05 -1.709233E-05  1.249835E-05 -4.040203E-07  2.135527E-09
     13215   1  5.179250E-05 -1.709251E-05 -1.708782E-05  1.198934E-05 -3.581970E-07 -2.371630E-09
     13216   1  5.179327E-05 -1.709257E-05 -1.708887E-05  1.170800E-05 -2.004585E-07 -4.370324E-09
     13217   1  5.179572E-05 -1.709359E-05 -1.708859E-05  1.161524E-05  8.501769E-09 -8.115945E-09
     13218   1  5.179955E-05 -1.709470E-05 -1.709111E-05  1.170350E-05  2.168453E-07 -9.698507E-09
     13219   1  5.180454E-05 -1.709658E-05 -1.709207E-05  1.198074E-05  3.727720E-07 -1.122297E-08
     13220   1  5.181002E-05 -1.709453E-05 -1.709812E-05  1.248671E-05  4.156607E-07 -1.107637E-08
     13221   1  5.181538E-05 -1.709943E-05 -1.710131E-05  1.330784E-05  3.256917E-07 -8.652497E-10
     13222   1  5.181909E-05 -1.710717E-05 -1.709183E-05  1.450604E-05  1.290075E-07 -2.473821E-09
     13223   1  3.453111E-05 -1.139833E-05 -1.139698E-05  1.772742E-05 -5.839157E-08 -2.180860E-09
     13224   1  3.452949E-05 -1.139709E-05 -1.139209E-05  1.645661E-05 -1.611423E-07 -1.182561E-10
     13225   1  3.452794E-05 -1.139485E-05 -1.139377E-05  1.554159E-05 -2.054806E-07 -5.055287E-09
     13226   1  3.452749E-05 -1.139289E-05 -1.139416E-05  1.492934E-05 -1.838732E-07 -3.037376E-09
     13227   1  3.452811E-05 -1.139545E-05 -1.139156E-05  1.458357E-05 -1.058163E-07 -6.725186E-09
     13228   1  3.452982E-05 -1.139516E-05 -1.139358E-05  1.446944E-05  6.149002E-09 -1.011805E-08
     13229   1  3.453258E-05 -1.139701E-05 -1.139318E-05  1.457799E-05  1.176559E-07 -1.082513E-08
     13230   1  3.453610E-05 -1.139595E-05 -1.139717E-05  1.491876E-05  1.944566E-07 -1.420210E-08
     13231   1  3.453993E-05 -1.139905E-05 -1.139791E-05  1.552697E-05  2.139392E-07 -6.842534E-09
     13232   1  3.454344E-05 -1.140111E-05 -1.139696E-05  1.643866E-05  1.667722E-07 -9.580443E-09
     13233   1  3.454560E-05 -1.140049E-05 -1.140265E-05  1.770766E-05  6.054100E-08 -3.801709E-10
     13234   1  1.726293E-05 -5.698637E-06 -5.694506E-06  1.962049E-05 -2.575523E-08  1.130122E-09
     13235   1  1.726271E-05 -5.696849E-06 -5.697102E-06  1.832649E-05 -6.610966E-08 -4.147729E-09
     13236   1  1.726281E-05 -5.696413E-06 -5.696526E-06  1.736347E-05 -8.611114E-08 -6.464279E-10
     13237   1  1.726275E-05 -5.696822E-06 -5.695914E-06  1.670733E-05 -7.770949E-08 -7.777907E-09
     13238   1  1.726326E-05 -5.696033E-06 -5.696991E-06  1.632517E-05 -4.416078E-08 -6.668240E-09
     13239   1  1.726415E-05 -5.697430E-06 -5.695865E-06  1.619903E-05  3.125927E-09 -1.132560E-08
     13240   1  1.726555E-05 -5.696866E-06 -5.697758E-06  1.631895E-05  5.047237E-08 -1.310265E-08
     13241   1  1.726723E-05 -5.698417E-06 -5.697575E-06  1.669539E-05  8.308650E-08 -1.177234E-08
     13242   1  1.726896E-05 -5.698666E-06 -5.698463E-06  1.734717E-05  9.064880E-08 -1.297071E-08
     13243   1  1.727047E-05 -5.699702E-06 -5.699844E-06  1.830847E-05  6.898809E-08 -6.278496E-09
     13244   1  1.727115E-05 -5.701413E-06 -5.697262E-06  1.960360E-05  2.673101E-08 -2.974006E-09
     13245   1 -3.929339E-09  1.266584E-09  1.296267E-09  2.025541E-05  3.416538E-10 -1.439371E-09
     13246   1 -2.705992E-09  6.811507E-10  9.112033E-10  1.894915E-05  6.803437E-10 -9.849656E-10
     13247   1 -1.758288E-09  3.416847E-10  5.292288E-10  1.797310E-05  6.609955E-10 -5.442041E-09
     13248   1 -1.117288E-09  1.780476E-10  2.756033E-10  1.730042E-05  5.410096E-10 -4.494437E-09
     13249   1 -7.455710E-10  1.049350E-10  9.263150E-11  1.690961E-05  2.414330E-10 -9.029013E-09
     13250   1 -6.344705E-10  8.386021E-11  8.054386E-11  1.677826E-05 -1.701481E-11 -1.170749E-08
     13251   1 -7.539275E-10  9.431314E-11  9.504550E-11  1.690317E-05 -3.575913E-10 -1.151967E-08
     13252   1 -1.151920E-09  1.551110E-10  3.157560E-10  1.728815E-05 -5.724690E-10 -1.574065E-08
     13253   1 -1.793279E-09  3.173891E-10  5.426342E-10  1.795613E-05 -7.473350E-10 -8.982098E-09
     13254   1 -2.759911E-09  6.094901E-10  9.985326E-10  1.892821E-05 -6.606867E-10 -1.074355E-08
     13255   1 -3.870917E-09  1.055690E-09  1.329923E-09  2.023270E-05 -2.912014E-10 -1.668066E-09
     13256   1 -1.727024E-05  5.700756E-06  5.697103E-06  1.962160E-05  2.614745E-08  1.133671E-09
     13257   1 -1.726785E-05  5.698500E-06  5.698720E-06  1.832747E-05  6.735229E-08 -4.038217E-09
     13258   1 -1.726630E-05  5.697808E-06  5.697577E-06  1.736444E-05  8.741887E-08 -4.965771E-10
     13259   1 -1.726489E-05  5.698041E-06  5.696273E-06  1.670836E-05  7.884965E-08 -7.657224E-09
     13260   1 -1.726473E-05  5.697148E-06  5.697160E-06  1.632623E-05  4.460925E-08 -6.595810E-09
     13261   1 -1.726538E-05  5.698499E-06  5.695898E-06  1.620011E-05 -3.101058E-09 -1.129958E-08
     13262   1 -1.726701E-05  5.697966E-06  5.697890E-06  1.632002E-05 -5.122813E-08 -1.312452E-08
     13263   1 -1.726948E-05  5.699601E-06  5.698085E-06  1.669641E-05 -8.419326E-08 -1.185249E-08
     13264   1 -1.727241E-05  5.699986E-06  5.699423E-06  1.734817E-05 -9.218770E-08 -1.307749E-08
     13265   1 -1.727580E-05  5.701306E-06  5.701700E-06  1.830945E-05 -7.030311E-08 -6.411170E-09
     13266   1 -1.727863E-05  5.703673E-06  5.699783E-06  1.960466E-05 -2.732415E-08 -3.014878E-09
     13267   1 -3.453765E-05  1.140060E-05  1.139915E-05  1.772944E-05  5.909950E-08 -1.914686E-09
     13268   1 -3.453344E-05  1.139821E-05  1.139329E-05  1.645854E-05  1.626091E-07  1.601365E-10
     13269   1 -3.452995E-05  1.139520E-05  1.139440E-05  1.554354E-05  2.068698E-07 -4.770578E-09
     13270   1 -3.452816E-05  1.139279E-05  1.139428E-05  1.493131E-05  1.850518E-07 -2.874390E-09
     13271   1 -3.452798E-05  1.139514E-05  1.139142E-05  1.458562E-05  1.063180E-07 -6.560205E-09
     13272   1 -3.452951E-05  1.139479E-05  1.139344E-05  1.447150E-05 -6.125411E-09 -1.011116E-08
     13273   1 -3.453243E-05  1.139668E-05  1.139300E-05  1.458005E-05 -1.183572E-07 -1.082105E-08
     13274   1 -3.453684E-05  1.139582E-05  1.139742E-05  1.492076E-05 -1.956016E-07 -1.436086E-08
     13275   1 -3.454192E-05  1.139935E-05  1.139844E-05  1.552891E-05 -2.154723E-07 -6.989699E-09
     13276   1 -3.454752E-05  1.140211E-05  1.139842E-05  1.644059E-05 -1.681722E-07 -9.819648E-09
     13277   1 -3.455198E-05  1.140242E-05  1.140472E-05  1.770975E-05 -6.116110E-08 -4.432787E-10
     13278   1 -5.180037E-05  1.710021E-05  1.708476E-05  1.452110E-05  1.270265E-07  1.917675E-09
     13279   1 -5.179705E-05  1.709259E-05  1.709575E-05  1.332321E-05  3.192643E-07 -5.412344E-09
     13280   1 -5.179317E-05  1.708921E-05  1.709172E-05  1.250084E-05  4.057076E-07  2.487243E-09
     13281   1 -5.179169E-05  1.709268E-05  1.708805E-05  1.199185E-05  3.591946E-07 -2.231220E-09
     13282   1 -5.179131E-05  1.709251E-05  1.708783E-05  1.171059E-05  2.013162E-07 -4.143031E-09
     13283   1 -5.179381E-05  1.709345E-05  1.708846E-05  1.161785E-05 -8.746914E-09 -8.137848E-09
     13284   1 -5.179766E-05  1.709463E-05  1.709022E-05  1.170610E-05 -2.172192E-07 -9.656325E-09
     13285   1 -5.180354E-05  1.709672E-05  1.709202E-05  1.198330E-05 -3.741884E-07 -1.141653E-08
     13286   1 -5.181023E-05  1.709498E-05  1.709792E-05  1.248922E-05 -4.170321E-07 -1.121592E-08
     13287   1 -5.181759E-05  1.710034E-05  1.710216E-05  1.331043E-05 -3.273236E-07 -1.144997E-09
     13288   1 -5.182360E-05  1.710881E-05  1.709314E-05  1.450896E-05 -1.296137E-07 -2.522268E-09
     13289   1 -6.906734E-05  2.279716E-05  2.279885E-05  9.936175E-06  2.319305E-07 -5.562695E-09
     13290   1 -6.906216E-05  2.278825E-05  2.279066E-05  8.860480E-06  6.340425E-07  5.488392E-09
     13291   1 -6.905610E-05  2.279006E-05  2.278190E-05  8.272285E-06  7.735481E-07  4.014109E-09
     13292   1 -6.905504E-05  2.279061E-05  2.278421E-05  7.931292E-06  6.361172E-07 -7.404843E-10
     13293   1 -6.905468E-05  2.278903E-05  2.278270E-05  7.743050E-06  3.515328E-07 -2.038466E-09
     13294   1 -6.905793E-05  2.279210E-05  2.278499E-05  7.684446E-06 -1.054883E-08 -5.484078E-09
     13295   1 -6.906242E-05  2.279158E-05  2.278556E-05  7.740039E-06 -3.693641E-07 -6.937852E-09
     13296   1 -6.906905E-05  2.279559E-05  2.278824E-05  7.925664E-06 -6.541869E-07 -8.238518E-09
     13297   1 -6.907684E-05  2.279684E-05  2.278963E-05  8.264492E-06 -7.862071E-07 -9.313207E-09
     13298   1 -6.908492E-05  2.279490E-05  2.279757E-05  8.851137E-06 -6.432861E-07 -9.715110E-09
     13299   1 -6.909202E-05  2.280134E-05  2.280895E-05  9.925620E-06 -2.350014E-07  4.803040E-09
     13300   1 -8.632700E-05  2.850207E-05  2.846068E-05  3.648506E-06  6.242102E-07  9.676342E-09
     13301   1 -8.632444E-05  2.848606E-05  2.847749E-05  3.136479E-06  1.347159E-06  5.499940E-09
     13302   1 -8.631972E-05  2.849389E-05  2.847322E-05  2.940806E-06  1.370919E-06  1.368143E-09
     13303   1 -8.631962E-05  2.848575E-05  2.848139E-05  2.811679E-06  1.064186E-06  4.516368E-10
     13304   1 -8.631958E-05  2.849053E-05  2.847839E-05  2.749665E-06  5.707057E-07 -7.533730E-10
     13305   1 -8.632325E-05  2.848692E-05  2.848355E-05  2.726485E-06 -1.105038E-08 -2.108844E-09
     13306   1 -8.632791E-05  2.849356E-05  2.848093E-05  2.748622E-06 -5.881798E-07 -2.152445E-09
     13307   1 -8.633434E-05  2.849134E-05  2.848413E-05  2.809568E-06 -1.083261E-06 -3.945030E-09
     13308   1 -8.634214E-05  2.850176E-05  2.848073E-05  2.938165E-06 -1.383336E-06 -2.684371E-09
     13309   1 -8.634993E-05  2.849649E-05  2.848317E-05  3.133375E-06 -1.357471E-06 -6.861633E-09
     13310   1 -8.635775E-05  2.851513E-05  2.847196E-05  3.645886E-06 -6.268251E-07 -8.587984E-09
     13311   1  8.178995E-05 -2.701066E-05 -2.696601E-05  3.648198E-06 -6.220606E-07  6.613796E-09
     13312   1  8.178266E-05 -2.699018E-05 -2.697697E-05  3.135814E-06 -1.345369E-06  5.584491E-09
     13313   1  8.177922E-05 -2.699480E-05 -2.697796E-05  2.940595E-06 -1.365640E-06  2.986434E-10
     13314   1  8.177859E-05 -2.698676E-05 -2.698312E-05  2.811360E-06 -1.061380E-06  1.110129E-09
     13315   1  8.178077E-05 -2.699175E-05 -2.698355E-05  2.749611E-06 -5.650676E-07 -1.855377E-09
     13316   1  8.178557E-05 -2.698879E-05 -2.698746E-05  2.726239E-06  1.334908E-08 -1.948092E-09
     13317   1  8.179182E-05 -2.699587E-05 -2.698608E-05  2.748113E-06  5.925976E-07 -3.701059E-09
     13318   1  8.180036E-05 -2.699476E-05 -2.698926E-05  2.808741E-06  1.084320E-06 -3.942167E-09
     13319   1  8.180901E-05 -2.700552E-05 -2.698553E-05  2.936741E-06  1.385508E-06 -4.148483E-09
     13320   1  8.181862E-05 -2.700098E-05 -2.698906E-05  3.131552E-06  1.357041E-06 -6.113371E-09
     13321   1  8.182601E-05 -2.701833E-05 -2.697742E-05  3.642966E-06  6.270523E-07 -9.223099E-09
     13322   1  6.542729E-05 -2.158947E-05 -2.159921E-05  9.929811E-06 -2.316207E-07 -4.270795E-09
     13323   1  6.542360E-05 -2.158556E-05 -2.158971E-05  8.857861E-06 -6.321545E-07  6.944031E-09
     13324   1  6.542075E-05 -2.158985E-05 -2.158393E-05  8.271419E-06 -7.704394E-07  3.383456E-09
     13325   1  6.541950E-05 -2.159055E-05 -2.158469E-05  7.931289E-06 -6.335078E-07 -2.997014E-10
     13326   1  6.542095E-05 -2.158916E-05 -2.158553E-05  7.743027E-06 -3.473751E-07 -3.831035E-09
     13327   1  6.542497E-05 -2.159246E-05 -2.158699E-05  7.684289E-06  1.325566E-08 -6.245885E-09
     13328   1  6.543122E-05 -2.159267E-05 -2.158891E-05  7.739025E-06  3.732651E-07 -9.962053E-09
     13329   1  6.543937E-05 -2.159720E-05 -2.159132E-05  7.923659E-06  6.562666E-07 -9.667380E-09
     13330   1  6.544850E-05 -2.159930E-05 -2.159316E-05  8.261076E-06  7.887385E-07 -1.220925E-08
     13331   1  6.545804E-05 -2.159835E-05 -2.160084E-05  8.846340E-06  6.443145E-07 -9.859687E-09
     13332   1  6.546577E-05 -2.160483E-05 -2.161197E-05  9.919120E-06  2.355440E-07  3.182832E-09
     13333   1  4.907317E-05 -1.620487E-05 -1.618503E-05  1.452164E-05 -1.262862E-07 -5.261370E-11
     13334   1  4.906829E-05 -1.619470E-05 -1.619386E-05  1.332321E-05 -3.183439E-07 -4.583864E-09
     13335   1  4.906451E-05 -1.618938E-05 -1.619192E-05  1.250074E-05 -4.036560E-07  1.706824E-09
     13336   1  4.906311E-05 -1.619249E-05 -1.618753E-05  1.199272E-05 -3.569687E-07 -1.708197E-09
     13337   1  4.906409E-05 -1.619252E-05 -1.618908E-05  1.171157E-05 -1.983833E-07 -6.389101E-09
     13338   1  4.906726E-05 -1.619371E-05 -1.618905E-05  1.161870E-05  1.129485E-08 -9.536351E-09
     13339   1  4.907260E-05 -1.619538E-05 -1.619212E-05  1.170559E-05  2.201794E-07 -1.391190E-08
     13340   1  4.907950E-05 -1.619813E-05 -1.619329E-05  1.198145E-05  3.763620E-07 -1.390975E-08
     13341   1  4.908749E-05 -1.619725E-05 -1.619982E-05  1.248510E-05  4.191955E-07 -1.565614E-08
     13342   1  4.909521E-05 -1.620254E-05 -1.620328E-05  1.330409E-05  3.284868E-07 -2.778046E-09
     13343   1  4.910131E-05 -1.620969E-05 -1.619562E-05  1.450005E-05  1.302425E-07 -4.745593E-09
     13344   1  3.271228E-05 -1.079557E-05 -1.079701E-05  1.772135E-05 -5.891293E-08 -1.063277E-09
     13345   1  3.271022E-05 -1.079606E-05 -1.079154E-05  1.645543E-05 -1.615030E-07  2.981731E-09
     13346   1  3.270857E-05 -1.079480E-05 -1.079333E-05  1.554387E-05 -2.053782E-07 -4.810334E-09
     13347   1  3.270757E-05 -1.079257E-05 -1.079336E-05  1.493321E-05 -1.832628E-07 -2.098481E-09
     13348   1  3.270812E-05 -1.079476E-05 -1.079140E-05  1.458762E-05 -1.044080E-07 -9.199518E-09
     13349   1  3.271040E-05 -1.079467E-05 -1.079336E-05  1.447331E-05  8.110689E-09 -1.179361E-08
     13350   1  3.271415E-05 -1.079686E-05 -1.079356E-05  1.458024E-05  1.201088E-07 -1.615800E-08
     13351   1  3.271914E-05 -1.079660E-05 -1.079748E-05  1.491913E-05  1.972010E-07 -1.767978E-08
     13352   1  3.272486E-05 -1.080052E-05 -1.079887E-05  1.552447E-05  2.166369E-07 -1.318052E-08
     13353   1  3.273039E-05 -1.080352E-05 -1.079827E-05  1.643384E-05  1.689781E-07 -1.184165E-08
     13354   1  3.273453E-05 -1.080338E-05 -1.080477E-05  1.770086E-05  6.140526E-08 -3.297523E-09
     13355   1  1.635493E-05 -5.401525E-06 -5.393778E-06  1.962438E-05 -2.565907E-08 -6.660544E-10
     13356   1  1.635445E-05 -5.398987E-06 -5.397090E-06  1.832927E-05 -6.621427E-08 -2.418170E-09
     13357   1  1.635338E-05 -5.397806E-06 -5.395480E-06  1.736598E-05 -8.631401E-08 -8.882324E-10
     13358   1  1.635324E-05 -5.398016E-06 -5.395658E-06  1.671128E-05 -7.729750E-08 -6.384134E-09
     13359   1  1.635357E-05 -5.397242E-06 -5.396117E-06  1.632955E-05 -4.369083E-08 -9.393423E-09
     13360   1  1.635483E-05 -5.398621E-06 -5.395684E-06  1.620318E-05  4.316547E-09 -1.321846E-08
     13361   1  1.635672E-05 -5.398362E-06 -5.397307E-06  1.632131E-05  5.162179E-08 -1.900852E-08
     13362   1  1.635919E-05 -5.400224E-06 -5.397570E-06  1.669567E-05  8.474790E-08 -1.599662E-08
     13363   1  1.636189E-05 -5.400842E-06 -5.398551E-06  1.734422E-05  9.200784E-08 -1.987641E-08
     13364   1  1.636421E-05 -5.401930E-06 -5.400198E-06  1.830244E-05  7.024882E-08 -9.315635E-09
     13365   1  1.636560E-05 -5.403323E-06 -5.398119E-06  1.959475E-05  2.719213E-08 -6.262118E-09
     13366   1 -3.949048E-09 -7.609316E-11  1.978034E-09  2.024809E-05  1.532454E-10 -5.405218E-10
     13367   1 -2.758908E-09 -2.056452E-10  1.483722E-09  1.894690E-05  5.114860E-10  2.486629E-09
     13368   1 -1.841456E-09 -2.240572E-10  1.094436E-09  1.797504E-05  5.985701E-10 -4.959052E-09
     13369   1 -1.219549E-09 -2.324023E-10  8.196970E-10  1.730422E-05  3.857462E-10 -3.333166E-09
     13370   1 -9.072613E-10 -2.321521E-10  7.524020E-10  1.691372E-05  2.031902E-10 -1.164071E-08
     13371   1 -8.112330E-10 -2.392277E-10  6.833851E-10  1.678217E-05 -7.870504E-11 -1.372263E-08
     13372   1 -9.258498E-10 -2.569899E-10  7.824950E-10  1.690519E-05 -2.572389E-10 -1.770890E-08
     13373   1 -1.234890E-09 -2.806203E-10  8.381752E-10  1.728793E-05 -5.246094E-10 -2.006826E-08
     13374   1 -1.872646E-09 -3.187919E-10  1.175227E-09  1.795250E-05 -6.442277E-10 -1.646327E-08
     13375   1 -2.800859E-09 -2.808122E-10  1.502991E-09  1.892187E-05 -6.592952E-10 -1.372965E-08
     13376   1 -4.177406E-09  1.709383E-12  2.101948E-09  2.022409E-05 -2.818929E-10 -5.081887E-09
     13377   1 -1.636318E-05  5.402232E-06  5.397385E-06  1.962471E-05  2.646354E-08 -4.651333E-10
     13378   1 -1.635972E-05  5.398348E-06  5.399968E-06  1.832975E-05  6.748879E-08 -2.141950E-09
     13379   1 -1.635633E-05  5.396471E-06  5.397364E-06  1.736663E-05  8.758215E-08 -6.676051E-10
     13380   1 -1.635502E-05  5.396406E-06  5.397321E-06  1.671201E-05  7.800455E-08 -6.225903E-09
     13381   1 -1.635461E-05  5.395530E-06  5.397453E-06  1.633038E-05  4.417213E-08 -9.291092E-09
     13382   1 -1.635569E-05  5.396877E-06  5.397053E-06  1.620404E-05 -4.536231E-09 -1.318907E-08
     13383   1 -1.635782E-05  5.396600E-06  5.398757E-06  1.632212E-05 -5.204790E-08 -1.904919E-08
     13384   1 -1.636092E-05  5.398515E-06  5.399150E-06  1.669641E-05 -8.583364E-08 -1.609933E-08
     13385   1 -1.636505E-05  5.399382E-06  5.400750E-06  1.734482E-05 -9.324528E-08 -2.006183E-08
     13386   1 -1.636937E-05  5.401021E-06  5.403009E-06  1.830291E-05 -7.160607E-08 -9.488243E-09
     13387   1 -1.637374E-05  5.403337E-06  5.402151E-06  1.959513E-05 -2.776857E-08 -6.373502E-09
     13388   1 -3.271937E-05  1.079611E-05  1.080010E-05  1.772268E-05  5.930790E-08 -1.127765E-09
     13389   1 -3.271471E-05  1.079610E-05  1.079396E-05  1.645657E-05  1.626081E-07  3.299221E-09
     13390   1 -3.271093E-05  1.079456E-05  1.079483E-05  1.554514E-05  2.066651E-07 -4.485319E-09
     13391   1 -3.270865E-05  1.079216E-05  1.079466E-05  1.493473E-05  1.839813E-07 -1.768867E-09
     13392   1 -3.270856E-05  1.079422E-05  1.079258E-05  1.458923E-05  1.048823E-07 -9.087023E-09
     13393   1 -3.271058E-05  1.079406E-05  1.079448E-05  1.447498E-05 -8.267376E-09 -1.168073E-08
     13394   1 -3.271465E-05  1.079629E-05  1.079484E-05  1.458186E-05 -1.205098E-07 -1.626839E-08
     13395   1 -3.272018E-05  1.079610E-05  1.079867E-05  1.492062E-05 -1.981924E-07 -1.780551E-08
     13396   1 -3.272734E-05  1.080017E-05  1.080065E-05  1.552576E-05 -2.178922E-07 -1.352835E-08
     13397   1 -3.273484E-05  1.080346E-05  1.080051E-05  1.643493E-05 -1.703353E-07 -1.211531E-08
     13398   1 -3.274207E-05  1.080407E-05  1.080827E-05  1.770191E-05 -6.199868E-08 -3.500289E-09
     13399   1 -4.907936E-05  1.620599E-05  1.618815E-05  1.452338E-05  1.270850E-07  3.524081E-10
     13400   1 -4.907029E-05  1.619442E-05  1.619441E-05  1.332520E-05  3.198640E-07 -3.938559E-09
     13401   1 -4.906482E-05  1.618804E-05  1.619358E-05  1.250281E-05  4.046977E-07  1.985147E-09
     13402   1 -4.906139E-05  1.619050E-05  1.618756E-05  1.199500E-05  3.580636E-07 -1.287928E-09
     13403   1 -4.906215E-05  1.619023E-05  1.619051E-05  1.171398E-05  1.984306E-07 -6.329220E-09
     13404   1 -4.906481E-05  1.619132E-05  1.618940E-05  1.162115E-05 -1.096622E-08 -9.348495E-09
     13405   1 -4.907053E-05  1.619306E-05  1.619335E-05  1.170802E-05 -2.208648E-07 -1.405972E-08
     13406   1 -4.907800E-05  1.619609E-05  1.619373E-05  1.198372E-05 -3.769072E-07 -1.398694E-08
     13407   1 -4.908748E-05  1.619582E-05  1.620098E-05  1.248719E-05 -4.206697E-07 -1.603690E-08
     13408   1 -4.909753E-05  1.620206E-05  1.620453E-05  1.330598E-05 -3.296844E-07 -3.045901E-09
     13409   1 -4.910704E-05  1.621042E-05  1.619819E-05  1.450200E-05 -1.309654E-07 -4.998316E-09
     13410   1 -6.543070E-05  2.158981E-05  2.160224E-05  9.932466E-06  2.320440E-07 -4.473407E-09
     13411   1 -6.542192E-05  2.158493E-05  2.158803E-05  8.859991E-06  6.339574E-07  7.121894E-09
     13412   1 -6.541840E-05  2.158858E-05  2.158556E-05  8.273574E-06  7.711595E-07  3.680246E-09
     13413   1 -6.541466E-05  2.158879E-05  2.158324E-05  7.933676E-06  6.349980E-07 -5.739800E-11
     13414   1 -6.541640E-05  2.158699E-05  2.158707E-05  7.745417E-06  3.469641E-07 -3.711180E-09
     13415   1 -6.541968E-05  2.159020E-05  2.158645E-05  7.686800E-06 -1.240019E-08 -6.140960E-09
     13416   1 -6.542635E-05  2.159048E-05  2.158993E-05  7.741438E-06 -3.742257E-07 -1.002655E-08
     13417   1 -6.543496E-05  2.159538E-05  2.159083E-05  7.926053E-06 -6.562820E-07 -9.719563E-09
     13418   1 -6.544531E-05  2.159797E-05  2.159339E-05  8.263298E-06 -7.904522E-07 -1.250069E-08
     13419   1 -6.545716E-05  2.159778E-05  2.160080E-05  8.848506E-06 -6.453662E-07 -1.005191E-08
     13420   1 -6.546829E-05  2.160533E-05  2.161318E-05  9.921638E-06 -2.363435E-07  2.993483E-09
     13421   1 -8.178868E-05  2.701001E-05  2.696720E-05  3.649476E-06  6.230329E-07  7.334937E-09
     13422   1 -8.177610E-05  2.698798E-05  2.697380E-05  3.136926E-06  1.347492E-06  5.541891E-09
     13423   1 -8.177193E-05  2.699104E-05  2.697841E-05  2.941616E-06  1.366560E-06  6.607477E-10
     13424   1 -8.176861E-05  2.698210E-05  2.698066E-05  2.812560E-06  1.062815E-06  9.969690E-10
     13425   1 -8.177153E-05  2.698659E-05  2.698457E-05  2.750668E-06  5.646024E-07 -1.664793E-09
     13426   1 -8.177533E-05  2.698348E-05  2.698622E-05  2.727502E-06 -1.232349E-08 -2.006950E-09
     13427   1 -8.178215E-05  2.699066E-05  2.698653E-05  2.749183E-06 -5.935242E-07 -3.656455E-09
     13428   1 -8.179080E-05  2.699002E-05  2.698780E-05  2.809952E-06 -1.084019E-06 -3.974132E-09
     13429   1 -8.180062E-05  2.700165E-05  2.698450E-05  2.937774E-06 -1.387346E-06 -4.245746E-09
     13430   1 -8.181256E-05  2.699844E-05  2.698746E-05  3.132649E-06 -1.358275E-06 -6.141279E-09
     13431   1 -8.182342E-05  2.701722E-05  2.697684E-05  3.644239E-06 -6.281752E-07 -9.340921E-09
     13432   1  7.723855E-05 -2.549842E-05 -2.546568E-05  3.646271E-06 -6.226487E-07  1.064186E-08
     13433   1  7.723319E-05 -2.548479E-05 -2.547904E-05  3.136418E-06 -1.342010E-06  4.962263E-09
     13434   1  7.722907E-05 -2.549109E-05 -2.547857E-05  2.941306E-06 -1.363722E-06  2.160386E-09
     13435   1  7.722871E-05 -2.548296E-05 -2.548610E-05  2.812983E-06 -1.055719E-06 -2.867706E-10
     13436   1  7.723202E-05 -2.548716E-05 -2.548783E-05  2.750889E-06 -5.613270E-07 -9.951260E-10
     13437   1  7.723816E-05 -2.548498E-05 -2.549207E-05  2.727717E-06  1.914815E-08 -3.791485E-09
     13438   1  7.724745E-05 -2.549281E-05 -2.549213E-05  2.749079E-06  5.960303E-07 -3.613856E-09
     13439   1  7.725784E-05 -2.549350E-05 -2.549330E-05  2.809213E-06  1.088837E-06 -6.177586E-09
     13440   1  7.727104E-05 -2.550593E-05 -2.549135E-05  2.936581E-06  1.388318E-06 -4.050158E-09
     13441   1  7.728403E-05 -2.550437E-05 -2.549293E-05  3.130629E-06  1.360058E-06 -7.651672E-09
     13442   1  7.729777E-05 -2.552338E-05 -2.548549E-05  3.641367E-06  6.278191E-07 -7.599697E-09
     13443   1  6.179766E-05 -2.039993E-05 -2.040013E-05  9.933255E-06 -2.310316E-07 -5.268318E-09
     13444   1  6.178773E-05 -2.038942E-05 -2.038917E-05  8.860249E-06 -6.321796E-07  5.211644E-09
     13445   1  6.178115E-05 -2.038913E-05 -2.038466E-05  8.274262E-06 -7.687010E-07  4.652492E-09
     13446   1  6.177938E-05 -2.038902E-05 -2.038564E-05  7.934831E-06 -6.304352E-07 -1.333864E-09
     13447   1  6.178132E-05 -2.038754E-05 -2.038799E-05  7.747131E-06 -3.436467E-07 -3.643296E-09
     13448   1  6.178685E-05 -2.039112E-05 -2.038970E-05  7.687926E-06  1.781186E-08 -9.356211E-09
     13449   1  6.179532E-05 -2.039223E-05 -2.039265E-05  7.741881E-06  3.776162E-07 -1.153707E-08
     13450   1  6.180622E-05 -2.039821E-05 -2.039455E-05  7.924868E-06  6.609765E-07 -1.412354E-08
     13451   1  6.181913E-05 -2.040193E-05 -2.039730E-05  8.260527E-06  7.929467E-07 -1.373276E-08
     13452   1  6.183242E-05 -2.040258E-05 -2.040460E-05  8.843541E-06  6.478776E-07 -1.302397E-08
     13453   1  6.184459E-05 -2.040914E-05 -2.041696E-05  9.913907E-06  2.371293E-07  3.346211E-09
     13454   1  4.634423E-05 -1.529830E-05 -1.528538E-05  1.451513E-05 -1.271972E-07  3.927602E-09
     13455   1  4.633892E-05 -1.529221E-05 -1.529366E-05  1.332268E-05 -3.183868E-07 -2.602838E-09
     13456   1  4.633455E-05 -1.528872E-05 -1.529128E-05  1.250431E-05 -4.030166E-07  3.946378E-09
     13457   1  4.633239E-05 -1.529086E-05 -1.528792E-05  1.199762E-05 -3.551385E-07 -2.710285E-09
     13458   1  4.633341E-05 -1.529046E-05 -1.528974E-05  1.171734E-05 -1.955392E-07 -6.535286E-09
     13459   1  4.633778E-05 -1.529189E-05 -1.529071E-05  1.162362E-05  1.487727E-08 -1.365174E-08
     13460   1  4.634483E-05 -1.529431E-05 -1.529382E-05  1.170957E-05  2.241965E-07 -1.669187E-08
     13461   1  4.635439E-05 -1.529827E-05 -1.529566E-05  1.198263E-05  3.806888E-07 -2.036376E-08
     13462   1  4.636552E-05 -1.529928E-05 -1.530195E-05  1.248379E-05  4.234197E-07 -1.880681E-08
     13463   1  4.637745E-05 -1.530643E-05 -1.530637E-05  1.329948E-05  3.321071E-07 -8.522311E-09
     13464   1  4.638744E-05 -1.531442E-05 -1.530019E-05  1.449308E-05  1.316037E-07 -4.334691E-09
     13465   1  3.089843E-05 -1.020250E-05 -1.019675E-05  1.772620E-05 -5.881589E-08 -7.633843E-10
     13466   1  3.089374E-05 -1.019995E-05 -1.019153E-05  1.645885E-05 -1.619138E-07  2.028859E-09
     13467   1  3.088949E-05 -1.019640E-05 -1.019237E-05  1.554776E-05 -2.053890E-07 -1.724417E-09
     13468   1  3.088775E-05 -1.019373E-05 -1.019308E-05  1.493864E-05 -1.821804E-07 -3.277170E-09
     13469   1  3.088838E-05 -1.019566E-05 -1.019122E-05  1.459425E-05 -1.026848E-07 -9.078697E-09
     13470   1  3.089127E-05 -1.019570E-05 -1.019383E-05  1.447903E-05  1.065325E-08 -1.693487E-08
     13471   1  3.089643E-05 -1.019844E-05 -1.019414E-05  1.458465E-05  1.231333E-07 -1.964251E-08
     13472   1  3.090332E-05 -1.019924E-05 -1.019849E-05  1.492025E-05  2.005401E-07 -2.576863E-08
     13473   1  3.091141E-05 -1.020410E-05 -1.019992E-05  1.552233E-05  2.200307E-07 -1.775187E-08
     13474   1  3.091963E-05 -1.020761E-05 -1.020042E-05  1.642721E-05  1.717373E-07 -1.891045E-08
     13475   1  3.092607E-05 -1.020731E-05 -1.020726E-05  1.769062E-05  6.260114E-08 -3.418559E-09
     13476   1  1.544703E-05 -5.101569E-06 -5.094318E-06  1.961487E-05 -2.622745E-08  3.851693E-09
     13477   1  1.544523E-05 -5.099790E-06 -5.095660E-06  1.832675E-05 -6.684251E-08 -2.520232E-10
     13478   1  1.544420E-05 -5.098905E-06 -5.095313E-06  1.736926E-05 -8.629858E-08  2.843735E-09
     13479   1  1.544320E-05 -5.098651E-06 -5.094410E-06  1.671663E-05 -7.723833E-08 -7.425970E-09
     13480   1  1.544362E-05 -5.097622E-06 -5.095871E-06  1.633605E-05 -4.264973E-08 -9.266731E-09
     13481   1  1.544504E-05 -5.099033E-06 -5.094975E-06  1.620879E-05  5.347428E-09 -1.887148E-08
     13482   1  1.544773E-05 -5.099129E-06 -5.097219E-06  1.632537E-05  5.354243E-08 -2.294700E-08
     13483   1  1.545130E-05 -5.101544E-06 -5.097408E-06  1.669594E-05  8.644139E-08 -2.537685E-08
     13484   1  1.545537E-05 -5.103005E-06 -5.098755E-06  1.734076E-05  9.414898E-08 -2.508020E-08
     13485   1  1.545946E-05 -5.105033E-06 -5.100721E-06  1.829454E-05  7.172830E-08 -1.757961E-08
     13486   1  1.546223E-05 -5.106865E-06 -5.099278E-06  1.958380E-05  2.785883E-08 -6.273665E-09
     13487   1 -3.829008E-09 -1.843604E-09  2.790490E-09  2.025138E-05  3.894713E-10  3.963110E-10
     13488   1 -2.030196E-09 -2.531391E-09  2.226881E-09  1.894941E-05  5.197251E-10  2.066810E-09
     13489   1 -9.694045E-10 -2.754925E-09  1.856984E-09  1.797806E-05  2.639476E-10 -1.322238E-09
     13490   1 -5.147584E-10 -2.728051E-09  1.788340E-09  1.730922E-05  1.233571E-10 -4.299598E-09
     13491   1 -3.293703E-10 -2.676008E-09  1.741997E-09  1.692017E-05 -4.637141E-11 -1.147463E-08
     13492   1 -2.952370E-10 -2.668235E-09  1.831868E-09  1.678764E-05 -4.194253E-11 -1.947061E-08
     13493   1 -3.275981E-10 -2.732032E-09  1.761564E-09  1.690910E-05 -1.482034E-10 -2.200246E-08
     13494   1 -5.291061E-10 -2.844662E-09  1.870928E-09  1.728794E-05 -1.960543E-10 -2.954075E-08
     13495   1 -9.826204E-10 -2.897643E-09  1.917180E-09  1.794862E-05 -4.035245E-10 -2.217667E-08
     13496   1 -1.995880E-09 -2.816816E-09  2.409859E-09  1.891262E-05 -4.515067E-10 -2.218425E-08
     13497   1 -3.481023E-09 -2.500855E-09  2.882669E-09  2.021072E-05 -2.424157E-10 -5.352608E-09
     13498   1 -1.545388E-05  5.097283E-06  5.099957E-06  1.961410E-05  2.625978E-08  3.837503E-09
     13499   1 -1.544924E-05  5.095638E-06  5.099809E-06  1.832610E-05  6.751278E-08 -2.076697E-11
     13500   1 -1.544669E-05  5.095044E-06  5.099105E-06  1.736884E-05  8.672533E-08  3.136148E-09
     13501   1 -1.544457E-05  5.094988E-06  5.097723E-06  1.671650E-05  7.756429E-08 -7.196658E-09
     13502   1 -1.544475E-05  5.094093E-06  5.099449E-06  1.633606E-05  4.243163E-08 -9.158189E-09
     13503   1 -1.544607E-05  5.095506E-06  5.098551E-06  1.620883E-05 -5.307179E-09 -1.883383E-08
     13504   1 -1.544881E-05  5.095503E-06  5.100747E-06  1.632538E-05 -5.389573E-08 -2.299803E-08
     13505   1 -1.545282E-05  5.097686E-06  5.101044E-06  1.669575E-05 -8.670544E-08 -2.554694E-08
     13506   1 -1.545766E-05  5.098805E-06  5.102416E-06  1.734032E-05 -9.498839E-08 -2.531665E-08
     13507   1 -1.546376E-05  5.100587E-06  5.105346E-06  1.829374E-05 -7.258588E-08 -1.789167E-08
     13508   1 -1.546947E-05  5.102755E-06  5.104822E-06  1.958269E-05 -2.834972E-08 -6.377472E-09
     13509   1 -3.090642E-05  1.020072E-05  1.020180E-05  1.772457E-05  5.955773E-08 -1.313411E-10
     13510   1 -3.089751E-05  1.019663E-05  1.019492E-05  1.645806E-05  1.629605E-07  2.678275E-09
     13511   1 -3.089106E-05  1.019231E-05  1.019568E-05  1.554763E-05  2.057466E-07 -1.157102E-09
     13512   1 -3.088815E-05  1.018933E-05  1.019617E-05  1.493885E-05  1.824019E-07 -3.003652E-09
     13513   1 -3.088841E-05  1.019115E-05  1.019467E-05  1.459473E-05  1.024224E-07 -8.803094E-09
     13514   1 -3.089128E-05  1.019117E-05  1.019743E-05  1.447958E-05 -1.059098E-08 -1.694725E-08
     13515   1 -3.089641E-05  1.019385E-05  1.019751E-05  1.458509E-05 -1.233237E-07 -1.964551E-08
     13516   1 -3.090385E-05  1.019469E-05  1.020190E-05  1.492043E-05 -2.006558E-07 -2.607967E-08
     13517   1 -3.091286E-05  1.019979E-05  1.020303E-05  1.552205E-05 -2.207032E-07 -1.809215E-08
     13518   1 -3.092355E-05  1.020390E-05  1.020442E-05  1.642632E-05 -1.725800E-07 -1.946049E-08
     13519   1 -3.093345E-05  1.020461E-05  1.021211E-05  1.768917E-05 -6.310206E-08 -3.587730E-09
     13520   1 -4.635025E-05  1.529745E-05  1.528810E-05  1.451522E-05  1.274174E-07  3.896542E-09
     13521   1 -4.634209E-05  1.529055E-05  1.529733E-05  1.332260E-05  3.188721E-07 -2.357710E-09
     13522   1 -4.633452E-05  1.528659E-05  1.529265E-05  1.250481E-05  4.036393E-07  4.674461E-09
     13523   1 -4.633205E-05  1.528840E-05  1.529156E-05  1.199856E-05  3.546049E-07 -2.523422E-09
     13524   1 -4.633225E-05  1.528775E-05  1.529228E-05  1.171851E-05  1.957865E-07 -6.137123E-09
     13525   1 -4.633683E-05  1.528909E-05  1.529477E-05  1.162491E-05 -1.532661E-08 -1.373227E-08
     13526   1 -4.634383E-05  1.529157E-05  1.529666E-05  1.171071E-05 -2.236319E-07 -1.660029E-08
     13527   1 -4.635372E-05  1.529570E-05  1.529881E-05  1.198355E-05 -3.809048E-07 -2.072300E-08
     13528   1 -4.636589E-05  1.529700E-05  1.530411E-05  1.248420E-05 -4.235103E-07 -1.912526E-08
     13529   1 -4.638019E-05  1.530466E-05  1.530925E-05  1.329935E-05 -3.330606E-07 -9.179527E-09
     13530   1 -4.639416E-05  1.531368E-05  1.530388E-05  1.449245E-05 -1.319972E-07 -4.493664E-09
     13531   1 -6.180009E-05  2.039999E-05  2.039943E-05  9.933816E-06  2.319134E-07 -4.471109E-09
     13532   1 -6.178787E-05  2.038757E-05  2.039268E-05  8.861210E-06  6.323099E-07  5.873615E-09
     13533   1 -6.177663E-05  2.038564E-05  2.038367E-05  8.275693E-06  7.696222E-07  5.057060E-09
     13534   1 -6.177530E-05  2.038448E-05  2.038967E-05  7.936449E-06  6.289643E-07 -1.093155E-09
     13535   1 -6.177607E-05  2.038259E-05  2.038950E-05  7.749050E-06  3.443691E-07 -3.452210E-09
     13536   1 -6.178208E-05  2.038594E-05  2.039417E-05  7.689789E-06 -1.878269E-08 -9.330876E-09
     13537   1 -6.179038E-05  2.038724E-05  2.039486E-05  7.743791E-06 -3.761286E-07 -1.145929E-08
     13538   1 -6.180135E-05  2.039362E-05  2.039722E-05  7.926505E-06 -6.611729E-07 -1.434150E-08
     13539   1 -6.181547E-05  2.039833E-05  2.039822E-05  8.261888E-06 -7.922510E-07 -1.389972E-08
     13540   1 -6.183118E-05  2.040043E-05  2.040580E-05  8.844432E-06 -6.488690E-07 -1.351337E-08
     13541   1 -6.184810E-05  2.040883E-05  2.041885E-05  9.914597E-06 -2.374083E-07  3.228413E-09
     13542   1 -7.723474E-05  2.549698E-05  2.546295E-05  3.647120E-06  6.232281E-07  9.654416E-09
     13543   1 -7.722719E-05  2.548167E-05  2.548039E-05  3.136942E-06  1.342242E-06  5.362382E-09
     13544   1 -7.721897E-05  2.548706E-05  2.547613E-05  2.942206E-06  1.364072E-06  1.927225E-09
     13545   1 -7.722000E-05  2.547810E-05  2.548943E-05  2.813738E-06  1.053907E-06  1.061569E-10
     13546   1 -7.722199E-05  2.548178E-05  2.548874E-05  2.752011E-06  5.618568E-07 -1.142416E-09
     13547   1 -7.722913E-05  2.547938E-05  2.549643E-05  2.728532E-06 -2.012456E-08 -3.633268E-09
     13548   1 -7.723776E-05  2.548739E-05  2.549379E-05  2.750192E-06 -5.939194E-07 -3.648775E-09
     13549   1 -7.724804E-05  2.548852E-05  2.549515E-05  2.809991E-06 -1.088618E-06 -6.226651E-09
     13550   1 -7.726173E-05  2.550175E-05  2.549081E-05  2.937480E-06 -1.386850E-06 -4.099511E-09
     13551   1 -7.727650E-05  2.550136E-05  2.549190E-05  3.131200E-06 -1.361027E-06 -7.893164E-09
     13552   1 -7.729495E-05  2.552214E-05  2.548498E-05  3.642114E-06 -6.280687E-07 -7.543244E-09
     13553   1  7.270201E-05 -2.401307E-05 -2.397017E-05  3.648405E-06 -6.200609E-07  3.901341E-09
     13554   1  7.268499E-05 -2.398807E-05 -2.397779E-05  3.137175E-06 -1.340659E-06  5.768789E-09
     13555   1  7.267780E-05 -2.398776E-05 -2.398204E-05  2.943384E-06 -1.356085E-06  1.060739E-10
     13556   1  7.267758E-05 -2.397855E-05 -2.399075E-05  2.814693E-06 -1.050056E-06  1.655243E-09
     13557   1  7.268279E-05 -2.398256E-05 -2.399552E-05  2.753469E-06 -5.525499E-07 -3.026704E-09
     13558   1  7.269212E-05 -2.398097E-05 -2.400191E-05  2.729708E-06  2.400399E-08 -3.096602E-09
     13559   1  7.270335E-05 -2.399004E-05 -2.400061E-05  2.750862E-06  6.018025E-07 -6.445110E-09
     13560   1  7.271806E-05 -2.399317E-05 -2.400262E-05  2.810258E-06  1.091276E-06 -6.073516E-09
     13561   1  7.273384E-05 -2.400772E-05 -2.399695E-05  2.936603E-06  1.391701E-06 -6.938223E-09
     13562   1  7.275324E-05 -2.400874E-05 -2.400086E-05  3.129785E-06  1.361634E-06 -6.528693E-09
     13563   1  7.277190E-05 -2.402824E-05 -2.399249E-05  3.638898E-06  6.291033E-07 -9.274395E-09
     13564   1  5.815646E-05 -1.918755E-05 -1.919924E-05  9.927315E-06 -2.319670E-07 -2.005997E-09
     13565   1  5.814611E-05 -1.918386E-05 -1.918987E-05  8.861099E-06 -6.302843E-07  9.148280E-09
     13566   1  5.813920E-05 -1.918587E-05 -1.918534E-05  8.278343E-06 -7.655802E-07  4.344149E-09
     13567   1  5.813671E-05 -1.918431E-05 -1.918891E-05  7.940535E-06 -6.255636E-07  3.080809E-10
     13568   1  5.813995E-05 -1.918242E-05 -1.919244E-05  7.753091E-06 -3.378677E-07 -6.205219E-09
     13569   1  5.814733E-05 -1.918616E-05 -1.919609E-05  7.693831E-06  2.315053E-08 -1.010555E-08
     13570   1  5.815858E-05 -1.918874E-05 -1.919863E-05  7.746252E-06  3.829564E-07 -1.675552E-08
     13571   1  5.817289E-05 -1.919635E-05 -1.920100E-05  7.927515E-06  6.653911E-07 -1.652488E-08
     13572   1  5.819000E-05 -1.920295E-05 -1.920242E-05  8.260299E-06  7.974906E-07 -1.947282E-08
     13573   1  5.820970E-05 -1.920724E-05 -1.921042E-05  8.840659E-06  6.516894E-07 -1.367995E-08
     13574   1  5.822884E-05 -1.921653E-05 -1.922328E-05  9.908050E-06  2.387518E-07  2.314443E-10
     13575   1  4.362526E-05 -1.441002E-05 -1.438736E-05  1.452100E-05 -1.266038E-07  1.966045E-11
     13576   1  4.361311E-05 -1.439749E-05 -1.439294E-05  1.332726E-05 -3.186351E-07 -6.295353E-10
     13577   1  4.360447E-05 -1.438939E-05 -1.439155E-05  1.250958E-05 -4.014581E-07  4.002327E-09
     13578   1  4.360130E-05 -1.439034E-05 -1.438897E-05  1.200540E-05 -3.521097E-07 -6.059090E-10
     13579   1  4.360304E-05 -1.438962E-05 -1.439250E-05  1.172554E-05 -1.915264E-07 -9.513254E-09
     13580   1  4.360869E-05 -1.439125E-05 -1.439398E-05  1.163204E-05  1.932942E-08 -1.530869E-08
     13581   1  4.361823E-05 -1.439471E-05 -1.439790E-05  1.171536E-05  2.288816E-07 -2.392816E-08
     13582   1  4.363068E-05 -1.440037E-05 -1.439929E-05  1.198623E-05  3.853318E-07 -2.449777E-08
     13583   1  4.364602E-05 -1.440366E-05 -1.440575E-05  1.248270E-05  4.281732E-07 -2.738981E-08
     13584   1  4.366248E-05 -1.441215E-05 -1.441011E-05  1.329415E-05  3.360659E-07 -1.136557E-08
     13585   1  4.367800E-05 -1.441998E-05 -1.440670E-05  1.448263E-05  1.335416E-07 -9.014956E-09
     13586   1  2.908177E-05 -9.599493E-06 -9.597365E-06  1.771505E-05 -5.984145E-08  1.721321E-09
     13587   1  2.907505E-05 -9.599663E-06 -9.590647E-06  1.645743E-05 -1.625750E-07  8.875070E-09
     13588   1  2.907009E-05 -9.597288E-06 -9.592271E-06  1.555295E-05 -2.047706E-07 -7.829575E-10
     13589   1  2.906730E-05 -9.593718E-06 -9.592787E-06  1.494699E-05 -1.808420E-07 -3.320643E-10
     13590   1  2.906783E-05 -9.594889E-06 -9.592339E-06  1.460323E-05 -1.000469E-07 -1.277535E-08
     13591   1  2.907185E-05 -9.595193E-06 -9.595101E-06  1.448814E-05  1.369729E-08 -1.873975E-08
     13592   1  2.907852E-05 -9.598604E-06 -9.596118E-06  1.459074E-05  1.266725E-07 -2.873002E-08
     13593   1  2.908788E-05 -9.600848E-06 -9.600085E-06  1.492320E-05  2.043913E-07 -3.112612E-08
     13594   1  2.909919E-05 -9.607452E-06 -9.602079E-06  1.551952E-05  2.238876E-07 -2.923727E-08
     13595   1  2.911142E-05 -9.613042E-06 -9.602815E-06  1.641966E-05  1.751481E-07 -2.259072E-08
     13596   1  2.912244E-05 -9.614092E-06 -9.611353E-06  1.767826E-05  6.397350E-08 -9.232069E-09
     13597   1  1.454179E-05 -4.808209E-06 -4.793094E-06  1.961916E-05 -2.602294E-08  3.721304E-10
     13598   1  1.453923E-05 -4.804929E-06 -4.795996E-06  1.833037E-05 -6.703326E-08  3.853612E-09
     13599   1  1.453577E-05 -4.802561E-06 -4.793616E-06  1.737377E-05 -8.676906E-08  3.414061E-09
     13600   1  1.453448E-05 -4.801762E-06 -4.794411E-06  1.672464E-05 -7.651727E-08 -3.583347E-09
     13601   1  1.453444E-05 -4.800586E-06 -4.794826E-06  1.634517E-05 -4.195259E-08 -1.326891E-08
     13602   1  1.453649E-05 -4.801925E-06 -4.795245E-06  1.621790E-05  7.289527E-09 -2.090919E-08
     13603   1  1.454001E-05 -4.802572E-06 -4.796923E-06  1.633122E-05  5.521459E-08 -3.299411E-08
     13604   1  1.454502E-05 -4.805707E-06 -4.797713E-06  1.669828E-05  8.911428E-08 -3.178916E-08
     13605   1  1.455103E-05 -4.808074E-06 -4.799110E-06  1.733667E-05  9.628055E-08 -3.771375E-08
     13606   1  1.455697E-05 -4.810570E-06 -4.801411E-06  1.828431E-05  7.393521E-08 -2.237134E-08
     13607   1  1.456193E-05 -4.812374E-06 -4.801001E-06  1.956708E-05  2.867985E-08 -1.285544E-08
     13608   1 -9.288657E-10 -6.870872E-09  3.875877E-09  2.023693E-05 -2.393684E-10  2.506477E-09
     13609   1  3.583180E-11 -6.167033E-09  3.257799E-09  1.894484E-05 -2.379591E-10  9.594514E-09
     13610   1  4.053963E-10 -5.517060E-09  3.068764E-09  1.798139E-05 -3.171350E-10  3.033344E-10
     13611   1  4.728598E-10 -5.099667E-09  3.100774E-09  1.731632E-05 -5.036615E-10 -8.025238E-10
     13612   1  3.021488E-10 -4.845980E-09  3.396654E-09  1.692819E-05 -3.547327E-10 -1.526098E-08
     13613   1  2.171834E-10 -4.787229E-09  3.431916E-09  1.679584E-05 -1.218842E-10 -2.170095E-08
     13614   1  3.113163E-10 -4.952657E-09  3.458247E-09  1.691378E-05  2.454741E-10 -3.242053E-08
     13615   1  5.140895E-10 -5.303289E-09  3.172242E-09  1.728885E-05  2.978496E-10 -3.623029E-08
     13616   1  4.899521E-10 -5.868253E-09  3.225249E-09  1.794265E-05  2.390912E-10 -3.565669E-08
     13617   1  3.877024E-11 -6.462926E-09  3.322257E-09  1.890111E-05 -5.217123E-11 -2.704542E-08
     13618   1 -1.392076E-09 -6.745349E-09  4.119302E-09  2.019352E-05 -6.791318E-11 -1.213685E-08
     13619   1 -1.454642E-05  4.797962E-06  4.800310E-06  1.961500E-05  2.672574E-08  8.380075E-10
     13620   1 -1.454012E-05  4.793431E-06  4.802410E-06  1.832732E-05  6.711553E-08  4.408393E-09
     13621   1 -1.453470E-05  4.790959E-06  4.799307E-06  1.737153E-05  8.617281E-08  3.806649E-09
     13622   1 -1.453349E-05  4.790599E-06  4.800847E-06  1.672279E-05  7.524348E-08 -3.368810E-09
     13623   1 -1.453359E-05  4.789759E-06  4.801528E-06  1.634357E-05  4.135526E-08 -1.312482E-08
     13624   1 -1.453583E-05  4.791171E-06  4.802317E-06  1.621639E-05 -7.680938E-09 -2.088997E-08
     13625   1 -1.453922E-05  4.791546E-06  4.803867E-06  1.632956E-05 -5.450075E-08 -3.306960E-08
     13626   1 -1.454379E-05  4.794145E-06  4.804038E-06  1.669637E-05 -8.850165E-08 -3.196461E-08
     13627   1 -1.455015E-05  4.795953E-06  4.805452E-06  1.733420E-05 -9.560248E-08 -3.807438E-08
     13628   1 -1.455727E-05  4.798112E-06  4.807783E-06  1.828115E-05 -7.402897E-08 -2.272066E-08
     13629   1 -1.456560E-05  4.800037E-06  4.809055E-06  1.956306E-05 -2.880396E-08 -1.309443E-08
     13630   1 -2.908669E-05  9.590979E-06  9.603776E-06  1.770998E-05  5.943280E-08  1.510412E-09
     13631   1 -2.907719E-05  9.591520E-06  9.596686E-06  1.645300E-05  1.619294E-07  9.430174E-09
     13632   1 -2.907055E-05  9.589651E-06  9.597537E-06  1.554942E-05  2.039219E-07 -2.282978E-10
     13633   1 -2.906767E-05  9.586417E-06  9.599161E-06  1.494433E-05  1.792749E-07  1.834226E-10
     13634   1 -2.906846E-05  9.587791E-06  9.599273E-06  1.460094E-05  9.928009E-08 -1.268175E-08
     13635   1 -2.907265E-05  9.588081E-06  9.602456E-06  1.448594E-05 -1.403837E-08 -1.857877E-08
     13636   1 -2.907923E-05  9.591367E-06  9.603305E-06  1.458839E-05 -1.257047E-07 -2.891798E-08
     13637   1 -2.908809E-05  9.593256E-06  9.606267E-06  1.492034E-05 -2.034069E-07 -3.133944E-08
     13638   1 -2.909981E-05  9.599352E-06  9.608024E-06  1.551583E-05 -2.228979E-07 -2.989834E-08
     13639   1 -2.911334E-05  9.604467E-06  9.608443E-06  1.641478E-05 -1.750668E-07 -2.318225E-08
     13640   1 -2.912832E-05  9.605715E-06  9.618676E-06  1.767199E-05 -6.404225E-08 -9.674800E-09
     13641   1 -4.363322E-05  1.440655E-05  1.439406E-05  1.451463E-05  1.269947E-07  9.678507E-10
     13642   1 -4.361466E-05  1.439218E-05  1.439589E-05  1.332332E-05  3.185127E-07  7.973652E-10
     13643   1 -4.360487E-05  1.438293E-05  1.439760E-05  1.250690E-05  3.994134E-07  4.368884E-09
     13644   1 -4.360047E-05  1.438327E-05  1.439399E-05  1.200351E-05  3.508350E-07  7.436421E-11
     13645   1 -4.360302E-05  1.438238E-05  1.440063E-05  1.172413E-05  1.895692E-07 -9.575651E-09
     13646   1 -4.360883E-05  1.438392E-05  1.440124E-05  1.163065E-05 -1.879335E-08 -1.499161E-08
     13647   1 -4.361799E-05  1.438735E-05  1.440570E-05  1.171390E-05 -2.280844E-07 -2.417096E-08
     13648   1 -4.363028E-05  1.439315E-05  1.440512E-05  1.198417E-05 -3.831548E-07 -2.457851E-08
     13649   1 -4.364586E-05  1.439693E-05  1.441096E-05  1.247980E-05 -4.268717E-07 -2.808383E-08
     13650   1 -4.366459E-05  1.440638E-05  1.441442E-05  1.328984E-05 -3.353676E-07 -1.196187E-08
     13651   1 -4.368501E-05  1.441565E-05  1.441250E-05  1.447675E-05 -1.336342E-07 -9.576809E-09
     13652   1 -5.816316E-05  1.918642E-05  1.920610E-05  9.924989E-06  2.310949E-07 -2.566906E-09
     13653   1 -5.814414E-05  1.918092E-05  1.918902E-05  8.859233E-06  6.300151E-07  9.466406E-09
     13654   1 -5.813777E-05  1.918189E-05  1.919198E-05  8.277266E-06  7.618038E-07  4.796658E-09
     13655   1 -5.813352E-05  1.917974E-05  1.919236E-05  7.940239E-06  6.243618E-07  6.231246E-10
     13656   1 -5.813837E-05  1.917730E-05  1.920184E-05  7.752922E-06  3.345429E-07 -6.124765E-09
     13657   1 -5.814588E-05  1.918097E-05  1.920327E-05  7.693899E-06 -2.164167E-08 -9.934360E-09
     13658   1 -5.815648E-05  1.918359E-05  1.920709E-05  7.746054E-06 -3.821850E-07 -1.683323E-08
     13659   1 -5.817057E-05  1.919164E-05  1.920636E-05  7.927113E-06 -6.615454E-07 -1.650535E-08
     13660   1 -5.818713E-05  1.919883E-05  1.920645E-05  8.259154E-06 -7.955610E-07 -2.000160E-08
     13661   1 -5.820931E-05  1.920426E-05  1.921281E-05  8.838568E-06 -6.500152E-07 -1.409173E-08
     13662   1 -5.823379E-05  1.921537E-05  1.922659E-05  9.904818E-06 -2.386885E-07 -2.472006E-10
     13663   1 -7.270088E-05  2.401144E-05  2.397308E-05  3.647525E-06  6.196396E-07  5.697931E-09
     13664   1 -7.267516E-05  2.398366E-05  2.397457E-05  3.137082E-06  1.339223E-06  5.608826E-09
     13665   1 -7.266887E-05  2.398071E-05  2.398721E-05  2.943278E-06  1.351378E-06  8.513452E-10
     13666   1 -7.266689E-05  2.397020E-05  2.399356E-05  2.815225E-06  1.047568E-06  1.273083E-09
     13667   1 -7.267487E-05  2.397348E-05  2.400539E-05  2.753593E-06  5.486303E-07 -2.682952E-09
     13668   1 -7.268385E-05  2.397175E-05  2.400926E-05  2.730392E-06 -2.218307E-08 -3.222381E-09
     13669   1 -7.269468E-05  2.398088E-05  2.400942E-05  2.751008E-06 -6.003809E-07 -6.358989E-09
     13670   1 -7.270829E-05  2.398469E-05  2.400740E-05  2.810725E-06 -1.085709E-06 -6.023992E-09
     13671   1 -7.272301E-05  2.400052E-05  2.399938E-05  2.936498E-06 -1.388536E-06 -7.143137E-09
     13672   1 -7.274453E-05  2.400381E-05  2.400067E-05  3.129541E-06 -1.358645E-06 -6.523104E-09
     13673   1 -7.276864E-05  2.402619E-05  2.399212E-05  3.638076E-06 -6.288313E-07 -9.589466E-09
     13674   1  6.814225E-05 -2.248984E-05 -2.246772E-05  3.644899E-06 -6.198363E-07  1.288807E-08
     13675   1  6.812815E-05 -2.247694E-05 -2.248087E-05  3.139143E-06 -1.330896E-06  4.817646E-09
     13676   1  6.812107E-05 -2.247929E-05 -2.248519E-05  2.945224E-06 -1.347659E-06  3.825054E-09
     13677   1  6.812322E-05 -2.246902E-05 -2.250082E-05  2.818487E-06 -1.035688E-06 -9.275871E-10
     13678   1  6.813226E-05 -2.247161E-05 -2.251025E-05  2.756461E-06 -5.433205E-07 -1.111870E-09
     13679   1  6.814482E-05 -2.247123E-05 -2.251807E-05  2.733251E-06  3.356797E-08 -6.285913E-09
     13680   1  6.816030E-05 -2.248172E-05 -2.251839E-05  2.753524E-06  6.044713E-07 -5.942253E-09
     13681   1  6.817665E-05 -2.248797E-05 -2.251479E-05  2.811994E-06  1.093839E-06 -1.008851E-08
     13682   1  6.819804E-05 -2.250601E-05 -2.250922E-05  2.937317E-06  1.390916E-06 -6.505746E-09
     13683   1  6.822251E-05 -2.251262E-05 -2.250734E-05  3.128811E-06  1.362752E-06 -9.755332E-09
     13684   1  6.825372E-05 -2.253684E-05 -2.250488E-05  3.636350E-06  6.288476E-07 -6.432175E-09
     13685   1  5.453109E-05 -1.800595E-05 -1.800150E-05  9.933474E-06 -2.298149E-07 -4.720189E-09
     13686   1  5.450806E-05 -1.798898E-05 -1.798910E-05  8.865978E-06 -6.281564E-07  6.176388E-09
     13687   1  5.449530E-05 -1.798257E-05 -1.798877E-05  8.284844E-06 -7.587151E-07  7.379041E-09
     13688   1  5.449369E-05 -1.797965E-05 -1.799477E-05  7.948705E-06 -6.173307E-07 -1.048022E-09
     13689   1  5.449871E-05 -1.797722E-05 -1.800254E-05  7.762481E-06 -3.295427E-07 -5.157804E-09
     13690   1  5.450963E-05 -1.798148E-05 -1.800749E-05  7.702336E-06  3.034108E-08 -1.515350E-08
     13691   1  5.452360E-05 -1.798552E-05 -1.801083E-05  7.753793E-06  3.876255E-07 -1.872698E-08
     13692   1  5.454161E-05 -1.799595E-05 -1.801080E-05  7.931881E-06  6.694087E-07 -2.430531E-08
     13693   1  5.456363E-05 -1.800570E-05 -1.801144E-05  8.261745E-06  8.003784E-07 -2.163856E-08
     13694   1  5.458956E-05 -1.801332E-05 -1.801725E-05  8.837366E-06  6.549647E-07 -1.996046E-08
     13695   1  5.461803E-05 -1.802380E-05 -1.803214E-05  9.899484E-06  2.404907E-07  1.216766E-09
     13696   1  4.089677E-05 -1.349975E-05 -1.348789E-05  1.450941E-05 -1.280030E-07  8.435635E-09
     13697   1  4.088253E-05 -1.349390E-05 -1.349335E-05  1.332785E-05 -3.173490E-07  3.500398E-09
     13698   1  4.087274E-05 -1.348821E-05 -1.349221E-05  1.251790E-05 -3.982163E-07  8.846232E-09
     13699   1  4.086899E-05 -1.348697E-05 -1.349298E-05  1.201611E-05 -3.469453E-07 -1.655040E-09
     13700   1  4.087153E-05 -1.348536E-05 -1.349806E-05  1.173838E-05 -1.856528E-07 -8.621010E-09
     13701   1  4.087968E-05 -1.348734E-05 -1.350182E-05  1.164325E-05  2.489990E-08 -2.185115E-08
     13702   1  4.089154E-05 -1.349209E-05 -1.350517E-05  1.172558E-05  2.335808E-07 -2.752280E-08
     13703   1  4.090770E-05 -1.349999E-05 -1.350648E-05  1.199106E-05  3.897805E-07 -3.569419E-08
     13704   1  4.092748E-05 -1.350669E-05 -1.351107E-05  1.248334E-05  4.323591E-07 -3.203220E-08
     13705   1  4.095122E-05 -1.351911E-05 -1.351592E-05  1.328782E-05  3.403568E-07 -2.202944E-08
     13706   1  4.097503E-05 -1.352944E-05 -1.351454E-05  1.447094E-05  1.351566E-07 -7.617855E-09
     13707   1  2.727280E-05 -9.012487E-06 -8.997445E-06  1.772171E-05 -5.931791E-08  2.301128E-09
     13708   1  2.726100E-05 -9.007160E-06 -8.991328E-06  1.646298E-05 -1.623210E-07  7.560843E-09
     13709   1  2.725155E-05 -9.000669E-06 -8.991804E-06  1.556078E-05 -2.038478E-07  6.169988E-09
     13710   1  2.724780E-05 -8.996038E-06 -8.994540E-06  1.495850E-05 -1.777685E-07 -1.488937E-09
     13711   1  2.724905E-05 -8.996671E-06 -8.994997E-06  1.461730E-05 -9.675703E-08 -1.100289E-08
     13712   1  2.725400E-05 -8.997026E-06 -8.999048E-06  1.450063E-05  1.762925E-08 -2.692569E-08
     13713   1  2.726302E-05 -9.001478E-06 -9.000030E-06  1.460155E-05  1.304587E-07 -3.314689E-08
     13714   1  2.727497E-05 -9.005646E-06 -9.003852E-06  1.492781E-05  2.081894E-07 -4.510570E-08
     13715   1  2.729007E-05 -9.014300E-06 -9.005012E-06  1.551856E-05  2.279552E-07 -3.585270E-08
     13716   1  2.730717E-05 -9.021337E-06 -9.006840E-06  1.640952E-05  1.786915E-07 -3.588698E-08
     13717   1  2.732350E-05 -9.022745E-06 -9.016099E-06  1.766032E-05  6.569987E-08 -8.506551E-09
     13718   1  1.363920E-05 -4.511650E-06 -4.494721E-06  1.960165E-05 -2.720790E-08  9.984108E-09
     13719   1  1.363268E-05 -4.508809E-06 -4.493727E-06  1.832637E-05 -6.825613E-08  8.409448E-09
     13720   1  1.362870E-05 -4.506308E-06 -4.494092E-06  1.738035E-05 -8.642149E-08  1.167855E-08
     13721   1  1.362573E-05 -4.504465E-06 -4.493119E-06  1.673521E-05 -7.619783E-08 -4.573034E-09
     13722   1  1.362594E-05 -4.502640E-06 -4.495814E-06  1.635836E-05 -4.002923E-08 -1.118332E-08
     13723   1  1.362824E-05 -4.504072E-06 -4.495322E-06  1.622967E-05  8.720757E-09 -2.983118E-08
     13724   1  1.363309E-05 -4.505302E-06 -4.498076E-06  1.634089E-05  5.800969E-08 -3.804301E-08
     13725   1  1.363987E-05 -4.509573E-06 -4.498332E-06  1.670086E-05  9.119633E-08 -4.775152E-08
     13726   1  1.364827E-05 -4.513601E-06 -4.499927E-06  1.733277E-05  9.940512E-08 -4.550631E-08
     13727   1  1.365783E-05 -4.518150E-06 -4.502744E-06  1.827116E-05  7.606069E-08 -3.761551E-08
     13728   1  1.366613E-05 -4.521339E-06 -4.503185E-06  1.954700E-05  2.974315E-08 -1.196727E-08
     13729   1  2.278716E-09 -1.224968E-08  4.967102E-09  2.023778E-05  2.048905E-10  4.438055E-09
     13730   1  3.955404E-09 -1.251723E-08  4.413314E-09  1.894660E-05 -5.762019E-10  9.641858E-09
     13731   1  4.124023E-09 -1.203543E-08  4.476082E-09  1.798601E-05 -1.413526E-09  8.373123E-09
     13732   1  3.308547E-09 -1.127415E-08  5.119675E-09  1.732546E-05 -1.458721E-09 -1.321346E-09
     13733   1  2.585466E-09 -1.079098E-08  5.570339E-09  1.694049E-05 -9.866999E-10 -1.324299E-08
     13734   1  2.327594E-09 -1.069450E-08  5.914004E-09  1.680638E-05 -6.801565E-11 -3.070489E-08
     13735   1  2.656089E-09 -1.098763E-08  5.627986E-09  1.692233E-05  7.285840E-10 -3.794230E-08
     13736   1  3.439284E-09 -1.167361E-08  5.272337E-09  1.729003E-05  1.342756E-09 -5.243267E-08
     13737   1  4.280720E-09 -1.254309E-08  4.641905E-09  1.793716E-05  1.239074E-09 -4.403730E-08
     13738   1  4.428263E-09 -1.346457E-08  4.770381E-09  1.888462E-05  8.092813E-10 -4.271493E-08
     13739   1  3.625454E-09 -1.421511E-08  5.170957E-09  2.016809E-05  2.069304E-10 -1.154874E-08
     13740   1 -1.363338E-05  4.485827E-06  4.504948E-06  1.959398E-05  2.572883E-08  9.821130E-09
     13741   1 -1.362572E-05  4.486061E-06  4.502268E-06  1.831964E-05  6.603808E-08  8.724536E-09
     13742   1 -1.362291E-05  4.486082E-06  4.503460E-06  1.737449E-05  8.322162E-08  1.205651E-08
     13743   1 -1.362105E-05  4.485799E-06  4.503159E-06  1.673019E-05  7.335184E-08 -4.286201E-09
     13744   1 -1.362296E-05  4.484921E-06  4.507439E-06  1.635372E-05  3.767130E-08 -1.113870E-08
     13745   1 -1.362578E-05  4.486528E-06  4.507393E-06  1.622504E-05 -8.613910E-09 -2.981003E-08
     13746   1 -1.362988E-05  4.487230E-06  4.509634E-06  1.633616E-05 -5.659683E-08 -3.810267E-08
     13747   1 -1.363524E-05  4.490223E-06  4.509024E-06  1.669556E-05 -8.815956E-08 -4.800248E-08
     13748   1 -1.364174E-05  4.492251E-06  4.509108E-06  1.732670E-05 -9.684427E-08 -4.586404E-08
     13749   1 -1.365110E-05  4.494434E-06  4.512168E-06  1.826379E-05 -7.427516E-08 -3.818942E-08
     13750   1 -1.366114E-05  4.495841E-06  4.513289E-06  1.953804E-05 -2.929481E-08 -1.215010E-08
     13751   1 -2.727518E-05  8.996263E-06  9.007238E-06  1.770641E-05  5.943141E-08  3.661597E-09
     13752   1 -2.725831E-05  8.989794E-06  8.998797E-06  1.645152E-05  1.606501E-07  8.774769E-09
     13753   1 -2.724850E-05  8.983444E-06  9.001098E-06  1.555178E-05  1.999523E-07  6.974988E-09
     13754   1 -2.724576E-05  8.979479E-06  9.004909E-06  1.495061E-05  1.742702E-07 -1.311820E-09
     13755   1 -2.724864E-05  8.980553E-06  9.007497E-06  1.461005E-05  9.398222E-08 -1.072349E-08
     13756   1 -2.725420E-05  8.981067E-06  9.012069E-06  1.449353E-05 -1.746210E-08 -2.704014E-08
     13757   1 -2.726247E-05  8.985090E-06  9.012398E-06  1.459410E-05 -1.286104E-07 -3.309810E-08
     13758   1 -2.727305E-05  8.988556E-06  9.014936E-06  1.491962E-05 -2.043716E-07 -4.551703E-08
     13759   1 -2.728659E-05  8.996349E-06  9.013927E-06  1.550891E-05 -2.247099E-07 -3.636986E-08
     13760   1 -2.730444E-05  9.002726E-06  9.015702E-06  1.639761E-05 -1.764210E-07 -3.687652E-08
     13761   1 -2.732389E-05  9.003939E-06  9.025453E-06  1.764552E-05 -6.516024E-08 -8.817377E-09
     13762   1 -4.090153E-05  1.349006E-05  1.349416E-05  1.449674E-05  1.265151E-07  8.198934E-09
     13763   1 -4.088450E-05  1.348399E-05  1.350215E-05  1.331668E-05  3.136198E-07  3.620721E-09
     13764   1 -4.087250E-05  1.347849E-05  1.349909E-05  1.250891E-05  3.941913E-07  1.005142E-08
     13765   1 -4.087105E-05  1.347751E-05  1.350540E-05  1.200863E-05  3.410080E-07 -1.765675E-09
     13766   1 -4.087508E-05  1.347596E-05  1.351084E-05  1.173137E-05  1.834696E-07 -8.124786E-09
     13767   1 -4.088366E-05  1.347795E-05  1.351688E-05  1.163657E-05 -2.571171E-08 -2.212089E-08
     13768   1 -4.089541E-05  1.348256E-05  1.351853E-05  1.171838E-05 -2.301053E-07 -2.725539E-08
     13769   1 -4.090921E-05  1.349020E-05  1.351812E-05  1.198321E-05 -3.851691E-07 -3.613862E-08
     13770   1 -4.092799E-05  1.349653E-05  1.351949E-05  1.247385E-05 -4.274846E-07 -3.249377E-08
     13771   1 -4.095243E-05  1.350873E-05  1.352340E-05  1.327586E-05 -3.374516E-07 -2.327143E-08
     13772   1 -4.098112E-05  1.351963E-05  1.352261E-05  1.445561E-05 -1.342301E-07 -7.944668E-09
     13773   1 -5.453551E-05  1.800285E-05  1.800175E-05  9.922337E-06  2.296488E-07 -2.766755E-09
     13774   1 -5.451016E-05  1.798323E-05  1.799847E-05  8.858652E-06  6.223502E-07  7.459833E-09
     13775   1 -5.449271E-05  1.797481E-05  1.799264E-05  8.279639E-06  7.540543E-07  7.866571E-09
     13776   1 -5.449473E-05  1.797064E-05  1.800943E-05  7.944269E-06  6.082749E-07 -9.868785E-10
     13777   1 -5.450130E-05  1.796798E-05  1.801570E-05  7.758719E-06  3.276888E-07 -5.045381E-09
     13778   1 -5.451271E-05  1.797194E-05  1.802503E-05  7.698429E-06 -3.213978E-08 -1.519986E-08
     13779   1 -5.452683E-05  1.797618E-05  1.802536E-05  7.749910E-06 -3.819556E-07 -1.843900E-08
     13780   1 -5.454142E-05  1.798684E-05  1.802300E-05  7.927234E-06 -6.634690E-07 -2.451380E-08
     13781   1 -5.456283E-05  1.799769E-05  1.801907E-05  8.256110E-06 -7.928047E-07 -2.171752E-08
     13782   1 -5.458938E-05  1.800718E-05  1.802231E-05  8.829618E-06 -6.507889E-07 -2.092559E-08
     13783   1 -5.462495E-05  1.802039E-05  1.803765E-05  9.888747E-06 -2.390196E-07  9.920996E-10
     13784   1 -6.813878E-05  2.248792E-05  2.246486E-05  3.642021E-06  6.174819E-07  1.041305E-08
     13785   1 -6.812180E-05  2.247138E-05  2.248677E-05  3.136630E-06  1.323230E-06  5.692745E-09
     13786   1 -6.811136E-05  2.247227E-05  2.248795E-05  2.943994E-06  1.339628E-06  3.085403E-09
     13787   1 -6.811937E-05  2.246089E-05  2.251616E-05  2.816896E-06  1.024635E-06 -2.090663E-10
     13788   1 -6.812984E-05  2.246302E-05  2.252449E-05  2.755865E-06  5.402527E-07 -1.560605E-09
     13789   1 -6.814413E-05  2.246234E-05  2.253776E-05  2.731809E-06 -3.534697E-08 -6.023053E-09
     13790   1 -6.815864E-05  2.247306E-05  2.253409E-05  2.752825E-06 -5.968256E-07 -5.893195E-09
     13791   1 -6.817103E-05  2.247974E-05  2.252743E-05  2.810434E-06 -1.085617E-06 -1.015906E-08
     13792   1 -6.819011E-05  2.249875E-05  2.251568E-05  2.935876E-06 -1.379756E-06 -6.411561E-09
     13793   1 -6.821359E-05  2.250720E-05  2.250894E-05  3.126299E-06 -1.356193E-06 -1.032991E-08
     13794   1 -6.825208E-05  2.253468E-05  2.250626E-05  3.632801E-06 -6.260321E-07 -6.265867E-09
     13795   1  6.360645E-05 -2.101520E-05 -2.097299E-05  3.648959E-06 -6.123468E-07 -9.953025E-10
     13796   1  6.357044E-05 -2.097838E-05 -2.097861E-05  3.140600E-06 -1.321325E-06  6.671866E-09
     13797   1  6.356085E-05 -2.096899E-05 -2.099505E-05  2.950079E-06 -1.325091E-06 -7.020609E-11
     13798   1  6.356805E-05 -2.095674E-05 -2.101820E-05  2.822260E-06 -1.017324E-06  3.089059E-09
     13799   1  6.358396E-05 -2.095914E-05 -2.103629E-05  2.762211E-06 -5.239122E-07 -4.709525E-09
     13800   1  6.360286E-05 -2.095940E-05 -2.104920E-05  2.737772E-06  4.137498E-08 -4.599277E-09
     13801   1  6.362078E-05 -2.097227E-05 -2.104587E-05  2.757783E-06  6.083634E-07 -1.071777E-08
     13802   1  6.364026E-05 -2.098253E-05 -2.103985E-05  2.815247E-06  1.088404E-06 -9.375430E-09
     13803   1  6.366240E-05 -2.100492E-05 -2.102296E-05  2.938465E-06  1.386679E-06 -1.170743E-08
     13804   1  6.369492E-05 -2.101646E-05 -2.102087E-05  3.128570E-06  1.357410E-06 -7.418620E-09
     13805   1  6.373593E-05 -2.104334E-05 -2.101461E-05  3.632294E-06  6.282453E-07 -1.023512E-08
     13806   1  5.088378E-05 -1.678286E-05 -1.679943E-05  9.922784E-06 -2.302953E-07  2.234940E-09
     13807   1  5.085952E-05 -1.677799E-05 -1.679148E-05  8.869490E-06 -6.195177E-07  1.421230E-08
     13808   1  5.084788E-05 -1.677506E-05 -1.679361E-05  8.294365E-06 -7.473048E-07  6.978238E-09
     13809   1  5.084755E-05 -1.676878E-05 -1.680800E-05  7.961066E-06 -6.024534E-07  2.400606E-09
     13810   1  5.085814E-05 -1.676567E-05 -1.682097E-05  7.775359E-06 -3.168687E-07 -9.039518E-09
     13811   1  5.087223E-05 -1.677011E-05 -1.682964E-05  7.715585E-06  3.858592E-08 -1.536097E-08
     13812   1  5.089056E-05 -1.677667E-05 -1.683171E-05  7.764117E-06  3.918150E-07 -2.720475E-08
     13813   1  5.091081E-05 -1.678987E-05 -1.682897E-05  7.940022E-06  6.691170E-07 -2.710337E-08
     13814   1  5.093725E-05 -1.680481E-05 -1.682376E-05  8.264202E-06  8.004958E-07 -3.189994E-08
     13815   1  5.097229E-05 -1.681915E-05 -1.682774E-05  8.834980E-06  6.555883E-07 -2.031775E-08
     13816   1  5.101438E-05 -1.683575E-05 -1.684281E-05  9.890064E-06  2.413210E-07 -4.869854E-09
     13817   1  3.818345E-05 -1.261974E-05 -1.259167E-05  1.451882E-05 -1.254742E-07  3.439502E-10
     13818   1  3.815655E-05 -1.260183E-05 -1.259316E-05  1.333622E-05 -3.145374E-07  7.190387E-09
     13819   1  3.814080E-05 -1.258789E-05 -1.259614E-05  1.252907E-05 -3.911947E-07  9.925721E-09
     13820   1  3.813748E-05 -1.258487E-05 -1.260055E-05  1.203270E-05 -3.377786E-07  3.164613E-09
     13821   1  3.814314E-05 -1.258242E-05 -1.261097E-05  1.175545E-05 -1.769109E-07 -1.288119E-08
     13822   1  3.815375E-05 -1.258467E-05 -1.261591E-05  1.166161E-05  3.146235E-08 -2.296366E-08
     13823   1  3.816919E-05 -1.259117E-05 -1.262006E-05  1.173889E-05  2.378152E-07 -3.920502E-08
     13824   1  3.818802E-05 -1.260212E-05 -1.261812E-05  1.200171E-05  3.919515E-07 -4.074896E-08
     13825   1  3.821300E-05 -1.261295E-05 -1.262048E-05  1.248490E-05  4.349446E-07 -4.720358E-08
     13826   1  3.824348E-05 -1.262836E-05 -1.262306E-05  1.328173E-05  3.429869E-07 -2.522510E-08
     13827   1  3.827828E-05 -1.263952E-05 -1.262537E-05  1.445358E-05  1.371843E-07 -1.713030E-08
     13828   1  2.546135E-05 -8.409820E-06 -8.399716E-06  1.770214E-05 -6.075713E-08  7.485507E-09
     13829   1  2.544397E-05 -8.408501E-06 -8.390440E-06  1.646211E-05 -1.622017E-07  2.172136E-08
     13830   1  2.543334E-05 -8.403124E-06 -8.394119E-06  1.557204E-05 -1.999826E-07  8.091253E-09
     13831   1  2.542902E-05 -8.396540E-06 -8.398169E-06  1.497528E-05 -1.734785E-07  5.492637E-09
     13832   1  2.543078E-05 -8.395767E-06 -8.402101E-06  1.463556E-05 -9.104904E-08 -1.633465E-08
     13833   1  2.543839E-05 -8.396588E-06 -8.407183E-06  1.451984E-05  2.195875E-08 -2.770510E-08
     13834   1  2.544903E-05 -8.402175E-06 -8.408399E-06  1.461526E-05  1.339271E-07 -4.773883E-08
     13835   1  2.546417E-05 -8.408802E-06 -8.410476E-06  1.493720E-05  2.112153E-07 -5.181599E-08
     13836   1  2.548346E-05 -8.420733E-06 -8.410692E-06  1.551689E-05  2.308801E-07 -5.577023E-08
     13837   1  2.550706E-05 -8.431806E-06 -8.411513E-06  1.639930E-05  1.820760E-07 -4.053358E-08
     13838   1  2.553260E-05 -8.436254E-06 -8.423678E-06  1.763924E-05  6.713473E-08 -2.006060E-08
     13839   1  1.273936E-05 -4.224367E-06 -4.193000E-06  1.960505E-05 -2.640186E-08  2.699124E-09
     13840   1  1.273159E-05 -4.219169E-06 -4.195489E-06  1.833093E-05 -6.764261E-08  1.725188E-08
     13841   1  1.272350E-05 -4.214272E-06 -4.192271E-06  1.738881E-05 -8.642044E-08  1.372379E-08
     13842   1  1.272034E-05 -4.211223E-06 -4.195313E-06  1.675070E-05 -7.402997E-08  4.222340E-09
     13843   1  1.272002E-05 -4.209026E-06 -4.196514E-06  1.637602E-05 -3.857068E-08 -1.685665E-08
     13844   1  1.272353E-05 -4.210249E-06 -4.198678E-06  1.624801E-05  1.172179E-08 -3.071993E-08
     13845   1  1.272952E-05 -4.212479E-06 -4.200055E-06  1.635338E-05  5.958544E-08 -5.409839E-08
     13846   1  1.273839E-05 -4.218152E-06 -4.200712E-06  1.670842E-05  9.431230E-08 -5.586810E-08
     13847   1  1.274990E-05 -4.224057E-06 -4.201728E-06  1.732812E-05  1.014267E-07 -6.741028E-08
     13848   1  1.276283E-05 -4.229902E-06 -4.204394E-06  1.825561E-05  7.894578E-08 -4.372392E-08
     13849   1  1.277636E-05 -4.233890E-06 -4.206862E-06  1.951747E-05  3.082453E-08 -2.494402E-08
     13850   1  1.351943E-08 -2.599998E-08  6.237560E-09  2.021178E-05 -1.451205E-09  8.931538E-09
     13851   1  1.190857E-08 -2.234578E-08  5.851235E-09  1.893863E-05 -2.569542E-09  2.471354E-08
     13852   1  9.578467E-09 -1.959579E-08  6.508475E-09  1.799192E-05 -3.009667E-09  1.192957E-08
     13853   1  7.560816E-09 -1.798196E-08  7.468923E-09  1.733820E-05 -2.882712E-09  6.762238E-09
     13854   1  5.905799E-09 -1.705918E-08  8.642953E-09  1.695506E-05 -1.800292E-09 -1.842429E-08
     13855   1  5.279833E-09 -1.682976E-08  8.975278E-09  1.682224E-05 -1.246332E-10 -3.189292E-08
     13856   1  6.059523E-09 -1.739756E-08  8.743588E-09  1.693167E-05  1.680241E-09 -5.445757E-08
     13857   1  7.874484E-09 -1.863129E-08  7.634897E-09  1.729414E-05  2.688444E-09 -6.098055E-08
     13858   1  1.015463E-08 -2.066358E-08  6.764502E-09  1.792811E-05  2.939605E-09 -6.719657E-08
     13859   1  1.218814E-08 -2.320389E-08  5.979650E-09  1.886561E-05  2.025429E-09 -4.901722E-08
     13860   1  1.265112E-08 -2.566009E-08  6.648284E-09  2.013622E-05  7.341059E-10 -2.491175E-08
     13861   1 -1.272222E-05  4.183238E-06  4.204811E-06  1.958757E-05  2.627803E-08  3.660134E-09
     13862   1 -1.271265E-05  4.178581E-06  4.207228E-06  1.831723E-05  6.370842E-08  1.807473E-08
     13863   1 -1.270617E-05  4.175915E-06  4.204842E-06  1.737754E-05  8.020897E-08  1.410631E-08
     13864   1 -1.270769E-05  4.175586E-06  4.211155E-06  1.674043E-05  6.740068E-08  4.178536E-09
     13865   1 -1.271044E-05  4.174982E-06  4.214218E-06  1.636620E-05  3.510047E-08 -1.683842E-08
     13866   1 -1.271518E-05  4.176556E-06  4.217474E-06  1.623840E-05 -1.230000E-08 -3.078413E-08
     13867   1 -1.271983E-05  4.177813E-06  4.218205E-06  1.634332E-05 -5.572047E-08 -5.415339E-08
     13868   1 -1.272486E-05  4.181267E-06  4.216367E-06  1.669779E-05 -8.866859E-08 -5.594378E-08
     13869   1 -1.273234E-05  4.184078E-06  4.215524E-06  1.731606E-05 -9.494306E-08 -6.785119E-08
     13870   1 -1.274169E-05  4.186378E-06  4.216174E-06  1.824149E-05 -7.463946E-08 -4.416367E-08
     13871   1 -1.275538E-05  4.186781E-06  4.220197E-06  1.950039E-05 -2.924195E-08 -2.534662E-08
     13872   1 -2.544961E-05  8.374968E-06  8.410748E-06  1.767755E-05  5.769566E-08  6.661056E-09
     13873   1 -2.543310E-05  8.377814E-06  8.402785E-06  1.644049E-05  1.558822E-07  2.216277E-08
     13874   1 -2.542480E-05  8.375842E-06  8.406876E-06  1.555308E-05  1.926042E-07  8.501014E-09
     13875   1 -2.542494E-05  8.371375E-06  8.415399E-06  1.495850E-05  1.655641E-07  5.803971E-09
     13876   1 -2.542998E-05  8.371901E-06  8.421590E-06  1.461961E-05  8.684785E-08 -1.667011E-08
     13877   1 -2.543903E-05  8.372883E-06  8.428256E-06  1.450393E-05 -2.259299E-08 -2.757431E-08
     13878   1 -2.544822E-05  8.377851E-06  8.428391E-06  1.459897E-05 -1.291604E-07 -4.788061E-08
     13879   1 -2.545956E-05  8.382768E-06  8.427332E-06  1.491965E-05 -2.044365E-07 -5.183823E-08
     13880   1 -2.547486E-05  8.392045E-06  8.424909E-06  1.549709E-05 -2.230051E-07 -5.657241E-08
     13881   1 -2.549539E-05  8.399820E-06  8.422916E-06  1.637586E-05 -1.770067E-07 -4.137536E-08
     13882   1 -2.552284E-05  8.401564E-06  8.436670E-06  1.761059E-05 -6.521361E-08 -2.083416E-08
     13883   1 -3.818805E-05  1.260217E-05  1.260451E-05  1.448651E-05  1.239901E-07  2.307441E-09
     13884   1 -3.815379E-05  1.258305E-05  1.260107E-05  1.331264E-05  3.086624E-07  9.862441E-09
     13885   1 -3.814094E-05  1.256908E-05  1.261190E-05  1.250996E-05  3.797456E-07  9.642283E-09
     13886   1 -3.814079E-05  1.256639E-05  1.261786E-05  1.201541E-05  3.295684E-07  3.740597E-09
     13887   1 -3.815010E-05  1.256447E-05  1.263437E-05  1.173939E-05  1.695863E-07 -1.364443E-08
     13888   1 -3.816339E-05  1.256681E-05  1.264001E-05  1.164525E-05 -3.062980E-08 -2.254478E-08
     13889   1 -3.817579E-05  1.257294E-05  1.264294E-05  1.172242E-05 -2.325208E-07 -3.938548E-08
     13890   1 -3.819211E-05  1.258319E-05  1.263694E-05  1.198374E-05 -3.823437E-07 -4.042966E-08
     13891   1 -3.821218E-05  1.259338E-05  1.263488E-05  1.246460E-05 -4.247774E-07 -4.796034E-08
     13892   1 -3.824169E-05  1.260848E-05  1.263358E-05  1.325698E-05 -3.361221E-07 -2.607458E-08
     13893   1 -3.828087E-05  1.261996E-05  1.263687E-05  1.442246E-05 -1.347477E-07 -1.815873E-08
     13894   1 -5.089616E-05  1.677750E-05  1.681439E-05  9.902787E-06  2.250515E-07  5.107344E-10
     13895   1 -5.085927E-05  1.677003E-05  1.679380E-05  8.853223E-06  6.120312E-07  1.440462E-08
     13896   1 -5.085325E-05  1.676610E-05  1.681251E-05  8.280862E-06  7.301027E-07  7.176025E-09
     13897   1 -5.085604E-05  1.675992E-05  1.682543E-05  7.949443E-06  5.930592E-07  2.326183E-09
     13898   1 -5.087122E-05  1.675647E-05  1.684922E-05  7.764044E-06  3.059221E-07 -9.430112E-09
     13899   1 -5.088900E-05  1.676114E-05  1.685722E-05  7.704630E-06 -3.608113E-08 -1.515645E-08
     13900   1 -5.090296E-05  1.676745E-05  1.685831E-05  7.752527E-06 -3.855467E-07 -2.713609E-08
     13901   1 -5.092105E-05  1.678076E-05  1.684999E-05  7.927873E-06 -6.551963E-07 -2.654526E-08
     13902   1 -5.094053E-05  1.679569E-05  1.683795E-05  8.250003E-06 -7.868482E-07 -3.251297E-08
     13903   1 -5.097531E-05  1.681087E-05  1.683648E-05  8.817499E-06 -6.455034E-07 -2.086469E-08
     13904   1 -5.102351E-05  1.682963E-05  1.685099E-05  9.866618E-06 -2.379133E-07 -5.897967E-09
     13905   1 -6.360946E-05  2.101196E-05  2.098089E-05  3.639920E-06  6.067978E-07  3.418702E-09
     13906   1 -6.356151E-05  2.097135E-05  2.097851E-05  3.135511E-06  1.307819E-06  6.032427E-09
     13907   1 -6.355926E-05  2.095844E-05  2.101373E-05  2.945128E-06  1.303626E-06  1.309213E-09
     13908   1 -6.356991E-05  2.094506E-05  2.103743E-05  2.819126E-06  1.003253E-06  1.869885E-09
     13909   1 -6.359326E-05  2.094678E-05  2.106882E-05  2.757848E-06  5.108998E-07 -4.202102E-09
     13910   1 -6.361486E-05  2.094721E-05  2.108039E-05  2.734847E-06 -3.830458E-08 -4.860597E-09
     13911   1 -6.362895E-05  2.095989E-05  2.107648E-05  2.753464E-06 -5.998938E-07 -1.054270E-08
     13912   1 -6.364422E-05  2.097069E-05  2.106288E-05  2.811717E-06 -1.069165E-06 -8.923359E-09
     13913   1 -6.365791E-05  2.099434E-05  2.103668E-05  2.933467E-06 -1.367900E-06 -1.203103E-08
     13914   1 -6.368890E-05  2.100893E-05  2.102664E-05  3.122837E-06 -1.341414E-06 -7.151183E-09
     13915   1 -6.373619E-05  2.104062E-05  2.101675E-05  3.623550E-06 -6.226825E-07 -1.099535E-08
     13916   1  5.902328E-05 -1.946850E-05 -1.946492E-05  3.641967E-06 -6.072175E-07  1.878796E-08
     13917   1  5.899402E-05 -1.945431E-05 -1.948365E-05  3.145925E-06 -1.291106E-06  4.691321E-09
     13918   1  5.899173E-05 -1.944922E-05 -1.950837E-05  2.953852E-06 -1.293974E-06  6.930278E-09
     13919   1  5.901040E-05 -1.943436E-05 -1.955091E-05  2.830520E-06 -9.787991E-07 -1.885891E-09
     13920   1  5.903912E-05 -1.943467E-05 -1.958313E-05  2.768256E-06 -4.999300E-07 -8.513181E-10
     13921   1  5.906630E-05 -1.943711E-05 -1.960070E-05  2.745250E-06  5.577749E-08 -9.810667E-09
     13922   1  5.908736E-05 -1.945217E-05 -1.959696E-05  2.763945E-06  6.027115E-07 -9.079660E-09
     13923   1  5.910441E-05 -1.946745E-05 -1.957606E-05  2.819588E-06  1.076673E-06 -1.607888E-08
     13924   1  5.912682E-05 -1.949570E-05 -1.955081E-05  2.941735E-06  1.367012E-06 -1.000876E-08
     13925   1  5.916252E-05 -1.951708E-05 -1.953163E-05  3.128043E-06  1.345863E-06 -1.374597E-08
     13926   1  5.922495E-05 -1.955440E-05 -1.953183E-05  3.628364E-06  6.221305E-07 -4.691459E-09
     13927   1  4.726035E-05 -1.561215E-05 -1.560367E-05  9.932943E-06 -2.223625E-07 -4.724483E-09
     13928   1  4.721320E-05 -1.558194E-05 -1.559084E-05  8.878905E-06 -6.076348E-07  8.373689E-09
     13929   1  4.719625E-05 -1.556448E-05 -1.560653E-05  8.307954E-06 -7.225907E-07  1.304611E-08
     13930   1  4.720457E-05 -1.555682E-05 -1.563126E-05  7.978169E-06 -5.788760E-07  4.162256E-10
     13931   1  4.722158E-05 -1.555241E-05 -1.565532E-05  7.794594E-06 -2.968501E-07 -6.332534E-09
     13932   1  4.724464E-05 -1.555801E-05 -1.566879E-05  7.733030E-06  4.882076E-08 -2.297577E-08
     13933   1  4.726369E-05 -1.556664E-05 -1.566888E-05  7.781197E-06  3.909734E-07 -2.857432E-08
     13934   1  4.728625E-05 -1.558472E-05 -1.565811E-05  7.950941E-06  6.633007E-07 -3.971170E-08
     13935   1  4.731408E-05 -1.560494E-05 -1.564481E-05  8.271433E-06  7.910714E-07 -3.338332E-08
     13936   1  4.735576E-05 -1.562544E-05 -1.563980E-05  8.832424E-06  6.513371E-07 -3.212115E-08
     13937   1  4.741446E-05 -1.564518E-05 -1.565671E-05  9.876318E-06  2.404709E-07 -1.389149E-09
     13938   1  3.545359E-05 -1.170163E-05 -1.169236E-05  1.449801E-05 -1.264362E-07  1.785687E-08
     13939   1  3.542209E-05 -1.169492E-05 -1.169573E-05  1.333993E-05 -3.065692E-07  1.522195E-08
     13940   1  3.540697E-05 -1.168440E-05 -1.170276E-05  1.254650E-05 -3.776421E-07  1.889830E-08
     13941   1  3.540676E-05 -1.167715E-05 -1.171764E-05  1.205396E-05 -3.220724E-07  2.163355E-09
     13942   1  3.541691E-05 -1.167345E-05 -1.173355E-05  1.178133E-05 -1.634665E-07 -9.592371E-09
     13943   1  3.543320E-05 -1.167628E-05 -1.174391E-05  1.168394E-05  3.922572E-08 -3.266436E-08
     13944   1  3.545028E-05 -1.168487E-05 -1.174498E-05  1.176150E-05  2.390858E-07 -4.219085E-08
     13945   1  3.547197E-05 -1.169948E-05 -1.173964E-05  1.201409E-05  3.900411E-07 -5.894297E-08
     13946   1  3.549974E-05 -1.171587E-05 -1.173422E-05  1.249172E-05  4.318111E-07 -5.189236E-08
     13947   1  3.553983E-05 -1.173845E-05 -1.173380E-05  1.327432E-05  3.431836E-07 -4.460923E-08
     13948   1  3.558946E-05 -1.175487E-05 -1.173801E-05  1.443509E-05  1.370780E-07 -1.243641E-08
     13949   1  2.365793E-05 -7.829858E-06 -7.800416E-06  1.771069E-05 -5.825393E-08  8.456546E-09
     13950   1  2.363298E-05 -7.819956E-06 -7.793756E-06  1.647159E-05 -1.573357E-07  1.895647E-08
     13951   1  2.361707E-05 -7.808447E-06 -7.797272E-06  1.558715E-05 -1.941598E-07  2.249474E-08
     13952   1  2.361334E-05 -7.800009E-06 -7.808004E-06  1.499821E-05 -1.635881E-07  4.443682E-09
     13953   1  2.361904E-05 -7.798533E-06 -7.815918E-06  1.466286E-05 -8.375706E-08 -1.074536E-08
     13954   1  2.362812E-05 -7.799247E-06 -7.823310E-06  1.454429E-05  2.739259E-08 -3.984845E-08
     13955   1  2.364213E-05 -7.806652E-06 -7.823920E-06  1.463865E-05  1.360534E-07 -5.137541E-08
     13956   1  2.365899E-05 -7.816486E-06 -7.823073E-06  1.494909E-05  2.112169E-07 -7.446943E-08
     13957   1  2.368209E-05 -7.832026E-06 -7.819121E-06  1.552108E-05  2.314742E-07 -6.294432E-08
     13958   1  2.371245E-05 -7.845971E-06 -7.819327E-06  1.638547E-05  1.833551E-07 -6.462867E-08
     13959   1  2.374800E-05 -7.851743E-06 -7.832003E-06  1.761010E-05  6.847796E-08 -1.595488E-08
     13960   1  1.184809E-05 -3.934773E-06 -3.897465E-06  1.957595E-05 -2.830924E-08  2.284123E-08
     13961   1  1.183082E-05 -3.928607E-06 -3.892471E-06  1.832651E-05 -6.877019E-08  2.542193E-08
     13962   1  1.182166E-05 -3.922324E-06 -3.895786E-06  1.740165E-05 -8.349631E-08  3.026681E-08
     13963   1  1.181663E-05 -3.917603E-06 -3.896566E-06  1.677079E-05 -7.168456E-08  3.436945E-09
     13964   1  1.181772E-05 -3.914149E-06 -3.903161E-06  1.640084E-05 -3.432060E-08 -1.022316E-08
     13965   1  1.182185E-05 -3.915707E-06 -3.903665E-06  1.627036E-05  1.334251E-08 -4.379944E-08
     13966   1  1.182967E-05 -3.918816E-06 -3.906656E-06  1.637395E-05  6.240013E-08 -5.845999E-08
     13967   1  1.184051E-05 -3.926522E-06 -3.905186E-06  1.671599E-05  9.468137E-08 -8.142952E-08
     13968   1  1.185496E-05 -3.935312E-06 -3.905051E-06  1.732661E-05  1.038880E-07 -7.639379E-08
     13969   1  1.187393E-05 -3.945057E-06 -3.907932E-06  1.823582E-05  8.029398E-08 -7.098396E-08
     13970   1  1.189399E-05 -3.952158E-06 -3.910976E-06  1.948391E-05  3.187973E-08 -2.044491E-08
     13971   1  2.412387E-08 -3.775413E-08  6.958487E-09  2.020614E-05 -3.365573E-10  1.241227E-08
     13972   1  2.323668E-08 -3.618242E-08  7.008504E-09  1.893885E-05 -3.314573E-09  2.520697E-08
     13973   1  2.006084E-08 -3.368104E-08  8.334792E-09  1.799957E-05 -5.231028E-09  2.808312E-08
     13974   1  1.569723E-08 -3.101806E-08  1.058150E-08  1.735452E-05 -4.935310E-09  7.262971E-09
     13975   1  1.267774E-08 -2.951114E-08  1.210666E-08  1.697706E-05 -2.867471E-09 -1.219943E-08
     13976   1  1.183719E-08 -2.925119E-08  1.286211E-08  1.684074E-05 -7.946594E-12 -4.495367E-08
     13977   1  1.304291E-08 -3.008574E-08  1.219258E-08  1.694894E-05  2.757587E-09 -5.934333E-08
     13978   1  1.640790E-08 -3.215979E-08  1.076790E-08  1.729776E-05  4.876478E-09 -8.694639E-08
     13979   1  2.088526E-08 -3.513958E-08  8.650113E-09  1.792253E-05  5.137219E-09 -7.662873E-08
     13980   1  2.516295E-08 -3.890923E-08  7.618946E-09  1.883878E-05  4.012831E-09 -7.691582E-08
     13981   1  2.834082E-08 -4.319438E-08  7.324257E-09  2.009225E-05  1.420320E-09 -2.055908E-08
     13982   1 -1.179730E-05  3.854890E-06  3.912425E-06  1.955056E-05  2.296344E-08  2.202122E-08
     13983   1 -1.178790E-05  3.860934E-06  3.906686E-06  1.830402E-05  5.928860E-08  2.531231E-08
     13984   1 -1.178896E-05  3.863435E-06  3.913870E-06  1.738130E-05  7.189523E-08  3.009085E-08
     13985   1 -1.179151E-05  3.863658E-06  3.918116E-06  1.675219E-05  6.176193E-08  3.276509E-09
     13986   1 -1.179899E-05  3.863088E-06  3.928927E-06  1.638303E-05  2.752534E-08 -1.071438E-08
     13987   1 -1.180513E-05  3.865200E-06  3.930821E-06  1.625232E-05 -1.294044E-08 -4.391045E-08
     13988   1 -1.181015E-05  3.866724E-06  3.932254E-06  1.635575E-05 -5.675833E-08 -5.830094E-08
     13989   1 -1.181465E-05  3.870602E-06  3.927813E-06  1.669655E-05 -8.406938E-08 -8.142602E-08
     13990   1 -1.181975E-05  3.873215E-06  3.922751E-06  1.730539E-05 -9.307343E-08 -7.641739E-08
     13991   1 -1.183050E-05  3.874783E-06  3.923573E-06  1.821125E-05 -7.176694E-08 -7.162291E-08
     13992   1 -1.184475E-05  3.873268E-06  3.925686E-06  1.945460E-05 -2.885250E-08 -2.056845E-08
     13993   1 -2.363433E-05  7.777158E-06  7.816224E-06  1.765922E-05  5.645662E-08  1.104497E-08
     13994   1 -2.360730E-05  7.768883E-06  7.807091E-06  1.643164E-05  1.484132E-07  2.044829E-08
     13995   1 -2.359829E-05  7.760801E-06  7.817246E-06  1.555373E-05  1.798235E-07  2.254776E-08
     13996   1 -2.360233E-05  7.756027E-06  7.832057E-06  1.496719E-05  1.513501E-07  3.369042E-09
     13997   1 -2.361482E-05  7.756478E-06  7.845793E-06  1.463284E-05  7.545289E-08 -1.114326E-08
     13998   1 -2.362596E-05  7.757844E-06  7.854356E-06  1.451446E-05 -2.690869E-08 -4.029527E-08
     13999   1 -2.363746E-05  7.763875E-06  7.853502E-06  1.460796E-05 -1.292890E-07 -5.089978E-08
     14000   1 -2.364762E-05  7.770947E-06  7.848412E-06  1.491686E-05 -1.980444E-07 -7.428095E-08
     14001   1 -2.366193E-05  7.782382E-06  7.838228E-06  1.548550E-05 -2.184940E-07 -6.288719E-08
     14002   1 -2.368578E-05  7.791432E-06  7.835657E-06  1.634399E-05 -1.728034E-07 -6.566607E-08
     14003   1 -2.371850E-05  7.792123E-06  7.846720E-06  1.755991E-05 -6.498522E-08 -1.618283E-08
     14004   1 -3.544617E-05  1.166883E-05  1.170364E-05  1.445049E-05  1.201335E-07  1.663316E-08
     14005   1 -3.541722E-05  1.166519E-05  1.171416E-05  1.329827E-05  2.912995E-07  1.372254E-08
     14006   1 -3.540597E-05  1.165765E-05  1.172129E-05  1.251021E-05  3.619005E-07  1.997328E-08
     14007   1 -3.541525E-05  1.165291E-05  1.174787E-05  1.202141E-05  3.028870E-07  1.915088E-10
     14008   1 -3.543393E-05  1.165045E-05  1.176856E-05  1.174907E-05  1.554399E-07 -9.711930E-09
     14009   1 -3.545039E-05  1.165365E-05  1.178119E-05  1.165245E-05 -4.052624E-08 -3.342076E-08
     14010   1 -3.546773E-05  1.166154E-05  1.178092E-05  1.172867E-05 -2.290869E-07 -4.124298E-08
     14011   1 -3.547955E-05  1.167439E-05  1.176859E-05  1.197992E-05 -3.731466E-07 -5.861970E-08
     14012   1 -3.550004E-05  1.168804E-05  1.175550E-05  1.245371E-05 -4.148184E-07 -5.166872E-08
     14013   1 -3.553363E-05  1.170731E-05  1.175007E-05  1.322941E-05 -3.294545E-07 -4.616627E-08
     14014   1 -3.558459E-05  1.172135E-05  1.175250E-05  1.437943E-05 -1.324651E-07 -1.274026E-08
     14015   1 -4.726663E-05  1.560047E-05  1.560539E-05  9.887792E-06  2.190389E-07 -1.643836E-10
     14016   1 -4.722212E-05  1.556832E-05  1.561330E-05  8.847129E-06  5.852576E-07  1.017018E-08
     14017   1 -4.720544E-05  1.555009E-05  1.562313E-05  8.282056E-06  7.034255E-07  1.262677E-08
     14018   1 -4.722520E-05  1.554186E-05  1.566909E-05  7.954072E-06  5.510561E-07 -9.077283E-10
     14019   1 -4.725281E-05  1.553843E-05  1.569624E-05  7.771551E-06  2.882610E-07 -7.021637E-09
     14020   1 -4.727499E-05  1.554378E-05  1.571429E-05  7.709488E-06 -5.191726E-08 -2.331924E-08
     14021   1 -4.729593E-05  1.555247E-05  1.571207E-05  7.757680E-06 -3.762546E-07 -2.751510E-08
     14022   1 -4.730551E-05  1.556976E-05  1.569168E-05  7.925761E-06 -6.413291E-07 -3.920347E-08
     14023   1 -4.732676E-05  1.559008E-05  1.566845E-05  8.243984E-06 -7.668212E-07 -3.239903E-08
     14024   1 -4.736153E-05  1.561160E-05  1.565439E-05  8.799007E-06 -6.324262E-07 -3.346436E-08
     14025   1 -4.742666E-05  1.563398E-05  1.566907E-05  9.832313E-06 -2.342151E-07 -1.530165E-09
     14026   1 -5.902737E-05  1.946854E-05  1.946406E-05  3.627665E-06  5.962389E-07  1.247186E-08
     14027   1 -5.899811E-05  1.944746E-05  1.950247E-05  3.134031E-06  1.261486E-06  6.447339E-09
     14028   1 -5.899846E-05  1.944103E-05  1.952701E-05  2.945494E-06  1.264159E-06  4.628733E-09
     14029   1 -5.903391E-05  1.942567E-05  1.959478E-05  2.820906E-06  9.448680E-07 -8.354813E-10
     14030   1 -5.907288E-05  1.942665E-05  1.963053E-05  2.761131E-06  4.876257E-07 -2.153781E-09
     14031   1 -5.910206E-05  1.942889E-05  1.965510E-05  2.735842E-06 -5.891983E-08 -9.480582E-09
     14032   1 -5.912266E-05  1.944410E-05  1.964696E-05  2.756368E-06 -5.829632E-07 -8.608978E-09
     14033   1 -5.912552E-05  1.945898E-05  1.961502E-05  2.810042E-06 -1.047955E-06 -1.602898E-08
     14034   1 -5.913778E-05  1.948737E-05  1.957651E-05  2.932358E-06 -1.332228E-06 -9.186005E-09
     14035   1 -5.916295E-05  1.951046E-05  1.954284E-05  3.115959E-06 -1.318053E-06 -1.492255E-08
     14036   1 -5.923270E-05  1.955250E-05  1.953907E-05  3.611555E-06 -6.107714E-07 -4.157557E-09
     14037   1  5.447406E-05 -1.800797E-05 -1.796746E-05  3.648806E-06 -5.845503E-07 -1.121493E-08
     14038   1  5.440948E-05 -1.794586E-05 -1.798104E-05  3.147502E-06 -1.252055E-06  8.657835E-09
     14039   1  5.441462E-05 -1.792170E-05 -1.803745E-05  2.964603E-06 -1.227778E-06 -7.829761E-10
     14040   1  5.445812E-05 -1.790504E-05 -1.810710E-05  2.837266E-06 -9.231857E-07  5.709330E-09
     14041   1  5.450853E-05 -1.790593E-05 -1.816210E-05  2.779821E-06 -4.561669E-07 -6.936813E-09
     14042   1  5.454818E-05 -1.790916E-05 -1.819044E-05  2.754162E-06  6.709468E-08 -6.274134E-09
     14043   1  5.457083E-05 -1.792830E-05 -1.817790E-05  2.772422E-06  5.917666E-07 -1.640286E-08
     14044   1  5.457860E-05 -1.794895E-05 -1.814137E-05  2.827654E-06  1.039916E-06 -1.344411E-08
     14045   1  5.459066E-05 -1.798445E-05 -1.808557E-05  2.945118E-06  1.331428E-06 -1.887595E-08
     14046   1  5.462694E-05 -1.801366E-05 -1.805430E-05  3.130113E-06  1.312113E-06 -8.155870E-09
     14047   1  5.470327E-05 -1.805704E-05 -1.804111E-05  3.621147E-06  6.125982E-07 -1.291451E-08
     14048   1  4.359248E-05 -1.436554E-05 -1.439666E-05  9.911573E-06 -2.190693E-07  1.027974E-08
     14049   1  4.354651E-05 -1.435773E-05 -1.439806E-05  8.887233E-06 -5.757415E-07  2.376457E-08
     14050   1  4.354060E-05 -1.434644E-05 -1.442570E-05  8.327263E-06 -6.848851E-07  1.145971E-08
     14051   1  4.356034E-05 -1.433242E-05 -1.447456E-05  8.001552E-06 -5.351336E-07  6.591492E-09
     14052   1  4.359693E-05 -1.432808E-05 -1.451560E-05  7.819088E-06 -2.680121E-07 -1.172374E-08
     14053   1  4.362495E-05 -1.433389E-05 -1.453509E-05  7.759081E-06  5.988817E-08 -2.137873E-08
     14054   1  4.364985E-05 -1.434665E-05 -1.453195E-05  7.801420E-06  3.841528E-07 -4.099384E-08
     14055   1  4.366468E-05 -1.436842E-05 -1.450686E-05  7.970499E-06  6.405781E-07 -4.067740E-08
     14056   1  4.369035E-05 -1.439677E-05 -1.447488E-05  8.279524E-06  7.695471E-07 -5.067705E-08
     14057   1  4.373822E-05 -1.442817E-05 -1.445826E-05  8.833168E-06  6.343021E-07 -2.945557E-08
     14058   1  4.381825E-05 -1.445946E-05 -1.447119E-05  9.860865E-06  2.358210E-07 -1.380137E-08
     14059   1  3.274038E-05 -1.082814E-05 -1.079867E-05  1.451127E-05 -1.169641E-07  3.722783E-10
     14060   1  3.269068E-05 -1.080191E-05 -1.079810E-05  1.335377E-05 -2.908947E-07  2.135192E-08
     14061   1  3.267249E-05 -1.077867E-05 -1.081881E-05  1.256814E-05 -3.522854E-07  2.195295E-08
     14062   1  3.268118E-05 -1.077013E-05 -1.084626E-05  1.208581E-05 -2.946892E-07  1.155762E-08
     14063   1  3.270264E-05 -1.076507E-05 -1.087704E-05  1.181290E-05 -1.434861E-07 -1.504659E-08
     14064   1  3.272387E-05 -1.076859E-05 -1.088971E-05  1.171987E-05  4.746863E-08 -3.108796E-08
     14065   1  3.274480E-05 -1.077987E-05 -1.089057E-05  1.178738E-05  2.356943E-07 -5.953306E-08
     14066   1  3.276344E-05 -1.079911E-05 -1.087317E-05  1.203939E-05  3.775464E-07 -6.197825E-08
     14067   1  3.279257E-05 -1.082192E-05 -1.085737E-05  1.249943E-05  4.201787E-07 -7.746816E-08
     14068   1  3.283762E-05 -1.084925E-05 -1.084708E-05  1.327030E-05  3.349174E-07 -4.487915E-08
     14069   1  3.290489E-05 -1.086772E-05 -1.085410E-05  1.440707E-05  1.362664E-07 -3.191234E-08
     14070   1  2.185215E-05 -7.224794E-06 -7.206370E-06  1.767897E-05 -5.870103E-08  1.825200E-08
     14071   1  2.181621E-05 -7.221162E-06 -7.193849E-06  1.647304E-05 -1.520401E-07  4.715514E-08
     14072   1  2.180146E-05 -7.210625E-06 -7.207972E-06  1.561021E-05 -1.780854E-07  2.504532E-08
     14073   1  2.180292E-05 -7.199689E-06 -7.225718E-06  1.502883E-05 -1.497628E-07  1.906323E-08
     14074   1  2.181196E-05 -7.196109E-06 -7.241762E-06  1.469677E-05 -7.056048E-08 -1.755900E-08
     14075   1  2.182779E-05 -7.197983E-06 -7.252927E-06  1.458103E-05  3.267302E-08 -3.674255E-08
     14076   1  2.184176E-05 -7.207119E-06 -7.251257E-06  1.466511E-05  1.345086E-07 -7.296407E-08
     14077   1  2.185984E-05 -7.220510E-06 -7.244339E-06  1.497240E-05  2.061975E-07 -7.943169E-08
     14078   1  2.188492E-05 -7.241266E-06 -7.233981E-06  1.552335E-05  2.254875E-07 -9.613308E-08
     14079   1  2.192206E-05 -7.261581E-06 -7.228465E-06  1.637511E-05  1.810848E-07 -6.687529E-08
     14080   1  2.197272E-05 -7.272549E-06 -7.244860E-06  1.757680E-05  6.783978E-08 -3.922372E-08
     14081   1  1.095385E-05 -3.652581E-06 -3.595195E-06  1.957743E-05 -2.524746E-08  6.274892E-09
     14082   1  1.093678E-05 -3.644463E-06 -3.598457E-06  1.833314E-05 -6.363672E-08  4.355190E-08
     14083   1  1.092326E-05 -3.636001E-06 -3.596281E-06  1.741905E-05 -7.966791E-08  3.444664E-08
     14084   1  1.092012E-05 -3.629099E-06 -3.606912E-06  1.679901E-05 -6.426964E-08  2.159187E-08
     14085   1  1.092202E-05 -3.625441E-06 -3.611930E-06  1.643301E-05 -3.040449E-08 -1.730896E-08
     14086   1  1.092888E-05 -3.626581E-06 -3.617907E-06  1.630477E-05  1.763110E-08 -4.040008E-08
     14087   1  1.093767E-05 -3.631446E-06 -3.617465E-06  1.639758E-05  6.122753E-08 -8.204506E-08
     14088   1  1.094991E-05 -3.641393E-06 -3.614793E-06  1.673576E-05  9.500113E-08 -8.810815E-08
     14089   1  1.096758E-05 -3.653367E-06 -3.611697E-06  1.732341E-05  1.018136E-07 -1.127413E-07
     14090   1  1.099063E-05 -3.665485E-06 -3.611990E-06  1.821674E-05  8.140698E-08 -7.471989E-08
     14091   1  1.102089E-05 -3.674868E-06 -3.618550E-06  1.943702E-05  3.230289E-08 -4.620098E-08
     14092   1  5.412505E-08 -6.914513E-08  7.446030E-09  2.016717E-05 -4.055743E-09  2.114009E-08
     14093   1  4.406076E-08 -5.746527E-08  8.058303E-09  1.892883E-05 -7.175522E-09  5.353237E-08
     14094   1  3.451605E-08 -4.953450E-08  1.059938E-08  1.801166E-05 -8.007710E-09  3.430569E-08
     14095   1  2.776277E-08 -4.537755E-08  1.330533E-08  1.737683E-05 -6.934350E-09  2.365173E-08
     14096   1  2.317423E-08 -4.313438E-08  1.589612E-08  1.700227E-05 -4.197264E-09 -1.817616E-08
     14097   1  2.148049E-08 -4.259180E-08  1.678795E-08  1.686984E-05  1.154831E-10 -4.199235E-08
     14098   1  2.387158E-08 -4.403644E-08  1.593563E-08  1.696561E-05  4.423714E-09 -8.345404E-08
     14099   1  2.907839E-08 -4.714159E-08  1.347858E-08  1.731050E-05  7.115729E-09 -9.391161E-08
     14100   1  3.672558E-08 -5.240188E-08  1.081507E-08  1.791062E-05  8.112595E-09 -1.147664E-07
     14101   1  4.538031E-08 -5.961545E-08  8.160656E-09  1.881258E-05  6.152890E-09 -8.082637E-08
     14102   1  5.276886E-08 -6.803228E-08  7.966416E-09  2.003950E-05  2.414094E-09 -4.715661E-08
     14103   1 -1.087258E-05  3.543186E-06  3.609520E-06  1.952905E-05  2.350411E-08  7.948021E-09
     14104   1 -1.086319E-05  3.541498E-06  3.615222E-06  1.829463E-05  5.168096E-08  4.384392E-08
     14105   1 -1.086178E-05  3.541133E-06  3.617634E-06  1.738617E-05  6.262412E-08  3.364555E-08
     14106   1 -1.087395E-05  3.542350E-06  3.636149E-06  1.676798E-05  4.790756E-08  1.991188E-08
     14107   1 -1.088520E-05  3.542908E-06  3.645927E-06  1.640227E-05  2.201122E-08 -1.816976E-08
     14108   1 -1.089503E-05  3.544892E-06  3.653957E-06  1.627443E-05 -1.802064E-08 -4.071270E-08
     14109   1 -1.089978E-05  3.547252E-06  3.651936E-06  1.636622E-05 -5.134743E-08 -8.169174E-08
     14110   1 -1.090087E-05  3.551284E-06  3.643428E-06  1.670347E-05 -7.962471E-08 -8.711115E-08
     14111   1 -1.090392E-05  3.554221E-06  3.634869E-06  1.728826E-05 -8.394593E-08 -1.123563E-07
     14112   1 -1.091039E-05  3.554603E-06  3.628839E-06  1.817692E-05 -6.798659E-08 -7.438221E-08
     14113   1 -1.092788E-05  3.549669E-06  3.635360E-06  1.938950E-05 -2.701516E-08 -4.657207E-08
     14114   1 -2.178828E-05  7.129352E-06  7.221069E-06  1.760883E-05  4.943389E-08  1.526687E-08
     14115   1 -2.176751E-05  7.141119E-06  7.214776E-06  1.641102E-05  1.331304E-07  4.540479E-08
     14116   1 -2.176721E-05  7.141734E-06  7.232116E-06  1.555379E-05  1.572889E-07  2.315962E-08
     14117   1 -2.178386E-05  7.137130E-06  7.260781E-06  1.497659E-05  1.292825E-07  1.714563E-08
     14118   1 -2.180305E-05  7.137491E-06  7.282155E-06  1.464567E-05  5.977349E-08 -1.984413E-08
     14119   1 -2.182282E-05  7.139856E-06  7.296908E-06  1.452945E-05 -3.341640E-08 -3.693801E-08
     14120   1 -2.183205E-05  7.147203E-06  7.292214E-06  1.461287E-05 -1.220533E-07 -7.222714E-08
     14121   1 -2.183916E-05  7.155763E-06  7.278433E-06  1.491788E-05 -1.876402E-07 -7.771152E-08
     14122   1 -2.184925E-05  7.168595E-06  7.260711E-06  1.546410E-05 -2.031979E-07 -9.548508E-08
     14123   1 -2.187079E-05  7.178242E-06  7.247007E-06  1.630750E-05 -1.651471E-07 -6.668856E-08
     14124   1 -2.191276E-05  7.177707E-06  7.263605E-06  1.749515E-05 -6.134130E-08 -4.007240E-08
     14125   1 -3.272675E-05  1.077771E-05  1.082049E-05  1.441572E-05  1.108720E-07  3.760161E-09
     14126   1 -3.267398E-05  1.075406E-05  1.081382E-05  1.328195E-05  2.717821E-07  2.508515E-08
     14127   1 -3.267129E-05  1.073537E-05  1.085217E-05  1.250779E-05  3.193702E-07  1.764631E-08
     14128   1 -3.269554E-05  1.073022E-05  1.088761E-05  1.202783E-05  2.719727E-07  9.904765E-09
     14129   1 -3.272592E-05  1.072784E-05  1.092790E-05  1.175736E-05  1.250720E-07 -1.840237E-08
     14130   1 -3.275667E-05  1.073198E-05  1.094632E-05  1.166272E-05 -4.618799E-08 -3.089570E-08
     14131   1 -3.276746E-05  1.074197E-05  1.094051E-05  1.173022E-05 -2.201696E-07 -5.860163E-08
     14132   1 -3.277851E-05  1.075816E-05  1.091649E-05  1.197960E-05 -3.527731E-07 -5.936931E-08
     14133   1 -3.278966E-05  1.077669E-05  1.088846E-05  1.243474E-05 -3.898062E-07 -7.636200E-08
     14134   1 -3.282263E-05  1.079905E-05  1.086762E-05  1.319519E-05 -3.142712E-07 -4.453216E-08
     14135   1 -3.288708E-05  1.081276E-05  1.087412E-05  1.431423E-05 -1.275013E-07 -3.322259E-08
     14136   1 -4.361437E-05  1.435124E-05  1.442805E-05  9.847154E-06  2.023612E-07  4.760874E-09
     14137   1 -4.355429E-05  1.434123E-05  1.440757E-05  8.834099E-06  5.514283E-07  2.225667E-08
     14138   1 -4.356774E-05  1.433070E-05  1.446971E-05  8.280971E-06  6.359658E-07  9.305546E-09
     14139   1 -4.360605E-05  1.432001E-05  1.452306E-05  7.958495E-06  5.076905E-07  4.007424E-09
     14140   1 -4.365163E-05  1.431656E-05  1.458030E-05  7.776146E-06  2.409397E-07 -1.413449E-08
     14141   1 -4.369364E-05  1.432360E-05  1.460574E-05  7.716412E-06 -5.615343E-08 -2.134231E-08
     14142   1 -4.370420E-05  1.433527E-05  1.459394E-05  7.757411E-06 -3.646746E-07 -3.996044E-08
     14143   1 -4.371267E-05  1.435559E-05  1.456084E-05  7.925770E-06 -6.058991E-07 -3.769300E-08
     14144   1 -4.371559E-05  1.438123E-05  1.451062E-05  8.230424E-06 -7.282081E-07 -5.002590E-08
     14145   1 -4.375262E-05  1.441067E-05  1.448016E-05  8.776025E-06 -6.051092E-07 -2.898878E-08
     14146   1 -4.383452E-05  1.444231E-05  1.448966E-05  9.785860E-06 -2.238491E-07 -1.561329E-08
     14147   1 -5.449348E-05  1.800252E-05  1.798861E-05  3.618113E-06  5.657243E-07 -4.032793E-10
     14148   1 -5.441780E-05  1.793850E-05  1.799175E-05  3.129176E-06  1.209098E-06  6.192165E-09
     14149   1 -5.444802E-05  1.791189E-05  1.808759E-05  2.945973E-06  1.166789E-06  1.247710E-09
     14150   1 -5.451043E-05  1.789655E-05  1.816506E-05  2.823283E-06  8.832800E-07  2.067141E-09
     14151   1 -5.457662E-05  1.789792E-05  1.824167E-05  2.762096E-06  4.235829E-07 -6.618436E-09
     14152   1 -5.462808E-05  1.790253E-05  1.827391E-05  2.739899E-06 -6.230993E-08 -6.735969E-09
     14153   1 -5.463767E-05  1.792069E-05  1.825397E-05  2.754854E-06 -5.668687E-07 -1.596752E-08
     14154   1 -5.463486E-05  1.794048E-05  1.820556E-05  2.812124E-06 -9.920448E-07 -1.148568E-08
     14155   1 -5.462079E-05  1.797547E-05  1.812676E-05  2.926432E-06 -1.275978E-06 -1.897556E-08
     14156   1 -5.464312E-05  1.800687E-05  1.807638E-05  3.109502E-06 -1.265758E-06 -6.723771E-09
     14157   1 -5.472161E-05  1.805634E-05  1.805260E-05  3.591471E-06 -5.934087E-07 -1.458107E-08
     14158   1  4.982594E-05 -1.640920E-05 -1.644410E-05  3.631956E-06 -5.617706E-07  3.311468E-08
     14159   1  4.978432E-05 -1.639246E-05 -1.649023E-05  3.160051E-06 -1.161471E-06  3.233959E-09
     14160   1  4.982813E-05 -1.637705E-05 -1.658351E-05  2.969055E-06 -1.129956E-06  1.169896E-08
     14161   1  4.991136E-05 -1.635677E-05 -1.670225E-05  2.853708E-06 -8.229786E-07 -3.454562E-09
     14162   1  5.000120E-05 -1.635632E-05 -1.679555E-05  2.789605E-06 -3.953593E-07 -1.310797E-10
     14163   1  5.006057E-05 -1.636396E-05 -1.683568E-05  2.767514E-06  8.312471E-08 -1.357672E-08
     14164   1  5.007451E-05 -1.638537E-05 -1.681174E-05  2.784779E-06  5.553375E-07 -1.234766E-08
     14165   1  5.006557E-05 -1.641285E-05 -1.674010E-05  2.835505E-06  9.783336E-07 -2.371613E-08
     14166   1  5.004892E-05 -1.645513E-05 -1.664795E-05  2.954109E-06  1.249078E-06 -1.333082E-08
     14167   1  5.007241E-05 -1.649948E-05 -1.657064E-05  3.130049E-06  1.257293E-06 -2.034428E-08
     14168   1  5.017654E-05 -1.656210E-05 -1.655954E-05  3.614389E-06  5.858568E-07 -1.032421E-09
     14169   1  3.995317E-05 -1.320229E-05 -1.320264E-05  9.922488E-06 -1.927496E-07 -6.812842E-09
     14170   1  3.987495E-05 -1.315081E-05 -1.319884E-05  8.901676E-06 -5.319630E-07  1.113031E-08
     14171   1  3.987737E-05 -1.311726E-05 -1.326616E-05  8.350810E-06 -6.082218E-07  2.279761E-08
     14172   1  3.993292E-05 -1.310509E-05 -1.334755E-05  8.032827E-06 -4.712764E-07  3.874496E-09
     14173   1  3.998936E-05 -1.309890E-05 -1.341479E-05  7.853019E-06 -2.206294E-07 -6.245279E-09
     14174   1  4.003929E-05 -1.310765E-05 -1.344807E-05  7.789575E-06  7.053110E-08 -3.084053E-08
     14175   1  4.005373E-05 -1.312265E-05 -1.343163E-05  7.835217E-06  3.598798E-07 -3.916630E-08
     14176   1  4.006166E-05 -1.315150E-05 -1.338514E-05  7.991162E-06  5.987400E-07 -5.954182E-08
     14177   1  4.006850E-05 -1.318645E-05 -1.332279E-05  8.299348E-06  7.161374E-07 -4.676696E-08
     14178   1  4.011277E-05 -1.322674E-05 -1.327785E-05  8.832111E-06  6.014488E-07 -5.147350E-08
     14179   1  4.021520E-05 -1.326275E-05 -1.328898E-05  9.836959E-06  2.235866E-07 -2.809795E-09
     14180   1  2.999387E-05 -9.887234E-06 -9.897936E-06  1.447178E-05 -1.139862E-07  3.673571E-08
     14181   1  2.994017E-05 -9.881425E-06 -9.906157E-06  1.336226E-05 -2.603413E-07  3.624804E-08
     14182   1  2.993623E-05 -9.865611E-06 -9.943993E-06  1.259891E-05 -3.073341E-07  3.706768E-08
     14183   1  2.996321E-05 -9.850819E-06 -1.000028E-05  1.212269E-05 -2.507495E-07  1.185845E-08
     14184   1  3.000112E-05 -9.845731E-06 -1.004618E-05  1.185898E-05 -1.125179E-07 -6.592661E-09
     14185   1  3.003523E-05 -9.850529E-06 -1.007102E-05  1.175799E-05  5.539750E-08 -4.334777E-08
     14186   1  3.005201E-05 -9.864777E-06 -1.006076E-05  1.183151E-05  2.208325E-07 -5.792303E-08
     14187   1  3.006593E-05 -9.888849E-06 -1.003052E-05  1.206309E-05  3.505322E-07 -8.997629E-08
     14188   1  3.008515E-05 -9.918811E-06 -9.990490E-06  1.252013E-05  3.886300E-07 -7.673268E-08
     14189   1  3.013499E-05 -9.956625E-06 -9.965799E-06  1.326206E-05  3.164565E-07 -8.029519E-08
     14190   1  3.022176E-05 -9.982444E-06 -9.971768E-06  1.437831E-05  1.281607E-07 -1.713502E-08
     14191   1  2.004155E-05 -6.641484E-06 -6.606370E-06  1.768799E-05 -4.981504E-08  2.073761E-08
     14192   1  2.000157E-05 -6.628715E-06 -6.604492E-06  1.649048E-05 -1.299560E-07  3.952997E-08
     14193   1  1.998909E-05 -6.613216E-06 -6.623506E-06  1.563648E-05 -1.562421E-07  5.432425E-08
     14194   1  1.999840E-05 -6.600217E-06 -6.658513E-06  1.507175E-05 -1.206752E-07  1.936917E-08
     14195   1  2.002298E-05 -6.597254E-06 -6.687835E-06  1.474494E-05 -5.352455E-08 -3.911216E-09
     14196   1  2.004081E-05 -6.598985E-06 -6.701884E-06  1.462415E-05  3.798338E-08 -5.202564E-08
     14197   1  2.005797E-05 -6.610903E-06 -6.697796E-06  1.471159E-05  1.274846E-07 -7.148985E-08
     14198   1  2.007171E-05 -6.628898E-06 -6.679822E-06  1.499638E-05  1.896580E-07 -1.143413E-07
     14199   1  2.009373E-05 -6.654132E-06 -6.655666E-06  1.554184E-05  2.099386E-07 -9.827477E-08
     14200   1  2.013531E-05 -6.678238E-06 -6.643292E-06  1.635851E-05  1.704958E-07 -1.104395E-07
     14201   1  2.019950E-05 -6.690707E-06 -6.657448E-06  1.753423E-05  6.538162E-08 -2.409918E-08
     14202   1  1.007731E-05 -3.370304E-06 -3.305788E-06  1.953860E-05 -2.683897E-08  4.910887E-08
     14203   1  1.004257E-05 -3.358765E-06 -3.295359E-06  1.833532E-05 -6.120185E-08  5.572222E-08
     14204   1  1.003002E-05 -3.346439E-06 -3.309282E-06  1.744304E-05 -6.692769E-08  6.641051E-08
     14205   1  1.002892E-05 -3.338897E-06 -3.318332E-06  1.683713E-05 -5.444724E-08  2.260476E-08
     14206   1  1.003674E-05 -3.333437E-06 -3.336004E-06  1.647701E-05 -2.017357E-08 -1.152884E-09
     14207   1  1.004544E-05 -3.335810E-06 -3.338936E-06  1.634423E-05  1.826846E-08 -5.655512E-08
     14208   1  1.005553E-05 -3.341762E-06 -3.340166E-06  1.643945E-05  6.063128E-08 -8.129899E-08
     14209   1  1.006781E-05 -3.354699E-06 -3.331237E-06  1.675246E-05  8.696365E-08 -1.271476E-07
     14210   1  1.008542E-05 -3.370604E-06 -3.322158E-06  1.733352E-05  9.731746E-08 -1.172130E-07
     14211   1  1.011546E-05 -3.388607E-06 -3.320694E-06  1.819133E-05  7.687646E-08 -1.236388E-07
     14212   1  1.015492E-05 -3.402900E-06 -3.325630E-06  1.938910E-05  3.147278E-08 -2.994540E-08
     14213   1  7.819545E-08 -8.834865E-08  5.777415E-09  2.015282E-05 -8.027502E-10  2.698475E-08
     14214   1  6.893713E-08 -8.183179E-08  7.572676E-09  1.893126E-05 -7.324532E-09  5.380271E-08
     14215   1  5.822477E-08 -7.502610E-08  1.109628E-08  1.802711E-05 -1.054635E-08  6.523579E-08
     14216   1  4.706836E-08 -6.850370E-08  1.570620E-08  1.740710E-05 -9.666626E-09  2.744704E-08
     14217   1  4.005885E-08 -6.515490E-08  1.875012E-08  1.704047E-05 -4.947104E-09 -3.290469E-09
     14218   1  3.870690E-08 -6.474667E-08  1.970837E-08  1.690067E-05  4.741219E-10 -5.789741E-08
     14219   1  4.145056E-08 -6.661455E-08  1.863821E-08  1.700061E-05  5.840329E-09 -8.293521E-08
     14220   1  4.966971E-08 -7.134300E-08  1.552386E-08  1.731897E-05  1.011576E-08 -1.335539E-07
     14221   1  6.118637E-08 -7.865565E-08  1.134140E-08  1.791283E-05  1.086032E-08 -1.188412E-07
     14222   1  7.488839E-08 -8.881858E-08  8.332797E-09  1.877506E-05  9.096394E-09 -1.303152E-07
     14223   1  8.941651E-08 -1.020738E-07  6.260898E-09  1.997521E-05  3.377650E-09 -3.022375E-08
     14224   1 -9.914803E-06  3.178969E-06  3.320435E-06  1.947654E-05  1.419354E-08  4.607865E-08
     14225   1 -9.913322E-06  3.202613E-06  3.312356E-06  1.828017E-05  3.952668E-08  5.304381E-08
     14226   1 -9.931544E-06  3.213346E-06  3.335338E-06  1.739168E-05  4.255492E-08  6.293677E-08
     14227   1 -9.950747E-06  3.217169E-06  3.352364E-06  1.678820E-05  3.451655E-08  1.989463E-08
     14228   1 -9.972763E-06  3.218135E-06  3.377552E-06  1.642924E-05  7.691605E-09 -3.694381E-09
     14229   1 -9.985727E-06  3.221589E-06  3.383178E-06  1.629526E-05 -1.681233E-08 -5.710766E-08
     14230   1 -9.989021E-06  3.223871E-06  3.381043E-06  1.639050E-05 -4.799775E-08 -7.984420E-08
     14231   1 -9.985591E-06  3.228052E-06  3.365966E-06  1.670147E-05 -6.473222E-08 -1.252496E-07
     14232   1 -9.979438E-06  3.229340E-06  3.346935E-06  1.727951E-05 -7.360489E-08 -1.147452E-07
     14233   1 -9.982603E-06  3.226243E-06  3.339347E-06  1.813039E-05 -5.729595E-08 -1.229033E-07
     14234   1 -9.994450E-06  3.214773E-06  3.339390E-06  1.931684E-05 -2.409770E-08 -2.924842E-08
     14235   1 -1.994771E-05  6.514758E-06  6.625927E-06  1.755932E-05  4.480099E-08  2.461974E-08
     14236   1 -1.991848E-05  6.511679E-06  6.622360E-06  1.638958E-05  1.080024E-07  3.867535E-08
     14237   1 -1.993067E-05  6.507615E-06  6.657372E-06  1.554948E-05  1.230643E-07  4.914520E-08
     14238   1 -1.996279E-05  6.505313E-06  6.701535E-06  1.498793E-05  9.385915E-08  1.280891E-08
     14239   1 -2.000322E-05  6.507119E-06  6.742046E-06  1.466139E-05  3.675852E-08 -7.515615E-09
     14240   1 -2.002551E-05  6.510476E-06  6.757858E-06  1.454041E-05 -3.649504E-08 -5.318787E-08
     14241   1 -2.003678E-05  6.519139E-06  6.751075E-06  1.462639E-05 -1.118710E-07 -6.894760E-08
     14242   1 -2.003285E-05  6.529917E-06  6.723813E-06  1.490891E-05 -1.602164E-07 -1.103838E-07
     14243   1 -2.003130E-05  6.543825E-06  6.687077E-06  1.544887E-05 -1.799550E-07 -9.398260E-08
     14244   1 -2.004832E-05  6.552630E-06  6.667094E-06  1.625308E-05 -1.445409E-07 -1.088899E-07
     14245   1 -2.009026E-05  6.546676E-06  6.674061E-06  1.740813E-05 -5.631577E-08 -2.288752E-08
     14246   1 -2.994738E-05  9.805342E-06  9.912695E-06  1.434925E-05  9.683913E-08  3.198401E-08
     14247   1 -2.991643E-05  9.813177E-06  9.940008E-06  1.325432E-05  2.202642E-07  2.716401E-08
     14248   1 -2.993333E-05  9.807743E-06  9.982169E-06  1.250052E-05  2.695455E-07  3.443078E-08
     14249   1 -2.998457E-05  9.801505E-06  1.005900E-05  1.203187E-05  2.056845E-07  2.651982E-09
     14250   1 -3.004762E-05  9.800546E-06  1.012027E-05  1.176561E-05  9.406298E-08 -1.034331E-08
     14251   1 -3.007877E-05  9.806608E-06  1.014306E-05  1.166604E-05 -5.637621E-08 -4.491033E-08
     14252   1 -3.009772E-05  9.818843E-06  1.013489E-05  1.173708E-05 -1.993159E-07 -5.440551E-08
     14253   1 -3.008559E-05  9.837535E-06  1.008687E-05  1.196674E-05 -3.091197E-07 -8.510396E-08
     14254   1 -3.008337E-05  9.858746E-06  1.003217E-05  1.241746E-05 -3.491854E-07 -7.178158E-08
     14255   1 -3.010869E-05  9.884789E-06  9.995758E-06  1.314398E-05 -2.802699E-07 -7.961925E-08
     14256   1 -3.018057E-05  9.898960E-06  9.992206E-06  1.423395E-05 -1.160773E-07 -1.603783E-08
     14257   1 -3.995785E-05  1.317188E-05  1.320329E-05  9.799318E-06  1.835538E-07  3.491436E-09
     14258   1 -3.990172E-05  1.312404E-05  1.324729E-05  8.814452E-06  4.711809E-07  1.118635E-08
     14259   1 -3.992318E-05  1.309626E-05  1.330947E-05  8.275540E-06  5.600112E-07  1.707615E-08
     14260   1 -4.000439E-05  1.308651E-05  1.342682E-05  7.960148E-06  4.048265E-07 -3.085017E-09
     14261   1 -4.009518E-05  1.308517E-05  1.351062E-05  7.780687E-06  1.983802E-07 -1.036416E-08
     14262   1 -4.013758E-05  1.309420E-05  1.354199E-05  7.715454E-06 -7.413155E-08 -3.193017E-08
     14263   1 -4.015903E-05  1.310858E-05  1.352901E-05  7.761632E-06 -3.290560E-07 -3.535677E-08
     14264   1 -4.013337E-05  1.313361E-05  1.345759E-05  7.914838E-06 -5.428447E-07 -5.529268E-08
     14265   1 -4.011900E-05  1.316459E-05  1.337686E-05  8.219769E-06 -6.593147E-07 -4.072900E-08
     14266   1 -4.013741E-05  1.320122E-05  1.331205E-05  8.739280E-06 -5.502750E-07 -5.145858E-08
     14267   1 -4.023464E-05  1.323603E-05  1.331181E-05  9.716720E-06 -2.072509E-07 -1.641652E-09
     14268   1 -4.985729E-05  1.642004E-05  1.644946E-05  3.591315E-06  5.307553E-07  1.654157E-08
     14269   1 -4.983014E-05  1.639116E-05  1.654028E-05  3.125576E-06  1.081580E-06  6.371809E-09
     14270   1 -4.989561E-05  1.637768E-05  1.663923E-05  2.943647E-06  1.054610E-06  4.846189E-09
     14271   1 -5.001755E-05  1.636054E-05  1.680269E-05  2.823357E-06  7.413542E-07 -3.002520E-09
     14272   1 -5.014032E-05  1.636506E-05  1.691131E-05  2.765077E-06  3.642664E-07 -3.607893E-09
     14273   1 -5.019849E-05  1.637324E-05  1.695489E-05  2.737150E-06 -8.722562E-08 -1.351002E-08
     14274   1 -5.021486E-05  1.639422E-05  1.692999E-05  2.758720E-06 -5.133236E-07 -1.026784E-08
     14275   1 -5.016994E-05  1.641834E-05  1.683166E-05  2.805601E-06 -9.064837E-07 -2.272317E-08
     14276   1 -5.012492E-05  1.645658E-05  1.671519E-05  2.924971E-06 -1.166825E-06 -9.772210E-09
     14277   1 -5.011522E-05  1.649925E-05  1.660715E-05  3.095176E-06 -1.182535E-06 -2.223147E-08
     14278   1 -5.021661E-05  1.656597E-05  1.658114E-05  3.566191E-06 -5.555369E-07  7.202041E-10
     14279   1  4.521630E-05 -1.495984E-05 -1.493248E-05  3.638862E-06 -4.944906E-07 -3.535563E-08
     14280   1  4.513694E-05 -1.485372E-05 -1.499233E-05  3.154607E-06 -1.036126E-06  1.262551E-08
     14281   1  4.522743E-05 -1.481271E-05 -1.516395E-05  2.991431E-06 -9.484525E-07 -3.085155E-09
     14282   1  4.539999E-05 -1.479656E-05 -1.536435E-05  2.860652E-06 -6.719328E-07  9.335272E-09
     14283   1  4.554523E-05 -1.480014E-05 -1.550759E-05  2.809800E-06 -3.038646E-07 -8.022728E-09
     14284   1  4.562630E-05 -1.480931E-05 -1.556632E-05  2.782516E-06  9.564587E-08 -7.727397E-09
     14285   1  4.563734E-05 -1.483672E-05 -1.552406E-05  2.797474E-06  4.911986E-07 -2.170446E-08
     14286   1  4.557047E-05 -1.486779E-05 -1.539447E-05  2.852690E-06  8.501727E-07 -1.644107E-08
     14287   1  4.551061E-05 -1.491904E-05 -1.523184E-05  2.958887E-06  1.123156E-06 -2.818786E-08
     14288   1  4.549481E-05 -1.497071E-05 -1.510666E-05  3.137024E-06  1.137477E-06 -6.117674E-09
     14289   1  4.560407E-05 -1.504175E-05 -1.505345E-05  3.597870E-06  5.493507E-07 -1.910930E-08
     14290   1  3.621967E-05 -1.189998E-05 -1.197856E-05  9.871217E-06 -1.768272E-07  2.527953E-08
     14291   1  3.616161E-05 -1.189238E-05 -1.201874E-05  8.911211E-06 -4.332883E-07  4.064694E-08
     14292   1  3.621480E-05 -1.187480E-05 -1.212609E-05  8.381862E-06 -5.001800E-07  1.782808E-08
     14293   1  3.631490E-05 -1.185344E-05 -1.226887E-05  8.067151E-06 -3.564521E-07  1.471786E-08
     14294   1  3.642688E-05 -1.185193E-05 -1.238042E-05  7.891959E-06 -1.593231E-07 -1.001978E-08
     14295   1  3.648195E-05 -1.186127E-05 -1.241903E-05  7.833336E-06  7.972238E-08 -2.557045E-08
     14296   1  3.650141E-05 -1.188223E-05 -1.239573E-05  7.865785E-06  3.145645E-07 -5.438279E-08
     14297   1  3.646625E-05 -1.191334E-05 -1.230166E-05  8.030348E-06  5.090322E-07 -5.337358E-08
     14298   1  3.644608E-05 -1.195796E-05 -1.219177E-05  8.312307E-06  6.307978E-07 -7.592799E-08
     14299   1  3.647240E-05 -1.201166E-05 -1.210851E-05  8.838525E-06  5.288165E-07 -3.732436E-08
     14300   1  3.659478E-05 -1.206420E-05 -1.209925E-05  9.806018E-06  2.015030E-07 -3.017692E-08
     14301   1  2.724536E-05 -8.996939E-06 -9.005078E-06  1.447974E-05 -8.335497E-08 -1.664249E-09
     14302   1  2.718285E-05 -8.969647E-06 -9.016162E-06  1.337713E-05 -2.058673E-07  4.690318E-08
     14303   1  2.719618E-05 -8.939333E-06 -9.092191E-06  1.263428E-05 -2.326209E-07  4.635265E-08
     14304   1  2.726158E-05 -8.929103E-06 -9.183902E-06  1.217461E-05 -1.780611E-07  3.020238E-08
     14305   1  2.733250E-05 -8.923456E-06 -9.265463E-06  1.190964E-05 -6.992587E-08 -9.193648E-09
     14306   1  2.737519E-05 -8.930561E-06 -9.292333E-06  1.182112E-05  6.111504E-08 -3.462807E-08
     14307   1  2.739251E-05 -8.948345E-06 -9.278258E-06  1.187292E-05  1.903720E-07 -8.109097E-08
     14308   1  2.738182E-05 -8.977348E-06 -9.213225E-06  1.211517E-05  2.931894E-07 -8.427122E-08
     14309   1  2.738417E-05 -9.014496E-06 -9.142895E-06  1.253501E-05  3.332635E-07 -1.206622E-07
     14310   1  2.742192E-05 -9.055612E-06 -9.088644E-06  1.326423E-05  2.728019E-07 -6.774990E-08
     14311   1  2.752648E-05 -9.081748E-06 -9.090135E-06  1.433026E-05  1.166913E-07 -5.904913E-08
     14312   1  1.822070E-05 -6.013144E-06 -6.019195E-06  1.764377E-05 -4.358720E-08  3.591753E-08
     14313   1  1.816969E-05 -6.015167E-06 -6.007002E-06  1.649427E-05 -1.080243E-07  9.732889E-08
     14314   1  1.817204E-05 -6.002251E-06 -6.055782E-06  1.568122E-05 -1.048361E-07  5.798362E-08
     14315   1  1.821106E-05 -5.991206E-06 -6.115037E-06  1.512051E-05 -8.206847E-08  5.001440E-08
     14316   1  1.824602E-05 -5.986295E-06 -6.159655E-06  1.480338E-05 -2.525927E-08 -6.868780E-09
     14317   1  1.828018E-05 -5.991261E-06 -6.184321E-06  1.468967E-05  4.227398E-08 -3.992704E-08
     14318   1  1.829078E-05 -6.005532E-06 -6.170189E-06  1.475587E-05  1.071366E-07 -1.003374E-07
     14319   1  1.829439E-05 -6.026785E-06 -6.134691E-06  1.504818E-05  1.586564E-07 -1.112044E-07
     14320   1  1.830694E-05 -6.058176E-06 -6.090850E-06  1.555016E-05  1.753005E-07 -1.548688E-07
     14321   1  1.834418E-05 -6.088099E-06 -6.059763E-06  1.635608E-05  1.474701E-07 -1.001981E-07
     14322   1  1.842448E-05 -6.104620E-06 -6.076064E-06  1.748534E-05  5.714271E-08 -7.378260E-08
     14323   1  9.173069E-06 -3.076405E-06 -3.001341E-06  1.954301E-05 -1.753761E-08  8.823875E-09
     14324   1  9.148036E-06 -3.068409E-06 -3.011477E-06  1.834846E-05 -4.040233E-08  9.554741E-08
     14325   1  9.139886E-06 -3.060688E-06 -3.018588E-06  1.748392E-05 -4.940480E-08  7.589889E-08
     14326   1  9.149719E-06 -3.050095E-06 -3.051447E-06  1.688550E-05 -3.216484E-08  5.969902E-08
     14327   1  9.164150E-06 -3.046666E-06 -3.068022E-06  1.653528E-05 -1.022573E-08 -3.624099E-09
     14328   1  9.178935E-06 -3.048526E-06 -3.081744E-06  1.640846E-05  2.360079E-08 -4.355958E-08
     14329   1  9.188359E-06 -3.057294E-06 -3.075061E-06  1.648107E-05  4.922666E-08 -1.126122E-07
     14330   1  9.195855E-06 -3.072660E-06 -3.059089E-06  1.680195E-05  7.514711E-08 -1.262181E-07
     14331   1  9.212598E-06 -3.092403E-06 -3.041294E-06  1.733586E-05  8.062612E-08 -1.792288E-07
     14332   1  9.241888E-06 -3.112730E-06 -3.029722E-06  1.818078E-05  6.841036E-08 -1.138807E-07
     14333   1  9.296093E-06 -3.130188E-06 -3.039622E-06  1.932720E-05  2.848005E-08 -8.419089E-08
     14334   1  1.414567E-07 -1.491381E-07  3.204910E-09  2.011774E-05 -7.818954E-09  4.278998E-08
     14335   1  1.123181E-07 -1.193629E-07  5.494670E-09  1.893037E-05 -1.220037E-08  1.067075E-07
     14336   1  8.892005E-08 -1.008688E-07  1.055927E-08  1.805805E-05 -1.265620E-08  7.717981E-08
     14337   1  7.485092E-08 -9.254989E-08  1.508002E-08  1.744751E-05 -9.686663E-09  6.038470E-08
     14338   1  6.689829E-08 -8.846352E-08  1.856295E-08  1.708648E-05 -5.622831E-09 -3.630251E-09
     14339   1  6.398620E-08 -8.757860E-08  2.007187E-08  1.695656E-05  1.155259E-09 -4.534639E-08
     14340   1  6.925537E-08 -9.048803E-08  1.801962E-08  1.703025E-05  7.488716E-09 -1.148632E-07
     14341   1  7.922914E-08 -9.671141E-08  1.458630E-08  1.735755E-05  1.130011E-08 -1.317621E-07
     14342   1  9.570271E-08 -1.077076E-07  9.964402E-09  1.790192E-05  1.335011E-08 -1.833256E-07
     14343   1  1.168265E-07 -1.242568E-07  5.093608E-09  1.875381E-05  1.025108E-08 -1.202561E-07
     14344   1  1.407300E-07 -1.462199E-07  3.418011E-09  1.990330E-05  4.302798E-09 -8.645140E-08
     14345   1 -8.949556E-06  2.844600E-06  3.007427E-06  1.943670E-05  1.538057E-08  1.063434E-08
     14346   1 -8.957591E-06  2.857312E-06  3.025041E-06  1.826293E-05  1.965202E-08  9.144335E-08
     14347   1 -8.982378E-06  2.869057E-06  3.042447E-06  1.740862E-05  2.073110E-08  6.959084E-08
     14348   1 -9.024461E-06  2.876754E-06  3.087901E-06  1.681237E-05  6.299870E-09  5.200731E-08
     14349   1 -9.057386E-06  2.881524E-06  3.112563E-06  1.646030E-05 -1.939855E-09 -7.837048E-09
     14350   1 -9.076227E-06  2.884731E-06  3.128163E-06  1.633403E-05 -2.189873E-08 -4.417988E-08
     14351   1 -9.076780E-06  2.888344E-06  3.118541E-06  1.640494E-05 -3.228847E-08 -1.101668E-07
     14352   1 -9.062366E-06  2.891450E-06  3.093404E-06  1.672532E-05 -4.874457E-08 -1.205557E-07
     14353   1 -9.046094E-06  2.890932E-06  3.065981E-06  1.725513E-05 -4.963280E-08 -1.743154E-07
     14354   1 -9.033774E-06  2.882550E-06  3.042719E-06  1.809160E-05 -4.424569E-08 -1.092602E-07
     14355   1 -9.042997E-06  2.860502E-06  3.049352E-06  1.922145E-05 -1.834630E-08 -8.345385E-08
     14356   1 -1.803599E-05  5.802332E-06  6.029079E-06  1.748741E-05  2.305818E-08  2.658794E-08
     14357   1 -1.803729E-05  5.847359E-06  6.034279E-06  1.635580E-05  6.819104E-08  8.574865E-08
     14358   1 -1.808052E-05  5.862546E-06  6.090231E-06  1.555069E-05  6.557402E-08  4.580311E-08
     14359   1 -1.815220E-05  5.865248E-06  6.168666E-06  1.499492E-05  4.467669E-08  3.876183E-08
     14360   1 -1.820931E-05  5.869395E-06  6.222622E-06  1.467753E-05  6.276168E-09 -1.540607E-08
     14361   1 -1.825023E-05  5.875242E-06  6.252628E-06  1.456147E-05 -4.129277E-08 -4.106556E-08
     14362   1 -1.824939E-05  5.885390E-06  6.231812E-06  1.462700E-05 -8.327695E-08 -9.520243E-08
     14363   1 -1.823078E-05  5.896264E-06  6.185247E-06  1.491749E-05 -1.235543E-07 -1.018315E-07
     14364   1 -1.820800E-05  5.909227E-06  6.127741E-06  1.541192E-05 -1.320749E-07 -1.463591E-07
     14365   1 -1.820417E-05  5.912774E-06  6.080548E-06  1.620273E-05 -1.158041E-07 -9.331576E-08
     14366   1 -1.824741E-05  5.896641E-06  6.094324E-06  1.730062E-05 -4.348224E-08 -7.310516E-08
     14367   1 -2.718170E-05  8.884621E-06  9.036972E-06  1.425851E-05  6.946633E-08  1.763775E-09
     14368   1 -2.713249E-05  8.870070E-06  9.039308E-06  1.320941E-05  1.638351E-07  4.817165E-08
     14369   1 -2.719108E-05  8.857041E-06  9.150463E-06  1.249043E-05  1.594724E-07  2.629304E-08
     14370   1 -2.729981E-05  8.857318E-06  9.263508E-06  1.202806E-05  1.325469E-07  1.826340E-08
     14371   1 -2.738494E-05  8.859152E-06  9.352803E-06  1.176676E-05  3.445158E-08 -2.001302E-08
     14372   1 -2.745200E-05  8.868056E-06  9.398118E-06  1.167271E-05 -5.897238E-08 -3.579695E-08
     14373   1 -2.744356E-05  8.882565E-06  9.363792E-06  1.172508E-05 -1.552031E-07 -7.459819E-08
     14374   1 -2.741604E-05  8.903491E-06  9.290850E-06  1.196581E-05 -2.446060E-07 -7.239046E-08
     14375   1 -2.737565E-05  8.927770E-06  9.196663E-06  1.237789E-05 -2.671069E-07 -1.100982E-07
     14376   1 -2.737508E-05  8.952140E-06  9.119967E-06  1.308813E-05 -2.288649E-07 -5.955980E-08
     14377   1 -2.745480E-05  8.959386E-06  9.119688E-06  1.411390E-05 -9.608023E-08 -5.894460E-08
     14378   1 -3.625573E-05  1.187047E-05  1.204205E-05  9.717912E-06  1.327364E-07  7.583769E-09
     14379   1 -3.619267E-05  1.186568E-05  1.204008E-05  8.781899E-06  3.785263E-07  3.127718E-08
     14380   1 -3.629378E-05  1.185475E-05  1.221274E-05  8.266335E-06  3.864826E-07  5.690327E-09
     14381   1 -3.645353E-05  1.184682E-05  1.237695E-05  7.953620E-06  2.965301E-07  2.078892E-09
     14382   1 -3.657552E-05  1.184971E-05  1.250156E-05  7.776140E-06  1.055616E-07 -1.891786E-08
     14383   1 -3.666829E-05  1.186275E-05  1.256498E-05  7.716922E-06 -7.536981E-08 -2.618859E-08
     14384   1 -3.665173E-05  1.188086E-05  1.251329E-05  7.746992E-06 -2.670434E-07 -4.900554E-08
     14385   1 -3.660066E-05  1.190584E-05  1.241069E-05  7.913041E-06 -4.389696E-07 -4.142090E-08
     14386   1 -3.652770E-05  1.194028E-05  1.226498E-05  8.187924E-06 -5.362357E-07 -6.833676E-08
     14387   1 -3.651552E-05  1.198272E-05  1.215218E-05  8.699032E-06 -4.642176E-07 -3.061144E-08
     14388   1 -3.662307E-05  1.202755E-05  1.213698E-05  9.624173E-06 -1.723158E-07 -3.239734E-08
     14389   1 -4.527998E-05  1.495080E-05  1.498555E-05  3.561480E-06  4.465935E-07 -8.413803E-09
     14390   1 -4.520450E-05  1.485584E-05  1.502830E-05  3.109797E-06  9.332461E-07  3.716058E-09
     14391   1 -4.536135E-05  1.481975E-05  1.527690E-05  2.941231E-06  8.060465E-07 -2.227033E-09
     14392   1 -4.559194E-05  1.481413E-05  1.550060E-05  2.821773E-06  5.838979E-07 -5.934034E-10
     14393   1 -4.576273E-05  1.482250E-05  1.566831E-05  2.759971E-06  2.369748E-07 -9.803485E-09
     14394   1 -4.587741E-05  1.483636E-05  1.574586E-05  2.740207E-06 -8.917323E-08 -8.127341E-09
     14395   1 -4.585461E-05  1.486085E-05  1.567878E-05  2.748427E-06 -4.319526E-07 -2.019050E-08
     14396   1 -4.576345E-05  1.488607E-05  1.553389E-05  2.808872E-06 -7.514249E-07 -9.608202E-09
     14397   1 -4.564426E-05  1.493031E-05  1.532840E-05  2.909524E-06 -9.963965E-07 -2.613954E-08
     14398   1 -4.558284E-05  1.497773E-05  1.516423E-05  3.084446E-06 -1.031540E-06 -4.367431E-10
     14399   1 -4.567748E-05  1.505198E-05  1.509016E-05  3.523446E-06 -5.020803E-07 -2.241279E-08
     14400   1  4.040382E-05 -1.324830E-05 -1.336859E-05  3.589109E-06 -4.222941E-07  6.953058E-08
     14401   1  4.040540E-05 -1.323789E-05 -1.351308E-05  3.181496E-06 -7.815010E-07 -3.761585E-09
     14402   1  4.064538E-05 -1.322110E-05 -1.380758E-05  2.982478E-06 -6.828328E-07  1.821321E-08
     14403   1  4.092153E-05 -1.320512E-05 -1.411001E-05  2.889914E-06 -4.374392E-07 -2.148205E-09
     14404   1  4.117364E-05 -1.321353E-05 -1.434744E-05  2.819650E-06 -1.633281E-07  9.011353E-10
     14405   1  4.129256E-05 -1.323152E-05 -1.442682E-05  2.799908E-06  8.813522E-08 -1.302823E-08
     14406   1  4.124576E-05 -1.325806E-05 -1.433121E-05  2.819535E-06  3.705759E-07 -1.453521E-08
     14407   1  4.113258E-05 -1.329542E-05 -1.413607E-05  2.859139E-06  6.574176E-07 -3.153262E-08
     14408   1  4.094944E-05 -1.334581E-05 -1.386087E-05  2.977539E-06  8.752813E-07 -1.287112E-08
     14409   1  4.086948E-05 -1.341595E-05 -1.362714E-05  3.131890E-06  9.711204E-07 -3.098197E-08
     14410   1  4.099184E-05 -1.351397E-05 -1.356173E-05  3.581134E-06  4.644047E-07  8.501814E-09
     14411   1  3.249930E-05 -1.071366E-05 -1.078362E-05  9.852917E-06 -9.769596E-08 -1.320524E-08
     14412   1  3.242852E-05 -1.064859E-05 -1.082631E-05  8.918229E-06 -3.042056E-07  1.328892E-08
     14413   1  3.254315E-05 -1.060304E-05 -1.103767E-05  8.405453E-06 -2.969542E-07  4.275764E-08
     14414   1  3.275254E-05 -1.059807E-05 -1.126334E-05  8.113856E-06 -2.047347E-07  1.754252E-08
     14415   1  3.291513E-05 -1.059674E-05 -1.142701E-05  7.939554E-06 -5.988144E-08  1.834642E-10
     14416   1  3.301464E-05 -1.061273E-05 -1.149598E-05  7.875374E-06  7.484239E-08 -2.946170E-08
     14417   1  3.298682E-05 -1.063413E-05 -1.142417E-05  7.924904E-06  2.249698E-07 -4.671055E-08
     14418   1  3.291983E-05 -1.067246E-05 -1.128597E-05  8.054636E-06  3.743583E-07 -8.168336E-08
     14419   1  3.281799E-05 -1.071921E-05 -1.109131E-05  8.352494E-06  4.629981E-07 -5.593578E-08
     14420   1  3.280098E-05 -1.077923E-05 -1.093583E-05  8.828617E-06  4.218990E-07 -8.234956E-08
     14421   1  3.293531E-05 -1.083127E-05 -1.091454E-05  9.751830E-06  1.568016E-07  3.093333E-09
     14422   1  2.441880E-05 -7.983835E-06 -8.094923E-06  1.439653E-05 -6.879325E-08  7.560639E-08
     14423   1  2.437351E-05 -7.999774E-06 -8.135200E-06  1.338146E-05 -1.146600E-07  7.688145E-08
     14424   1  2.445641E-05 -7.994981E-06 -8.265098E-06  1.267085E-05 -1.100641E-07  7.585996E-08
     14425   1  2.458334E-05 -7.980109E-06 -8.424985E-06  1.222789E-05 -7.348921E-08  4.324227E-08
     14426   1  2.469911E-05 -7.981023E-06 -8.538640E-06  1.197956E-05 -6.602502E-09  1.180542E-08
     14427   1  2.476706E-05 -7.991314E-06 -8.588562E-06  1.187510E-05  5.853413E-08 -4.238881E-08
     14428   1  2.475956E-05 -8.011772E-06 -8.541373E-06  1.195143E-05  1.303207E-07 -6.998592E-08
     14429   1  2.472177E-05 -8.044691E-06 -8.444293E-06  1.214490E-05  2.018245E-07 -1.296275E-07
     14430   1  2.467403E-05 -8.085618E-06 -8.313211E-06  1.257958E-05  2.287181E-07 -1.035223E-07
     14431   1  2.468891E-05 -8.135211E-06 -8.217605E-06  1.324500E-05  2.046164E-07 -1.387688E-07
     14432   1  2.480000E-05 -8.160677E-06 -8.208670E-06  1.427889E-05  8.647997E-08 -1.552725E-08
     14433   1  1.634040E-05 -5.377285E-06 -5.407783E-06  1.764118E-05 -1.913975E-08  5.095867E-08
     14434   1  1.631439E-05 -5.382087E-06 -5.433690E-06  1.652921E-05 -3.503497E-08  7.899415E-08
     14435   1  1.635989E-05 -5.381351E-06 -5.504679E-06  1.571539E-05 -4.306652E-08  1.242067E-07
     14436   1  1.642528E-05 -5.370575E-06 -5.598956E-06  1.519854E-05 -1.065595E-08  6.494060E-08
     14437   1  1.650821E-05 -5.372876E-06 -5.680380E-06  1.488250E-05  1.183271E-08  2.403248E-08
     14438   1  1.654289E-05 -5.378491E-06 -5.703483E-06  1.476112E-05  3.874228E-08 -4.919633E-08
     14439   1  1.654979E-05 -5.395528E-06 -5.681045E-06  1.484733E-05  7.464377E-08 -9.006601E-08
     14440   1  1.653268E-05 -5.421695E-06 -5.618038E-06  1.508610E-05  9.866156E-08 -1.682582E-07
     14441   1  1.651564E-05 -5.453618E-06 -5.537837E-06  1.560240E-05  1.165884E-07 -1.424103E-07
     14442   1  1.654167E-05 -5.483972E-06 -5.485361E-06  1.633427E-05  1.049067E-07 -1.868727E-07
     14443   1  1.662593E-05 -5.494819E-06 -5.490336E-06  1.743101E-05  4.264960E-08 -2.662119E-08
     14444   1  8.286464E-06 -2.778767E-06 -2.722402E-06  1.951744E-05 -1.273995E-08  1.069004E-07
     14445   1  8.245518E-06 -2.772133E-06 -2.709059E-06  1.838249E-05 -2.405001E-08  1.105523E-07
     14446   1  8.251472E-06 -2.756695E-06 -2.755417E-06  1.752314E-05 -9.381738E-09  1.441226E-07
     14447   1  8.280239E-06 -2.753804E-06 -2.789414E-06  1.696468E-05 -2.864411E-09  7.788084E-08
     14448   1  8.313699E-06 -2.749106E-06 -2.834151E-06  1.661427E-05  1.310608E-08  3.192161E-08
     14449   1  8.332738E-06 -2.754462E-06 -2.841354E-06  1.647972E-05  1.850252E-08 -5.252886E-08
     14450   1  8.338073E-06 -2.763801E-06 -2.833403E-06  1.657272E-05  3.680672E-08 -1.036751E-07
     14451   1  8.339241E-06 -2.782149E-06 -2.803921E-06  1.683393E-05  4.394980E-08 -1.898641E-07
     14452   1  8.341071E-06 -2.804266E-06 -2.766966E-06  1.738517E-05  5.375894E-08 -1.695888E-07
     14453   1  8.370413E-06 -2.829163E-06 -2.748382E-06  1.815516E-05  4.654232E-08 -2.113643E-07
     14454   1  8.428160E-06 -2.848827E-06 -2.749750E-06  1.927852E-05  2.077205E-08 -3.379738E-08
     14455   1  1.838326E-07 -1.684209E-07 -5.357657E-09  2.010849E-05  1.058996E-09  5.518966E-08
     14456   1  1.547983E-07 -1.503139E-07 -7.198007E-10  1.895666E-05 -7.539629E-09  1.087540E-07
     14457   1  1.326705E-07 -1.362103E-07  4.186275E-09  1.809412E-05 -1.026737E-08  1.427195E-07
     14458   1  1.141021E-07 -1.239104E-07  9.461556E-09  1.751327E-05 -9.395443E-09  8.313355E-08
     14459   1  1.034121E-07 -1.182286E-07  1.301332E-08  1.715833E-05 -3.130477E-09  2.947451E-08
     14460   1  1.030243E-07 -1.178581E-07  1.269072E-08  1.701405E-05  2.034759E-09 -5.381099E-08
     14461   1  1.073575E-07 -1.212438E-07  1.200622E-08  1.711225E-05  7.123264E-09 -1.049286E-07
     14462   1  1.214902E-07 -1.297762E-07  7.585023E-09  1.737744E-05  1.171952E-08 -1.966007E-07
     14463   1  1.415662E-07 -1.442076E-07  3.237133E-09  1.794093E-05  1.182721E-08 -1.709312E-07
     14464   1  1.705426E-07 -1.663400E-07 -6.600295E-10  1.871475E-05  1.125386E-08 -2.176633E-07
     14465   1  2.086965E-07 -1.988767E-07 -5.170114E-09  1.983996E-05  4.063851E-09 -3.295178E-08
     14466   1 -7.908448E-06  2.402216E-06  2.719808E-06  1.939357E-05 -8.469784E-09  9.803901E-08
     14467   1 -7.951433E-06  2.478646E-06  2.713156E-06  1.827394E-05 -5.922154E-09  9.896162E-08
     14468   1 -8.021220E-06  2.513076E-06  2.772348E-06  1.741869E-05 -2.059216E-08  1.285370E-07
     14469   1 -8.086968E-06  2.530434E-06  2.818251E-06  1.685934E-05 -1.878723E-08  6.596091E-08
     14470   1 -8.140011E-06  2.536709E-06  2.869434E-06  1.650966E-05 -2.421204E-08  2.390122E-08
     14471   1 -8.164299E-06  2.543438E-06  2.879718E-06  1.637155E-05 -1.457900E-08 -5.385566E-08
     14472   1 -8.158091E-06  2.546146E-06  2.866842E-06  1.646557E-05 -1.862801E-08 -9.712911E-08
     14473   1 -8.130991E-06  2.548427E-06  2.828555E-06  1.672538E-05 -1.578083E-08 -1.804058E-07
     14474   1 -8.091485E-06  2.542338E-06  2.779975E-06  1.727372E-05 -2.422401E-08 -1.575666E-07
     14475   1 -8.062924E-06  2.522052E-06  2.752677E-06  1.803222E-05 -2.033022E-08 -2.040210E-07
     14476   1 -8.047656E-06  2.479604E-06  2.743626E-06  1.913278E-05 -1.103303E-08 -2.965378E-08
     14477   1 -1.610179E-05  5.131365E-06  5.419812E-06  1.738255E-05  1.242352E-08  5.253244E-08
     14478   1 -1.611806E-05  5.163155E-06  5.444088E-06  1.632352E-05  7.220555E-10  6.484404E-08
     14479   1 -1.621930E-05  5.188921E-06  5.544042E-06  1.553216E-05 -1.226938E-08  9.929141E-08
     14480   1 -1.633420E-05  5.202778E-06  5.653856E-06  1.501472E-05 -2.974559E-08  4.076286E-08
     14481   1 -1.644147E-05  5.213492E-06  5.748669E-06  1.469326E-05 -3.307102E-08  1.007385E-08
     14482   1 -1.648172E-05  5.221883E-06  5.772306E-06  1.457006E-05 -3.438393E-08 -5.054237E-08
     14483   1 -1.647846E-05  5.233205E-06  5.746177E-06  1.465602E-05 -4.821393E-08 -7.954396E-08
     14484   1 -1.642643E-05  5.244347E-06  5.667722E-06  1.489370E-05 -5.173988E-08 -1.500448E-07
     14485   1 -1.636475E-05  5.252065E-06  5.570194E-06  1.540593E-05 -6.976045E-08 -1.213899E-07
     14486   1 -1.633375E-05  5.246255E-06  5.506085E-06  1.611672E-05 -6.127369E-08 -1.733033E-07
     14487   1 -1.635182E-05  5.208759E-06  5.494002E-06  1.717250E-05 -2.751149E-08 -1.901442E-08
     14488   1 -2.427769E-05  7.814197E-06  8.100586E-06  1.414495E-05  2.996339E-08  6.109252E-08
     14489   1 -2.431150E-05  7.873056E-06  8.188547E-06  1.315927E-05  2.941293E-08  4.031213E-08
     14490   1 -2.445167E-05  7.893833E-06  8.329038E-06  1.245556E-05  4.251965E-08  5.608927E-08
     14491   1 -2.462412E-05  7.900649E-06  8.513846E-06  1.202532E-05 -1.046063E-08  1.214056E-08
     14492   1 -2.479832E-05  7.911451E-06  8.665785E-06  1.176222E-05 -2.494631E-08 -5.261323E-09
     14493   1 -2.485071E-05  7.924537E-06  8.695374E-06  1.165921E-05 -5.314455E-08 -4.331893E-08
     14494   1 -2.484870E-05  7.940634E-06  8.659886E-06  1.173448E-05 -9.349153E-08 -5.725929E-08
     14495   1 -2.475859E-05  7.961007E-06  8.528563E-06  1.192699E-05 -1.220657E-07 -1.076739E-07
     14496   1 -2.466344E-05  7.980923E-06  8.374554E-06  1.235753E-05 -1.588761E-07 -7.960189E-08
     14497   1 -2.462080E-05  7.999912E-06  8.262219E-06  1.299500E-05 -1.337937E-07 -1.260393E-07
     14498   1 -2.467428E-05  7.991354E-06  8.225912E-06  1.397512E-05 -6.327354E-08 -7.664263E-09
     14499   1 -3.248666E-05  1.064885E-05  1.076660E-05  9.583216E-06  8.398821E-08  9.879580E-09
     14500   1 -3.249051E-05  1.060405E-05  1.091921E-05  8.731471E-06  1.621609E-07  1.149283E-09
     14501   1 -3.268132E-05  1.058551E-05  1.113155E-05  8.233187E-06  2.009851E-07  1.626166E-08
     14502   1 -3.293116E-05  1.059041E-05  1.139992E-05  7.941204E-06  7.290912E-08 -7.471337E-09
     14503   1 -3.318264E-05  1.060374E-05  1.161574E-05  7.761644E-06  1.374170E-08 -1.505469E-08
     14504   1 -3.325419E-05  1.062200E-05  1.165480E-05  7.691890E-06 -6.959597E-08 -3.112113E-08
     14505   1 -3.323959E-05  1.064018E-05  1.160123E-05  7.745392E-06 -1.705306E-07 -3.364436E-08
     14506   1 -3.310557E-05  1.066789E-05  1.141450E-05  7.872690E-06 -2.581082E-07 -6.330704E-08
     14507   1 -3.295017E-05  1.069974E-05  1.118924E-05  8.171357E-06 -3.532393E-07 -3.152111E-08
     14508   1 -3.287133E-05  1.074238E-05  1.100335E-05  8.623653E-06 -3.139892E-07 -7.349085E-08
     14509   1 -3.296254E-05  1.078009E-05  1.094846E-05  9.488561E-06 -1.230751E-07  1.047810E-08
     14510   1 -4.049909E-05  1.329241E-05  1.338215E-05  3.500945E-06  3.502027E-07  2.401928E-08
     14511   1 -4.056156E-05  1.326023E-05  1.362975E-05  3.100932E-06  5.968140E-07  5.557171E-10
     14512   1 -4.087503E-05  1.326020E-05  1.393897E-05  2.925727E-06  5.257838E-07 -5.828052E-10
     14513   1 -4.122567E-05  1.325907E-05  1.430458E-05  2.814437E-06  2.701831E-07 -7.576423E-09
     14514   1 -4.156388E-05  1.328461E-05  1.458581E-05  2.756471E-06  9.956360E-08 -7.085856E-09
     14515   1 -4.166573E-05  1.330589E-05  1.464527E-05  2.723827E-06 -8.404535E-08 -1.417181E-08
     14516   1 -4.162412E-05  1.332934E-05  1.455896E-05  2.752450E-06 -2.935260E-07 -7.292264E-09
     14517   1 -4.143907E-05  1.335531E-05  1.431567E-05  2.786390E-06 -5.071781E-07 -2.604969E-08
     14518   1 -4.118650E-05  1.338870E-05  1.400002E-05  2.908767E-06 -7.107154E-07 -5.480900E-10
     14519   1 -4.103122E-05  1.344471E-05  1.371762E-05  3.052711E-06 -8.109667E-07 -3.249434E-08
     14520   1 -4.111500E-05  1.353887E-05  1.361346E-05  3.472405E-06 -3.979246E-07  1.419149E-08
     14521   1  3.561559E-05 -1.178282E-05 -1.182334E-05  3.577194E-06 -2.273795E-07 -1.000092E-07
     14522   1  3.565480E-05 -1.163110E-05 -1.204900E-05  3.130852E-06 -4.418174E-07  2.390807E-08
     14523   1  3.604566E-05 -1.159472E-05 -1.251174E-05  3.027764E-06 -2.369455E-07 -1.321748E-09
     14524   1  3.659139E-05 -1.160639E-05 -1.303767E-05  2.879427E-06 -8.209759E-08  1.427925E-08
     14525   1  3.694321E-05 -1.162826E-05 -1.334522E-05  2.847519E-06 -1.825095E-08  4.399462E-09
     14526   1  3.707685E-05 -1.164874E-05 -1.343637E-05  2.822945E-06  8.766440E-08 -9.058342E-09
     14527   1  3.702307E-05 -1.168127E-05 -1.331862E-05  2.826598E-06  1.642456E-07 -2.273742E-08
     14528   1  3.671335E-05 -1.170997E-05 -1.295144E-05  2.891721E-06  3.172178E-07 -1.674767E-08
     14529   1  3.642566E-05 -1.176582E-05 -1.255055E-05  2.970661E-06  5.465487E-07 -4.110829E-08
     14530   1  3.618142E-05 -1.182443E-05 -1.218412E-05  3.142997E-06  6.356753E-07  5.521772E-09
     14531   1  3.625052E-05 -1.192397E-05 -1.199685E-05  3.530781E-06  3.640172E-07 -3.386985E-08
     14532   1  2.858296E-05 -9.283073E-06 -9.508711E-06  9.710692E-06 -5.502520E-08  5.294964E-08
     14533   1  2.860550E-05 -9.304011E-06 -9.678533E-06  8.890811E-06 -4.281868E-08  8.063128E-08
     14534   1  2.890089E-05 -9.312265E-06 -1.000192E-05  8.435162E-06 -3.192577E-08  3.990817E-08
     14535   1  2.923769E-05 -9.301058E-06 -1.036156E-05  8.136202E-06  4.605440E-08  4.360335E-08
     14536   1  2.951756E-05 -9.316206E-06 -1.061055E-05  7.986500E-06  4.104287E-08  2.077456E-08
     14537   1  2.960823E-05 -9.334913E-06 -1.066396E-05  7.938208E-06  6.173657E-08 -2.200293E-08
     14538   1  2.957889E-05 -9.362171E-06 -1.058493E-05  7.949309E-06  8.411947E-08 -6.123807E-08
     14539   1  2.938006E-05 -9.393112E-06 -1.032306E-05  8.120407E-06  1.356137E-07 -6.479924E-08
     14540   1  2.919626E-05 -9.444953E-06 -1.003583E-05  8.343905E-06  2.391021E-07 -1.149121E-07
     14541   1  2.908350E-05 -9.509414E-06 -9.784903E-06  8.831443E-06  2.167578E-07 -3.554977E-08
     14542   1  2.919439E-05 -9.569516E-06 -9.694467E-06  9.664294E-06  9.443785E-08 -6.538827E-08
     14543   1  2.150611E-05 -6.986750E-06 -7.190561E-06  1.434437E-05  2.093775E-08 -5.221620E-09
     14544   1  2.153395E-05 -7.018507E-06 -7.264524E-06  1.336437E-05  3.572467E-08  1.101443E-07
     14545   1  2.170196E-05 -7.009173E-06 -7.486949E-06  1.271316E-05  7.022605E-08  1.169155E-07
     14546   1  2.194391E-05 -7.020989E-06 -7.727713E-06  1.228937E-05  8.563682E-08  9.116917E-08
     14547   1  2.213293E-05 -7.025824E-06 -7.908772E-06  1.205338E-05  6.346667E-08  3.853652E-08
     14548   1  2.220545E-05 -7.041578E-06 -7.948080E-06  1.198063E-05  4.520740E-08 -2.278171E-08
     14549   1  2.218749E-05 -7.065678E-06 -7.890521E-06  1.200133E-05  3.560350E-08 -9.997278E-08
     14550   1  2.207183E-05 -7.097312E-06 -7.713612E-06  1.224370E-05  4.733654E-08 -1.130217E-07
     14551   1  2.196188E-05 -7.139935E-06 -7.517343E-06  1.258038E-05  7.974505E-08 -1.950110E-07
     14552   1  2.191024E-05 -7.178012E-06 -7.352859E-06  1.324910E-05  8.034329E-08 -9.176925E-08
     14553   1  2.200676E-05 -7.186287E-06 -7.315555E-06  1.417574E-05  4.948335E-08 -1.159993E-07
     14554   1  1.440342E-05 -4.645231E-06 -4.831102E-06  1.760146E-05  1.357119E-08  5.904856E-08
     14555   1  1.441192E-05 -4.707093E-06 -4.838275E-06  1.651007E-05  2.447338E-08  2.161879E-07
     14556   1  1.451381E-05 -4.715917E-06 -4.978833E-06  1.580060E-05  8.931478E-08  1.494244E-07
     14557   1  1.468571E-05 -4.728694E-06 -5.144288E-06  1.526148E-05  7.874866E-08  1.398165E-07
     14558   1  1.478657E-05 -4.731602E-06 -5.239576E-06  1.498550E-05  5.560063E-08  5.888869E-08
     14559   1  1.484950E-05 -4.743455E-06 -5.283551E-06  1.488350E-05  3.584828E-08 -2.642801E-08
     14560   1  1.483669E-05 -4.763281E-06 -5.236056E-06  1.491335E-05  8.345431E-09 -1.273406E-07
     14561   1  1.477553E-05 -4.787011E-06 -5.130523E-06  1.520044E-05  1.138171E-08 -1.593453E-07
     14562   1  1.472105E-05 -4.821043E-06 -5.009441E-06  1.560501E-05  2.085003E-08 -2.592214E-07
     14563   1  1.469876E-05 -4.842316E-06 -4.910477E-06  1.635533E-05  3.277046E-08 -1.440721E-07
     14564   1  1.477422E-05 -4.838537E-06 -4.908962E-06  1.735651E-05  1.731647E-08 -1.463045E-07
     14565   1  7.309358E-06 -2.418986E-06 -2.404273E-06  1.954418E-05  8.095561E-09  2.801023E-09
     14566   1  7.304583E-06 -2.426220E-06 -2.444307E-06  1.840146E-05  3.958812E-08  2.222393E-07
     14567   1  7.356442E-06 -2.445753E-06 -2.485815E-06  1.763103E-05  4.503304E-08  1.862253E-07
     14568   1  7.424998E-06 -2.440503E-06 -2.575159E-06  1.704142E-05  5.168611E-08  1.627391E-07
     14569   1  7.476753E-06 -2.444402E-06 -2.615650E-06  1.673379E-05  3.055656E-08  7.215298E-08
     14570   1  7.505337E-06 -2.449276E-06 -2.640158E-06  1.661783E-05  2.276662E-08 -2.909120E-08
     14571   1  7.506383E-06 -2.461871E-06 -2.618077E-06  1.664865E-05 -1.914498E-10 -1.443754E-07
     14572   1  7.481228E-06 -2.479744E-06 -2.565386E-06  1.696447E-05  1.836322E-09 -1.856723E-07
     14573   1  7.470203E-06 -2.503235E-06 -2.511668E-06  1.739436E-05  4.243042E-09 -2.992765E-07
     14574   1  7.477225E-06 -2.524967E-06 -2.465318E-06  1.819058E-05  1.142288E-08 -1.662238E-07
     14575   1  7.542132E-06 -2.541338E-06 -2.470374E-06  1.922223E-05  8.864225E-09 -1.639209E-07
     14576   1  2.816545E-07 -2.591139E-07 -1.441088E-08  2.014245E-05 -8.016572E-09  8.337116E-08
     14577   1  2.256082E-07 -1.982868E-07 -1.289617E-08  1.899356E-05 -5.675833E-09  2.230684E-07
     14578   1  1.869868E-07 -1.636085E-07 -8.782311E-09  1.818479E-05 -3.869641E-09  1.858604E-07
     14579   1  1.678110E-07 -1.500747E-07 -5.803816E-09  1.759262E-05  3.846016E-10  1.617796E-07
     14580   1  1.611416E-07 -1.445696E-07 -5.592049E-09  1.726502E-05  8.810726E-10  7.239541E-08
     14581   1  1.589175E-07 -1.437520E-07 -4.324160E-09  1.714730E-05  3.575460E-09 -2.979286E-08
     14582   1  1.670610E-07 -1.479672E-07 -7.967807E-09  1.717745E-05  4.846143E-09 -1.464841E-07
     14583   1  1.785031E-07 -1.578363E-07 -8.320443E-09  1.750143E-05  4.291823E-09 -1.884537E-07
     14584   1  2.028897E-07 -1.768394E-07 -1.163761E-08  1.794115E-05  6.414791E-09 -3.045791E-07
     14585   1  2.390270E-07 -2.089407E-07 -1.507290E-08  1.874387E-05  3.414412E-09 -1.708275E-07
     14586   1  2.915917E-07 -2.572467E-07 -1.591039E-08  1.977657E-05  2.339550E-09 -1.677257E-07
     14587   1 -6.836236E-06  2.020553E-06  2.373817E-06  1.936345E-05 -1.752118E-09 -2.934803E-10
     14588   1 -6.918262E-06  2.080731E-06  2.426532E-06  1.824904E-05 -5.195377E-08  1.997179E-07
     14589   1 -7.030031E-06  2.136942E-06  2.480706E-06  1.748803E-05 -6.114739E-08  1.622770E-07
     14590   1 -7.140057E-06  2.163904E-06  2.575693E-06  1.689939E-05 -6.441020E-08  1.393751E-07
     14591   1 -7.216102E-06  2.180049E-06  2.624789E-06  1.658242E-05 -3.397898E-08  5.872559E-08
     14592   1 -7.245297E-06  2.186572E-06  2.646459E-06  1.646642E-05 -1.376301E-08 -2.857203E-08
     14593   1 -7.230727E-06  2.190928E-06  2.619338E-06  1.649684E-05  1.372161E-08 -1.340700E-07
     14594   1 -7.179314E-06  2.188811E-06  2.562114E-06  1.681573E-05  1.717843E-08 -1.653275E-07
     14595   1 -7.115342E-06  2.175019E-06  2.499796E-06  1.724313E-05  1.941123E-08 -2.790820E-07
     14596   1 -7.048938E-06  2.138646E-06  2.443490E-06  1.802849E-05  5.433741E-09 -1.471422E-07
     14597   1 -7.009919E-06  2.064657E-06  2.445225E-06  1.903025E-05  3.707824E-10 -1.587022E-07
     14598   1 -1.399674E-05  4.258646E-06  4.809346E-06  1.731620E-05 -4.756014E-08  3.551647E-08
     14599   1 -1.413186E-05  4.422978E-06  4.854807E-06  1.626308E-05 -8.655687E-08  1.735880E-07
     14600   1 -1.432126E-05  4.492212E-06  5.005154E-06  1.555498E-05 -1.341465E-07  1.033912E-07
     14601   1 -1.453732E-05  4.526667E-06  5.188457E-06  1.501052E-05 -1.188294E-07  1.001042E-07
     14602   1 -1.467322E-05  4.546020E-06  5.295076E-06  1.472836E-05 -7.520343E-08  3.624374E-08
     14603   1 -1.474297E-05  4.559963E-06  5.342002E-06  1.462082E-05 -2.655150E-08 -2.822051E-08
     14604   1 -1.470655E-05  4.571429E-06  5.281376E-06  1.465116E-05  2.334125E-08 -1.064784E-07
     14605   1 -1.461464E-05  4.577757E-06  5.166451E-06  1.494483E-05  3.057001E-08 -1.246862E-07
     14606   1 -1.449922E-05  4.576461E-06  5.029413E-06  1.534206E-05  3.307525E-08 -2.242662E-07
     14607   1 -1.439949E-05  4.543106E-06  4.910400E-06  1.607276E-05  4.606293E-09 -1.129126E-07
     14608   1 -1.438293E-05  4.463508E-06  4.906193E-06  1.701440E-05  8.917164E-10 -1.388968E-07
     14609   1 -2.134141E-05  6.787048E-06  7.227933E-06  1.393121E-05 -4.139240E-08 -1.395202E-08
     14610   1 -2.141705E-05  6.847042E-06  7.282527E-06  1.304509E-05 -1.029246E-07  9.441700E-08
     14611   1 -2.168702E-05  6.885357E-06  7.563509E-06  1.243629E-05 -2.042569E-07  4.862641E-08
     14612   1 -2.202871E-05  6.921410E-06  7.854661E-06  1.198036E-05 -1.539241E-07  4.389049E-08
     14613   1 -2.222342E-05  6.941737E-06  8.016400E-06  1.174658E-05 -1.084918E-07  1.261419E-08
     14614   1 -2.234190E-05  6.961502E-06  8.097529E-06  1.166291E-05 -4.116823E-08 -2.681100E-08
     14615   1 -2.227377E-05  6.978654E-06  7.995307E-06  1.168451E-05  3.069433E-08 -7.360052E-08
     14616   1 -2.212472E-05  6.993611E-06  7.812194E-06  1.193826E-05  2.602891E-08 -7.045149E-08
     14617   1 -2.193921E-05  7.006698E-06  7.584979E-06  1.226805E-05  3.035584E-08 -1.526829E-07
     14618   1 -2.180206E-05  7.004028E-06  7.382749E-06  1.291261E-05 -1.021712E-08 -5.412480E-08
     14619   1 -2.182646E-05  6.961841E-06  7.347988E-06  1.376252E-05 -1.318306E-08 -1.082846E-07
     14620   1 -2.862734E-05  9.228655E-06  9.634652E-06  9.421955E-06 -5.672454E-08 -3.073607E-09
     14621   1 -2.869300E-05  9.275422E-06  9.715019E-06  8.635255E-06 -5.415020E-08  4.269411E-08
     14622   1 -2.907782E-05  9.303629E-06  1.014108E-05  8.201612E-06 -1.978103E-07 -5.262051E-09
     14623   1 -2.957933E-05  9.332662E-06  1.057549E-05  7.889378E-06 -1.574782E-07 -1.116385E-09
     14624   1 -2.984916E-05  9.360968E-06  1.079324E-05  7.728068E-06 -1.160509E-07 -4.064827E-09
     14625   1 -3.001262E-05  9.386461E-06  1.090936E-05  7.677448E-06 -5.967989E-08 -2.314099E-08
     14626   1 -2.991565E-05  9.408352E-06  1.076666E-05  7.685762E-06  1.751076E-08 -3.966713E-08
     14627   1 -2.967235E-05  9.421622E-06  1.049508E-05  7.870702E-06 -1.518527E-08 -2.453166E-08
     14628   1 -2.939421E-05  9.446129E-06  1.015896E-05  8.087175E-06 -6.367469E-08 -8.244928E-08
     14629   1 -2.918533E-05  9.476489E-06  9.854526E-06  8.555728E-06 -9.817535E-08 -4.913572E-09
     14630   1 -2.923949E-05  9.506087E-06  9.761721E-06  9.303533E-06 -3.753942E-08 -6.549216E-08
     14631   1 -3.576422E-05  1.175886E-05  1.194640E-05  3.415623E-06  1.198665E-07 -2.924445E-08
     14632   1 -3.586428E-05  1.166817E-05  1.213104E-05  3.050224E-06  2.308323E-07 -5.515808E-09
     14633   1 -3.640889E-05  1.165864E-05  1.273238E-05  2.914184E-06 -6.077817E-08 -1.257921E-08
     14634   1 -3.711240E-05  1.170841E-05  1.332153E-05  2.792609E-06 -8.426876E-08 -8.602297E-09
     14635   1 -3.748422E-05  1.174799E-05  1.361803E-05  2.732733E-06 -8.567941E-08 -6.214380E-09
     14636   1 -3.768794E-05  1.177906E-05  1.375807E-05  2.720898E-06 -8.098122E-08 -7.647887E-09
     14637   1 -3.756588E-05  1.180445E-05  1.358439E-05  2.714826E-06 -3.614332E-08 -1.613683E-08
     14638   1 -3.719236E-05  1.181293E-05  1.319468E-05  2.792930E-06 -1.393292E-07  3.707328E-09
     14639   1 -3.679990E-05  1.184417E-05  1.274080E-05  2.864250E-06 -3.051730E-07 -2.971499E-08
     14640   1 -3.644058E-05  1.187771E-05  1.230567E-05  3.035786E-06 -4.271006E-07  2.503626E-08
     14641   1 -3.645123E-05  1.196579E-05  1.208626E-05  3.378160E-06 -2.689471E-07 -3.986938E-08
     14642   1  3.044001E-05 -9.851744E-06 -1.015207E-05  3.409567E-06 -4.576349E-08  1.780019E-07
     14643   1  3.074262E-05 -9.900321E-06 -1.061167E-05  3.192577E-06  2.235643E-07 -1.878500E-08
     14644   1  3.163961E-05 -9.942222E-06 -1.145093E-05  2.944237E-06  3.804747E-07  3.101969E-08
     14645   1  3.236415E-05 -9.972323E-06 -1.209679E-05  2.924341E-06  3.402165E-07  3.550812E-08
     14646   1  3.292246E-05 -1.001319E-05 -1.258435E-05  2.848062E-06  2.412872E-07  4.450297E-09
     14647   1  3.310390E-05 -1.004686E-05 -1.269247E-05  2.828552E-06 -3.778777E-08  6.141861E-09
     14648   1  3.284763E-05 -1.006754E-05 -1.239549E-05  2.865967E-06 -1.259098E-07 -2.024787E-08
     14649   1  3.248247E-05 -1.009492E-05 -1.197691E-05  2.868855E-06 -1.298862E-07 -4.510794E-08
     14650   1  3.184728E-05 -1.011699E-05 -1.129734E-05  2.998318E-06 -5.254831E-08 -6.800855E-09
     14651   1  3.142124E-05 -1.019202E-05 -1.071027E-05  3.102417E-06  2.366739E-07 -5.349498E-08
     14652   1  3.141129E-05 -1.030244E-05 -1.048444E-05  3.473843E-06  1.351401E-07  3.510333E-08
     14653   1  2.458315E-05 -7.953906E-06 -8.307526E-06  9.533383E-06  1.724545E-07 -1.315403E-08
     14654   1  2.477245E-05 -7.981244E-06 -8.522900E-06  8.840286E-06  2.836229E-07  3.063753E-08
     14655   1  2.527691E-05 -7.965837E-06 -9.087534E-06  8.393776E-06  4.066469E-07  1.216996E-07
     14656   1  2.585978E-05 -8.006742E-06 -9.603251E-06  8.191052E-06  3.219225E-07  1.054667E-07
     14657   1  2.622708E-05 -8.035257E-06 -9.914758E-06  8.039428E-06  1.911140E-07  4.069373E-08
     14658   1  2.637208E-05 -8.061086E-06 -1.001232E-05  7.978001E-06 -1.297699E-08  7.601210E-09
     14659   1  2.620990E-05 -8.081395E-06 -9.801977E-06  8.049431E-06 -1.301511E-07 -6.262310E-08
     14660   1  2.595400E-05 -8.114961E-06 -9.495755E-06  8.105721E-06 -1.636918E-07 -1.253827E-07
     14661   1  2.555381E-05 -8.145691E-06 -9.025153E-06  8.402932E-06 -1.528308E-07 -6.821299E-08
     14662   1  2.529616E-05 -8.196663E-06 -8.619244E-06  8.747889E-06 -3.667348E-08 -1.492871E-07
     14663   1  2.534793E-05 -8.222505E-06 -8.495838E-06  9.504339E-06 -2.339254E-08  3.391839E-08
     14664   1  1.841226E-05 -5.785531E-06 -6.237342E-06  1.416122E-05  5.454358E-08  1.700460E-07
     14665   1  1.855505E-05 -5.913723E-06 -6.399867E-06  1.330955E-05  2.586493E-07  1.910026E-07
     14666   1  1.896757E-05 -5.994117E-06 -6.767282E-06  1.269621E-05  3.415933E-07  2.185504E-07
     14667   1  1.935836E-05 -6.010963E-06 -7.136649E-06  1.236403E-05  2.702974E-07  1.871674E-07
     14668   1  1.962351E-05 -6.037969E-06 -7.351803E-06  1.214779E-05  1.518309E-07  9.207446E-08
     14669   1  1.972664E-05 -6.059478E-06 -7.419625E-06  1.204969E-05 -1.105662E-09  2.991693E-09
     14670   1  1.963385E-05 -6.078421E-06 -7.285131E-06  1.214519E-05 -1.086300E-07 -9.844592E-08
     14671   1  1.945990E-05 -6.110755E-06 -7.060563E-06  1.223739E-05 -1.515196E-07 -2.149410E-07
     14672   1  1.921775E-05 -6.138075E-06 -6.748495E-06  1.265535E-05 -1.574799E-07 -1.590568E-07
     14673   1  1.906046E-05 -6.162050E-06 -6.490558E-06  1.315588E-05 -8.372809E-08 -2.680530E-07
     14674   1  1.908729E-05 -6.119931E-06 -6.420411E-06  1.404907E-05 -2.634893E-08  6.632640E-09
     14675   1  1.226801E-05 -3.840430E-06 -4.152443E-06  1.749997E-05  6.298454E-08  1.653715E-07
     14676   1  1.239677E-05 -3.936145E-06 -4.287140E-06  1.658890E-05  2.303003E-07  1.999703E-07
     14677   1  1.269639E-05 -4.026444E-06 -4.511612E-06  1.579777E-05  2.310244E-07  3.368654E-07
     14678   1  1.291576E-05 -4.043792E-06 -4.713444E-06  1.541737E-05  2.018367E-07  2.552323E-07
     14679   1  1.311707E-05 -4.065210E-06 -4.885969E-06  1.512719E-05  1.178785E-07  1.256106E-07
     14680   1  1.317205E-05 -4.079978E-06 -4.908185E-06  1.501228E-05 -5.370273E-09  8.086656E-09
     14681   1  1.312449E-05 -4.096762E-06 -4.833892E-06  1.511726E-05 -6.978631E-08 -1.360041E-07
     14682   1  1.302344E-05 -4.122678E-06 -4.689391E-06  1.523581E-05 -1.208559E-07 -2.877262E-07
     14683   1  1.287880E-05 -4.140780E-06 -4.493778E-06  1.573024E-05 -1.170776E-07 -2.390485E-07
     14684   1  1.279875E-05 -4.146896E-06 -4.346870E-06  1.629184E-05 -7.014664E-08 -3.588618E-07
     14685   1  1.281768E-05 -4.098964E-06 -4.311704E-06  1.729098E-05 -2.437108E-08 -1.056292E-08
     14686   1  6.277315E-06 -2.005757E-06 -2.134527E-06  1.958131E-05  4.877729E-08  2.683015E-07
     14687   1  6.343253E-06 -2.081697E-06 -2.140145E-06  1.852978E-05  9.981529E-08  2.460567E-07
     14688   1  6.456598E-06 -2.084318E-06 -2.276673E-06  1.765294E-05  1.409126E-07  3.731912E-07
     14689   1  6.578324E-06 -2.106968E-06 -2.363593E-06  1.723598E-05  1.111942E-07  2.966586E-07
     14690   1  6.672135E-06 -2.110932E-06 -2.457378E-06  1.690382E-05  7.195546E-08  1.445679E-07
     14691   1  6.703960E-06 -2.120120E-06 -2.466043E-06  1.677297E-05 -3.928921E-09  1.070129E-08
     14692   1  6.679604E-06 -2.130592E-06 -2.428339E-06  1.688776E-05 -3.681367E-08 -1.580912E-07
     14693   1  6.642618E-06 -2.149577E-06 -2.361501E-06  1.701720E-05 -6.953492E-08 -3.292910E-07
     14694   1  6.577167E-06 -2.165774E-06 -2.262006E-06  1.755550E-05 -6.989432E-08 -2.845838E-07
     14695   1  6.554145E-06 -2.178135E-06 -2.198191E-06  1.815699E-05 -4.485332E-08 -4.089149E-07
     14696   1  6.586903E-06 -2.175708E-06 -2.178751E-06  1.921506E-05 -1.553692E-08 -1.876390E-08
     14697   1  3.443458E-07 -2.572011E-07 -3.703587E-08  2.017428E-05  1.136367E-08  1.329023E-07
     14698   1  2.761411E-07 -2.095224E-07 -3.327745E-08  1.909194E-05  1.282234E-08  2.572776E-07
     14699   1  2.458729E-07 -1.831536E-07 -3.491356E-08  1.824019E-05  1.831165E-08  3.728387E-07
     14700   1  2.340333E-07 -1.667573E-07 -3.939044E-08  1.776815E-05  1.498039E-08  2.979321E-07
     14701   1  2.277864E-07 -1.593476E-07 -4.046235E-08  1.743674E-05  1.165559E-08  1.456658E-07
     14702   1  2.300331E-07 -1.577977E-07 -4.474155E-08  1.729438E-05  3.126830E-09  1.103968E-08
     14703   1  2.323191E-07 -1.621299E-07 -4.147122E-08  1.741523E-05 -3.642613E-09 -1.572030E-07
     14704   1  2.474778E-07 -1.745357E-07 -4.397578E-08  1.754768E-05 -7.659235E-09 -3.361776E-07
     14705   1  2.678344E-07 -1.984016E-07 -3.945972E-08  1.810179E-05 -1.341178E-08 -2.836039E-07
     14706   1  3.102316E-07 -2.397354E-07 -3.600073E-08  1.871710E-05 -6.983539E-09 -4.138723E-07
     14707   1  3.832321E-07 -3.078258E-07 -3.923352E-08  1.978787E-05 -4.137340E-09 -1.450410E-08
     14708   1 -5.612797E-06  1.430731E-06  2.079636E-06  1.937559E-05 -6.292272E-08  2.485872E-07
     14709   1 -5.814189E-06  1.659725E-06  2.085862E-06  1.836147E-05 -9.276371E-08  2.141533E-07
     14710   1 -6.009269E-06  1.748482E-06  2.218782E-06  1.748811E-05 -1.283159E-07  3.265372E-07
     14711   1 -6.175911E-06  1.800650E-06  2.315633E-06  1.705090E-05 -9.370608E-08  2.599556E-07
     14712   1 -6.274052E-06  1.818807E-06  2.396399E-06  1.671592E-05 -5.186827E-08  1.280254E-07
     14713   1 -6.305486E-06  1.830235E-06  2.404108E-06  1.658150E-05  8.038563E-09  1.129182E-08
     14714   1 -6.274506E-06  1.832718E-06  2.367697E-06  1.670075E-05  4.090347E-08 -1.369601E-07
     14715   1 -6.202129E-06  1.827967E-06  2.293410E-06  1.683359E-05  6.500990E-08 -2.986428E-07
     14716   1 -6.095269E-06  1.798776E-06  2.199728E-06  1.737429E-05  5.703445E-08 -2.464061E-07
     14717   1 -5.985033E-06  1.728147E-06  2.138680E-06  1.796139E-05  4.027563E-08 -3.817185E-07
     14718   1 -5.877594E-06  1.597898E-06  2.109708E-06  1.898228E-05  1.066812E-08 -4.235162E-09
     14719   1 -1.180218E-05  3.469244E-06  4.131395E-06  1.711889E-05 -6.149962E-08  1.433538E-07
     14720   1 -1.203539E-05  3.622798E-06  4.255244E-06  1.625872E-05 -2.431236E-07  1.357845E-07
     14721   1 -1.241248E-05  3.756457E-06  4.507987E-06  1.547996E-05 -2.780579E-07  2.579915E-07
     14722   1 -1.271530E-05  3.822103E-06  4.730460E-06  1.508619E-05 -2.296639E-07  1.913918E-07
     14723   1 -1.293549E-05  3.857173E-06  4.900852E-06  1.477349E-05 -1.156195E-07  8.838069E-08
     14724   1 -1.298537E-05  3.872812E-06  4.915307E-06  1.465353E-05  1.537739E-08  1.379564E-08
     14725   1 -1.292896E-05  3.883862E-06  4.840929E-06  1.477008E-05  9.578693E-08 -1.004901E-07
     14726   1 -1.277722E-05  3.884137E-06  4.679022E-06  1.489314E-05  1.586415E-07 -2.307303E-07
     14727   1 -1.257687E-05  3.859313E-06  4.477861E-06  1.539763E-05  1.475156E-07 -1.698788E-07
     14728   1 -1.240073E-05  3.794580E-06  4.326554E-06  1.593372E-05  1.080338E-07 -3.088969E-07
     14729   1 -1.227935E-05  3.639827E-06  4.265256E-06  1.686741E-05  3.456439E-08  1.718138E-08
     14730   1 -1.806608E-05  5.473163E-06  6.190730E-06  1.375012E-05 -1.335624E-07  1.401153E-07
     14731   1 -1.843043E-05  5.732343E-06  6.464356E-06  1.295899E-05 -4.186731E-07  7.037783E-08
     14732   1 -1.897739E-05  5.865027E-06  6.858879E-06  1.230131E-05 -4.238004E-07  1.391634E-07
     14733   1 -1.941398E-05  5.925725E-06  7.215396E-06  1.198672E-05 -3.764433E-07  1.104860E-07
     14734   1 -1.978669E-05  5.972523E-06  7.510689E-06  1.172940E-05 -1.910135E-07  3.976237E-08
     14735   1 -1.984842E-05  5.997760E-06  7.515616E-06  1.162523E-05  3.509615E-08  1.323927E-08
     14736   1 -1.975069E-05  6.008770E-06  7.401216E-06  1.173845E-05  1.569954E-07 -5.606892E-08
     14737   1 -1.950430E-05  6.016822E-06  7.135540E-06  1.183375E-05  2.637902E-07 -1.455051E-07
     14738   1 -1.918127E-05  6.003157E-06  6.799225E-06  1.226721E-05  2.457890E-07 -7.764218E-08
     14739   1 -1.892017E-05  5.960703E-06  6.532963E-06  1.272951E-05  1.849878E-07 -2.156516E-07
     14740   1 -1.880636E-05  5.838390E-06  6.405416E-06  1.353103E-05  5.741080E-08  3.722624E-08
     14741   1 -2.449510E-05  7.838856E-06  8.202043E-06  9.049331E-06 -1.638484E-07  3.949257E-08
     14742   1 -2.487187E-05  7.916129E-06  8.671520E-06  8.525911E-06 -5.941500E-07 -2.940848E-08
     14743   1 -2.563290E-05  7.990136E-06  9.288277E-06  8.064833E-06 -5.724254E-07  2.934826E-08
     14744   1 -2.623449E-05  8.056968E-06  9.781147E-06  7.844322E-06 -5.168289E-07  3.455817E-08
     14745   1 -2.678224E-05  8.115818E-06  1.022415E-05  7.669055E-06 -2.762402E-07 -1.559733E-09
     14746   1 -2.686706E-05  8.151683E-06  1.022427E-05  7.595585E-06  6.710596E-08  1.240038E-08
     14747   1 -2.669039E-05  8.158918E-06  1.003913E-05  7.685884E-06  2.143303E-07 -2.229617E-08
     14748   1 -2.634379E-05  8.168462E-06  9.677650E-06  7.744617E-06  3.577940E-07 -6.471871E-08
     14749   1 -2.583007E-05  8.161545E-06  9.162713E-06  8.066250E-06  3.332397E-07  1.128799E-08
     14750   1 -2.545132E-05  8.162875E-06  8.727544E-06  8.378364E-06  2.228125E-07 -1.084977E-07
     14751   1 -2.537396E-05  8.142773E-06  8.529261E-06  9.032969E-06  8.065069E-08  6.383982E-08
     14752   1 -3.061968E-05  9.972555E-06  1.014205E-05  3.266314E-06 -1.088080E-07  4.391118E-08
     14753   1 -3.112174E-05  9.973899E-06  1.085675E-05  3.028963E-06 -6.327250E-07 -2.056340E-08
     14754   1 -3.225153E-05  1.009015E-05  1.174183E-05  2.846621E-06 -6.689829E-07 -1.160682E-08
     14755   1 -3.308018E-05  1.016761E-05  1.241294E-05  2.765827E-06 -6.207789E-07  3.189633E-09
     14756   1 -3.382920E-05  1.025119E-05  1.300846E-05  2.707930E-06 -3.558907E-07 -9.332124E-09
     14757   1 -3.395365E-05  1.029652E-05  1.302774E-05  2.669793E-06  9.744998E-08  4.335962E-09
     14758   1 -3.366799E-05  1.030304E-05  1.273726E-05  2.722481E-06  2.532871E-07  3.228993E-11
     14759   1 -3.320195E-05  1.029902E-05  1.227624E-05  2.720839E-06  3.948391E-07 -2.298861E-08
     14760   1 -3.241045E-05  1.027151E-05  1.153392E-05  2.867465E-06  3.439650E-07  2.983142E-08
     14761   1 -3.183992E-05  1.029897E-05  1.089412E-05  2.954539E-06  5.260833E-08 -4.984567E-08
     14762   1 -3.170222E-05  1.037733E-05  1.059058E-05  3.273192E-06 -6.832208E-09  5.337346E-08
     14763   1  2.521800E-05 -8.266082E-06 -8.590000E-06  3.334984E-06  5.358251E-07 -3.031098E-07
     14764   1  2.602614E-05 -8.200962E-06 -9.365566E-06  2.944481E-06  1.028429E-06  6.683071E-08
     14765   1  2.726063E-05 -8.272480E-06 -1.044150E-05  3.036837E-06  1.238133E-06  8.083951E-08
     14766   1  2.858401E-05 -8.381141E-06 -1.159132E-05  2.860837E-06  9.729000E-07  3.585927E-08
     14767   1  2.919656E-05 -8.448900E-06 -1.203940E-05  2.872559E-06  2.691788E-07  8.379270E-08
     14768   1  2.923334E-05 -8.475893E-06 -1.202794E-05  2.880734E-06 -1.044810E-07 -1.557652E-08
     14769   1  2.903542E-05 -8.491722E-06 -1.180773E-05  2.833958E-06 -5.520878E-07 -2.880566E-08
     14770   1  2.826685E-05 -8.485999E-06 -1.103600E-05  2.927067E-06 -7.889775E-07 -3.493803E-08
     14771   1  2.748598E-05 -8.504848E-06 -1.023680E-05  2.924615E-06 -7.325781E-07 -7.879836E-08
     14772   1  2.655547E-05 -8.481512E-06 -9.324027E-06  3.100270E-06 -5.677470E-07  3.670739E-08
     14773   1  2.628735E-05 -8.562217E-06 -8.759721E-06  3.304850E-06 -8.895105E-08 -7.575400E-08
     14774   1  2.024378E-05 -6.300009E-06 -6.885111E-06  9.136469E-06  2.336858E-07  1.035268E-07
     14775   1  2.075382E-05 -6.458389E-06 -7.464068E-06  8.594289E-06  8.561732E-07  2.578626E-07
     14776   1  2.178866E-05 -6.606934E-06 -8.303565E-06  8.397641E-06  9.193753E-07  2.200701E-07
     14777   1  2.263929E-05 -6.680250E-06 -9.023133E-06  8.143921E-06  6.841334E-07  1.960629E-07
     14778   1  2.310795E-05 -6.723897E-06 -9.393980E-06  8.084765E-06  2.264227E-07  1.865336E-07
     14779   1  2.315566E-05 -6.755256E-06 -9.371407E-06  8.087877E-06 -9.704063E-08 -1.069606E-08
     14780   1  2.301379E-05 -6.774539E-06 -9.218093E-06  8.017453E-06 -3.902393E-07 -9.343607E-08
     14781   1  2.252425E-05 -6.774507E-06 -8.705010E-06  8.200185E-06 -5.981868E-07 -1.384733E-07
     14782   1  2.197637E-05 -6.800574E-06 -8.119196E-06  8.255044E-06 -5.896433E-07 -2.353519E-07
     14783   1  2.141896E-05 -6.806865E-06 -7.506230E-06  8.698972E-06 -4.930616E-07 -2.976726E-08
     14784   1  2.127226E-05 -6.774494E-06 -7.186211E-06  9.208696E-06 -1.572227E-07 -1.675061E-07
     14785   1  1.495001E-05 -4.440882E-06 -5.263877E-06  1.382999E-05  3.108686E-07  2.971110E-08
     14786   1  1.554047E-05 -4.795482E-06 -5.576911E-06  1.314023E-05  6.248161E-07  3.940458E-07
     14787   1  1.622509E-05 -4.903476E-06 -6.146334E-06  1.276160E-05  6.661317E-07  4.319572E-07
     14788   1  1.684427E-05 -4.993379E-06 -6.631114E-06  1.239306E-05  4.949038E-07  3.528157E-07
     14789   1  1.718653E-05 -5.023332E-06 -6.906058E-06  1.229275E-05  1.783032E-07  2.697403E-07
     14790   1  1.723034E-05 -5.043493E-06 -6.898360E-06  1.226740E-05 -7.259128E-08  1.625277E-09
     14791   1  1.713263E-05 -5.070692E-06 -6.774178E-06  1.218434E-05 -2.715202E-07 -1.638089E-07
     14792   1  1.682830E-05 -5.077230E-06 -6.446580E-06  1.243200E-05 -4.213310E-07 -2.510559E-07
     14793   1  1.645555E-05 -5.093907E-06 -6.034011E-06  1.253233E-05 -4.404127E-07 -4.188830E-07
     14794   1  1.609781E-05 -5.059715E-06 -5.637449E-06  1.312505E-05 -3.452889E-07 -1.563094E-07
     14795   1  1.596970E-05 -4.926377E-06 -5.475098E-06  1.376699E-05 -1.089610E-07 -2.760473E-07
     14796   1  9.924331E-06 -2.838345E-06 -3.583063E-06  1.757943E-05  2.073569E-07  6.433406E-08
     14797   1  1.036327E-05 -3.175395E-06 -3.700732E-06  1.637392E-05  3.611876E-07  6.110337E-07
     14798   1  1.078376E-05 -3.261503E-06 -4.040068E-06  1.598730E-05  4.742238E-07  5.512026E-07
     14799   1  1.125406E-05 -3.332265E-06 -4.416952E-06  1.548517E-05  3.499211E-07  4.672307E-07
     14800   1  1.144667E-05 -3.354284E-06 -4.544344E-06  1.535506E-05  1.098907E-07  3.503796E-07
     14801   1  1.148581E-05 -3.366222E-06 -4.565593E-06  1.531284E-05 -3.054925E-08 -3.829442E-09
     14802   1  1.143228E-05 -3.388931E-06 -4.478250E-06  1.521306E-05 -1.861325E-07 -2.133515E-07
     14803   1  1.124380E-05 -3.400408E-06 -4.268954E-06  1.550661E-05 -2.734225E-07 -3.542010E-07
     14804   1  1.101831E-05 -3.407428E-06 -4.017894E-06  1.564360E-05 -2.962148E-07 -5.655578E-07
     14805   1  1.077094E-05 -3.349830E-06 -3.772596E-06  1.635060E-05 -2.270837E-07 -2.638636E-07
     14806   1  1.067900E-05 -3.220565E-06 -3.701008E-06  1.712253E-05 -7.669223E-08 -3.503774E-07
     14807   1  5.158692E-06 -1.593874E-06 -1.741747E-06  1.958601E-05  7.031418E-08 -3.524158E-08
     14808   1  5.265426E-06 -1.601896E-06 -1.903169E-06  1.839328E-05  2.505946E-07  6.686974E-07
     14809   1  5.526645E-06 -1.700962E-06 -2.044108E-06  1.794259E-05  2.662608E-07  6.422095E-07
     14810   1  5.749741E-06 -1.717336E-06 -2.250186E-06  1.735041E-05  2.011119E-07  5.198927E-07
     14811   1  5.846361E-06 -1.725615E-06 -2.305761E-06  1.720656E-05  6.245679E-08  3.986424E-07
     14812   1  5.862444E-06 -1.732346E-06 -2.316192E-06  1.715412E-05 -9.512945E-09 -4.059727E-09
     14813   1  5.845782E-06 -1.744790E-06 -2.279545E-06  1.704212E-05 -1.026759E-07 -2.455965E-07
     14814   1  5.749446E-06 -1.757059E-06 -2.167089E-06  1.736709E-05 -1.538235E-07 -4.118781E-07
     14815   1  5.654025E-06 -1.770801E-06 -2.049294E-06  1.751810E-05 -1.676054E-07 -6.501501E-07
     14816   1  5.547721E-06 -1.761967E-06 -1.921361E-06  1.830993E-05 -1.350603E-07 -3.079958E-07
     14817   1  5.529681E-06 -1.721854E-06 -1.890447E-06  1.916977E-05 -4.456327E-08 -3.895763E-07
     14818   1  3.802040E-07 -2.925273E-07 -5.464152E-08  2.028359E-05  1.384850E-08  1.874291E-07
     14819   1  3.377379E-07 -2.136089E-07 -6.857581E-08  1.907682E-05  5.242410E-08  6.243237E-07
     14820   1  3.264572E-07 -1.751369E-07 -8.759466E-08  1.849641E-05  5.455484E-08  6.287019E-07
     14821   1  3.197714E-07 -1.546880E-07 -9.765162E-08  1.793218E-05  4.258772E-08  5.338259E-07
     14822   1  3.187596E-07 -1.432838E-07 -1.062598E-07  1.775816E-05  2.057551E-08  4.023283E-07
     14823   1  3.163549E-07 -1.399345E-07 -1.042744E-07  1.770802E-05  2.976187E-09  3.875841E-10
     14824   1  3.232270E-07 -1.441505E-07 -1.091724E-07  1.759348E-05 -1.727579E-08 -2.474757E-07
     14825   1  3.260146E-07 -1.577494E-07 -9.822260E-08  1.793258E-05 -3.687875E-08 -4.124561E-07
     14826   1  3.453389E-07 -1.876362E-07 -8.986233E-08  1.809182E-05 -4.274929E-08 -6.588215E-07
     14827   1  3.806100E-07 -2.420048E-07 -7.583387E-08  1.889397E-05 -4.319568E-08 -3.079968E-07
     14828   1  4.618738E-07 -3.336011E-07 -6.175662E-08  1.977126E-05 -1.480677E-08 -3.963697E-07
     14829   1 -4.365866E-06  1.073940E-06  1.622773E-06  1.943083E-05 -2.721674E-08 -6.074910E-08
     14830   1 -4.653443E-06  1.219145E-06  1.781533E-06  1.821844E-05 -1.886055E-07  5.885147E-07
     14831   1 -4.981117E-06  1.380113E-06  1.917774E-06  1.772627E-05 -1.797607E-07  5.737135E-07
     14832   1 -5.195059E-06  1.437245E-06  2.074814E-06  1.713168E-05 -1.261779E-07  4.776939E-07
     14833   1 -5.308657E-06  1.467734E-06  2.133321E-06  1.697883E-05 -3.457206E-08  3.762268E-07
     14834   1 -5.328937E-06  1.481430E-06  2.139471E-06  1.692760E-05  2.505178E-08  4.023658E-09
     14835   1 -5.290719E-06  1.484961E-06  2.091959E-06  1.682046E-05  7.499671E-08 -2.162695E-07
     14836   1 -5.188620E-06  1.468491E-06  2.001542E-06  1.715609E-05  1.009307E-07 -3.609675E-07
     14837   1 -5.040054E-06  1.421567E-06  1.892076E-06  1.730988E-05  1.056769E-07 -5.955435E-07
     14838   1 -4.855941E-06  1.310549E-06  1.788374E-06  1.809654E-05  6.963789E-08 -2.550304E-07
     14839   1 -4.667514E-06  1.091867E-06  1.779813E-06  1.891364E-05  2.582812E-08 -3.740155E-07
     14840   1 -9.223306E-06  2.273039E-06  3.468560E-06  1.715911E-05 -2.264759E-07  2.444242E-08
     14841   1 -9.869386E-06  2.815786E-06  3.643352E-06  1.604882E-05 -4.088315E-07  5.040247E-07
     14842   1 -1.045473E-05  3.029468E-06  3.995102E-06  1.563666E-05 -4.663507E-07  4.285986E-07
     14843   1 -1.094084E-05  3.129017E-06  4.343683E-06  1.508043E-05 -3.168124E-07  3.696280E-07
     14844   1 -1.114573E-05  3.165285E-06  4.468357E-06  1.494121E-05 -9.987082E-08  3.195288E-07
     14845   1 -1.119248E-05  3.188868E-06  4.485487E-06  1.490641E-05  5.370456E-08  3.820550E-09
     14846   1 -1.110629E-05  3.196772E-06  4.382533E-06  1.480649E-05  1.932812E-07 -1.573436E-07
     14847   1 -1.090000E-05  3.184202E-06  4.186711E-06  1.512833E-05  2.719936E-07 -2.606737E-07
     14848   1 -1.060035E-05  3.134607E-06  3.929327E-06  1.526538E-05  2.977255E-07 -4.680177E-07
     14849   1 -1.025854E-05  2.979719E-06  3.688081E-06  1.596210E-05  2.083073E-07 -1.694317E-07
     14850   1 -1.000349E-05  2.698750E-06  3.634241E-06  1.664354E-05  7.766564E-08 -3.252980E-07
     14851   1 -1.463624E-05  4.200250E-06  5.291650E-06  1.328444E-05 -3.251603E-07 -6.095867E-08
     14852   1 -1.533898E-05  4.571573E-06  5.563510E-06  1.263836E-05 -6.687957E-07  3.160796E-07
     14853   1 -1.617476E-05  4.786768E-06  6.169712E-06  1.234220E-05 -8.401994E-07  2.698867E-07
     14854   1 -1.700008E-05  4.927451E-06  6.780719E-06  1.185965E-05 -5.636417E-07  2.124875E-07
     14855   1 -1.729702E-05  4.978127E-06  6.944200E-06  1.173903E-05 -1.609341E-07  2.380045E-07
     14856   1 -1.736100E-05  5.003400E-06  6.978446E-06  1.172947E-05  7.856962E-08  3.396029E-09
     14857   1 -1.722715E-05  5.017123E-06  6.817795E-06  1.163733E-05  3.496246E-07 -9.133799E-08
     14858   1 -1.686618E-05  4.996646E-06  6.490848E-06  1.193453E-05  4.974672E-07 -1.315268E-07
     14859   1 -1.638903E-05  4.957575E-06  6.055083E-06  1.204069E-05  5.603549E-07 -2.965963E-07
     14860   1 -1.589531E-05  4.843088E-06  5.621745E-06  1.262679E-05  4.102636E-07 -3.567002E-08
     14861   1 -1.561377E-05  4.595540E-06  5.485492E-06  1.315151E-05  1.533629E-07 -2.448915E-07
     14862   1 -2.021198E-05  6.167458E-06  7.151232E-06  8.744488E-06 -5.408092E-07 -6.919575E-08
     14863   1 -2.099071E-05  6.470884E-06  7.543757E-06  8.195690E-06 -9.939934E-07  1.296535E-07
     14864   1 -2.211606E-05  6.661933E-06  8.443485E-06  8.008638E-06 -1.288405E-06  8.602950E-08
     14865   1 -2.335871E-05  6.825445E-06  9.410875E-06  7.683397E-06 -8.769710E-07  7.567871E-08
     14866   1 -2.375769E-05  6.911118E-06  9.588628E-06  7.597638E-06 -2.202630E-07  1.433857E-07
     14867   1 -2.382620E-05  6.938335E-06  9.631574E-06  7.604914E-06  9.394758E-08 -5.872451E-09
     14868   1 -2.364862E-05  6.948051E-06  9.432543E-06  7.533260E-06  5.477170E-07 -2.741911E-08
     14869   1 -2.304735E-05  6.908901E-06  8.899602E-06  7.765770E-06  7.801911E-07 -2.735786E-08
     14870   1 -2.235635E-05  6.874272E-06  8.271247E-06  7.822103E-06  8.481917E-07 -1.333751E-07
     14871   1 -2.161377E-05  6.800223E-06  7.586806E-06  8.270185E-06  6.709840E-07  7.452769E-08
     14872   1 -2.131957E-05  6.682213E-06  7.283351E-06  8.632865E-06  2.491533E-07 -1.588319E-07
     14873   1 -2.542850E-05  8.143363E-06  8.864519E-06  3.044864E-06 -7.856063E-07 -9.982568E-08
     14874   1 -2.652312E-05  8.326486E-06  9.534659E-06  2.861496E-06 -1.424044E-06 -1.423252E-08
     14875   1 -2.807451E-05  8.477758E-06  1.080492E-05  2.812628E-06 -1.802210E-06  5.990968E-09
     14876   1 -2.981462E-05  8.693938E-06  1.215484E-05  2.683306E-06 -1.256844E-06 -2.730330E-10
     14877   1 -3.037317E-05  8.816588E-06  1.241621E-05  2.650645E-06 -3.049168E-07  5.371933E-08
     14878   1 -3.043548E-05  8.850519E-06  1.243730E-05  2.669554E-06  1.156997E-07 -8.521027E-09
     14879   1 -3.018536E-05  8.846312E-06  1.218908E-05  2.617954E-06  7.718540E-07 -2.895873E-09
     14880   1 -2.926108E-05  8.788418E-06  1.137579E-05  2.741634E-06  1.078437E-06  1.554887E-08
     14881   1 -2.831999E-05  8.741547E-06  1.055295E-05  2.729467E-06  1.126582E-06 -3.631758E-08
     14882   1 -2.713620E-05  8.638839E-06  9.537860E-06  2.927677E-06  9.370317E-07  9.861252E-08
     14883   1 -2.670794E-05  8.667971E-06  8.928417E-06  3.048443E-06  2.522346E-07 -8.681899E-08
     14884   1  1.935247E-05 -5.949814E-06 -6.625775E-06  2.681917E-06  8.795081E-07  5.992830E-07
     14885   1  2.104368E-05 -6.333088E-06 -8.079021E-06  3.116491E-06  2.550951E-06  8.439686E-08
     14886   1  2.380063E-05 -6.656934E-06 -1.030742E-05  2.752262E-06  2.365980E-06  9.847032E-08
     14887   1  2.513497E-05 -6.822427E-06 -1.118591E-05  2.914972E-06  1.053809E-06  2.892990E-07
     14888   1  2.546631E-05 -6.865527E-06 -1.148216E-05  2.911731E-06  3.997313E-07  3.292997E-08
     14889   1  2.562943E-05 -6.885776E-06 -1.159808E-05  2.842286E-06 -3.276103E-07  4.234849E-08
     14890   1  2.526485E-05 -6.897151E-06 -1.119168E-05  2.910918E-06 -8.992588E-07 -7.694872E-08
     14891   1  2.455163E-05 -6.874423E-06 -1.056824E-05  2.801634E-06 -1.544752E-06 -1.140957E-07
     14892   1  2.303995E-05 -6.780592E-06 -9.185660E-06  2.953390E-06 -1.836149E-06 -4.408585E-08
     14893   1  2.177793E-05 -6.790890E-06 -7.953570E-06  2.915075E-06 -1.352292E-06 -1.364838E-07
     14894   1  2.102700E-05 -6.726993E-06 -7.290255E-06  3.113845E-06 -6.706137E-07  1.130895E-07
     14895   1  1.527750E-05 -4.365642E-06 -5.663219E-06  8.404398E-06  9.000985E-07  1.749392E-07
     14896   1  1.688837E-05 -5.049682E-06 -6.494293E-06  8.509927E-06  1.643865E-06  2.901910E-07
     14897   1  1.861185E-05 -5.293402E-06 -7.833595E-06  8.112418E-06  1.526666E-06  5.393311E-07
     14898   1  1.963420E-05 -5.383445E-06 -8.588813E-06  8.252558E-06  7.551514E-07  6.236817E-07
     14899   1  1.992613E-05 -5.454718E-06 -8.739721E-06  8.259992E-06  2.201231E-07  2.129556E-07
     14900   1  2.003059E-05 -5.469642E-06 -8.845796E-06  8.131965E-06 -2.026592E-07  6.839435E-08
     14901   1  1.982736E-05 -5.474839E-06 -8.596646E-06  8.218438E-06 -6.279225E-07 -2.072641E-07
     14902   1  1.932246E-05 -5.479783E-06 -8.144939E-06  8.047006E-06 -1.034172E-06 -3.351954E-07
     14903   1  1.836444E-05 -5.417986E-06 -7.254051E-06  8.339747E-06 -1.239939E-06 -2.321868E-07
     14904   1  1.749665E-05 -5.376505E-06 -6.386818E-06  8.292571E-06 -9.532452E-07 -3.983490E-07
     14905   1  1.698595E-05 -5.173431E-06 -5.963760E-06  8.744101E-06 -4.241415E-07  1.378865E-07
     14906   1  1.122979E-05 -3.109347E-06 -4.078102E-06  1.360985E-05  3.738886E-07  5.206451E-07
     14907   1  1.233199E-05 -3.581197E-06 -4.736848E-06  1.298642E-05  1.071814E-06  6.718273E-07
     14908   1  1.368341E-05 -3.888057E-06 -5.660689E-06  1.245939E-05  1.070198E-06  9.058989E-07
     14909   1  1.444658E-05 -3.936162E-06 -6.241491E-06  1.263632E-05  5.283221E-07  8.995114E-07
     14910   1  1.464398E-05 -3.970696E-06 -6.342576E-06  1.253993E-05  1.331106E-07  3.542235E-07
     14911   1  1.472828E-05 -4.010156E-06 -6.392693E-06  1.240529E-05 -1.270973E-07  9.809602E-08
     14912   1  1.460932E-05 -4.004352E-06 -6.260890E-06  1.250270E-05 -4.240363E-07 -3.203265E-07
     14913   1  1.425956E-05 -4.027897E-06 -5.912958E-06  1.228065E-05 -6.857428E-07 -5.602459E-07
     14914   1  1.364350E-05 -3.982190E-06 -5.343700E-06  1.268251E-05 -7.998433E-07 -4.821299E-07
     14915   1  1.300708E-05 -3.867555E-06 -4.782463E-06  1.269997E-05 -6.340991E-07 -7.186661E-07
     14916   1  1.253961E-05 -3.520475E-06 -4.518887E-06  1.340704E-05 -2.673244E-07  7.612335E-08
     14917   1  7.398779E-06 -2.073099E-06 -2.574419E-06  1.676943E-05  2.311610E-07  7.832987E-07
     14918   1  8.072129E-06 -2.267908E-06 -3.121733E-06  1.658485E-05  8.381418E-07  8.402313E-07
     14919   1  9.083322E-06 -2.510928E-06 -3.807803E-06  1.571681E-05  7.276863E-07  1.165678E-06
     14920   1  9.515080E-06 -2.552410E-06 -4.064998E-06  1.590011E-05  3.144048E-07  1.133485E-06
     14921   1  9.650452E-06 -2.558808E-06 -4.184332E-06  1.578138E-05  1.246326E-07  4.295105E-07
     14922   1  9.729697E-06 -2.587879E-06 -4.209378E-06  1.558385E-05 -9.457129E-08  1.308994E-07
     14923   1  9.638565E-06 -2.596478E-06 -4.112921E-06  1.572141E-05 -2.645041E-07 -4.134783E-07
     14924   1  9.430915E-06 -2.609008E-06 -3.904256E-06  1.546199E-05 -4.413859E-07 -7.381999E-07
     14925   1  9.039953E-06 -2.580998E-06 -3.538564E-06  1.594071E-05 -5.114199E-07 -6.852866E-07
     14926   1  8.639153E-06 -2.490316E-06 -3.202939E-06  1.601993E-05 -4.119124E-07 -9.405180E-07
     14927   1  8.273238E-06 -2.187848E-06 -3.038432E-06  1.699414E-05 -1.733116E-07  4.427396E-08
     14928   1  3.635944E-06 -8.449638E-07 -1.465186E-06  1.932596E-05  2.737138E-07  9.725614E-07
     14929   1  4.232005E-06 -1.244705E-06 -1.598807E-06  1.868171E-05  4.590054E-07  8.882346E-07
     14930   1  4.697359E-06 -1.275311E-06 -1.987172E-06  1.769227E-05  4.001429E-07  1.271125E-06
     14931   1  4.895022E-06 -1.278176E-06 -2.091809E-06  1.791537E-05  1.831559E-07  1.280703E-06
     14932   1  4.962893E-06 -1.279731E-06 -2.158955E-06  1.775307E-05  8.060543E-08  4.761102E-07
     14933   1  5.004972E-06 -1.282051E-06 -2.180912E-06  1.753443E-05 -4.600470E-08  1.418263E-07
     14934   1  4.958595E-06 -1.294939E-06 -2.123566E-06  1.768270E-05 -1.466134E-07 -4.612083E-07
     14935   1  4.868376E-06 -1.313313E-06 -2.026275E-06  1.741414E-05 -2.464197E-07 -8.392647E-07
     14936   1  4.665763E-06 -1.309307E-06 -1.828464E-06  1.794907E-05 -2.951569E-07 -7.942029E-07
     14937   1  4.468123E-06 -1.271961E-06 -1.664218E-06  1.805603E-05 -2.374434E-07 -1.064679E-06
     14938   1  4.307606E-06 -1.161999E-06 -1.567998E-06  1.919770E-05 -1.046406E-07  3.503383E-08
     14939   1  4.662287E-07 -2.705859E-07 -8.631660E-08  2.000357E-05  5.727120E-08  5.471218E-07
     14940   1  3.911639E-07 -1.638347E-07 -1.304661E-07  1.922858E-05  1.030637E-07  9.482799E-07
     14941   1  3.840368E-07 -1.014662E-07 -1.686417E-07  1.833495E-05  1.005321E-07  1.331524E-06
     14942   1  3.853481E-07 -6.364015E-08 -1.944016E-07  1.850018E-05  6.234385E-08  1.290487E-06
     14943   1  3.707444E-07 -4.074101E-08 -1.933863E-07  1.835772E-05  3.105246E-08  5.000091E-07
     14944   1  3.700773E-07 -3.216468E-08 -2.030110E-07  1.812499E-05  1.370361E-10  1.456549E-07
     14945   1  3.751543E-07 -3.618331E-08 -2.013306E-07  1.828175E-05 -3.417422E-08 -4.636368E-07
     14946   1  3.844023E-07 -5.979585E-08 -1.966973E-07  1.800327E-05 -7.238455E-08 -8.572956E-07
     14947   1  3.833875E-07 -1.007558E-07 -1.640592E-07  1.856102E-05 -9.829276E-08 -8.062789E-07
     14948   1  4.147997E-07 -1.738987E-07 -1.300296E-07  1.870076E-05 -8.161769E-08 -1.083191E-06
     14949   1  4.997305E-07 -2.937595E-07 -1.097494E-07  1.988093E-05 -3.995939E-08  4.495955E-08
     14950   1 -2.959709E-06  4.083235E-07  1.316625E-06  1.908384E-05 -2.094335E-07  9.205367E-07
     14951   1 -3.557291E-06  9.462870E-07  1.387946E-06  1.846091E-05 -2.449432E-07  8.198113E-07
     14952   1 -3.956529E-06  1.066448E-06  1.651627E-06  1.749839E-05 -2.090651E-07  1.213361E-06
     14953   1 -4.191016E-06  1.137841E-06  1.761186E-06  1.771500E-05 -8.173249E-08  1.233087E-06
     14954   1 -4.276549E-06  1.177025E-06  1.807719E-06  1.755598E-05 -1.018832E-08  4.647898E-07
     14955   1 -4.310258E-06  1.197319E-06  1.812349E-06  1.734376E-05  4.242562E-08  1.534165E-07
     14956   1 -4.264182E-06  1.196900E-06  1.768025E-06  1.749844E-05  9.433502E-08 -4.219767E-07
     14957   1 -4.143177E-06  1.177353E-06  1.666270E-06  1.723124E-05  1.202993E-07 -7.770317E-07
     14958   1 -3.948171E-06  1.099591E-06  1.536321E-06  1.777666E-05  1.196209E-07 -7.152989E-07
     14959   1 -3.682002E-06  9.218071E-07  1.427091E-06  1.786529E-05  9.308895E-08 -1.003833E-06
     14960   1 -3.349366E-06  5.848644E-07  1.361871E-06  1.897228E-05  3.035222E-08  7.155329E-08
     14961   1 -6.666631E-06  1.711935E-06  2.479647E-06  1.661755E-05 -2.282873E-07  6.711583E-07
     14962   1 -7.645646E-06  2.080696E-06  2.996672E-06  1.626582E-05 -7.294767E-07  6.345220E-07
     14963   1 -8.631921E-06  2.348763E-06  3.606864E-06  1.527790E-05 -5.951876E-07  1.003057E-06
     14964   1 -9.070307E-06  2.433406E-06  3.849210E-06  1.547332E-05 -2.522846E-07  1.070320E-06
     14965   1 -9.237081E-06  2.492238E-06  3.943349E-06  1.536142E-05 -6.605316E-08  3.861464E-07
     14966   1 -9.303477E-06  2.514043E-06  3.967615E-06  1.515148E-05  9.586361E-08  1.516179E-07
     14967   1 -9.209342E-06  2.518190E-06  3.880454E-06  1.531719E-05  2.555474E-07 -3.346346E-07
     14968   1 -8.949213E-06  2.492432E-06  3.653974E-06  1.506302E-05  3.819697E-07 -6.198160E-07
     14969   1 -8.544730E-06  2.397683E-06  3.343286E-06  1.557740E-05  4.160979E-07 -5.290946E-07
     14970   1 -8.039289E-06  2.186003E-06  3.040890E-06  1.563549E-05  3.498112E-07 -8.229982E-07
     14971   1 -7.464911E-06  1.672998E-06  2.870177E-06  1.653969E-05  1.294860E-07  1.172782E-07
     14972   1 -1.046244E-05  2.514339E-06  3.877656E-06  1.309536E-05 -4.845187E-07  5.516320E-07
     14973   1 -1.207484E-05  3.420659E-06  4.722578E-06  1.270814E-05 -1.339797E-06  3.915082E-07
     14974   1 -1.380119E-05  3.850247E-06  5.802032E-06  1.188189E-05 -1.092869E-06  6.511360E-07
     14975   1 -1.445586E-05  3.949763E-06  6.134712E-06  1.204434E-05 -4.503048E-07  8.292000E-07
     14976   1 -1.468461E-05  4.008277E-06  6.301535E-06  1.197816E-05 -1.754715E-07  2.688682E-07
     14977   1 -1.481673E-05  4.043773E-06  6.355219E-06  1.178973E-05  1.731230E-07  1.290126E-07
     14978   1 -1.463044E-05  4.026157E-06  6.213784E-06  1.194795E-05  4.748719E-07 -2.184011E-07
     14979   1 -1.422099E-05  4.012877E-06  5.841577E-06  1.172827E-05  7.489339E-07 -4.017183E-07
     14980   1 -1.352943E-05  3.905758E-06  5.290779E-06  1.219801E-05  8.342678E-07 -2.761275E-07
     14981   1 -1.274309E-05  3.669989E-06  4.747568E-06  1.218195E-05  6.991854E-07 -5.728705E-07
     14982   1 -1.203227E-05  3.159374E-06  4.402614E-06  1.277636E-05  2.677935E-07  1.676044E-07
     14983   1 -1.490176E-05  4.225989E-06  5.178337E-06  7.750385E-06 -7.374115E-07  2.919155E-07
     14984   1 -1.693562E-05  4.944030E-06  6.631471E-06  8.116906E-06 -2.271220E-06  7.667792E-08
     14985   1 -1.947838E-05  5.447179E-06  8.356012E-06  7.563853E-06 -1.806091E-06  3.030200E-07
     14986   1 -2.036035E-05  5.639268E-06  8.667015E-06  7.653687E-06 -7.228265E-07  5.088678E-07
     14987   1 -2.068396E-05  5.704988E-06  8.945248E-06  7.632781E-06 -3.589786E-07  1.379874E-07
     14988   1 -2.088991E-05  5.739841E-06  9.046108E-06  7.485824E-06  2.908182E-07  9.377124E-08
     14989   1 -2.055941E-05  5.714396E-06  8.774544E-06  7.613017E-06  7.542701E-07 -1.151179E-07
     14990   1 -1.997681E-05  5.673875E-06  8.307768E-06  7.454036E-06  1.261499E-06 -1.774514E-07
     14991   1 -1.883752E-05  5.538793E-06  7.385696E-06  7.847029E-06  1.488294E-06 -1.917641E-08
     14992   1 -1.774342E-05  5.385415E-06  6.497708E-06  7.773328E-06  1.212860E-06 -2.684464E-07
     14993   1 -1.695085E-05  5.068763E-06  5.944680E-06  8.101741E-06  4.940892E-07  2.420413E-07
     14994   1 -1.938932E-05  6.209171E-06  6.360633E-06  2.569799E-06 -1.226663E-06  1.727657E-07
     14995   1 -2.176341E-05  6.456610E-06  8.548277E-06  2.821802E-06 -3.559762E-06  3.295187E-10
     14996   1 -2.541909E-05  7.074810E-06  1.110713E-05  2.585766E-06 -2.856177E-06  5.168309E-08
     14997   1 -2.668386E-05  7.394959E-06  1.156490E-05  2.647051E-06 -1.149446E-06  1.967890E-07
     14998   1 -2.706534E-05  7.475540E-06  1.188609E-05  2.642760E-06 -5.612822E-07  1.547807E-08
     14999   1 -2.731138E-05  7.510678E-06  1.201160E-05  2.567399E-06  4.236189E-07  4.872467E-08
     15000   1 -2.683216E-05  7.488352E-06  1.158724E-05  2.652781E-06  1.096979E-06 -3.824143E-08
     15001   1 -2.599014E-05  7.388180E-06  1.097770E-05  2.542644E-06  1.946646E-06 -4.273342E-08
     15002   1 -2.415992E-05  7.174511E-06  9.507588E-06  2.759158E-06  2.304618E-06  4.899571E-08
     15003   1 -2.263081E-05  7.058506E-06  8.255473E-06  2.690755E-06  1.809777E-06 -1.150195E-07
     15004   1 -2.155504E-05  6.877548E-06  7.471235E-06  2.822724E-06  8.993720E-07  1.729101E-07
     15005   1  1.309587E-05 -4.021005E-06 -5.334403E-06  2.719740E-06  2.871199E-06 -1.025357E-06
     15006   1  1.802471E-05 -4.924023E-06 -8.415073E-06  2.418776E-06  4.300230E-06  2.427806E-07
     15007   1  2.099881E-05 -5.368349E-06 -9.944811E-06  2.941132E-06  2.030279E-06  8.433848E-07
     15008   1  2.124797E-05 -5.400129E-06 -1.034067E-05  3.031762E-06  1.141227E-06  1.568167E-07
     15009   1  2.197420E-05 -5.413530E-06 -1.097747E-05  2.899031E-06  4.692699E-07  2.298408E-07
     15010   1  2.215740E-05 -5.441144E-06 -1.110975E-05  2.983886E-06 -4.671661E-07 -2.773979E-08
     15011   1  2.168699E-05 -5.413333E-06 -1.073200E-05  2.861754E-06 -1.369826E-06 -9.522896E-08
     15012   1  2.091676E-05 -5.401805E-06 -9.903945E-06  2.946675E-06 -1.964402E-06 -2.516185E-07
     15013   1  1.961889E-05 -5.329398E-06 -8.911035E-06  2.669219E-06 -2.888666E-06 -2.692732E-07
     15014   1  1.687384E-05 -4.930679E-06 -6.747458E-06  2.877471E-06 -3.052330E-06  4.641232E-08
     15015   1  1.524549E-05 -4.798522E-06 -5.141739E-06  2.587072E-06 -1.057481E-06 -2.457099E-07
     15016   1  9.973528E-06 -3.133568E-06 -3.522587E-06  7.870520E-06  1.052529E-06  1.328420E-07
     15017   1  1.360913E-05 -3.987096E-06 -5.919690E-06  7.280893E-06  2.382599E-06  1.354459E-06
     15018   1  1.576871E-05 -3.977747E-06 -7.427391E-06  8.396952E-06  1.407534E-06  1.732990E-06
     15019   1  1.625818E-05 -4.143166E-06 -7.594913E-06  8.504079E-06  6.007065E-07  7.637050E-07
     15020   1  1.668656E-05 -4.168346E-06 -8.071160E-06  8.302074E-06  2.974788E-07  5.175866E-07
     15021   1  1.689544E-05 -4.178655E-06 -8.198393E-06  8.398675E-06 -3.331759E-07 -2.103024E-09
     15022   1  1.657236E-05 -4.171742E-06 -7.945830E-06  8.196268E-06 -8.440117E-07 -3.162553E-07
     15023   1  1.609515E-05 -4.138337E-06 -7.463193E-06  8.275117E-06 -1.235800E-06 -7.072063E-07
     15024   1  1.517176E-05 -4.123343E-06 -6.720462E-06  7.734487E-06 -1.778206E-06 -8.154243E-07
     15025   1  1.343226E-05 -3.838977E-06 -5.357687E-06  8.193352E-06 -1.769114E-06 -2.202420E-07
     15026   1  1.218798E-05 -3.358039E-06 -4.414342E-06  7.784277E-06 -6.283089E-07 -6.056111E-07
     15027   1  6.794991E-06 -1.614857E-06 -2.803703E-06  1.223959E-05  1.165133E-06  3.105496E-07
     15028   1  9.682595E-06 -2.805212E-06 -4.167858E-06  1.169279E-05  1.870772E-06  2.267600E-06
     15029   1  1.135770E-05 -2.823598E-06 -5.312992E-06  1.315314E-05  9.147170E-07  2.365973E-06
     15030   1  1.162065E-05 -2.835237E-06 -5.423085E-06  1.302523E-05  3.547194E-07  1.154755E-06
     15031   1  1.196103E-05 -2.942057E-06 -5.677409E-06  1.288140E-05  1.720250E-07  8.225464E-07
     15032   1  1.210040E-05 -2.921401E-06 -5.804224E-06  1.293705E-05 -2.181249E-07 -1.641480E-08
     15033   1  1.191109E-05 -2.937829E-06 -5.625021E-06  1.267660E-05 -5.212268E-07 -4.822791E-07
     15034   1  1.159030E-05 -2.907699E-06 -5.346214E-06  1.281227E-05 -7.861669E-07 -1.084509E-06
     15035   1  1.094166E-05 -2.911926E-06 -4.776653E-06  1.208922E-05 -1.121776E-06 -1.341307E-06
     15036   1  9.777863E-06 -2.675341E-06 -3.899260E-06  1.268723E-05 -1.073145E-06 -6.078693E-07
     15037   1  8.689018E-06 -2.009378E-06 -3.363565E-06  1.259301E-05 -4.029537E-07 -9.328001E-07
     15038   1  4.364927E-06 -9.358668E-07 -2.068351E-06  1.703626E-05  9.246949E-07 -1.169769E-07
     15039   1  6.415262E-06 -1.784623E-06 -2.874432E-06  1.488126E-05  1.174050E-06  2.541642E-06
     15040   1  7.409030E-06 -1.815995E-06 -3.365589E-06  1.662953E-05  5.138864E-07  2.961600E-06
     15041   1  7.552430E-06 -1.740127E-06 -3.569471E-06  1.652017E-05  2.989602E-07  1.368564E-06
     15042   1  7.830130E-06 -1.799712E-06 -3.730315E-06  1.621551E-05  7.702068E-08  1.028365E-06
     15043   1  7.860254E-06 -1.804933E-06 -3.760855E-06  1.635561E-05 -1.262125E-07 -1.631500E-08
     15044   1  7.790972E-06 -1.809670E-06 -3.693726E-06  1.599920E-05 -3.191752E-07 -6.025945E-07
     15045   1  7.583037E-06 -1.825235E-06 -3.488460E-06  1.621072E-05 -4.968358E-07 -1.361558E-06
     15046   1  7.158513E-06 -1.823522E-06 -3.132367E-06  1.538579E-05 -6.979053E-07 -1.740430E-06
     15047   1  6.366365E-06 -1.600870E-06 -2.583211E-06  1.615380E-05 -6.776361E-07 -8.889514E-07
     15048   1  5.640793E-06 -1.151908E-06 -2.258538E-06  1.632335E-05 -2.603333E-07 -1.154811E-06
     15049   1  2.798649E-06 -1.327571E-06 -7.212965E-07  1.846341E-05  2.155462E-07 -2.362769E-07
     15050   1  3.408081E-06 -9.268917E-07 -1.512410E-06  1.687229E-05  5.522951E-07  2.967981E-06
     15051   1  3.742951E-06 -7.610965E-07 -1.758097E-06  1.879481E-05  3.225170E-07  3.309564E-06
     15052   1  3.855668E-06 -7.322210E-07 -1.896874E-06  1.863037E-05  1.864200E-07  1.501169E-06
     15053   1  3.970977E-06 -7.111578E-07 -1.988004E-06  1.831980E-05  6.167839E-08  1.125824E-06
     15054   1  3.990813E-06 -7.249127E-07 -1.994774E-06  1.842930E-05 -7.014730E-08 -3.243062E-09
     15055   1  3.957647E-06 -7.287517E-07 -1.967346E-06  1.807810E-05 -1.717325E-07 -6.742370E-07
     15056   1  3.863398E-06 -7.551173E-07 -1.857716E-06  1.828739E-05 -2.891344E-07 -1.527213E-06
     15057   1  3.668509E-06 -7.897902E-07 -1.680712E-06  1.742674E-05 -4.075915E-07 -1.963100E-06
     15058   1  3.281073E-06 -7.416454E-07 -1.370486E-06  1.833406E-05 -4.080242E-07 -1.025619E-06
     15059   1  2.942182E-06 -5.769926E-07 -1.192327E-06  1.861042E-05 -1.523603E-07 -1.274388E-06
     15060   1  2.982322E-07 -1.173640E-07 -1.200233E-07  1.888016E-05  8.251322E-08  6.330534E-07
     15061   1  3.780080E-07  1.477970E-08 -2.287695E-07  1.747002E-05  1.784966E-07  3.069581E-06
     15062   1  4.056149E-07  1.105263E-07 -2.998664E-07  1.953402E-05  1.181478E-07  3.341337E-06
     15063   1  3.565604E-07  1.719766E-07 -2.894964E-07  1.940886E-05  7.350883E-08  1.574994E-06
     15064   1  3.488500E-07  2.133790E-07 -3.211621E-07  1.904917E-05  4.800417E-08  1.144953E-06
     15065   1  3.548888E-07  2.371428E-07 -3.401053E-07  1.918593E-05 -4.988411E-09  9.872992E-09
     15066   1  3.494266E-07  2.208055E-07 -3.276222E-07  1.880870E-05 -6.096403E-08 -6.883728E-07
     15067   1  3.644784E-07  1.881396E-07 -3.163373E-07  1.904670E-05 -9.635237E-08 -1.558520E-06
     15068   1  3.866487E-07  1.143540E-07 -2.941902E-07  1.814536E-05 -1.510718E-07 -2.011697E-06
     15069   1  3.744189E-07  9.382538E-09 -2.151551E-07  1.904511E-05 -1.614505E-07 -1.046731E-06
     15070   1  4.299543E-07 -1.460389E-07 -1.363259E-07  1.934448E-05 -6.092034E-08 -1.316704E-06
     15071   1 -1.991392E-06  9.897581E-07  4.826111E-07  1.831265E-05  8.594194E-09 -2.302579E-07
     15072   1 -2.604692E-06  8.756576E-07  1.038146E-06  1.679205E-05 -2.347734E-07  2.926132E-06
     15073   1 -2.968706E-06  8.923412E-07  1.257647E-06  1.873145E-05 -1.250748E-07  3.260733E-06
     15074   1 -3.152981E-06  9.928815E-07  1.341966E-06  1.857250E-05 -1.959532E-08  1.501456E-06
     15075   1 -3.269657E-06  1.068998E-06  1.371727E-06  1.829308E-05  2.833496E-08  1.127577E-06
     15076   1 -3.293022E-06  1.094701E-06  1.376432E-06  1.840745E-05  5.918833E-08  5.814154E-09
     15077   1 -3.259204E-06  1.087356E-06  1.349948E-06  1.805110E-05  6.446778E-08 -6.303357E-07
     15078   1 -3.141512E-06  1.042413E-06  1.277303E-06  1.826896E-05  1.084857E-07 -1.469635E-06
     15079   1 -2.898684E-06  9.515605E-07  1.119947E-06  1.737346E-05  1.238746E-07 -1.902435E-06
     15080   1 -2.543589E-06  7.183986E-07  9.710868E-07  1.826478E-05  8.743506E-08 -9.597719E-07
     15081   1 -2.087505E-06  2.511247E-07  9.432698E-07  1.848675E-05  3.778471E-08 -1.266460E-06
     15082   1 -4.055579E-06  8.933155E-07  1.772463E-06  1.671566E-05 -7.177128E-07 -2.094004E-07
     15083   1 -5.781001E-06  1.642183E-06  2.523846E-06  1.450787E-05 -8.896989E-07  2.415363E-06
     15084   1 -6.727975E-06  1.782809E-06  2.985052E-06  1.633004E-05 -3.473256E-07  2.954687E-06
     15085   1 -6.975545E-06  1.891643E-06  3.098647E-06  1.628585E-05 -1.251587E-07  1.313482E-06
     15086   1 -7.211749E-06  1.959218E-06  3.246898E-06  1.598084E-05 -2.154474E-08  1.004531E-06
     15087   1 -7.265650E-06  1.986078E-06  3.285577E-06  1.613565E-05  1.343893E-07  9.966527E-09
     15088   1 -7.187487E-06  1.966808E-06  3.226172E-06  1.577188E-05  2.386495E-07 -5.218829E-07
     15089   1 -6.958059E-06  1.941363E-06  3.049356E-06  1.601188E-05  3.841326E-07 -1.223112E-06
     15090   1 -6.470286E-06  1.851234E-06  2.683300E-06  1.515663E-05  4.783429E-07 -1.591671E-06
     15091   1 -5.718455E-06  1.488213E-06  2.269864E-06  1.593220E-05  4.027103E-07 -7.109819E-07
     15092   1 -4.846519E-06  7.719028E-07  2.076281E-06  1.601578E-05  1.681710E-07 -1.118808E-06
     15093   1 -6.082779E-06  1.584306E-06  2.717030E-06  1.256207E-05 -1.309010E-06 -2.230660E-07
     15094   1 -9.749377E-06  2.785776E-06  4.283430E-06  1.100397E-05 -1.715067E-06  1.928222E-06
     15095   1 -1.121937E-05  2.928828E-06  4.925092E-06  1.255631E-05 -6.323718E-07  2.403426E-06
     15096   1 -1.145481E-05  3.009091E-06  5.134937E-06  1.255870E-05 -4.009785E-07  9.716687E-07
     15097   1 -1.195887E-05  3.105171E-06  5.463575E-06  1.227140E-05 -1.033513E-07  7.813877E-07
     15098   1 -1.198608E-05  3.090999E-06  5.536535E-06  1.240392E-05  2.228507E-07  7.194478E-09
     15099   1 -1.187512E-05  3.087973E-06  5.425156E-06  1.210256E-05  5.082223E-07 -3.596601E-07
     15100   1 -1.145262E-05  3.020198E-06  5.140393E-06  1.232959E-05  8.259226E-07 -8.724438E-07
     15101   1 -1.068310E-05  2.944245E-06  4.525840E-06  1.160392E-05  1.088130E-06 -1.103530E-06
     15102   1 -9.463479E-06  2.586581E-06  3.731209E-06  1.227979E-05  9.691489E-07 -3.275211E-07
     15103   1 -8.132167E-06  1.671041E-06  3.311748E-06  1.205754E-05  4.088893E-07 -8.634481E-07
     15104   1 -9.341497E-06  2.298188E-06  4.392254E-06  7.594321E-06 -1.996156E-06 -3.466499E-07
     15105   1 -1.440643E-05  4.166585E-06  6.469440E-06  6.826774E-06 -2.578287E-06  1.126330E-06
     15106   1 -1.652329E-05  4.441370E-06  7.148121E-06  7.854158E-06 -1.168466E-06  1.591341E-06
     15107   1 -1.688817E-05  4.521943E-06  7.607140E-06  7.891507E-06 -8.864413E-07  5.628144E-07
     15108   1 -1.767947E-05  4.602572E-06  8.166183E-06  7.632638E-06 -2.773925E-07  4.567753E-07
     15109   1 -1.771543E-05  4.601121E-06  8.233003E-06  7.731607E-06  3.375133E-07  1.429223E-08
     15110   1 -1.749845E-05  4.574355E-06  8.074869E-06  7.535802E-06  9.602505E-07 -1.803743E-07
     15111   1 -1.680446E-05  4.472953E-06  7.548366E-06  7.707640E-06  1.486915E-06 -4.919892E-07
     15112   1 -1.566608E-05  4.357124E-06  6.749078E-06  7.178007E-06  2.020545E-06 -5.652471E-07
     15113   1 -1.369380E-05  3.918317E-06  5.384440E-06  7.771774E-06  1.928318E-06  7.560467E-08
     15114   1 -1.214049E-05  3.230468E-06  4.514769E-06  7.142522E-06  7.409771E-07 -5.854136E-07
     15115   1 -1.276775E-05  3.164949E-06  6.119016E-06  2.206686E-06 -3.840336E-06 -4.334247E-07
     15116   1 -1.976462E-05  5.288195E-06  9.409450E-06  2.327345E-06 -5.005307E-06  2.079120E-07
     15117   1 -2.290174E-05  6.115047E-06  1.022803E-05  2.655467E-06 -2.049016E-06  6.302598E-07
     15118   1 -2.301169E-05  6.156120E-06  1.055571E-05  2.687052E-06 -1.495130E-06  1.049308E-07
     15119   1 -2.415237E-05  6.245062E-06  1.135027E-05  2.539789E-06 -6.057837E-07  1.856707E-07
     15120   1 -2.430362E-05  6.287077E-06  1.148696E-05  2.615576E-06  4.909163E-07 -2.180365E-08
     15121   1 -2.380708E-05  6.207181E-06  1.115039E-05  2.497518E-06  1.657062E-06 -2.494139E-08
     15122   1 -2.275638E-05  6.091338E-06  1.027187E-05  2.644213E-06  2.392272E-06 -1.641076E-07
     15123   1 -2.117764E-05  5.865011E-06  9.329725E-06  2.343677E-06  3.480936E-06 -1.354289E-07
     15124   1 -1.789770E-05  5.258951E-06  7.027973E-06  2.687789E-06  3.662774E-06  2.374415E-07
     15125   1 -1.587570E-05  4.985964E-06  5.352430E-06  2.262629E-06  1.304337E-06 -2.704651E-07
     15126   1  4.855786E-06 -2.182790E-06 -1.399189E-06  2.286460E-06  3.173886E-06  3.001478E-06
     15127   1  1.609602E-05 -4.265157E-06 -6.750955E-06  3.002456E-06  3.257924E-06  2.542251E-06
     15128   1  1.618376E-05 -3.985583E-06 -8.058401E-06  3.399397E-06  1.746230E-06  3.765740E-07
     15129   1  1.773078E-05 -3.910559E-06 -9.605599E-06  2.828194E-06  1.522976E-06  5.848190E-07
     15130   1  1.835197E-05 -3.961627E-06 -1.021483E-05  3.108190E-06  7.334127E-08  2.520315E-07
     15131   1  1.809451E-05 -3.850034E-06 -1.013748E-05  3.024425E-06 -4.800793E-07  5.698193E-08
     15132   1  1.832459E-05 -3.914021E-06 -1.022332E-05  3.030789E-06 -1.261916E-06 -3.320755E-07
     15133   1  1.737686E-05 -3.884328E-06 -9.448107E-06  2.776681E-06 -2.573519E-06 -3.830203E-07
     15134   1  1.604674E-05 -3.823150E-06 -7.954091E-06  2.867081E-06 -3.159665E-06 -6.427421E-07
     15135   1  1.360440E-05 -3.670099E-06 -6.422196E-06  2.248531E-06 -4.121851E-06 -6.400469E-07
     15136   1  9.361478E-06 -2.388630E-06 -4.239225E-06  2.076691E-06 -2.684864E-06  3.673220E-07
     15137   1  6.737281E-06 -3.827565E-06 -2.253352E-06  4.186691E-06  2.053893E-06  3.950889E-06
     15138   1  1.051897E-05 -2.516267E-06 -4.893274E-06  9.353145E-06  2.314205E-06  5.056508E-06
     15139   1  1.192852E-05 -2.921482E-06 -5.499486E-06  9.266623E-06  8.516295E-07  1.680454E-06
     15140   1  1.271145E-05 -3.063403E-06 -6.558749E-06  8.615540E-06  8.602589E-07  1.452124E-06
     15141   1  1.337072E-05 -2.969460E-06 -7.153056E-06  8.926958E-06 -1.516170E-08  7.993540E-07
     15142   1  1.318491E-05 -2.954801E-06 -7.081784E-06  8.862152E-06 -3.280509E-07  7.291167E-08
     15143   1  1.332056E-05 -2.967844E-06 -7.159525E-06  8.776481E-06 -7.265533E-07 -8.118910E-07
     15144   1  1.271234E-05 -2.953394E-06 -6.665392E-06  8.279530E-06 -1.408357E-06 -1.165716E-06
     15145   1  1.181598E-05 -2.839511E-06 -5.816445E-06  8.389948E-06 -1.786365E-06 -1.718378E-06
     15146   1  1.013676E-05 -2.870460E-06 -4.595577E-06  6.688916E-06 -2.194897E-06 -1.802344E-06
     15147   1  6.926256E-06 -1.494149E-06 -3.111871E-06  6.994730E-06 -1.267730E-06  4.500794E-07
     15148   1  3.187195E-06 -3.665044E-06 -4.180889E-08  6.712334E-06  1.375909E-06  5.551054E-06
     15149   1  7.653436E-06 -2.164829E-06 -3.446700E-06  1.448199E-05  1.326362E-06  6.121419E-06
     15150   1  8.146278E-06 -1.766724E-06 -3.894742E-06  1.407619E-05  4.288173E-07  2.484212E-06
     15151   1  8.854290E-06 -2.165003E-06 -4.367330E-06  1.329722E-05  4.494894E-07  2.339374E-06
     15152   1  9.267369E-06 -2.048079E-06 -4.849181E-06  1.371159E-05 -7.033110E-09  1.078619E-06
     15153   1  9.227854E-06 -2.050325E-06 -4.831435E-06  1.357615E-05 -2.158941E-07  1.657098E-07
     15154   1  9.269959E-06 -2.059122E-06 -4.875054E-06  1.347700E-05 -4.307875E-07 -1.198214E-06
     15155   1  8.902640E-06 -2.057488E-06 -4.555146E-06  1.281395E-05 -8.077057E-07 -1.712973E-06
     15156   1  8.272412E-06 -2.025940E-06 -4.020174E-06  1.305870E-05 -1.022969E-06 -2.611566E-06
     15157   1  7.007626E-06 -1.932504E-06 -3.123251E-06  1.079221E-05 -1.350676E-06 -2.892706E-06
     15158   1  4.700025E-06 -8.820430E-07 -2.090712E-06  1.192761E-05 -8.061440E-07  2.704031E-07
     15159   1  1.474647E-06 -2.330246E-06  6.110177E-07  8.553800E-06  6.166226E-07  7.587544E-06
     15160   1  5.122354E-06 -1.694884E-06 -1.823787E-06  1.827450E-05  7.589750E-07  8.199637E-06
     15161   1  5.017517E-06 -8.850731E-07 -2.594794E-06  1.780499E-05  4.035153E-07  2.688550E-06
     15162   1  5.601115E-06 -1.021585E-06 -2.929286E-06  1.670464E-05  2.419514E-07  2.864042E-06
     15163   1  5.745197E-06 -1.049111E-06 -3.057284E-06  1.729523E-05 -1.473433E-08  1.333316E-06
     15164   1  5.808386E-06 -1.022958E-06 -3.146936E-06  1.703785E-05 -1.090710E-07  1.812679E-07
     15165   1  5.794843E-06 -1.041490E-06 -3.128412E-06  1.698527E-05 -2.788712E-07 -1.411429E-06
     15166   1  5.590725E-06 -1.055278E-06 -2.955790E-06  1.620297E-05 -4.608293E-07 -2.107010E-06
     15167   1  5.234781E-06 -1.096438E-06 -2.614524E-06  1.654464E-05 -6.641870E-07 -3.227086E-06
     15168   1  4.441590E-06 -1.149402E-06 -2.019988E-06  1.404867E-05 -8.806914E-07 -3.590666E-06
     15169   1  3.006949E-06 -5.358211E-07 -1.344623E-06  1.548263E-05 -4.964571E-07  2.333916E-07
     15170   1  1.928241E-06 -6.389556E-07 -8.197368E-07  1.069105E-05  5.822133E-07  8.587310E-06
     15171   1  2.373928E-06 -3.651322E-07 -1.082181E-06  2.019926E-05  5.568667E-07  8.772848E-06
     15172   1  2.599421E-06 -2.744415E-07 -1.432268E-06  2.027248E-05  2.296746E-07  3.060487E-06
     15173   1  2.718867E-06 -1.022100E-07 -1.643252E-06  1.902185E-05  1.700071E-07  3.032978E-06
     15174   1  2.820452E-06 -1.202787E-07 -1.711029E-06  1.958350E-05 -1.021755E-09  1.482790E-06
     15175   1  2.826186E-06 -1.000198E-07 -1.742719E-06  1.935563E-05 -4.712244E-08  2.107836E-07
     15176   1  2.843469E-06 -1.203810E-07 -1.742868E-06  1.925962E-05 -1.666373E-07 -1.545963E-06
     15177   1  2.747323E-06 -1.649934E-07 -1.646997E-06  1.846953E-05 -2.649606E-07 -2.316586E-06
     15178   1  2.616230E-06 -2.642448E-07 -1.457094E-06  1.882311E-05 -3.752673E-07 -3.594271E-06
     15179   1  2.275441E-06 -3.980695E-07 -1.137754E-06  1.601682E-05 -4.844473E-07 -3.998481E-06
     15180   1  1.555624E-06 -1.903224E-07 -7.388466E-07  1.762823E-05 -2.913208E-07  1.882468E-07
     15181   1  2.742745E-07  6.962285E-08 -1.841301E-07  1.001888E-05  1.559979E-07  7.329480E-06
     15182   1  3.069584E-07  3.687367E-07 -3.535020E-07  2.137056E-05  1.731311E-07  9.007843E-06
     15183   1  2.293331E-07  5.074243E-07 -3.718639E-07  2.099509E-05  1.138886E-07  3.223558E-06
     15184   1  2.088444E-07  6.006367E-07 -4.341890E-07  1.987738E-05  1.097511E-07  3.110819E-06
     15185   1  1.992486E-07  6.919182E-07 -4.943461E-07  2.043834E-05  4.055377E-08  1.538733E-06
     15186   1  1.753662E-07  7.122097E-07 -4.859673E-07  2.019326E-05 -1.347249E-08  2.159246E-07
     15187   1  2.022242E-07  6.916003E-07 -4.970097E-07  2.011381E-05 -6.095150E-08 -1.571520E-06
     15188   1  2.134858E-07  6.239971E-07 -4.682784E-07  1.927801E-05 -1.348233E-07 -2.396186E-06
     15189   1  2.495610E-07  5.108071E-07 -4.180800E-07  1.962645E-05 -1.614045E-07 -3.737421E-06
     15190   1  2.813207E-07  3.335651E-07 -3.513568E-07  1.671772E-05 -1.998483E-07 -4.183715E-06
     15191   1  2.399168E-07  1.463506E-07 -2.225206E-07  1.836656E-05 -1.228932E-07  1.931441E-07
     15192   1 -1.870733E-06  8.863912E-07  6.767914E-07  1.056306E-05 -3.334784E-07  8.578816E-06
     15193   1 -1.734863E-06  9.901550E-07  5.005484E-07  2.037447E-05 -1.942545E-07  8.769472E-06
     15194   1 -2.122861E-06  1.156371E-06  7.466801E-07  2.042713E-05  2.121983E-08  3.098325E-06
     15195   1 -2.267697E-06  1.250061E-06  7.584316E-07  1.923059E-05  5.960838E-08  3.101238E-06
     15196   1 -2.393207E-06  1.393645E-06  7.750755E-07  1.982875E-05  6.869939E-08  1.487491E-06
     15197   1 -2.446798E-06  1.417512E-06  8.125545E-07  1.959694E-05  3.215234E-08  2.327623E-07
     15198   1 -2.408136E-06  1.395230E-06  7.979042E-07  1.950605E-05  4.115081E-08 -1.532880E-06
     15199   1 -2.295198E-06  1.316517E-06  7.513663E-07  1.867874E-05  2.071543E-09 -2.291537E-06
     15200   1 -2.089217E-06  1.203076E-06  6.657015E-07  1.902072E-05  5.220506E-08 -3.583621E-06
     15201   1 -1.692305E-06  9.962666E-07  4.534254E-07  1.609141E-05  8.099065E-08 -4.027033E-06
     15202   1 -1.038305E-06  4.083919E-07  3.002000E-07  1.768671E-05  3.287589E-08  2.131441E-07
     15203   1 -1.312663E-06  2.250432E-06 -4.720341E-07  8.489288E-06 -3.989231E-07  7.647824E-06
     15204   1 -4.331716E-06  1.785867E-06  1.536952E-06  1.843062E-05 -5.218071E-07  8.359925E-06
     15205   1 -4.523296E-06  1.502559E-06  1.916108E-06  1.803500E-05 -8.355921E-08  2.817692E-06
     15206   1 -4.959916E-06  1.827075E-06  2.085908E-06  1.701545E-05 -2.904136E-08  2.881038E-06
     15207   1 -5.205082E-06  1.910741E-06  2.269858E-06  1.763928E-05  6.243822E-08  1.334348E-06
     15208   1 -5.296679E-06  1.916444E-06  2.370044E-06  1.738221E-05  9.995789E-08  2.142236E-07
     15209   1 -5.222820E-06  1.900909E-06  2.329915E-06  1.734159E-05  1.843182E-07 -1.362928E-06
     15210   1 -5.007376E-06  1.815768E-06  2.194255E-06  1.650197E-05  2.071544E-07 -2.034415E-06
     15211   1 -4.608480E-06  1.702150E-06  1.953869E-06  1.682271E-05  3.609230E-07 -3.156605E-06
     15212   1 -3.774506E-06  1.517276E-06  1.410913E-06  1.412622E-05  4.684209E-07 -3.590606E-06
     15213   1 -2.409867E-06  5.498935E-07  9.523452E-07  1.550677E-05  2.065498E-07  3.162646E-07
     15214   1 -2.812503E-06  3.408692E-06 -4.037374E-07  6.748718E-06 -1.335139E-06  6.190548E-06
     15215   1 -7.323521E-06  2.142740E-06  2.662756E-06  1.413242E-05 -1.047367E-06  6.851587E-06
     15216   1 -7.552932E-06  2.192161E-06  3.210506E-06  1.411411E-05 -2.434738E-07  2.340673E-06
     15217   1 -8.466003E-06  2.483813E-06  3.827176E-06  1.312912E-05 -3.117110E-07  2.252597E-06
     15218   1 -8.745550E-06  2.421531E-06  4.244482E-06  1.364872E-05  1.764962E-08  1.053165E-06
     15219   1 -8.913073E-06  2.428087E-06  4.384035E-06  1.346780E-05  1.908461E-07  1.957081E-07
     15220   1 -8.773307E-06  2.405180E-06  4.321053E-06  1.341222E-05  4.369141E-07 -1.100264E-06
     15221   1 -8.448491E-06  2.344288E-06  4.065373E-06  1.268880E-05  6.129807E-07 -1.543910E-06
     15222   1 -7.770193E-06  2.241908E-06  3.625785E-06  1.301228E-05  8.619980E-07 -2.367923E-06
     15223   1 -6.437146E-06  2.020784E-06  2.694037E-06  1.060073E-05  1.055659E-06 -2.696034E-06
     15224   1 -4.084090E-06  7.147101E-07  1.724878E-06  1.177751E-05  5.430877E-07  4.910314E-07
     15225   1 -2.936906E-06  3.518505E-06 -1.011628E-06  4.172915E-06 -1.794545E-06  4.828757E-06
     15226   1 -1.180585E-05  3.459066E-06  3.681304E-06  8.949887E-06 -2.111630E-06  5.205117E-06
     15227   1 -1.204356E-05  3.431262E-06  5.086705E-06  8.849428E-06 -1.215751E-06  1.265995E-06
     15228   1 -1.363942E-05  3.556848E-06  6.440422E-06  7.878692E-06 -8.799442E-07  1.313229E-06
     15229   1 -1.400943E-05  3.512478E-06  6.883741E-06  8.267439E-06 -8.823075E-08  7.185092E-07
     15230   1 -1.416120E-05  3.498458E-06  7.040693E-06  8.148871E-06  3.105656E-07  1.134020E-07
     15231   1 -1.404954E-05  3.475268E-06  6.996718E-06  8.103507E-06  8.577766E-07 -7.061874E-07
     15232   1 -1.344460E-05  3.384497E-06  6.604027E-06  7.601929E-06  1.470397E-06 -9.021852E-07
     15233   1 -1.231775E-05  3.168361E-06  5.799958E-06  7.921880E-06  2.045067E-06 -1.357346E-06
     15234   1 -1.029084E-05  3.034800E-06  4.478349E-06  6.207807E-06  2.381706E-06 -1.484842E-06
     15235   1 -6.608478E-06  1.375664E-06  2.858855E-06  6.608730E-06  1.246772E-06  8.095691E-07
     15236   1 -4.056447E-06  2.579110E-06  1.047183E-07  1.288447E-06 -3.694188E-06  2.357737E-06
     15237   1 -1.842481E-05  5.656944E-06  6.290823E-06  3.327548E-06 -3.719953E-06  2.345935E-06
     15238   1 -1.779299E-05  4.986935E-06  7.831153E-06  2.986186E-06 -2.229688E-06  2.104781E-07
     15239   1 -2.034766E-05  5.143448E-06  9.816167E-06  2.537778E-06 -2.053108E-06  4.796947E-07
     15240   1 -2.106185E-05  5.255203E-06  1.045280E-05  2.718085E-06 -2.737224E-07  2.151946E-07
     15241   1 -2.099018E-05  5.192573E-06  1.042898E-05  2.667590E-06  4.765421E-07  7.724755E-08
     15242   1 -2.110416E-05  5.178383E-06  1.057105E-05  2.665521E-06  1.516713E-06 -2.920551E-07
     15243   1 -1.988587E-05  4.996430E-06  9.836807E-06  2.423575E-06  3.127481E-06 -2.212867E-07
     15244   1 -1.799806E-05  4.697465E-06  8.233265E-06  2.664785E-06  3.821471E-06 -4.913049E-07
     15245   1 -1.499596E-05  4.218700E-06  6.782186E-06  1.988751E-06  4.806033E-06 -5.741495E-07
     15246   1 -9.934100E-06  2.539501E-06  4.446363E-06  1.825632E-06  3.090278E-06  5.752408E-07
     15247   1  1.099580E-05 -2.576446E-06 -4.648026E-06  4.460871E-06  3.063632E-06  4.935591E-07
     15248   1  1.218959E-05 -3.211197E-06 -6.465204E-06  2.855271E-06  2.875533E-06  9.927498E-07
     15249   1  1.422345E-05 -2.968404E-06 -8.436655E-06  3.772914E-06  5.645984E-07  9.998344E-07
     15250   1  1.370261E-05 -2.676177E-06 -8.570519E-06  3.503105E-06  7.799609E-08  2.895224E-07
     15251   1  1.411041E-05 -2.676350E-06 -9.044077E-06  3.500854E-06 -5.704624E-07 -1.865930E-08
     15252   1  1.379139E-05 -2.631401E-06 -8.757541E-06  3.519765E-06 -9.232688E-07 -2.228678E-07
     15253   1  1.431898E-05 -2.869830E-06 -8.734273E-06  3.543922E-06 -1.825462E-06 -1.114064E-06
     15254   1  1.261711E-05 -2.935916E-06 -7.297552E-06  2.721801E-06 -3.616698E-06 -1.047934E-06
     15255   1  1.024662E-05 -2.767126E-06 -4.356956E-06  2.977650E-06 -4.384936E-06 -1.289341E-06
     15256   1  2.847282E-06 -1.607244E-06 -3.021241E-07  1.139770E-06 -2.435098E-06 -1.745598E-06
     15257   1  1.418941E-06 -1.339685E-06  1.263396E-06  1.060908E-06  2.632262E-06  9.375779E-07
     15258   1  6.594090E-06 -1.058205E-06 -1.825476E-06  1.178606E-05  2.425756E-06  1.933348E-06
     15259   1  8.083085E-06 -2.833415E-06 -3.549971E-06  8.667292E-06  1.209976E-06  3.468162E-06
     15260   1  9.491735E-06 -2.253850E-06 -5.190262E-06  9.924282E-06  3.504868E-07  2.403833E-06
     15261   1  9.383392E-06 -2.171427E-06 -5.424431E-06  9.838272E-06 -6.439262E-08  9.594418E-07
     15262   1  9.726167E-06 -2.142720E-06 -5.871576E-06  9.487820E-06 -2.891975E-07 -4.674310E-08
     15263   1  9.488719E-06 -2.100408E-06 -5.621801E-06  9.741949E-06 -5.659354E-07 -7.622289E-07
     15264   1  9.541232E-06 -2.220054E-06 -5.437525E-06  9.499258E-06 -8.545292E-07 -2.721364E-06
     15265   1  8.444725E-06 -2.288698E-06 -4.536432E-06  7.996366E-06 -1.592105E-06 -3.090629E-06
     15266   1  6.648306E-06 -1.957853E-06 -2.877432E-06  8.439732E-06 -1.859654E-06 -3.838171E-06
     15267   1  2.412913E-06 -2.160674E-06 -1.121673E-07  3.903757E-06 -9.527210E-07 -4.343683E-06
     15268   1  3.987695E-06 -4.449940E-07 -1.463758E-06  1.863046E-05  1.144620E-06  3.008919E-06
     15269   1  5.094290E-06 -1.607213E-06 -2.131091E-06  1.278762E-05  8.225380E-07  5.052060E-06
     15270   1  6.117343E-06 -1.541628E-06 -3.172394E-06  1.521599E-05  1.417763E-07  3.581615E-06
     15271   1  6.136902E-06 -1.363621E-06 -3.466160E-06  1.459195E-05 -8.883911E-08  1.362009E-06
     15272   1  6.332127E-06 -1.453178E-06 -3.640320E-06  1.437769E-05 -1.627861E-07 -4.327731E-08
     15273   1  6.249659E-06 -1.345287E-06 -3.625898E-06  1.451928E-05 -2.583459E-07 -1.120564E-06
     15274   1  6.189497E-06 -1.423638E-06 -3.484353E-06  1.432445E-05 -4.466163E-07 -3.817696E-06
     15275   1  5.540094E-06 -1.473941E-06 -2.915725E-06  1.236189E-05 -8.770498E-07 -4.278134E-06
     15276   1  4.419297E-06 -1.774971E-06 -1.796121E-06  1.317679E-05 -1.098034E-06 -5.612715E-06
     15277   1  2.023857E-06 -2.319707E-06  2.037614E-08  6.529455E-06 -6.566639E-07 -6.132897E-06
     15278   1  2.700570E-06 -6.925489E-07 -1.075940E-06  2.223948E-05  4.630750E-07  2.537645E-06
     15279   1  3.108369E-06 -6.936085E-07 -1.609880E-06  1.653477E-05  4.419105E-07  6.106879E-06
     15280   1  3.516609E-06 -5.705795E-07 -2.046271E-06  1.890012E-05  3.559260E-08  4.144875E-06
     15281   1  3.611841E-06 -6.369644E-07 -2.138071E-06  1.841174E-05 -5.084325E-08  1.711631E-06
     15282   1  3.686057E-06 -5.893416E-07 -2.282998E-06  1.797977E-05 -1.121616E-07 -5.614012E-08
     15283   1  3.683664E-06 -5.856286E-07 -2.281855E-06  1.823822E-05 -9.804546E-08 -1.342700E-06
     15284   1  3.656495E-06 -6.161357E-07 -2.243072E-06  1.798323E-05 -2.587977E-07 -4.459863E-06
     15285   1  3.306250E-06 -7.895889E-07 -1.855076E-06  1.580185E-05 -4.569617E-07 -5.006876E-06
     15286   1  2.818345E-06 -1.222235E-06 -1.083737E-06  1.652335E-05 -6.113436E-07 -6.857716E-06
     15287   1  1.353168E-06 -1.739203E-06  1.151893E-07  8.320593E-06 -3.494084E-07 -7.480451E-06
     15288   1  1.892763E-06 -4.921963E-07 -9.834782E-07  2.507026E-05  2.542670E-07  4.005997E-06
     15289   1  1.391077E-06  3.042033E-07 -1.075639E-06  1.827341E-05  2.641682E-07  6.173676E-06
     15290   1  1.711360E-06  2.144449E-07 -1.256193E-06  2.132789E-05  1.400925E-08  4.570933E-06
     15291   1  1.645775E-06  3.175073E-07 -1.323349E-06  2.052338E-05 -1.977731E-09  1.860618E-06
     15292   1  1.722685E-06  2.910618E-07 -1.359054E-06  2.023167E-05 -7.166976E-08 -3.656551E-08
     15293   1  1.705453E-06  3.108533E-07 -1.389260E-06  2.039849E-05 -4.588521E-08 -1.459808E-06
     15294   1  1.749853E-06  2.158397E-07 -1.350779E-06  2.018144E-05 -1.661292E-07 -4.838358E-06
     15295   1  1.588622E-06  3.850986E-08 -1.110643E-06  1.782453E-05 -2.583451E-07 -5.520280E-06
     15296   1  1.374075E-06 -2.559940E-07 -7.061902E-07  1.854725E-05 -3.526499E-07 -7.734650E-06
     15297   1  6.497526E-07 -6.985534E-07 -1.862801E-08  9.397646E-06 -2.191409E-07 -8.262505E-06
     15298   1  7.680220E-08 -5.628792E-08  6.971664E-08  2.143620E-06  1.624045E-07  1.909719E-06
     15299   1  2.327124E-08  9.812595E-07 -4.774881E-07  2.486417E-05  1.624237E-07  3.672464E-06
     15300   1 -8.181131E-08  1.098536E-06 -4.684658E-07  1.959320E-05  1.832905E-07  6.456879E-06
     15301   1 -8.465831E-08  1.275045E-06 -6.406192E-07  2.194023E-05  7.225949E-08  4.677641E-06
     15302   1 -1.515269E-07  1.410518E-06 -6.575657E-07  2.154956E-05  4.364335E-08  1.926719E-06
     15303   1 -1.442795E-07  1.403185E-06 -6.758675E-07  2.100640E-05 -1.951546E-08 -2.385079E-08
     15304   1 -1.453922E-07  1.398616E-06 -6.654459E-07  2.131889E-05 -6.309504E-08 -1.501565E-06
     15305   1 -7.767511E-08  1.274433E-06 -6.375473E-07  2.101129E-05 -1.115357E-07 -4.997986E-06
     15306   1 -3.920083E-08  1.096161E-06 -5.638342E-07  1.862382E-05 -1.672356E-07 -5.708838E-06
     15307   1  2.627178E-08  8.426543E-07 -4.219870E-07  1.935304E-05 -1.823927E-07 -8.014052E-06
     15308   1 -9.968901E-08  5.245693E-07 -1.907028E-07  9.785808E-06 -9.843609E-08 -8.616203E-06
     15309   1 -1.805279E-06  2.180611E-06  2.950936E-07  2.551146E-05  1.770943E-07  4.040660E-06
     15310   1 -1.445511E-06  1.799608E-06 -3.021424E-08  1.869386E-05  3.960206E-08  6.413633E-06
     15311   1 -1.835612E-06  2.316375E-06  2.610713E-08  2.181444E-05  1.761181E-07  4.660587E-06
     15312   1 -1.877207E-06  2.330550E-06  5.026125E-08  2.103267E-05  7.455647E-08  1.892366E-06
     15313   1 -1.943928E-06  2.464758E-06  1.642511E-08  2.072737E-05  4.222872E-08 -2.228115E-08
     15314   1 -1.932904E-06  2.344119E-06  1.131178E-07  2.090199E-05 -9.229882E-08 -1.472098E-06
     15315   1 -1.836633E-06  2.261421E-06  8.972432E-08  2.066424E-05 -6.635722E-08 -4.915797E-06
     15316   1 -1.618264E-06  2.053805E-06  1.035567E-08  1.819890E-05 -1.188600E-07 -5.635172E-06
     15317   1 -1.246581E-06  1.860827E-06 -1.163292E-07  1.890777E-05 -5.868615E-08 -7.893463E-06
     15318   1 -8.249853E-07  1.651364E-06 -2.915065E-07  9.502144E-06  6.280865E-10 -8.453466E-06
     15319   1 -2.454828E-06  2.120483E-06 -6.660946E-09  2.314039E-05 -2.256723E-07  2.858659E-06
     15320   1 -3.049368E-06  2.692235E-06  5.795937E-07  1.723971E-05  1.764153E-08  6.337983E-06
     15321   1 -3.512848E-06  2.788892E-06  8.912115E-07  1.992709E-05  7.215117E-08  4.287254E-06
     15322   1 -3.730790E-06  3.070779E-06  9.627333E-07  1.937261E-05  1.825442E-07  1.763806E-06
     15323   1 -3.760641E-06  3.003016E-06  1.070421E-06  1.896800E-05  5.735806E-08 -5.574619E-08
     15324   1 -3.801085E-06  2.996811E-06  1.113468E-06  1.921761E-05 -4.029710E-08 -1.312245E-06
     15325   1 -3.607772E-06  2.824703E-06  1.088837E-06  1.895696E-05  3.804117E-09 -4.596139E-06
     15326   1 -3.202288E-06  2.637627E-06  8.427561E-07  1.654494E-05  1.685566E-08 -5.167125E-06
     15327   1 -2.563403E-06  2.583790E-06  3.692316E-07  1.717901E-05  1.079857E-07 -7.084483E-06
     15328   1 -1.459414E-06  2.466850E-06 -3.260819E-07  8.486523E-06  7.913671E-08 -7.812692E-06
     15329   1 -4.061583E-06  1.611930E-06  1.194299E-06  1.923882E-05 -6.244730E-07  2.660022E-06
     15330   1 -4.677456E-06  2.787811E-06  1.141939E-06  1.383703E-05 -5.311626E-07  5.287231E-06
     15331   1 -5.637074E-06  2.983052E-06  2.210232E-06  1.637815E-05  1.890006E-08  3.694272E-06
     15332   1 -5.874859E-06  2.888422E-06  2.572744E-06  1.582455E-05  1.454904E-07  1.333917E-06
     15333   1 -5.940115E-06  2.992448E-06  2.614615E-06  1.553410E-05  1.637389E-07 -9.306186E-09
     15334   1 -5.974363E-06  2.849146E-06  2.764261E-06  1.573112E-05  7.936341E-08 -1.055890E-06
     15335   1 -5.682613E-06  2.813101E-06  2.534122E-06  1.554737E-05  2.813584E-07 -3.877497E-06
     15336   1 -5.038360E-06  2.559117E-06  2.058065E-06  1.323423E-05  3.461089E-07 -4.442514E-06
     15337   1 -3.896708E-06  2.576982E-06  1.289054E-06  1.394081E-05  4.733991E-07 -5.755555E-06
     15338   1 -2.077909E-06  2.682614E-06  2.925315E-08  6.658856E-06  3.252724E-07 -6.467600E-06
     15339   1 -7.129818E-06  1.619407E-06  2.398011E-06  1.253532E-05 -1.759822E-06  1.306558E-06
     15340   1 -8.144582E-06  3.227459E-06  2.990494E-06  8.447494E-06 -1.433628E-06  3.378122E-06
     15341   1 -9.397656E-06  2.864128E-06  4.637002E-06  1.024408E-05 -2.700202E-07  2.372735E-06
     15342   1 -9.612202E-06  2.807439E-06  4.979636E-06  9.964933E-06  2.443191E-08  9.093055E-07
     15343   1 -9.728962E-06  2.822283E-06  5.184817E-06  9.641700E-06  3.269275E-07 -4.690661E-08
     15344   1 -9.677218E-06  2.718762E-06  5.199497E-06  9.902100E-06  4.023051E-07 -6.258080E-07
     15345   1 -9.503064E-06  2.731107E-06  5.016198E-06  9.725795E-06  8.967147E-07 -2.689217E-06
     15346   1 -8.320270E-06  2.651528E-06  4.111535E-06  7.970266E-06  1.338357E-06 -2.903983E-06
     15347   1 -6.371483E-06  2.199282E-06  2.625578E-06  8.678875E-06  1.503732E-06 -3.460514E-06
     15348   1 -2.404899E-06  2.260509E-06  2.195615E-07  3.911055E-06  7.056247E-07 -4.483329E-06
     15349   1 -1.270788E-05  3.431673E-06  4.613489E-06  4.447028E-06 -4.157134E-06 -1.335887E-07
     15350   1 -1.478665E-05  4.369097E-06  6.518362E-06  2.280233E-06 -4.204285E-06  8.227808E-07
     15351   1 -1.747436E-05  4.252114E-06  8.802904E-06  3.313838E-06 -9.564599E-07  9.665177E-07
     15352   1 -1.702669E-05  4.231786E-06  8.547303E-06  3.033214E-06 -1.039354E-07  2.386759E-07
     15353   1 -1.721490E-05  4.173362E-06  8.834235E-06  2.964707E-06  5.789470E-07 -1.529806E-08
     15354   1 -1.709476E-05  4.126943E-06  8.816211E-06  3.042336E-06  8.228227E-07 -1.368161E-07
     15355   1 -1.763746E-05  4.127329E-06  9.230685E-06  3.080153E-06  2.228820E-06 -1.103297E-06
     15356   1 -1.510179E-05  3.877333E-06  7.702263E-06  2.182545E-06  4.643362E-06 -7.577449E-07
     15357   1 -1.157477E-05  3.382623E-06  4.321825E-06  2.857415E-06  5.332514E-06 -7.571306E-07
     15358   1 -3.044548E-06  1.819341E-06  1.443521E-07  1.107862E-06  2.769342E-06 -1.764169E-06
     15359   1  3.328570E-06 -1.590913E-06 -1.256005E-06  1.656663E-06  1.887888E-06  2.591337E-06
     15360   1  8.895984E-06 -1.999569E-06 -4.636147E-06  5.245611E-06  1.972110E-06  2.752927E-06
     15361   1  7.650741E-06 -1.020613E-06 -5.678305E-06  4.551769E-06 -8.574828E-09  6.952522E-07
     15362   1  8.205664E-06 -7.573917E-07 -6.753745E-06  4.278592E-06 -2.472970E-08  5.106890E-07
     15363   1  8.329927E-06 -6.782935E-07 -7.060676E-06  4.485506E-06 -3.254917E-07  1.993904E-08
     15364   1  8.226689E-06 -7.124189E-07 -6.927872E-06  4.202294E-06 -7.986181E-07 -5.789977E-07
     15365   1  8.204449E-06 -8.485882E-07 -6.428114E-06  4.609503E-06 -5.156666E-07 -6.668903E-07
     15366   1  8.764431E-06 -1.783433E-06 -5.046583E-06  4.910744E-06 -2.254417E-06 -3.295458E-06
     15367   1  4.671818E-06 -2.041762E-06 -1.629242E-06  2.638960E-06 -2.893204E-06 -3.590586E-06
     15368   1  3.787524E-06 -3.293900E-06  1.737128E-07  5.989560E-06  1.935837E-06  6.253912E-06
     15369   1  4.841492E-06 -2.272035E-06 -1.237959E-06  1.322604E-05  1.162585E-06  6.714648E-06
     15370   1  5.179174E-06 -1.529708E-06 -2.822327E-06  1.208633E-05  5.801377E-08  2.107049E-06
     15371   1  5.601550E-06 -1.656117E-06 -3.585599E-06  1.130197E-05 -4.878845E-09  1.362136E-06
     15372   1  5.782277E-06 -1.408209E-06 -3.913391E-06  1.165732E-05 -2.386292E-07  4.904551E-08
     15373   1  5.686586E-06 -1.589485E-06 -3.760873E-06  1.109504E-05 -3.092817E-07 -1.530559E-06
     15374   1  5.364781E-06 -1.372664E-06 -3.260619E-06  1.212084E-05 -3.422538E-07 -2.115413E-06
     15375   1  5.122607E-06 -1.951962E-06 -2.085849E-06  1.227801E-05 -9.264468E-07 -7.582153E-06
     15376   1  3.003481E-06 -2.952530E-06 -7.772252E-08  7.316623E-06 -9.727355E-07 -8.110598E-06
     15377   1  1.903388E-06 -2.553525E-06  4.136148E-07  9.156196E-06  1.059476E-06  8.393007E-06
     15378   1  3.089039E-06 -2.318923E-06 -4.512757E-07  1.868396E-05  7.219686E-07  9.120878E-06
     15379   1  3.168424E-06 -1.864280E-06 -1.338381E-06  1.713400E-05 -1.635689E-07  3.128782E-06
     15380   1  3.474713E-06 -1.912104E-06 -1.800617E-06  1.604978E-05 -1.297142E-08  2.031434E-06
     15381   1  3.654392E-06 -1.875814E-06 -2.063579E-06  1.653832E-05 -1.480131E-07  5.986409E-08
     15382   1  3.524341E-06 -1.844876E-06 -1.944598E-06  1.573271E-05 -8.551598E-08 -2.211143E-06
     15383   1  3.399927E-06 -1.730287E-06 -1.758755E-06  1.708477E-05  3.294756E-08 -3.070340E-06
     15384   1  3.243374E-06 -2.002862E-06 -1.274309E-06  1.697311E-05 -2.751034E-07 -9.732231E-06
     15385   1  2.338156E-06 -3.111697E-06  1.337523E-07  1.047949E-05 -5.072885E-07 -1.014721E-05
     15386   1  1.138271E-06 -1.621544E-06  1.207047E-07  1.031601E-05  9.221965E-08  9.400724E-06
     15387   1  2.058047E-06 -1.459473E-06 -5.668791E-07  2.234152E-05  1.573057E-07  1.075307E-05
     15388   1  1.987752E-06 -1.324005E-06 -7.567357E-07  2.007517E-05 -8.943684E-08  3.700990E-06
     15389   1  2.201923E-06 -1.442388E-06 -1.003907E-06  1.912620E-05 -1.084371E-07  2.489221E-06
     15390   1  2.243788E-06 -1.347824E-06 -1.168951E-06  1.955380E-05 -4.481187E-08  1.037191E-07
     15391   1  2.236735E-06 -1.386093E-06 -1.119437E-06  1.868212E-05  3.508325E-09 -2.634711E-06
     15392   1  2.206995E-06 -1.257664E-06 -1.094730E-06  2.007405E-05  1.307492E-07 -3.582314E-06
     15393   1  2.087275E-06 -1.547845E-06 -7.757559E-07  1.999751E-05 -7.229482E-08 -1.117072E-05
     15394   1  1.606531E-06 -2.250190E-06  1.118427E-07  1.262737E-05 -1.585607E-07 -1.167907E-05
     15395   1  3.999539E-07 -2.959734E-07 -2.867831E-07  1.157364E-05 -2.770641E-07  9.989962E-06
     15396   1  9.841734E-07  1.878305E-07 -8.498432E-07  2.374232E-05  6.496553E-08  1.111211E-05
     15397   1  6.754302E-07  1.287927E-07 -6.111610E-07  2.189516E-05 -4.431020E-08  4.095048E-06
     15398   1  8.727429E-07  1.614011E-07 -8.369542E-07  2.062022E-05 -6.558821E-08  2.728774E-06
     15399   1  8.210689E-07  1.662961E-07 -8.577592E-07  2.125317E-05 -4.846566E-09  1.277675E-07
     15400   1  8.782715E-07  1.643152E-07 -8.717387E-07  2.017763E-05 -1.618946E-08 -2.839797E-06
     15401   1  8.529978E-07  1.629931E-07 -8.405436E-07  2.175267E-05  7.073232E-08 -3.867684E-06
     15402   1  8.713681E-07 -1.083577E-07 -6.346097E-07  2.160299E-05 -6.533567E-08 -1.198537E-05
     15403   1  6.449584E-07 -6.123249E-07 -1.223255E-07  1.399430E-05 -1.165667E-07 -1.255961E-05
     15404   1 -3.979334E-07  1.556575E-06 -5.820496E-07  1.200035E-05  9.709188E-08  1.013547E-05
     15405   1 -4.084340E-07  1.830317E-06 -6.674912E-07  2.453731E-05  1.504463E-07  1.138744E-05
     15406   1 -5.246609E-07  2.085779E-06 -8.078699E-07  2.256301E-05  3.853114E-08  4.220733E-06
     15407   1 -5.450862E-07  2.187828E-06 -8.479292E-07  2.137220E-05  4.083288E-08  2.813013E-06
     15408   1 -5.494497E-07  2.203374E-06 -8.651527E-07  2.194012E-05 -1.693563E-08  1.506092E-07
     15409   1 -5.371175E-07  2.169100E-06 -8.521021E-07  2.089043E-05 -5.738127E-08 -2.930702E-06
     15410   1 -5.031693E-07  2.037589E-06 -7.853543E-07  2.246425E-05 -7.362864E-08 -3.986887E-06
     15411   1 -3.958799E-07  1.800977E-06 -6.895570E-07  2.234695E-05 -1.156320E-07 -1.240967E-05
     15412   1 -3.409874E-07  1.423780E-06 -5.178180E-07  1.452677E-05 -1.218496E-07 -1.296889E-05
     15413   1 -1.097651E-06  3.318562E-06 -7.764753E-07  1.194964E-05  5.512077E-07  1.034595E-05
     15414   1 -1.813525E-06  3.624579E-06 -6.402328E-07  2.439289E-05  1.176058E-07  1.146962E-05
     15415   1 -1.737267E-06  4.088243E-06 -9.322911E-07  2.244739E-05  1.936302E-07  4.171629E-06
     15416   1 -1.989998E-06  4.227238E-06 -8.458928E-07  2.117957E-05  1.304550E-07  2.817612E-06
     15417   1 -1.935817E-06  4.348655E-06 -8.907612E-07  2.183781E-05 -9.443115E-09  1.352480E-07
     15418   1 -1.974449E-06  4.198001E-06 -8.089341E-07  2.071895E-05 -1.349878E-07 -2.940197E-06
     15419   1 -1.879818E-06  3.986815E-06 -7.322666E-07  2.231891E-05 -2.234753E-07 -3.974004E-06
     15420   1 -1.645623E-06  3.729886E-06 -7.295384E-07  2.217938E-05 -2.067878E-07 -1.233161E-05
     15421   1 -1.324551E-06  3.442593E-06 -9.009137E-07  1.433671E-05 -1.244769E-07 -1.291789E-05
     15422   1 -2.264616E-06  4.859944E-06 -1.203389E-06  1.085959E-05 -1.276350E-07  9.933465E-06
     15423   1 -2.723575E-06  5.307841E-06 -8.359912E-07  2.352550E-05  1.790344E-07  1.122976E-05
     15424   1 -3.143117E-06  5.563359E-06 -6.957070E-07  2.125038E-05  2.916401E-07  3.912290E-06
     15425   1 -3.262825E-06  5.954151E-06 -6.870838E-07  2.027237E-05  2.131101E-07  2.649473E-06
     15426   1 -3.353474E-06  5.888414E-06 -5.070749E-07  2.077317E-05  2.230478E-08  9.499472E-08
     15427   1 -3.306261E-06  5.859007E-06 -5.555664E-07  1.980801E-05 -1.994584E-07 -2.780277E-06
     15428   1 -3.246922E-06  5.485280E-06 -4.389126E-07  2.124172E-05 -3.625765E-07 -3.788832E-06
     15429   1 -2.797375E-06  5.218354E-06 -5.611769E-07  2.120472E-05 -3.188886E-07 -1.185460E-05
     15430   1 -2.164029E-06  4.914675E-06 -1.059626E-06  1.329446E-05 -2.560447E-07 -1.244920E-05
     15431   1 -2.481968E-06  5.106992E-06 -9.572298E-07  9.419243E-06 -1.498632E-07  8.938026E-06
     15432   1 -4.048780E-06  6.055656E-06 -4.371594E-07  2.088636E-05 -1.954339E-07  9.840766E-06
     15433   1 -4.221705E-06  6.260649E-06 -1.334884E-07  1.921024E-05  3.817065E-07  3.372257E-06
     15434   1 -4.574465E-06  6.408122E-06  2.636449E-07  1.805498E-05  2.136441E-07  2.151823E-06
     15435   1 -4.686329E-06  6.447061E-06  5.205165E-07  1.866733E-05  7.016518E-08  9.298036E-08
     15436   1 -4.604573E-06  6.326834E-06  4.061540E-07  1.770452E-05 -1.296447E-07 -2.391233E-06
     15437   1 -4.442192E-06  6.081386E-06  3.020694E-07  1.918834E-05 -3.629190E-07 -3.199350E-06
     15438   1 -3.826526E-06  5.713635E-06  4.305759E-08  1.913555E-05 -2.737782E-07 -1.074012E-05
     15439   1 -2.787393E-06  5.415449E-06 -8.386500E-07  1.141149E-05 -4.278035E-08 -1.131086E-05
     15440   1 -3.174720E-06  4.390886E-06 -3.228217E-07  6.468270E-06 -1.451527E-08  7.601495E-06
     15441   1 -5.469909E-06  4.990827E-06  8.934702E-07  1.609118E-05 -5.732916E-07  7.757494E-06
     15442   1 -5.533553E-06  4.877385E-06  1.541615E-06  1.456464E-05  4.998903E-08  2.066133E-06
     15443   1 -6.124067E-06  5.007950E-06  2.401011E-06  1.369383E-05  3.126151E-07  1.481435E-06
     15444   1 -6.098068E-06  4.801607E-06  2.661468E-06  1.419256E-05  1.014167E-07  4.334453E-08
     15445   1 -6.166643E-06  4.946073E-06  2.547967E-06  1.345438E-05  7.967182E-08 -1.617187E-06
     15446   1 -5.809561E-06  4.642635E-06  2.134683E-06  1.464027E-05  8.234091E-09 -2.079227E-06
     15447   1 -5.014261E-06  4.706551E-06  1.081746E-06  1.503169E-05  3.641514E-07 -8.677833E-06
     15448   1 -3.191011E-06  4.428217E-06 -2.896222E-07  8.195611E-06  1.301156E-07 -9.715235E-06
     15449   1 -4.272720E-06  2.243365E-06  1.709829E-06  1.976150E-06 -2.275030E-06  3.639999E-06
     15450   1 -1.255408E-05  4.379356E-06  5.364288E-06  6.739886E-06 -2.328199E-06  3.401180E-06
     15451   1 -1.120645E-05  3.840097E-06  5.359037E-06  5.689647E-06  3.343680E-07  5.618569E-07
     15452   1 -1.136273E-05  3.757535E-06  5.899799E-06  5.414949E-06  2.091935E-07  5.489571E-07
     15453   1 -1.151513E-05  3.562109E-06  6.340512E-06  5.681543E-06  2.161880E-07  3.660096E-08
     15454   1 -1.139978E-05  3.678996E-06  6.121211E-06  5.320835E-06  6.089852E-07 -6.321976E-07
     15455   1 -1.174734E-05  3.670399E-06  6.145805E-06  5.772128E-06  9.920255E-09 -5.392541E-07
     15456   1 -1.199253E-05  4.105599E-06  5.432018E-06  6.341520E-06  2.559614E-06 -3.902973E-06
     15457   1 -5.724951E-06  2.836508E-06  1.910672E-06  2.930687E-06  3.539312E-06 -4.583906E-06
     15458   1  2.455021E-06  1.515097E-06 -2.258886E-06  3.916873E-06  2.015155E-07  7.578749E-07
     15459   1  1.334678E-06  1.800097E-06 -2.601424E-06  2.030821E-06  1.700536E-07  1.114793E-06
     15460   1  2.177281E-06  2.376659E-06 -4.126702E-06  2.578623E-06 -9.395662E-08  5.698972E-07
     15461   1  2.056891E-06  2.480278E-06 -4.511820E-06  2.153180E-06 -1.605868E-07 -3.524278E-08
     15462   1  2.435703E-06  2.474090E-06 -4.531889E-06  2.658536E-06 -1.827861E-07 -6.332763E-07
     15463   1  1.238867E-06  2.030959E-06 -2.931213E-06  1.796329E-06 -2.546927E-07 -1.386661E-06
     15464   1  2.855553E-06  1.536011E-06 -2.520935E-06  4.378760E-06 -3.907222E-07 -1.102291E-06
     15465   1  3.386098E-06 -4.252791E-06  2.375599E-07  1.006164E-05  5.942726E-07  2.559364E-06
     15466   1  2.828662E-06 -4.974452E-06  1.782433E-07  5.941209E-06  2.208047E-07  3.281651E-06
     15467   1  3.830530E-06 -4.397556E-06 -1.285470E-06  6.778611E-06 -1.292099E-07  1.537641E-06
     15468   1  3.546421E-06 -4.303050E-06 -1.488788E-06  6.112319E-06 -6.713641E-08 -7.613651E-08
     15469   1  3.824752E-06 -4.256115E-06 -1.497526E-06  6.888284E-06 -1.778678E-08 -1.654050E-06
     15470   1  3.080279E-06 -4.710110E-06 -2.919313E-07  5.515719E-06 -1.934871E-07 -3.785658E-06
     15471   1  3.021611E-06 -3.819932E-06  6.742406E-08  1.066856E-05 -3.515953E-07 -3.231829E-06
     15472   1  2.557364E-06 -5.072567E-06  1.109652E-06  1.341862E-05  9.417168E-08  3.854964E-06
     15473   1  2.548867E-06 -5.971657E-06  1.107767E-06  8.101697E-06  4.907400E-09  5.051744E-06
     15474   1  3.221307E-06 -5.772598E-06  1.131326E-07  9.244750E-06 -7.478487E-08  2.276763E-06
     15475   1  3.110303E-06 -5.598991E-06 -1.554873E-07  8.282692E-06 -1.020431E-08 -4.244643E-08
     15476   1  3.206105E-06 -5.620495E-06 -7.906692E-08  9.382061E-06 -4.189566E-08 -2.345437E-06
     15477   1  2.709503E-06 -5.618408E-06  6.463451E-07  7.512161E-06  1.162105E-07 -5.412742E-06
     15478   1  2.374147E-06 -4.791362E-06  9.590753E-07  1.375754E-05  1.608678E-07 -4.441018E-06
     15479   1  1.644019E-06 -3.615894E-06  8.490088E-07  1.510143E-05 -4.738339E-08  4.358274E-06
     15480   1  1.959183E-06 -4.176469E-06  6.859248E-07  9.060320E-06 -6.193981E-08  5.974197E-06
     15481   1  2.106800E-06 -4.214007E-06  3.467628E-07  1.039072E-05 -4.812505E-08  2.845277E-06
     15482   1  2.243834E-06 -4.174096E-06  1.040799E-07  9.331248E-06 -2.524130E-08  1.096441E-08
     15483   1  2.161311E-06 -4.093801E-06  1.665758E-07  1.056422E-05  3.670722E-08 -2.787746E-06
     15484   1  1.960710E-06 -3.983020E-06  4.731545E-07  8.276165E-06  1.468650E-07 -6.175606E-06
     15485   1  1.656595E-06 -3.566780E-06  7.685757E-07  1.550526E-05  8.836158E-08 -4.954700E-06
     15486   1  4.530803E-07 -8.229770E-07  6.442145E-08  1.599832E-05 -1.572567E-07  4.583351E-06
     15487   1  7.431419E-07 -1.015330E-06 -1.177431E-07  9.645869E-06 -1.840436E-08  6.319819E-06
     15488   1  6.486875E-07 -1.067212E-06 -1.614294E-07  1.106903E-05 -1.535307E-08  3.132791E-06
     15489   1  8.259718E-07 -1.036844E-06 -3.300990E-07  9.932968E-06 -1.944715E-08  5.186827E-08
     15490   1  7.228731E-07 -1.011206E-06 -2.770221E-07  1.122773E-05  2.188088E-08 -2.958223E-06
     15491   1  6.806688E-07 -1.018795E-06 -1.160554E-07  8.816609E-06  6.238495E-08 -6.536883E-06
     15492   1  5.404562E-07 -8.985585E-07  8.453733E-08  1.650706E-05  7.565213E-08 -5.279362E-06
     15493   1 -7.706874E-07  2.602098E-06 -9.086182E-07  1.637721E-05  1.811012E-08  4.652856E-06
     15494   1 -8.772723E-07  2.733008E-06 -9.443849E-07  9.825346E-06  3.181063E-08  6.472658E-06
     15495   1 -8.680003E-07  2.868026E-06 -1.039286E-06  1.139082E-05  9.370839E-09  3.241870E-06
     15496   1 -9.029284E-07  2.891906E-06 -1.035222E-06  1.013466E-05 -4.961493E-09  5.820817E-08
     15497   1 -8.565397E-07  2.833402E-06 -1.028614E-06  1.154547E-05 -2.040177E-08 -3.026656E-06
     15498   1 -8.545504E-07  2.666116E-06 -9.237627E-07  8.975855E-06 -3.869934E-08 -6.753452E-06
     15499   1 -7.358683E-07  2.510324E-06 -8.785236E-07  1.696929E-05 -2.462748E-08 -5.419315E-06
     15500   1 -2.036713E-06  6.210903E-06 -1.947998E-06  1.641320E-05  2.463022E-07  4.759840E-06
     15501   1 -2.534664E-06  6.679338E-06 -1.821840E-06  9.840827E-06  8.793985E-08  6.530722E-06
     15502   1 -2.474176E-06  6.979629E-06 -1.896102E-06  1.133679E-05  4.868869E-08  3.226086E-06
     15503   1 -2.686204E-06  7.035056E-06 -1.781793E-06  1.016969E-05  5.870273E-10  4.523550E-08
     15504   1 -2.504687E-06  6.870925E-06 -1.791481E-06  1.149544E-05 -6.645521E-08 -3.096022E-06
     15505   1 -2.449551E-06  6.542717E-06 -1.765592E-06  8.999474E-06 -1.533883E-07 -6.800010E-06
     15506   1 -2.044947E-06  6.091830E-06 -1.911472E-06  1.693273E-05 -1.802707E-07 -5.477797E-06
     15507   1 -3.452740E-06  9.604962E-06 -2.873802E-06  1.594579E-05  8.718269E-08  4.621453E-06
     15508   1 -3.997421E-06  1.042181E-05 -2.654887E-06  9.532609E-06  2.232541E-07  6.375448E-06
     15509   1 -4.245265E-06  1.078929E-05 -2.435218E-06  1.102258E-05  9.057346E-08  3.079736E-06
     15510   1 -4.404582E-06  1.087615E-05 -2.261783E-06  9.886729E-06  2.776211E-09 -6.552096E-09
     15511   1 -4.230779E-06  1.064478E-05 -2.311382E-06  1.119814E-05 -1.029038E-07 -3.061735E-06
     15512   1 -4.011001E-06  1.013766E-05 -2.436012E-06  8.700850E-06 -3.088471E-07 -6.712590E-06
     15513   1 -3.278155E-06  9.329272E-06 -2.771145E-06  1.647707E-05 -2.086817E-07 -5.342436E-06
     15514   1 -4.472617E-06  1.204286E-05 -3.465772E-06  1.474904E-05  3.710821E-07  4.288911E-06
     15515   1 -5.421441E-06  1.343451E-05 -3.068402E-06  8.969402E-06  2.554622E-07  5.721483E-06
     15516   1 -5.738533E-06  1.363236E-05 -2.346332E-06  1.031542E-05  7.829329E-08  2.525260E-06
     15517   1 -6.019913E-06  1.345587E-05 -1.849946E-06  9.212047E-06  1.065997E-08 -7.055187E-08
     15518   1 -5.755564E-06  1.346630E-05 -2.179679E-06  1.047015E-05 -4.651161E-08 -2.599761E-06
     15519   1 -5.377437E-06  1.308475E-05 -2.819526E-06  8.274695E-06 -3.818858E-07 -6.228597E-06
     15520   1 -4.281402E-06  1.170170E-05 -3.363942E-06  1.536951E-05 -4.906789E-07 -5.098763E-06
     15521   1 -5.271952E-06  1.318017E-05 -3.337517E-06  1.302150E-05  7.017849E-08  3.267621E-06
     15522   1 -6.744656E-06  1.471014E-05 -2.180907E-06  7.696572E-06  4.842064E-08  3.902872E-06
     15523   1 -6.927070E-06  1.413127E-05 -8.194001E-07  8.874497E-06  1.507687E-07  1.633139E-06
     15524   1 -7.286242E-06  1.399930E-05 -2.313601E-07  8.065912E-06  8.230158E-08 -7.840288E-08
     15525   1 -7.048198E-06  1.399847E-05 -6.129061E-07  9.006264E-06 -1.281157E-07 -1.771650E-06
     15526   1 -6.581781E-06  1.447862E-05 -2.070564E-06  7.199040E-06 -1.028128E-07 -4.469119E-06
     15527   1 -5.159880E-06  1.289626E-05 -3.241280E-06  1.374927E-05  3.194537E-09 -4.028005E-06
     15528   1 -8.098566E-06  1.132238E-05 -7.601729E-07  6.180129E-06  3.949716E-07  1.120689E-06
     15529   1 -7.693921E-06  1.106451E-05  7.424049E-07  3.158802E-06  3.019525E-07  1.335716E-06
     15530   1 -8.277800E-06  1.021976E-05  2.612960E-06  4.158672E-06  8.722310E-08  5.709272E-07
     15531   1 -8.377071E-06  1.017191E-05  3.086355E-06  3.482536E-06  1.596530E-07 -2.522861E-08
     15532   1 -8.596882E-06  1.015715E-05  2.967783E-06  4.243960E-06  6.633042E-08 -6.541539E-07
     15533   1 -7.345104E-06  1.087074E-05  7.873299E-07  2.921241E-06 -2.244511E-07 -1.616170E-06
     15534   1 -8.534865E-06  1.138210E-05 -6.000361E-07  6.604815E-06 -7.605526E-08 -1.442343E-06
