Part,ElementID,vonMises_Pa,Sxx_Pa,Syy_Pa,Szz_Pa,Sxy_Pa,Syz_Pa,Szx_Pa
PART_003_R247G182B210A255,1,47337860.0,7950143.0,8693290.0,3530610.0,22802.14,7729809.0,41705163.66673086
PART_000_R31G119B180A255,2,40686840.0,7021233.0,13011460.0,4766855.0,-51989.22,7443236.0,34669488.041105255
PART_000_R31G119B180A255,3,42154090.0,7444943.0,13612750.0,5332575.0,-92604.8,4394242.0,34233759.542719595
PART_000_R31G119B180A255,4,42315140.0,7487262.0,14430770.0,5709847.0,-51181.59,3120704.0,33858485.45247504
PART_000_R31G119B180A255,5,43056370.0,7687701.0,14812680.0,5899771.0,-31990.65,1377726.0,34056224.08979986
PART_000_R31G119B180A255,6,42999630.0,7649243.0,14907050.0,5965819.0,6.112123e-05,-0.003018957,33948966.49826018
PART_000_R31G119B180A255,7,43056370.0,7687701.0,14812680.0,5899771.0,31990.65,-1377726.0,34056224.08979986
PART_000_R31G119B180A255,8,42315140.0,7487262.0,14430770.0,5709847.0,51181.59,-3120704.0,33858485.45247504
PART_000_R31G119B180A255,9,42154090.0,7444943.0,13612750.0,5332575.0,92604.8,-4394242.0,34233759.542719595
PART_000_R31G119B180A255,10,40686840.0,7021233.0,13011460.0,4766855.0,51989.22,-7443236.0,34669488.041105255
PART_001_R158G218B229A255,11,47337860.0,7950143.0,8693290.0,3530610.0,-22802.14,-7729809.0,41705163.66673086
PART_003_R247G182B210A255,12,36180560.0,10686480.0,7077190.0,418553.8,-44726.41,6303579.0,29575792.553829573
PART_001_R158G218B229A255,13,29728360.0,9783750.0,10714460.0,2354542.0,-77879.94,5857374.0,22353239.846947987
PART_001_R158G218B229A255,14,29959700.0,9894974.0,10954540.0,3259400.0,-140736.8,3384225.0,21183612.304491736
PART_001_R158G218B229A255,15,29497040.0,9955031.0,11406760.0,3787940.0,-113601.2,2444181.0,20411618.700459998
PART_001_R158G218B229A255,16,29799380.0,10120060.0,11624450.0,4050973.0,-56958.31,1067101.0,20312322.512202393
PART_001_R158G218B229A255,17,29633920.0,10082400.0,11654060.0,4140729.0,0.0001398835,-0.002307557,20135556.051351625
PART_001_R158G218B229A255,18,29799380.0,10120060.0,11624450.0,4050973.0,56958.31,-1067101.0,20312322.512202393
PART_001_R158G218B229A255,19,29497040.0,9955031.0,11406760.0,3787940.0,113601.2,-2444181.0,20411618.700459998
PART_001_R158G218B229A255,20,29959700.0,9894974.0,10954540.0,3259400.0,140736.8,-3384225.0,21183612.304491736
PART_001_R158G218B229A255,21,29728360.0,9783750.0,10714460.0,2354542.0,77879.94,-5857374.0,22353239.846947987
PART_001_R158G218B229A255,22,36180560.0,10686480.0,7077190.0,418553.8,44726.41,-6303579.0,29575792.553829573
PART_003_R247G182B210A255,23,27356300.0,8289203.0,5350636.0,-2543753.0,-133493.9,4920296.0,22810364.83866016
PART_001_R158G218B229A255,24,22601280.0,7678578.0,8084930.0,-768620.3,-152399.6,4548687.0,16754162.342787173
PART_001_R158G218B229A255,25,22889990.0,7791140.0,8409602.0,24595.52,-109602.6,2536034.0,15438651.494068531
PART_001_R158G218B229A255,26,22430830.0,7697676.0,8739873.0,551706.3,-110127.6,1833633.0,14623040.251619304
PART_001_R158G218B229A255,27,22630880.0,7813236.0,8876374.0,792373.5,-55685.67,793090.1,14447127.098599873
PART_001_R158G218B229A255,28,22482420.0,7759905.0,8901410.0,881785.8,6.944888e-05,-0.001722817,14268226.78879264
PART_001_R158G218B229A255,29,22630880.0,7813236.0,8876374.0,792373.5,55685.67,-793090.1,14447127.098599873
PART_001_R158G218B229A255,30,22430830.0,7697676.0,8739873.0,551706.3,110127.6,-1833633.0,14623040.251619304
PART_001_R158G218B229A255,31,22889990.0,7791140.0,8409602.0,24595.52,109602.6,-2536034.0,15438651.494068531
PART_001_R158G218B229A255,32,22601280.0,7678578.0,8084930.0,-768620.3,152399.6,-4548687.0,16754162.342787173
PART_001_R158G218B229A255,33,27356300.0,8289203.0,5350636.0,-2543753.0,133493.9,-4920296.0,22810364.83866016
PART_003_R247G182B210A255,34,18021210.0,5837846.0,3569211.0,-3475660.0,-134536.7,3306191.0,15821134.711867057
PART_001_R158G218B229A255,35,14694500.0,5377388.0,5348264.0,-1545649.0,-222009.8,3088877.0,11091402.828708645
PART_001_R158G218B229A255,36,14873780.0,5497047.0,5520827.0,-757747.1,-161695.7,1722716.0,9919926.324413287
PART_001_R158G218B229A255,37,14560380.0,5448601.0,5783880.0,-233525.7,-106853.8,1222449.0,9206679.153503112
PART_001_R158G218B229A255,38,14660490.0,5495249.0,5873634.0,23411.11,-59629.29,527919.5,9029132.64233358
PART_001_R158G218B229A255,39,14558410.0,5470510.0,5885280.0,114958.2,9.080068e-05,-0.001120739,8890006.661591526
PART_001_R158G218B229A255,40,14660490.0,5495249.0,5873634.0,23411.11,59629.29,-527919.5,9029132.64233358
PART_001_R158G218B229A255,41,14560380.0,5448601.0,5783880.0,-233525.7,106853.8,-1222449.0,9206679.153503112
PART_001_R158G218B229A255,42,14873780.0,5497047.0,5520827.0,-757747.1,161695.7,-1722716.0,9919926.324413287
PART_001_R158G218B229A255,43,14694500.0,5377388.0,5348264.0,-1545649.0,222009.8,-3088877.0,11091402.828708645
PART_001_R158G218B229A255,44,18021210.0,5837846.0,3569211.0,-3475660.0,134536.7,-3306191.0,15821134.711867057
PART_003_R247G182B210A255,45,9063721.0,2943386.0,1793941.0,-4497105.0,-152477.0,1674236.0,10722197.497951388
PART_001_R158G218B229A255,46,7413010.0,2717417.0,2698144.0,-2582699.0,-226150.1,1560279.0,7043245.621486094
PART_001_R158G218B229A255,47,7509571.0,2771083.0,2791881.0,-1814009.0,-187558.6,871045.5,5882918.615813041
PART_001_R158G218B229A255,48,7351458.0,2749585.0,2912980.0,-1318377.0,-125137.0,618312.2,5182689.598463285
PART_001_R158G218B229A255,49,7406655.0,2775376.0,2967428.0,-1078649.0,-59814.22,264126.2,4930177.980454858
PART_001_R158G218B229A255,50,7351562.0,2753468.0,2974522.0,-990093.6,7.506128e-05,-0.000564857,4807885.423235342
PART_001_R158G218B229A255,51,7406655.0,2775376.0,2967428.0,-1078649.0,59814.22,-264126.2,4930177.980454858
PART_001_R158G218B229A255,52,7351458.0,2749585.0,2912980.0,-1318377.0,125137.0,-618312.2,5182689.598463285
PART_001_R158G218B229A255,53,7509571.0,2771083.0,2791881.0,-1814009.0,187558.6,-871045.5,5882918.615813041
PART_001_R158G218B229A255,54,7413010.0,2717417.0,2698144.0,-2582699.0,226150.1,-1560279.0,7043245.621486094
PART_002_R214G39B40A255,55,9063721.0,2943386.0,1793941.0,-4497105.0,152477.0,-1674236.0,10722197.497951388
PART_003_R247G182B210A255,56,0.009908249,0.003188343,0.001894508,-4471977.0,-145929.7,0.001806297,7749814.275039968
PART_001_R158G218B229A255,57,0.008073075,0.00297681,0.002946803,-2512554.0,-245547.9,0.001731605,4372603.814928953
PART_001_R158G218B229A255,58,0.008202042,0.003031205,0.003034154,-1735067.0,-189861.6,0.0009398736,3023163.039753344
PART_001_R158G218B229A255,59,0.008024288,0.003003369,0.003195012,-1230641.0,-130337.3,0.000681512,2143454.0461500147
PART_001_R158G218B229A255,60,0.008085484,0.003034249,0.003226653,-988415.6,-63603.84,0.0002851018,1715526.8987568563
PART_001_R158G218B229A255,61,0.008024062,0.003007223,0.003260695,-898515.1,7.672165e-05,-3.522069e-07,1556273.8045678306
PART_001_R158G218B229A255,62,0.008083763,0.003033576,0.003226031,-988415.6,63603.84,-0.0002858097,1715526.8987568563
PART_001_R158G218B229A255,63,0.008020887,0.003001996,0.003193778,-1230641.0,130337.3,-0.000681946,2143454.0461500147
PART_001_R158G218B229A255,64,0.008196876,0.003029184,0.003032417,-1735067.0,189861.6,-0.0009400742,3023163.039753344
PART_001_R158G218B229A255,65,0.008066396,0.002974243,0.002944631,-2512554.0,245547.9,-0.00173103,4372603.814928953
PART_002_R214G39B40A255,66,0.009899003,0.003185184,0.001892887,-4471977.0,145929.7,-0.001805182,7749814.275039968
PART_003_R247G182B210A255,67,-9063721.0,-2943386.0,-1793941.0,-4497105.0,-152477.0,-1674236.0,10722197.497951388
PART_001_R158G218B229A255,68,-7413010.0,-2717417.0,-2698144.0,-2582699.0,-226150.1,-1560279.0,7043245.621486094
PART_001_R158G218B229A255,69,-7509571.0,-2771083.0,-2791881.0,-1814009.0,-187558.6,-871045.5,5882918.615813041
PART_001_R158G218B229A255,70,-7351458.0,-2749585.0,-2912980.0,-1318377.0,-125137.0,-618312.2,5182689.598463285
PART_001_R158G218B229A255,71,-7406655.0,-2775376.0,-2967428.0,-1078649.0,-59814.22,-264126.2,4930177.980454858
PART_001_R158G218B229A255,72,-7351562.0,-2753468.0,-2974522.0,-990093.6,7.507483e-05,0.0005641309,4807885.423235342
PART_001_R158G218B229A255,73,-7406655.0,-2775376.0,-2967428.0,-1078649.0,59814.22,264126.2,4930177.980454858
PART_001_R158G218B229A255,74,-7351458.0,-2749585.0,-2912980.0,-1318377.0,125137.0,618312.2,5182689.598463285
PART_001_R158G218B229A255,75,-7509571.0,-2771083.0,-2791881.0,-1814009.0,187558.6,871045.5,5882918.615813041
PART_001_R158G218B229A255,76,-7413010.0,-2717417.0,-2698144.0,-2582699.0,226150.1,1560279.0,7043245.621486094
PART_002_R214G39B40A255,77,-9063721.0,-2943386.0,-1793941.0,-4497105.0,152477.0,1674236.0,10722197.497951388
PART_003_R247G182B210A255,78,-18021210.0,-5837846.0,-3569211.0,-3475660.0,-134536.7,-3306191.0,15821134.711867057
PART_001_R158G218B229A255,79,-14694500.0,-5377388.0,-5348264.0,-1545649.0,-222009.8,-3088877.0,11091402.828708645
PART_001_R158G218B229A255,80,-14873780.0,-5497047.0,-5520827.0,-757747.2,-161695.7,-1722716.0,9919926.347329197
PART_001_R158G218B229A255,81,-14560380.0,-5448601.0,-5783880.0,-233525.7,-106853.8,-1222449.0,9206679.153503112
PART_001_R158G218B229A255,82,-14660490.0,-5495249.0,-5873634.0,23411.11,-59629.29,-527919.5,9029132.64233358
PART_001_R158G218B229A255,83,-14558410.0,-5470510.0,-5885280.0,114958.2,9.082202e-05,0.001119946,8890006.661591526
PART_001_R158G218B229A255,84,-14660490.0,-5495249.0,-5873634.0,23411.1,59629.29,527919.5,9029132.642255794
PART_001_R158G218B229A255,85,-14560380.0,-5448601.0,-5783880.0,-233525.7,106853.8,1222449.0,9206679.153503112
PART_001_R158G218B229A255,86,-14873780.0,-5497047.0,-5520827.0,-757747.1,161695.7,1722716.0,9919926.324413287
PART_001_R158G218B229A255,87,-14694500.0,-5377388.0,-5348264.0,-1545649.0,222009.8,3088877.0,11091402.828708645
PART_002_R214G39B40A255,88,-18021210.0,-5837846.0,-3569211.0,-3475660.0,134536.7,3306191.0,15821134.711867057
PART_003_R247G182B210A255,89,-27356300.0,-8289203.0,-5350636.0,-2543753.0,-133493.9,-4920296.0,22810364.83866016
PART_001_R158G218B229A255,90,-22601280.0,-7678578.0,-8084930.0,-768620.3,-152399.6,-4548687.0,16754162.342787173
PART_001_R158G218B229A255,91,-22889990.0,-7791140.0,-8409602.0,24595.52,-109602.6,-2536034.0,15438651.494068531
PART_001_R158G218B229A255,92,-22430830.0,-7697676.0,-8739873.0,551706.3,-110127.6,-1833633.0,14623040.251619304
PART_001_R158G218B229A255,93,-22630880.0,-7813236.0,-8876374.0,792373.5,-55685.67,-793090.1,14447127.098599873
PART_001_R158G218B229A255,94,-22482420.0,-7759905.0,-8901410.0,881785.8,6.948421e-05,0.00172189,14268226.78879264
PART_001_R158G218B229A255,95,-22630880.0,-7813236.0,-8876374.0,792373.5,55685.67,793090.1,14447127.098599873
PART_001_R158G218B229A255,96,-22430830.0,-7697676.0,-8739873.0,551706.3,110127.6,1833633.0,14623040.251619304
PART_001_R158G218B229A255,97,-22889990.0,-7791140.0,-8409602.0,24595.52,109602.6,2536034.0,15438651.494068531
PART_001_R158G218B229A255,98,-22601280.0,-7678578.0,-8084930.0,-768620.3,152399.6,4548687.0,16754162.342787173
PART_002_R214G39B40A255,99,-27356300.0,-8289203.0,-5350636.0,-2543753.0,133493.9,4920296.0,22810364.83866016
PART_003_R247G182B210A255,100,-36180560.0,-10686480.0,-7077190.0,418553.8,-44726.41,-6303579.0,29575792.553829573
PART_001_R158G218B229A255,101,-29728360.0,-9783750.0,-10714460.0,2354542.0,-77879.94,-5857374.0,22353239.846947987
PART_001_R158G218B229A255,102,-29959700.0,-9894974.0,-10954540.0,3259400.0,-140736.8,-3384225.0,21183612.304491736
PART_001_R158G218B229A255,103,-29497040.0,-9955031.0,-11406760.0,3787940.0,-113601.2,-2444181.0,20411618.700459998
PART_001_R158G218B229A255,104,-29799380.0,-10120060.0,-11624450.0,4050973.0,-56958.31,-1067101.0,20312322.512202393
PART_001_R158G218B229A255,105,-29633920.0,-10082400.0,-11654060.0,4140729.0,0.0001399402,0.002306445,20135556.051351625
PART_001_R158G218B229A255,106,-29799380.0,-10120060.0,-11624450.0,4050973.0,56958.31,1067101.0,20312322.512202393
PART_001_R158G218B229A255,107,-29497040.0,-9955031.0,-11406760.0,3787940.0,113601.2,2444181.0,20411618.700459998
PART_001_R158G218B229A255,108,-29959700.0,-9894974.0,-10954540.0,3259400.0,140736.8,3384225.0,21183612.304491736
PART_001_R158G218B229A255,109,-29728360.0,-9783750.0,-10714460.0,2354542.0,77879.94,5857374.0,22353239.846947987
PART_002_R214G39B40A255,110,-36180560.0,-10686480.0,-7077190.0,418553.8,44726.41,6303579.0,29575792.553829573
PART_003_R247G182B210A255,111,-47337860.0,-7950143.0,-8693290.0,3530610.0,22802.14,-7729809.0,41705163.66673086
PART_001_R158G218B229A255,112,-40686840.0,-7021233.0,-13011460.0,4766855.0,-51989.22,-7443236.0,34669488.041105255
PART_001_R158G218B229A255,113,-42154090.0,-7444943.0,-13612750.0,5332575.0,-92604.8,-4394242.0,34233759.542719595
PART_001_R158G218B229A255,114,-42315140.0,-7487262.0,-14430770.0,5709847.0,-51181.59,-3120704.0,33858485.45247504
PART_001_R158G218B229A255,115,-43056370.0,-7687701.0,-14812680.0,5899771.0,-31990.65,-1377726.0,34056224.08979986
PART_001_R158G218B229A255,116,-42999630.0,-7649243.0,-14907050.0,5965819.0,6.117109e-05,0.003017385,33948966.49826018
PART_001_R158G218B229A255,117,-43056370.0,-7687701.0,-14812680.0,5899771.0,31990.65,1377726.0,34056224.08979986
PART_001_R158G218B229A255,118,-42315140.0,-7487262.0,-14430770.0,5709847.0,51181.59,3120704.0,33858485.45247504
PART_001_R158G218B229A255,119,-42154090.0,-7444943.0,-13612750.0,5332575.0,92604.8,4394242.0,34233759.542719595
PART_001_R158G218B229A255,120,-40686840.0,-7021233.0,-13011460.0,4766855.0,51989.22,7443236.0,34669488.041105255
PART_002_R214G39B40A255,121,-47337860.0,-7950143.0,-8693290.0,3530610.0,-22802.14,7729809.0,41705163.66673086
PART_003_R247G182B210A255,122,37206810.0,-2689759.0,-1764960.0,-1666596.0,112365.7,873102.2,39577172.602849275
PART_003_R247G182B210A255,123,40854610.0,-1024343.0,2767650.0,-709834.0,14410.39,5151848.0,41116396.34027925
PART_000_R31G119B180A255,124,37873280.0,-1675406.0,5420901.0,-366448.2,-135256.7,3753532.0,37101634.24246767
PART_000_R31G119B180A255,125,38958000.0,-1369379.0,6271827.0,-156141.2,-85633.38,2436023.0,37342114.01869092
PART_000_R31G119B180A255,126,38357880.0,-1600708.0,6949231.0,-64454.72,-54744.55,1240512.0,36507325.1023383
PART_000_R31G119B180A255,127,38907990.0,-1436113.0,7071710.0,-29062.76,0.0001008132,-0.002849758,36834654.13965802
PART_000_R31G119B180A255,128,38357880.0,-1600708.0,6949231.0,-64454.72,54744.55,-1240512.0,36507325.1023383
PART_000_R31G119B180A255,129,38958000.0,-1369379.0,6271827.0,-156141.2,85633.38,-2436023.0,37342114.01869092
PART_000_R31G119B180A255,130,37873280.0,-1675406.0,5420901.0,-366448.2,135256.7,-3753532.0,37101634.24246767
PART_000_R31G119B180A255,131,40854610.0,-1024343.0,2767650.0,-709833.9,-14410.39,-5151848.0,41116396.33510005
PART_000_R31G119B180A255,132,37206810.0,-2689759.0,-1764960.0,-1666596.0,-112365.7,-873102.2,39577172.602849275
PART_003_R247G182B210A255,133,32779820.0,-42955.29,-526324.3,-8271.676,-65413.29,316312.6,33071845.105394356
PART_003_R247G182B210A255,134,36617260.0,2574984.0,4208233.0,1620024.0,-170325.1,3798207.0,34017409.34825575
PART_000_R31G119B180A255,135,34045700.0,2108505.0,6693816.0,2503243.0,-243475.7,2852063.0,30625917.74560603
PART_000_R31G119B180A255,136,34925260.0,2461979.0,7366311.0,3010033.0,-230378.7,1834929.0,30921633.044561602
PART_000_R31G119B180A255,137,34371950.0,2365732.0,7942613.0,3294602.0,-116380.2,951533.6,30204715.061550938
PART_000_R31G119B180A255,138,34831920.0,2505173.0,8028437.0,3370773.0,0.0002228512,-0.002169219,30513311.697127927
PART_000_R31G119B180A255,139,34371950.0,2365732.0,7942613.0,3294602.0,116380.2,-951533.6,30204715.061550938
PART_000_R31G119B180A255,140,34925260.0,2461979.0,7366311.0,3010033.0,230378.7,-1834929.0,30921633.044561602
PART_000_R31G119B180A255,141,34045700.0,2108505.0,6693816.0,2503243.0,243475.7,-2852063.0,30625917.74560603
PART_000_R31G119B180A255,142,36617260.0,2574984.0,4208233.0,1620024.0,170325.1,-3798207.0,34017409.34825575
PART_002_R214G39B40A255,143,32779820.0,-42955.28,-526324.2,-8271.673,65413.29,-316312.6,33071845.049417824
PART_003_R247G182B210A255,144,22975280.0,1531147.0,-689485.8,-754197.7,-312951.9,338956.9,22688026.132496778
PART_003_R247G182B210A255,145,25734800.0,3754578.0,2831470.0,731868.1,-455161.0,2918194.0,23066173.985708766
PART_001_R158G218B229A255,146,23554980.0,3531393.0,4850086.0,1613773.0,-315424.5,2137475.0,19952335.437789977
PART_001_R158G218B229A255,147,24090880.0,3782918.0,5431162.0,2098813.0,-268804.3,1379284.0,20019906.11112406
PART_001_R158G218B229A255,148,23551840.0,3712170.0,5839043.0,2385716.0,-142357.2,707748.4,19354019.701947454
PART_001_R158G218B229A255,149,23882310.0,3832046.0,5912227.0,2466104.0,0.0002119311,-0.001602213,19567244.77439583
PART_001_R158G218B229A255,150,23551840.0,3712170.0,5839043.0,2385716.0,142357.2,-707748.4,19354019.701947454
PART_001_R158G218B229A255,151,24090880.0,3782918.0,5431162.0,2098813.0,268804.3,-1379284.0,20019906.11112406
PART_001_R158G218B229A255,152,23554980.0,3531393.0,4850086.0,1613773.0,315424.5,-2137475.0,19952335.437789977
PART_001_R158G218B229A255,153,25734800.0,3754578.0,2831470.0,731868.1,455161.0,-2918194.0,23066173.985708766
PART_002_R214G39B40A255,154,22975280.0,1531147.0,-689485.8,-754197.7,312951.9,-338956.9,22688026.132496778
PART_003_R247G182B210A255,155,15635380.0,1256109.0,-330429.2,-1665108.0,-351794.9,231926.2,15522377.487932762
PART_003_R247G182B210A255,156,17617330.0,2766636.0,2057664.0,-130521.9,-604381.1,1985834.0,15638159.33135695
PART_001_R158G218B229A255,157,16196540.0,2685872.0,3404376.0,712707.8,-435913.7,1434705.0,13476497.453000486
PART_001_R158G218B229A255,158,16557960.0,2848044.0,3838982.0,1199791.0,-299538.7,924360.3,13509591.763920046
PART_001_R158G218B229A255,159,16202940.0,2778287.0,4150044.0,1470130.0,-154803.6,473746.0,13073511.71813082
PART_001_R158G218B229A255,160,16417580.0,2853789.0,4190097.0,1551561.0,0.000219421,-0.00106732,13223417.392984312
PART_001_R158G218B229A255,161,16202940.0,2778287.0,4150044.0,1470130.0,154803.6,-473746.0,13073511.71813082
PART_001_R158G218B229A255,162,16557960.0,2848044.0,3838982.0,1199791.0,299538.7,-924360.4,13509591.784446804
PART_001_R158G218B229A255,163,16196540.0,2685872.0,3404376.0,712707.8,435913.7,-1434705.0,13476497.453000486
PART_001_R158G218B229A255,164,17617330.0,2766636.0,2057664.0,-130521.9,604381.1,-1985834.0,15638159.33135695
PART_002_R214G39B40A255,165,15635380.0,1256109.0,-330429.2,-1665108.0,351794.9,-231926.2,15522377.487932762
PART_003_R247G182B210A255,166,7579209.0,779663.5,-215808.3,-1939392.0,-395465.3,126583.8,8111381.613757547
PART_003_R247G182B210A255,167,8539571.0,1551379.0,974578.6,-390159.0,-670772.5,1005746.0,7618357.598383048
PART_001_R158G218B229A255,168,7807108.0,1517746.0,1649093.0,454446.1,-505469.4,725351.8,6458459.9548617955
PART_001_R158G218B229A255,169,7981613.0,1616685.0,1864439.0,933156.7,-346827.9,462796.3,6527825.703922323
PART_001_R158G218B229A255,170,7790852.0,1579804.0,2024878.0,1208505.0,-166341.9,238035.8,6375364.864902616
PART_001_R158G218B229A255,171,7898302.0,1613808.0,2053930.0,1284466.0,0.0002127712,-0.0005254095,6470872.186816859
PART_001_R158G218B229A255,172,7790852.0,1579804.0,2024878.0,1208505.0,166341.9,-238035.8,6375364.864902616
PART_001_R158G218B229A255,173,7981613.0,1616685.0,1864439.0,933156.6,346827.9,-462796.3,6527825.6610371405
PART_001_R158G218B229A255,174,7807108.0,1517746.0,1649093.0,454446.1,505469.4,-725351.8,6458459.9548617955
PART_002_R214G39B40A255,175,8539571.0,1551379.0,974578.6,-390159.0,670772.5,-1005746.0,7618357.598383048
PART_002_R214G39B40A255,176,7579209.0,779663.5,-215808.3,-1939392.0,395465.3,-126583.8,8111381.613757547
PART_003_R247G182B210A255,177,0.008273845,0.0008357297,-0.0002474635,-2261615.0,-395056.9,0.0001218582,3976545.8739197054
PART_003_R247G182B210A255,178,0.009373609,0.00170524,0.001007143,-706584.4,-690581.2,0.001091017,1711283.6481280362
PART_001_R158G218B229A255,179,0.008544935,0.001670091,0.001839857,124417.6,-524585.1,0.0008043698,933813.5782881451
PART_001_R158G218B229A255,180,0.008751726,0.001755926,0.002023315,596179.9,-360545.1,0.0004991554,1206760.0121374838
PART_001_R158G218B229A255,181,0.008531226,0.001734592,0.002237158,862124.3,-174510.0,0.0002630885,1523527.5338015622
PART_001_R158G218B229A255,182,0.008658457,0.001752409,0.002237042,940535.1,0.0002175838,-1.441015e-07,1629054.5795018747
PART_001_R158G218B229A255,183,0.008529352,0.001734089,0.002236807,862124.3,174510.0,-0.0002632919,1523527.5338015622
PART_001_R158G218B229A255,184,0.00874788,0.001754967,0.002022721,596179.9,360545.1,-0.0004992783,1206760.0121374838
PART_001_R158G218B229A255,185,0.00853936,0.001668745,0.001839065,124417.6,524585.1,-0.0008042416,933813.5782881451
PART_001_R158G218B229A255,186,0.009365684,0.001703455,0.001006643,-706584.4,690581.2,-0.001090646,1711283.6481280362
PART_002_R214G39B40A255,187,0.008265123,0.0008342018,-0.000247159,-2261615.0,395056.9,-0.0001219989,3976545.8739197054
PART_003_R247G182B210A255,188,-7579209.0,-779663.5,215808.3,-1939392.0,-395465.3,-126583.8,8111381.613757547
PART_003_R247G182B210A255,189,-8539571.0,-1551379.0,-974578.6,-390159.0,-670772.5,-1005746.0,7618357.598383048
PART_001_R158G218B229A255,190,-7807108.0,-1517746.0,-1649093.0,454446.1,-505469.4,-725351.8,6458459.9548617955
PART_001_R158G218B229A255,191,-7981613.0,-1616685.0,-1864439.0,933156.7,-346827.9,-462796.3,6527825.703922323
PART_001_R158G218B229A255,192,-7790852.0,-1579804.0,-2024878.0,1208505.0,-166341.9,-238035.8,6375364.864902616
PART_001_R158G218B229A255,193,-7898302.0,-1613808.0,-2053930.0,1284466.0,0.0002128059,0.0005251027,6470872.186816859
PART_001_R158G218B229A255,194,-7790852.0,-1579804.0,-2024878.0,1208505.0,166341.9,238035.8,6375364.864902616
PART_001_R158G218B229A255,195,-7981613.0,-1616685.0,-1864439.0,933156.6,346827.9,462796.3,6527825.6610371405
PART_001_R158G218B229A255,196,-7807108.0,-1517746.0,-1649093.0,454446.1,505469.4,725351.8,6458459.9548617955
PART_002_R214G39B40A255,197,-8539571.0,-1551379.0,-974578.6,-390159.0,670772.5,1005746.0,7618357.598383048
PART_002_R214G39B40A255,198,-7579209.0,-779663.5,215808.3,-1939392.0,395465.3,126583.8,8111381.613757547
PART_003_R247G182B210A255,199,-15635380.0,-1256109.0,330429.2,-1665108.0,-351794.9,-231926.2,15522377.487932762
PART_003_R247G182B210A255,200,-17617330.0,-2766636.0,-2057664.0,-130521.9,-604381.1,-1985834.0,15638159.33135695
PART_001_R158G218B229A255,201,-16196540.0,-2685872.0,-3404376.0,712707.8,-435913.7,-1434705.0,13476497.453000486
PART_001_R158G218B229A255,202,-16557960.0,-2848044.0,-3838982.0,1199791.0,-299538.7,-924360.3,13509591.763920046
PART_001_R158G218B229A255,203,-16202940.0,-2778287.0,-4150044.0,1470130.0,-154803.6,-473746.0,13073511.71813082
PART_001_R158G218B229A255,204,-16417580.0,-2853789.0,-4190097.0,1551561.0,0.0002194944,0.001066936,13223417.392984312
PART_001_R158G218B229A255,205,-16202940.0,-2778287.0,-4150044.0,1470130.0,154803.6,473746.0,13073511.71813082
PART_001_R158G218B229A255,206,-16557960.0,-2848044.0,-3838982.0,1199791.0,299538.7,924360.3,13509591.763920046
PART_001_R158G218B229A255,207,-16196540.0,-2685872.0,-3404376.0,712707.8,435913.7,1434705.0,13476497.453000486
PART_002_R214G39B40A255,208,-17617330.0,-2766636.0,-2057664.0,-130521.9,604381.1,1985834.0,15638159.33135695
PART_002_R214G39B40A255,209,-15635380.0,-1256109.0,330429.2,-1665108.0,351794.9,231926.2,15522377.487932762
PART_003_R247G182B210A255,210,-22975280.0,-1531147.0,689485.8,-754197.7,-312951.9,-338956.9,22688026.132496778
PART_003_R247G182B210A255,211,-25734800.0,-3754578.0,-2831470.0,731868.1,-455161.0,-2918194.0,23066173.985708766
PART_001_R158G218B229A255,212,-23554980.0,-3531393.0,-4850086.0,1613773.0,-315424.5,-2137475.0,19952335.437789977
PART_001_R158G218B229A255,213,-24090880.0,-3782918.0,-5431162.0,2098813.0,-268804.3,-1379284.0,20019906.11112406
PART_001_R158G218B229A255,214,-23551840.0,-3712170.0,-5839043.0,2385716.0,-142357.2,-707748.4,19354019.701947454
PART_001_R158G218B229A255,215,-23882310.0,-3832046.0,-5912227.0,2466104.0,0.00021205,0.001601722,19567244.77439583
PART_001_R158G218B229A255,216,-23551840.0,-3712170.0,-5839043.0,2385716.0,142357.2,707748.4,19354019.701947454
PART_001_R158G218B229A255,217,-24090880.0,-3782918.0,-5431162.0,2098813.0,268804.3,1379284.0,20019906.11112406
PART_001_R158G218B229A255,218,-23554980.0,-3531393.0,-4850086.0,1613773.0,315424.5,2137475.0,19952335.437789977
PART_001_R158G218B229A255,219,-25734800.0,-3754578.0,-2831470.0,731868.1,455161.0,2918194.0,23066173.985708766
PART_002_R214G39B40A255,220,-22975280.0,-1531147.0,689485.8,-754197.7,312951.9,338956.9,22688026.132496778
PART_003_R247G182B210A255,221,-32779820.0,42955.29,526324.3,-8271.676,-65413.29,-316312.6,33071845.105394356
PART_003_R247G182B210A255,222,-36617260.0,-2574984.0,-4208233.0,1620024.0,-170325.1,-3798207.0,34017409.34825575
PART_001_R158G218B229A255,223,-34045700.0,-2108505.0,-6693816.0,2503243.0,-243475.7,-2852063.0,30625917.74560603
PART_001_R158G218B229A255,224,-34925260.0,-2461979.0,-7366311.0,3010033.0,-230378.7,-1834929.0,30921633.044561602
PART_001_R158G218B229A255,225,-34371950.0,-2365732.0,-7942613.0,3294602.0,-116380.2,-951533.6,30204715.061550938
PART_001_R158G218B229A255,226,-34831920.0,-2505173.0,-8028437.0,3370773.0,0.000223003,0.002168519,30513311.697127927
PART_001_R158G218B229A255,227,-34371950.0,-2365732.0,-7942613.0,3294602.0,116380.2,951533.6,30204715.061550938
PART_001_R158G218B229A255,228,-34925260.0,-2461979.0,-7366311.0,3010033.0,230378.7,1834929.0,30921633.044561602
PART_001_R158G218B229A255,229,-34045700.0,-2108505.0,-6693816.0,2503243.0,243475.7,2852063.0,30625917.74560603
PART_001_R158G218B229A255,230,-36617260.0,-2574984.0,-4208233.0,1620024.0,170325.1,3798207.0,34017409.34825575
PART_002_R214G39B40A255,231,-32779820.0,42955.28,526324.2,-8271.673,65413.29,316312.6,33071845.049417824
PART_003_R247G182B210A255,232,-37206810.0,2689759.0,1764960.0,-1666596.0,112365.7,-873102.2,39577172.602849275
PART_003_R247G182B210A255,233,-40854610.0,1024343.0,-2767650.0,-709834.0,14410.39,-5151848.0,41116396.34027925
PART_001_R158G218B229A255,234,-37873280.0,1675406.0,-5420901.0,-366448.2,-135256.7,-3753532.0,37101634.24246767
PART_001_R158G218B229A255,235,-38958000.0,1369379.0,-6271827.0,-156141.2,-85633.38,-2436023.0,37342114.01869092
PART_001_R158G218B229A255,236,-38357880.0,1600708.0,-6949231.0,-64454.72,-54744.55,-1240512.0,36507325.1023383
PART_001_R158G218B229A255,237,-38907990.0,1436113.0,-7071710.0,-29062.76,0.0001008934,0.002848684,36834654.13965802
PART_001_R158G218B229A255,238,-38357880.0,1600708.0,-6949231.0,-64454.72,54744.55,1240512.0,36507325.1023383
PART_001_R158G218B229A255,239,-38958000.0,1369379.0,-6271827.0,-156141.2,85633.38,2436023.0,37342114.01869092
PART_001_R158G218B229A255,240,-37873280.0,1675406.0,-5420901.0,-366448.2,135256.7,3753532.0,37101634.24246767
PART_001_R158G218B229A255,241,-40854610.0,1024343.0,-2767650.0,-709833.9,-14410.39,5151848.0,41116396.33510005
PART_001_R158G218B229A255,242,-37206810.0,2689759.0,1764960.0,-1666596.0,-112365.7,873102.2,39577172.602849275
PART_003_R247G182B210A255,243,37274720.0,1107922.0,1474559.0,-400743.3,33134.36,927123.5,36027425.2081928
PART_000_R31G119B180A255,244,39017200.0,537331.9,850706.6,-51071.14,52117.31,1217054.0,38382280.681544915
PART_000_R31G119B180A255,245,40245320.0,1075215.0,3184443.0,125698.9,-55454.61,2704308.0,38446375.09306119
PART_000_R31G119B180A255,246,38908370.0,768160.3,4553377.0,297479.8,-80667.58,1666866.0,36513762.2545729
PART_000_R31G119B180A255,247,39619220.0,1022650.0,5170337.0,363102.0,-41045.56,948452.2,36741139.063855015
PART_000_R31G119B180A255,248,38961110.0,830710.2,5452870.0,396867.8,6.53971e-05,-0.002555818,36048848.26403083
PART_000_R31G119B180A255,249,39619220.0,1022650.0,5170337.0,363102.0,41045.56,-948452.2,36741139.063855015
PART_000_R31G119B180A255,250,38908370.0,768160.3,4553377.0,297479.8,80667.58,-1666866.0,36513762.2545729
PART_000_R31G119B180A255,251,40245320.0,1075215.0,3184443.0,125698.9,55454.61,-2704308.0,38446375.09306119
PART_000_R31G119B180A255,252,39017200.0,537331.9,850706.6,-51071.13,-52117.31,-1217054.0,38382280.681504995
PART_000_R31G119B180A255,253,37274720.0,1107922.0,1474559.0,-400743.3,-33134.36,-927123.5,36027425.2081928
PART_003_R247G182B210A255,254,30002110.0,-815856.4,704079.4,-1821710.0,-36750.83,386052.8,30259262.575103745
PART_003_R247G182B210A255,255,31963780.0,-848050.5,243500.3,-745528.4,-155637.1,466319.8,32316936.62852184
PART_000_R31G119B180A255,256,33434540.0,-247540.0,2441350.0,-166020.8,-224103.8,1942792.0,32599109.082775764
PART_000_R31G119B180A255,257,32330690.0,-591278.0,3577808.0,171851.6,-209416.9,1175651.0,31118312.45809868
PART_000_R31G119B180A255,258,32990920.0,-380922.6,4051682.0,366908.6,-122273.3,693419.5,31421249.002717275
PART_000_R31G119B180A255,259,32417320.0,-555873.5,4286894.0,423637.4,0.0001822863,-0.001902029,30847054.684921272
PART_000_R31G119B180A255,260,32990920.0,-380922.6,4051682.0,366908.6,122273.3,-693419.5,31421249.002717275
PART_000_R31G119B180A255,261,32330690.0,-591277.9,3577808.0,171851.6,209416.9,-1175651.0,31118312.39850185
PART_000_R31G119B180A255,262,33434540.0,-247540.0,2441350.0,-166020.8,224103.8,-1942792.0,32599109.082775764
PART_000_R31G119B180A255,263,31963780.0,-848050.5,243500.3,-745528.4,155637.1,-466319.8,32316936.62852184
PART_002_R214G39B40A255,264,30002110.0,-815856.4,704079.4,-1821710.0,36750.83,-386052.8,30259262.575103745
PART_003_R247G182B210A255,265,23677430.0,-211925.1,882408.4,-538628.5,-253540.8,197420.4,23386664.28889831
PART_003_R247G182B210A255,266,25305200.0,287847.4,665427.9,648163.0,-525163.1,200491.9,24875143.40295813
PART_003_R247G182B210A255,267,26420480.0,948746.2,2447707.0,1521492.0,-444287.0,1378692.0,25022276.819059752
PART_000_R31G119B180A255,268,25593380.0,758600.0,3428303.0,1987976.0,-316726.2,838652.2,23913578.356469173
PART_000_R31G119B180A255,269,26091000.0,925770.2,3826302.0,2253290.0,-177752.8,497657.4,24182205.247449197
PART_000_R31G119B180A255,270,25652060.0,810752.6,4007107.0,2341206.0,0.0002420979,-0.001335884,23756038.1626495
PART_000_R31G119B180A255,271,26091000.0,925770.2,3826302.0,2253290.0,177752.8,-497657.4,24182205.247449197
PART_000_R31G119B180A255,272,25593380.0,758600.0,3428303.0,1987976.0,316726.2,-838652.2,23913578.356469173
PART_000_R31G119B180A255,273,26420480.0,948746.2,2447707.0,1521492.0,444287.0,-1378692.0,25022276.819059752
PART_002_R214G39B40A255,274,25305200.0,287847.4,665428.0,648163.0,525163.1,-200491.9,24875143.354190186
PART_002_R214G39B40A255,275,23677430.0,-211925.1,882408.4,-538628.5,253540.8,-197420.4,23386664.28889831
PART_003_R247G182B210A255,276,15104410.0,226681.3,408971.2,-735585.1,-376359.0,145995.0,14858671.523061529
PART_003_R247G182B210A255,277,16203130.0,622056.5,254397.5,380582.1,-729488.7,134739.5,15834108.757615782
PART_003_R247G182B210A255,278,16903510.0,1152424.0,1476007.0,1234474.0,-613773.3,905950.4,15851460.564229852
PART_001_R158G218B229A255,279,16307600.0,1050442.0,2147617.0,1720353.0,-411314.3,549237.0,15084304.970048387
PART_001_R158G218B229A255,280,16614940.0,1169469.0,2439215.0,1986377.0,-212556.2,330432.6,15259855.260725169
PART_001_R158G218B229A255,281,16309520.0,1083338.0,2566456.0,2072079.0,0.0003010555,-0.0008952959,14977802.470666217
PART_001_R158G218B229A255,282,16614940.0,1169469.0,2439215.0,1986377.0,212556.2,-330432.6,15259855.260725169
PART_001_R158G218B229A255,283,16307600.0,1050442.0,2147617.0,1720353.0,411314.3,-549237.0,15084304.970048387
PART_001_R158G218B229A255,284,16903510.0,1152424.0,1476007.0,1234474.0,613773.3,-905950.4,15851460.564229852
PART_002_R214G39B40A255,285,16203130.0,622056.5,254397.5,380582.1,729488.7,-134739.6,15834108.760168618
PART_002_R214G39B40A255,286,15104410.0,226681.3,408971.2,-735585.1,376359.0,-145995.0,14858671.523061529
PART_003_R247G182B210A255,287,7757713.0,153057.2,280972.2,-811434.5,-409675.3,67807.27,7704996.782108168
PART_003_R247G182B210A255,288,8341166.0,371290.3,201975.1,337952.6,-843314.0,63634.24,8208856.604019319
PART_003_R247G182B210A255,289,8710234.0,659803.2,819495.0,1203755.0,-709807.7,452738.0,8367964.1523068985
PART_001_R158G218B229A255,290,8416908.0,616834.0,1170942.0,1693512.0,-475100.6,271817.8,8144253.916052201
PART_001_R158G218B229A255,291,8576113.0,674640.0,1323420.0,1968693.0,-239839.0,164102.1,8343170.0525263315
PART_001_R158G218B229A255,292,8423501.0,632604.9,1393041.0,2054949.0,0.0002836213,-0.0004326432,8247441.581193055
PART_001_R158G218B229A255,293,8576113.0,674640.0,1323420.0,1968693.0,239839.0,-164102.1,8343170.0525263315
PART_001_R158G218B229A255,294,8416908.0,616834.0,1170942.0,1693512.0,475100.6,-271817.8,8144253.916052201
PART_002_R214G39B40A255,295,8710234.0,659803.2,819495.1,1203755.0,709807.7,-452738.0,8367964.106112585
PART_002_R214G39B40A255,296,8341166.0,371290.3,201975.1,337952.6,843314.0,-63634.24,8208856.604019319
PART_002_R214G39B40A255,297,7757713.0,153057.2,280972.2,-811434.5,409675.3,-67807.27,7704996.782108168
PART_003_R247G182B210A255,298,0.008453333,0.0001723056,0.0002844284,-829392.0,-436689.5,6.259208e-05,1623504.3662469005
PART_003_R247G182B210A255,299,0.009095638,0.0004295486,0.0002107939,302819.1,-867929.6,5.56255e-05,1592169.4613460307
PART_003_R247G182B210A255,300,0.009528726,0.0007354503,0.0008759106,1163497.0,-748152.9,0.0005012499,2395907.7804377675
PART_001_R158G218B229A255,301,0.009168085,0.0006851832,0.001297238,1655196.0,-496927.7,0.0002956836,2993297.9825486587
PART_001_R158G218B229A255,302,0.009374811,0.0007521134,0.001430153,1928761.0,-251431.5,0.0001798409,3368977.646547948
PART_001_R158G218B229A255,303,0.009174571,0.0007006711,0.001538831,2017004.0,0.0003274819,-4.235722e-08,3493553.4070696556
PART_001_R158G218B229A255,304,0.009372817,0.0007518377,0.001430064,1928761.0,251431.5,-0.0001798789,3368977.646547948
PART_001_R158G218B229A255,305,0.009164219,0.0006846022,0.001297036,1655196.0,496927.7,-0.0002957152,2993297.9825486587
PART_001_R158G218B229A255,306,0.009522725,0.0007345464,0.0008758075,1163497.0,748152.9,-0.0005011561,2395907.7804377675
PART_002_R214G39B40A255,307,0.009088137,0.0004286507,0.0002109506,302819.2,867929.6,-5.585478e-05,1592169.5184038663
PART_002_R214G39B40A255,308,0.008444343,0.0001711243,0.0002842699,-829392.0,436689.5,-6.262427e-05,1623504.3662469005
PART_003_R247G182B210A255,309,-7757713.0,-153057.2,-280972.2,-811434.5,-409675.3,-67807.27,7704996.782108168
PART_003_R247G182B210A255,310,-8341166.0,-371290.3,-201975.1,337952.6,-843314.0,-63634.24,8208856.604019319
PART_003_R247G182B210A255,311,-8710234.0,-659803.2,-819495.0,1203755.0,-709807.7,-452738.0,8367964.1523068985
PART_001_R158G218B229A255,312,-8416908.0,-616834.0,-1170942.0,1693512.0,-475100.6,-271817.8,8144253.916052201
PART_001_R158G218B229A255,313,-8576113.0,-674640.0,-1323420.0,1968693.0,-239839.0,-164102.1,8343170.0525263315
PART_001_R158G218B229A255,314,-8423501.0,-632604.9,-1393041.0,2054949.0,0.0002836632,0.0004325594,8247441.581193055
PART_001_R158G218B229A255,315,-8576113.0,-674640.0,-1323420.0,1968693.0,239839.0,164102.1,8343170.0525263315
PART_001_R158G218B229A255,316,-8416908.0,-616834.0,-1170942.0,1693512.0,475100.6,271817.8,8144253.916052201
PART_002_R214G39B40A255,317,-8710234.0,-659803.2,-819495.0,1203755.0,709807.7,452738.0,8367964.1523068985
PART_002_R214G39B40A255,318,-8341166.0,-371290.3,-201975.1,337952.6,843314.0,63634.24,8208856.604019319
PART_002_R214G39B40A255,319,-7757713.0,-153057.2,-280972.2,-811434.5,409675.3,67807.27,7704996.782108168
PART_003_R247G182B210A255,320,-15104410.0,-226681.3,-408971.2,-735585.1,-376359.0,-145995.0,14858671.523061529
PART_003_R247G182B210A255,321,-16203130.0,-622056.5,-254397.5,380582.1,-729488.7,-134739.5,15834108.757615782
PART_003_R247G182B210A255,322,-16903510.0,-1152424.0,-1476007.0,1234474.0,-613773.3,-905950.4,15851460.564229852
PART_001_R158G218B229A255,323,-16307600.0,-1050442.0,-2147617.0,1720353.0,-411314.3,-549237.0,15084304.970048387
PART_001_R158G218B229A255,324,-16614940.0,-1169469.0,-2439215.0,1986377.0,-212556.2,-330432.6,15259855.260725169
PART_001_R158G218B229A255,325,-16309520.0,-1083338.0,-2566456.0,2072079.0,0.0003011512,0.0008951239,14977802.470666217
PART_001_R158G218B229A255,326,-16614940.0,-1169469.0,-2439215.0,1986377.0,212556.2,330432.6,15259855.260725169
PART_001_R158G218B229A255,327,-16307600.0,-1050442.0,-2147617.0,1720353.0,411314.3,549237.0,15084304.970048387
PART_002_R214G39B40A255,328,-16903510.0,-1152424.0,-1476007.0,1234474.0,613773.3,905950.4,15851460.564229852
PART_002_R214G39B40A255,329,-16203130.0,-622056.5,-254397.5,380582.1,729488.7,134739.6,15834108.760168618
PART_002_R214G39B40A255,330,-15104410.0,-226681.3,-408971.2,-735585.1,376359.0,145995.0,14858671.523061529
PART_003_R247G182B210A255,331,-23677430.0,211925.1,-882408.4,-538628.5,-253540.8,-197420.4,23386664.28889831
PART_003_R247G182B210A255,332,-25305200.0,-287847.4,-665427.9,648163.0,-525163.1,-200491.9,24875143.40295813
PART_003_R247G182B210A255,333,-26420480.0,-948746.2,-2447707.0,1521492.0,-444287.0,-1378692.0,25022276.819059752
PART_001_R158G218B229A255,334,-25593380.0,-758600.0,-3428303.0,1987976.0,-316726.2,-838652.1,23913578.345948134
PART_001_R158G218B229A255,335,-26091000.0,-925770.2,-3826302.0,2253290.0,-177752.8,-497657.4,24182205.247449197
PART_001_R158G218B229A255,336,-25652060.0,-810752.6,-4007107.0,2341206.0,0.0002422454,0.00133559,23756038.1626495
PART_001_R158G218B229A255,337,-26091000.0,-925770.2,-3826302.0,2253290.0,177752.8,497657.4,24182205.247449197
PART_001_R158G218B229A255,338,-25593380.0,-758600.0,-3428303.0,1987976.0,316726.2,838652.2,23913578.356469173
PART_001_R158G218B229A255,339,-26420480.0,-948746.2,-2447707.0,1521492.0,444287.0,1378692.0,25022276.819059752
PART_002_R214G39B40A255,340,-25305200.0,-287847.4,-665428.0,648163.0,525163.1,200491.9,24875143.354190186
PART_002_R214G39B40A255,341,-23677430.0,211925.1,-882408.4,-538628.5,253540.8,197420.4,23386664.28889831
PART_003_R247G182B210A255,342,-30002110.0,815856.4,-704079.4,-1821710.0,-36750.83,-386052.8,30259262.575103745
PART_003_R247G182B210A255,343,-31963780.0,848050.5,-243500.3,-745528.4,-155637.1,-466319.8,32316936.62852184
PART_001_R158G218B229A255,344,-33434540.0,247540.0,-2441350.0,-166020.8,-224103.8,-1942792.0,32599109.082775764
PART_001_R158G218B229A255,345,-32330690.0,591278.0,-3577808.0,171851.6,-209416.9,-1175651.0,31118312.45809868
PART_001_R158G218B229A255,346,-32990920.0,380922.6,-4051682.0,366908.6,-122273.3,-693419.5,31421249.002717275
PART_001_R158G218B229A255,347,-32417320.0,555873.5,-4286894.0,423637.4,0.0001824552,0.001901506,30847054.684921272
PART_001_R158G218B229A255,348,-32990920.0,380922.6,-4051682.0,366908.6,122273.3,693419.5,31421249.002717275
PART_001_R158G218B229A255,349,-32330690.0,591278.0,-3577808.0,171851.6,209416.9,1175651.0,31118312.45809868
PART_001_R158G218B229A255,350,-33434540.0,247540.0,-2441350.0,-166020.8,224103.8,1942792.0,32599109.082775764
PART_001_R158G218B229A255,351,-31963780.0,848050.5,-243500.3,-745528.4,155637.1,466319.8,32316936.62852184
PART_002_R214G39B40A255,352,-30002110.0,815856.4,-704079.4,-1821710.0,36750.83,386052.8,30259262.575103745
PART_003_R247G182B210A255,353,-37274720.0,-1107922.0,-1474559.0,-400743.3,33134.36,-927123.5,36027425.2081928
PART_001_R158G218B229A255,354,-39017200.0,-537331.9,-850706.6,-51071.14,52117.31,-1217054.0,38382280.681544915
PART_001_R158G218B229A255,355,-40245320.0,-1075215.0,-3184443.0,125698.9,-55454.61,-2704308.0,38446375.09306119
PART_001_R158G218B229A255,356,-38908370.0,-768160.3,-4553377.0,297479.8,-80667.58,-1666866.0,36513762.2545729
PART_001_R158G218B229A255,357,-39619220.0,-1022650.0,-5170337.0,363102.0,-41045.56,-948452.2,36741139.063855015
PART_001_R158G218B229A255,358,-38961110.0,-830710.2,-5452870.0,396867.8,6.549473e-05,0.002555032,36048848.26403083
PART_001_R158G218B229A255,359,-39619220.0,-1022650.0,-5170337.0,363102.0,41045.56,948452.2,36741139.063855015
PART_001_R158G218B229A255,360,-38908370.0,-768160.3,-4553377.0,297479.8,80667.58,1666866.0,36513762.2545729
PART_001_R158G218B229A255,361,-40245320.0,-1075215.0,-3184443.0,125698.9,55454.61,2704308.0,38446375.09306119
PART_001_R158G218B229A255,362,-39017200.0,-537331.9,-850706.6,-51071.13,-52117.31,1217054.0,38382280.681504995
PART_001_R158G218B229A255,363,-37274720.0,-1107922.0,-1474559.0,-400743.3,-33134.36,927123.5,36027425.2081928
PART_003_R247G182B210A255,364,37284610.0,-883924.5,-558831.2,-560812.3,-14584.86,117538.1,38019994.63139624
PART_000_R31G119B180A255,365,39068100.0,-313089.4,931164.3,-199568.1,-37801.0,977608.8,38812587.92107547
PART_000_R31G119B180A255,366,39373950.0,-684746.5,1033176.0,-98678.74,-47558.78,733271.1,39248971.2536422
PART_000_R31G119B180A255,367,40064720.0,-414370.2,2281163.0,-20329.18,-67279.84,1196484.0,39255820.62008386
PART_000_R31G119B180A255,368,39338210.0,-660699.9,2853056.0,43599.88,-40635.64,502562.7,38372923.16823187
PART_000_R31G119B180A255,369,39928110.0,-457048.2,3065652.0,51445.35,5.437368e-05,-0.002124598,38744206.722322315
PART_000_R31G119B180A255,370,39338210.0,-660699.9,2853056.0,43599.88,40635.64,-502562.7,38372923.16823187
PART_000_R31G119B180A255,371,40064720.0,-414370.2,2281163.0,-20329.18,67279.84,-1196484.0,39255820.62008386
PART_000_R31G119B180A255,372,39373950.0,-684746.5,1033176.0,-98678.74,47558.78,-733271.1,39248971.2536422
PART_000_R31G119B180A255,373,39068100.0,-313089.4,931164.3,-199568.1,37801.0,-977608.8,38812587.92107547
PART_000_R31G119B180A255,374,37284610.0,-883924.5,-558831.2,-560812.3,14584.86,-117538.1,38019994.63139624
PART_003_R247G182B210A255,375,29998690.0,-124061.5,-118172.3,-572552.0,-71810.56,-38958.85,30136460.72001438
PART_003_R247G182B210A255,376,31663090.0,471715.3,1123983.0,27589.34,-160443.5,471338.3,30882489.72860055
PART_000_R31G119B180A255,377,32189590.0,237744.1,1207514.0,417825.4,-215209.5,331860.1,31493936.6328231
PART_000_R31G119B180A255,378,32940660.0,518505.6,2298005.0,687910.4,-192383.2,830293.0,31626987.92471851
PART_000_R31G119B180A255,379,32367170.0,310556.6,2752770.0,835624.8,-112485.0,328331.6,30947664.66355055
PART_000_R31G119B180A255,380,32899710.0,489826.1,2922711.0,890173.3,0.0001654973,-0.001508585,31302511.268413637
PART_000_R31G119B180A255,381,32367170.0,310556.6,2752770.0,835624.8,112485.0,-328331.6,30947664.66355055
PART_000_R31G119B180A255,382,32940660.0,518505.6,2298005.0,687910.4,192383.2,-830293.0,31626987.92471851
PART_000_R31G119B180A255,383,32189590.0,237744.1,1207514.0,417825.4,215209.5,-331860.1,31493936.6328231
PART_000_R31G119B180A255,384,31663090.0,471715.3,1123983.0,27589.35,160443.5,-471338.3,30882489.72862735
PART_002_R214G39B40A255,385,29998690.0,-124061.5,-118172.3,-572552.0,71810.56,38958.85,30136460.72001438
PART_003_R247G182B210A255,386,22525470.0,-937922.9,-324382.3,-943675.7,-167372.3,-118019.7,23223025.043676257
PART_003_R247G182B210A255,387,23924950.0,-302981.3,589318.0,-197107.2,-402353.2,171195.5,23808830.897674274
PART_003_R247G182B210A255,388,24477900.0,-413970.1,676002.9,394555.5,-432752.2,104197.3,24386947.09567052
PART_000_R31G119B180A255,389,25083870.0,-197875.0,1544492.0,788103.6,-321608.7,553832.6,24520322.281416148
PART_000_R31G119B180A255,390,24662830.0,-371153.2,1915790.0,988776.5,-172474.0,211390.2,24038208.39003205
PART_000_R31G119B180A255,391,25074230.0,-240701.4,2047928.0,1061093.0,0.0002148644,-0.001038993,24321283.582906846
PART_000_R31G119B180A255,392,24662830.0,-371153.2,1915790.0,988776.5,172474.0,-211390.2,24038208.39003205
PART_000_R31G119B180A255,393,25083870.0,-197875.0,1544492.0,788103.6,321608.7,-553832.6,24520322.281416148
PART_000_R31G119B180A255,394,24477900.0,-413970.1,676002.9,394555.5,432752.2,-104197.3,24386947.09567052
PART_002_R214G39B40A255,395,23924950.0,-302981.3,589318.0,-197107.2,402353.2,-171195.5,23808830.897674274
PART_002_R214G39B40A255,396,22525470.0,-937922.8,-324382.3,-943675.7,167372.3,118019.7,23223024.991837762
PART_003_R247G182B210A255,397,15491750.0,-536988.8,-72722.64,-155455.9,-277443.8,-116389.0,15812604.895101894
PART_003_R247G182B210A255,398,16452060.0,51359.72,570267.9,618682.6,-616011.6,58879.61,16218473.837531567
PART_003_R247G182B210A255,399,16834140.0,64697.06,653090.2,1318932.0,-617254.6,23587.62,16675035.877939956
PART_003_R247G182B210A255,400,17259990.0,250516.0,1267137.0,1797962.0,-438561.5,338433.7,16842866.68839449
PART_000_R31G119B180A255,401,16985020.0,144443.4,1537741.0,2047333.0,-225740.9,128681.5,16578891.22797509
PART_000_R31G119B180A255,402,17260970.0,233613.5,1636205.0,2132720.0,0.0003103129,-0.0006559364,16782764.688655883
PART_000_R31G119B180A255,403,16985020.0,144443.4,1537741.0,2047333.0,225740.9,-128681.5,16578891.22797509
PART_000_R31G119B180A255,404,17259990.0,250516.0,1267137.0,1797962.0,438561.5,-338433.7,16842866.68839449
PART_002_R214G39B40A255,405,16834140.0,64697.06,653090.2,1318932.0,617254.6,-23587.62,16675035.877939956
PART_002_R214G39B40A255,406,16452060.0,51359.72,570267.9,618682.6,616011.6,-58879.61,16218473.837531567
PART_002_R214G39B40A255,407,15491750.0,-536988.8,-72722.64,-155455.9,277443.8,116389.0,15812604.895101894
PART_003_R247G182B210A255,408,7548650.0,-254564.6,-103393.0,-199775.8,-329446.4,-54872.8,7758076.790341127
PART_003_R247G182B210A255,409,8036005.0,45997.16,208923.2,530149.1,-727475.1,22364.68,8062091.828155913
PART_003_R247G182B210A255,410,8223103.0,73212.21,250347.9,1230211.0,-726595.4,1503.371,8434011.331088362
PART_003_R247G182B210A255,411,8428101.0,174040.8,561754.6,1721466.0,-515079.5,164140.6,8651398.810683597
PART_001_R158G218B229A255,412,8284374.0,123176.7,701274.5,1979039.0,-261200.1,60864.88,8613184.335629389
PART_001_R158G218B229A255,413,8422511.0,167663.7,752057.2,2068075.0,0.0003140983,-0.0003193411,8745898.651392091
PART_001_R158G218B229A255,414,8284374.0,123176.7,701274.5,1979039.0,261200.1,-60864.88,8613184.335629389
PART_002_R214G39B40A255,415,8428101.0,174040.8,561754.6,1721466.0,515079.5,-164140.6,8651398.810683597
PART_002_R214G39B40A255,416,8223103.0,73212.21,250347.9,1230211.0,726595.4,-1503.371,8434011.331088362
PART_002_R214G39B40A255,417,8036005.0,45997.16,208923.2,530149.1,727475.1,-22364.68,8062091.828155913
PART_002_R214G39B40A255,418,7548650.0,-254564.6,-103393.0,-199775.8,329446.4,54872.8,7758076.790341127
PART_003_R247G182B210A255,419,0.008281347,-0.0003024847,-0.0001175653,-46931.69,-340229.0,-6.275792e-05,594873.9932975456
PART_003_R247G182B210A255,420,0.008823055,4.492473e-05,0.000214562,707124.5,-763752.6,2.779155e-05,1802783.7578370376
PART_003_R247G182B210A255,421,0.009020018,6.861662e-05,0.0002928553,1421153.0,-764179.9,-7.878432e-06,2794805.9515678417
PART_003_R247G182B210A255,422,0.00926613,0.0001710913,0.0006068697,1924588.0,-539070.1,0.0001859696,3461777.957549275
PART_001_R158G218B229A255,423,0.009078534,0.0001212975,0.000788955,2190007.0,-274591.8,6.39645e-05,3822903.8635608824
PART_001_R158G218B229A255,424,0.009260143,0.0001630452,0.0008174472,2281883.0,0.0003522648,-1.227641e-08,3952337.2929276926
PART_001_R158G218B229A255,425,0.009076508,0.0001210918,0.0007889178,2190007.0,274591.8,-6.402354e-05,3822903.8635608824
PART_002_R214G39B40A255,426,0.00926201,0.0001707243,0.0006068584,1924588.0,539070.1,-0.0001859869,3461777.957549275
PART_002_R214G39B40A255,427,0.00901405,6.817108e-05,0.0002929478,1421153.0,764179.9,7.696275e-06,2794805.9515678417
PART_002_R214G39B40A255,428,0.008815234,4.42769e-05,0.0002144551,707124.5,763752.6,-2.789003e-05,1802783.7578370376
PART_002_R214G39B40A255,429,0.008271889,-0.0003031523,-0.0001174261,-46931.69,340229.0,6.266885e-05,594873.9932975456
PART_003_R247G182B210A255,430,-7548650.0,254564.6,103393.0,-199775.8,-329446.4,54872.8,7758076.790341127
PART_003_R247G182B210A255,431,-8036005.0,-45997.16,-208923.2,530149.1,-727475.1,-22364.68,8062091.828155913
PART_003_R247G182B210A255,432,-8223103.0,-73212.21,-250347.9,1230211.0,-726595.4,-1503.371,8434011.331088362
PART_003_R247G182B210A255,433,-8428101.0,-174040.8,-561754.6,1721466.0,-515079.5,-164140.6,8651398.810683597
PART_001_R158G218B229A255,434,-8284374.0,-123176.7,-701274.5,1979039.0,-261200.1,-60864.88,8613184.335629389
PART_001_R158G218B229A255,435,-8422511.0,-167663.7,-752057.2,2068075.0,0.0003141238,0.0003192926,8745898.651392091
PART_001_R158G218B229A255,436,-8284374.0,-123176.7,-701274.5,1979039.0,261200.1,60864.88,8613184.335629389
PART_002_R214G39B40A255,437,-8428101.0,-174040.8,-561754.6,1721466.0,515079.5,164140.6,8651398.810683597
PART_002_R214G39B40A255,438,-8223103.0,-73212.21,-250347.9,1230211.0,726595.4,1503.371,8434011.331088362
PART_002_R214G39B40A255,439,-8036005.0,-45997.16,-208923.2,530149.1,727475.1,22364.68,8062091.828155913
PART_002_R214G39B40A255,440,-7548650.0,254564.6,103393.0,-199775.8,329446.4,-54872.8,7758076.790341127
PART_003_R247G182B210A255,441,-15491750.0,536988.8,72722.64,-155455.9,-277443.8,116389.0,15812604.895101894
PART_003_R247G182B210A255,442,-16452060.0,-51359.72,-570267.9,618682.6,-616011.6,-58879.61,16218473.837531567
PART_003_R247G182B210A255,443,-16834140.0,-64697.06,-653090.2,1318932.0,-617254.6,-23587.62,16675035.877939956
PART_003_R247G182B210A255,444,-17259990.0,-250516.0,-1267137.0,1797962.0,-438561.5,-338433.7,16842866.68839449
PART_001_R158G218B229A255,445,-16985020.0,-144443.4,-1537741.0,2047333.0,-225740.9,-128681.5,16578891.22797509
PART_001_R158G218B229A255,446,-17260970.0,-233613.5,-1636205.0,2132720.0,0.000310417,0.0006558256,16782764.688655883
PART_001_R158G218B229A255,447,-16985020.0,-144443.4,-1537741.0,2047333.0,225740.9,128681.5,16578891.22797509
PART_001_R158G218B229A255,448,-17259990.0,-250516.0,-1267137.0,1797962.0,438561.5,338433.7,16842866.68839449
PART_002_R214G39B40A255,449,-16834140.0,-64697.06,-653090.2,1318932.0,617254.6,23587.62,16675035.877939956
PART_002_R214G39B40A255,450,-16452060.0,-51359.72,-570267.9,618682.6,616011.6,58879.61,16218473.837531567
PART_002_R214G39B40A255,451,-15491750.0,536988.8,72722.64,-155455.9,277443.8,-116389.0,15812604.895101894
PART_003_R247G182B210A255,452,-22525470.0,937922.8,324382.3,-943675.7,-167372.3,118019.7,23223024.991837762
PART_003_R247G182B210A255,453,-23924950.0,302981.3,-589318.0,-197107.2,-402353.2,-171195.5,23808830.897674274
PART_003_R247G182B210A255,454,-24477900.0,413970.1,-676002.9,394555.5,-432752.2,-104197.3,24386947.09567052
PART_001_R158G218B229A255,455,-25083870.0,197875.0,-1544492.0,788103.6,-321608.7,-553832.6,24520322.281416148
PART_001_R158G218B229A255,456,-24662830.0,371153.2,-1915790.0,988776.5,-172474.0,-211390.2,24038208.39003205
PART_001_R158G218B229A255,457,-25074230.0,240701.3,-2047928.0,1061093.0,0.000215012,0.00103878,24321283.5261591
PART_001_R158G218B229A255,458,-24662830.0,371153.2,-1915790.0,988776.5,172474.0,211390.2,24038208.39003205
PART_001_R158G218B229A255,459,-25083870.0,197875.0,-1544492.0,788103.6,321608.7,553832.6,24520322.281416148
PART_001_R158G218B229A255,460,-24477900.0,413970.1,-676002.9,394555.5,432752.2,104197.3,24386947.09567052
PART_002_R214G39B40A255,461,-23924950.0,302981.3,-589318.0,-197107.2,402353.2,171195.5,23808830.897674274
PART_002_R214G39B40A255,462,-22525470.0,937922.8,324382.3,-943675.7,167372.3,-118019.7,23223024.991837762
PART_003_R247G182B210A255,463,-29998690.0,124061.5,118172.3,-572552.0,-71810.56,38958.85,30136460.72001438
PART_003_R247G182B210A255,464,-31663090.0,-471715.3,-1123983.0,27589.34,-160443.5,-471338.3,30882489.72860055
PART_001_R158G218B229A255,465,-32189590.0,-237744.1,-1207514.0,417825.4,-215209.5,-331860.1,31493936.6328231
PART_001_R158G218B229A255,466,-32940660.0,-518505.6,-2298005.0,687910.4,-192383.2,-830293.0,31626987.92471851
PART_001_R158G218B229A255,467,-32367170.0,-310556.6,-2752770.0,835624.8,-112485.0,-328331.6,30947664.66355055
PART_001_R158G218B229A255,468,-32899710.0,-489826.1,-2922711.0,890173.3,0.000165651,0.001508147,31302511.268413637
PART_001_R158G218B229A255,469,-32367170.0,-310556.6,-2752770.0,835624.8,112485.0,328331.6,30947664.66355055
PART_001_R158G218B229A255,470,-32940660.0,-518505.6,-2298005.0,687910.4,192383.2,830293.0,31626987.92471851
PART_001_R158G218B229A255,471,-32189590.0,-237744.1,-1207514.0,417825.4,215209.5,331860.1,31493936.6328231
PART_001_R158G218B229A255,472,-31663090.0,-471715.3,-1123983.0,27589.35,160443.5,471338.3,30882489.72862735
PART_002_R214G39B40A255,473,-29998690.0,124061.5,118172.3,-572552.0,71810.56,-38958.85,30136460.72001438
PART_003_R247G182B210A255,474,-37284610.0,883924.5,558831.2,-560812.3,-14584.86,-117538.1,38019994.63139624
PART_001_R158G218B229A255,475,-39068100.0,313089.4,-931164.3,-199568.1,-37801.0,-977608.8,38812587.92107547
PART_001_R158G218B229A255,476,-39373950.0,684746.5,-1033176.0,-98678.74,-47558.78,-733271.1,39248971.2536422
PART_001_R158G218B229A255,477,-40064720.0,414370.2,-2281163.0,-20329.18,-67279.84,-1196484.0,39255820.62008386
PART_001_R158G218B229A255,478,-39338210.0,660699.9,-2853056.0,43599.88,-40635.64,-502562.7,38372923.16823187
PART_001_R158G218B229A255,479,-39928110.0,457048.2,-3065652.0,51445.35,5.442481e-05,0.00212398,38744206.722322315
PART_001_R158G218B229A255,480,-39338210.0,660699.9,-2853056.0,43599.88,40635.64,502562.7,38372923.16823187
PART_001_R158G218B229A255,481,-40064720.0,414370.2,-2281163.0,-20329.18,67279.84,1196484.0,39255820.62008386
PART_001_R158G218B229A255,482,-39373950.0,684746.5,-1033176.0,-98678.74,47558.78,733271.1,39248971.2536422
PART_001_R158G218B229A255,483,-39068100.0,313089.4,-931164.3,-199568.1,37801.0,977608.8,38812587.92107547
PART_001_R158G218B229A255,484,-37284610.0,883924.5,558831.2,-560812.3,14584.86,117538.1,38019994.63139624
PART_003_R247G182B210A255,485,37669700.0,393273.9,530191.0,-131017.1,748.9398,127225.2,37209501.0151952
PART_000_R31G119B180A255,486,38729080.0,144381.5,131375.1,-1661.559,-32879.97,88226.15,38591548.02084469
PART_000_R31G119B180A255,487,39562560.0,411539.0,1177478.0,103577.2,-65103.46,554905.7,38786215.014083445
PART_000_R31G119B180A255,488,39512550.0,199958.5,1339817.0,166552.7,-52025.66,279769.7,38759443.86773671
PART_000_R31G119B180A255,489,40008130.0,398440.0,1970013.0,198216.0,-36124.8,355915.8,38854210.533346586
PART_000_R31G119B180A255,490,39536670.0,217710.7,2025457.0,220538.0,4.6679e-05,-0.001933116,38448871.439277984
PART_000_R31G119B180A255,491,40008130.0,398440.0,1970013.0,198216.0,36124.8,-355915.8,38854210.533346586
PART_000_R31G119B180A255,492,39512550.0,199958.5,1339817.0,166552.7,52025.66,-279769.7,38759443.86773671
PART_000_R31G119B180A255,493,39562560.0,411539.0,1177478.0,103577.2,65103.46,-554905.7,38786215.014083445
PART_000_R31G119B180A255,494,38729080.0,144381.5,131375.1,-1661.558,32879.97,-88226.15,38591548.02084456
PART_000_R31G119B180A255,495,37669700.0,393273.9,530191.0,-131017.1,-748.9397,-127225.2,37209501.01519519
PART_003_R247G182B210A255,496,29932110.0,-542016.5,174672.5,-558963.3,-70699.78,-41586.26,30138066.649231896
PART_003_R247G182B210A255,497,31026140.0,-525509.4,-84945.12,-126669.5,-168401.2,-131747.9,31336646.788564455
PART_000_R31G119B180A255,498,31882560.0,-295080.3,786894.4,138279.3,-192562.1,271588.6,31656684.86910416
PART_000_R31G119B180A255,499,31951590.0,-517063.7,872204.0,311315.7,-174313.5,92139.08,31803195.795377664
PART_000_R31G119B180A255,500,32441840.0,-346771.8,1391337.0,427327.6,-98173.91,229954.2,31966533.891675606
PART_000_R31G119B180A255,501,32048470.0,-523258.0,1417180.0,458127.2,0.0001331001,-0.001383166,31656105.057241384
PART_000_R31G119B180A255,502,32441840.0,-346771.8,1391337.0,427327.6,98173.91,-229954.2,31966533.891675606
PART_000_R31G119B180A255,503,31951590.0,-517063.7,872204.0,311315.7,174313.5,-92139.08,31803195.795377664
PART_000_R31G119B180A255,504,31882560.0,-295080.3,786894.4,138279.3,192562.1,-271588.6,31656684.86910416
PART_000_R31G119B180A255,505,31026140.0,-525509.4,-84945.11,-126669.5,168401.2,131747.9,31336646.783670742
PART_002_R214G39B40A255,506,29932110.0,-542016.5,174672.5,-558963.3,70699.78,41586.26,30138066.649231896
PART_003_R247G182B210A255,507,22662010.0,-198194.4,318701.7,-117271.4,-150071.3,-64619.03,22608872.706850093
PART_003_R247G182B210A255,508,23509920.0,-74224.14,95594.73,353591.9,-333920.7,-212665.4,23517672.739263684
PART_003_R247G182B210A255,509,24248950.0,168417.8,760920.5,759562.6,-355044.5,84873.54,23834552.576314088
PART_000_R31G119B180A255,510,24388630.0,25962.91,845894.5,1058065.0,-292790.1,-8604.991,24038552.78682483
PART_000_R31G119B180A255,511,24786910.0,157395.2,1252440.0,1240075.0,-156715.7,139192.9,24198902.07691557
PART_000_R31G119B180A255,512,24499840.0,28072.34,1281447.0,1292080.0,0.0001902341,-0.0009354975,23974454.72064173
PART_000_R31G119B180A255,513,24786910.0,157395.2,1252440.0,1240075.0,156715.7,-139192.9,24198902.07691557
PART_000_R31G119B180A255,514,24388630.0,25962.91,845894.5,1058065.0,292790.1,8604.989,24038552.786822684
PART_000_R31G119B180A255,515,24248950.0,168417.8,760920.5,759562.6,355044.5,-84873.54,23834552.576314088
PART_002_R214G39B40A255,516,23509920.0,-74224.13,95594.74,353591.9,333920.7,212665.4,23517672.729271524
PART_002_R214G39B40A255,517,22662010.0,-198194.4,318701.7,-117271.4,150071.3,64619.03,22608872.706850093
PART_003_R247G182B210A255,518,15086360.0,-522377.2,88419.16,-200006.2,-208345.3,-73471.68,15321175.356401158
PART_003_R247G182B210A255,519,15704270.0,-387464.0,-61635.81,303980.8,-475061.6,-202554.8,15965095.535751484
PART_003_R247G182B210A255,520,16243550.0,-205217.6,378517.6,775740.4,-506955.6,2290.87,16244301.305003423
PART_003_R247G182B210A255,521,16354940.0,-296361.0,438346.1,1137214.0,-396967.9,-41994.39,16429534.339691674
PART_000_R31G119B180A255,522,16635570.0,-212541.3,722460.2,1355366.0,-208391.2,75951.01,16572227.073355692
PART_000_R31G119B180A255,523,16444770.0,-303412.5,741524.0,1419337.0,0.0002771951,-0.0005808035,16435822.909064647
PART_000_R31G119B180A255,524,16635570.0,-212541.3,722460.2,1355366.0,208391.2,-75951.02,16572227.073493183
PART_000_R31G119B180A255,525,16354940.0,-296361.0,438346.1,1137214.0,396967.9,41994.38,16429534.339614993
PART_002_R214G39B40A255,526,16243550.0,-205217.6,378517.6,775740.4,506955.6,-2290.872,16244301.305004269
PART_002_R214G39B40A255,527,15704270.0,-387464.0,-61635.8,303980.8,475061.6,202554.8,15965095.53091591
PART_002_R214G39B40A255,528,15086360.0,-522377.2,88419.16,-200006.2,208345.3,73471.68,15321175.356401158
PART_003_R247G182B210A255,529,7691669.0,-222573.3,103399.7,299838.1,-254592.3,-44730.07,7786643.884778583
PART_003_R247G182B210A255,530,7994870.0,-117131.6,27615.03,809277.6,-577293.7,-116097.8,8225349.080641087
PART_003_R247G182B210A255,531,8269696.0,-2214.305,254748.4,1329876.0,-602739.7,-12947.85,8530009.166624093
PART_003_R247G182B210A255,532,8334125.0,-37350.42,290320.4,1735575.0,-470421.8,-31663.55,8783475.402782142
PART_003_R247G182B210A255,533,8478532.0,9683.415,436081.8,1984313.0,-243921.7,33210.45,8960268.13293
PART_000_R31G119B180A255,534,8384170.0,-35064.99,449146.6,2057286.0,0.0002940956,-0.0002747072,8929645.266024126
PART_000_R31G119B180A255,535,8478532.0,9683.415,436081.8,1984313.0,243921.7,-33210.45,8960268.13293
PART_002_R214G39B40A255,536,8334125.0,-37350.42,290320.4,1735575.0,470421.8,31663.55,8783475.402782142
PART_002_R214G39B40A255,537,8269696.0,-2214.305,254748.4,1329876.0,602739.7,12947.85,8530009.166624093
PART_002_R214G39B40A255,538,7994870.0,-117131.6,27615.03,809277.6,577293.7,116097.8,8225349.080641087
PART_002_R214G39B40A255,539,7691669.0,-222573.3,103399.7,299838.1,254592.3,44730.07,7786643.884778583
PART_003_R247G182B210A255,540,0.008379702,-0.0002417838,9.446042e-05,171034.9,-267846.0,-4.969177e-05,550439.143050374
PART_003_R247G182B210A255,541,0.00871434,-0.0001130269,8.066824e-06,657710.9,-604197.3,-0.0001344811,1546904.6563761777
PART_003_R247G182B210A255,542,0.009026843,1.011535e-05,0.0002755274,1169145.0,-637855.6,-5.688317e-06,2306789.845744315
PART_003_R247G182B210A255,543,0.009072916,-3.79056e-05,0.0003157936,1576035.0,-493596.4,-4.280115e-05,2860519.390242597
PART_003_R247G182B210A255,544,0.009257853,2.441527e-05,0.0004644179,1824927.0,-257243.6,4.076896e-05,3192115.0473016915
PART_001_R158G218B229A255,545,0.009121016,-3.623676e-05,0.0004947696,1898939.0,0.0003277249,-8.381168e-08,3289058.8284740364
PART_002_R214G39B40A255,546,0.009255751,2.435406e-05,0.0004644198,1824927.0,257243.6,-4.083682e-05,3192115.0473016915
PART_002_R214G39B40A255,547,0.00906888,-3.811487e-05,0.0003158837,1576035.0,493596.4,4.263741e-05,2860519.390242597
PART_002_R214G39B40A255,548,0.009020905,9.920371e-06,0.000275539,1169145.0,637855.6,5.569019e-06,2306789.845744315
PART_002_R214G39B40A255,549,0.008706562,-0.0001132905,8.227548e-06,657710.9,604197.3,0.00013431,1546904.6563761777
PART_002_R214G39B40A255,550,0.008370062,-0.0002422123,9.442157e-05,171034.9,267846.0,4.963988e-05,550439.143050374
PART_003_R247G182B210A255,551,-7691669.0,222573.3,-103399.7,299838.1,-254592.3,44730.07,7786643.884778583
PART_003_R247G182B210A255,552,-7994870.0,117131.6,-27615.03,809277.6,-577293.7,116097.8,8225349.080641087
PART_003_R247G182B210A255,553,-8269696.0,2214.305,-254748.4,1329876.0,-602739.7,12947.85,8530009.166624093
PART_003_R247G182B210A255,554,-8334125.0,37350.42,-290320.4,1735575.0,-470421.8,31663.55,8783475.402782142
PART_003_R247G182B210A255,555,-8478532.0,-9683.416,-436081.8,1984313.0,-243921.7,-33210.45,8960268.132433627
PART_001_R158G218B229A255,556,-8384170.0,35064.99,-449146.6,2057286.0,0.0002941713,0.0002745821,8929645.266024126
PART_001_R158G218B229A255,557,-8478532.0,-9683.416,-436081.8,1984313.0,243921.7,33210.45,8960268.132433627
PART_002_R214G39B40A255,558,-8334125.0,37350.42,-290320.4,1735575.0,470421.8,-31663.55,8783475.402782142
PART_002_R214G39B40A255,559,-8269696.0,2214.304,-254748.4,1329876.0,602739.7,-12947.85,8530009.166124161
PART_002_R214G39B40A255,560,-7994870.0,117131.6,-27615.03,809277.6,577293.7,-116097.8,8225349.080641087
PART_002_R214G39B40A255,561,-7691669.0,222573.3,-103399.7,299838.1,254592.3,-44730.07,7786643.884778583
PART_003_R247G182B210A255,562,-15086360.0,522377.2,-88419.16,-200006.2,-208345.3,73471.68,15321175.356401158
PART_003_R247G182B210A255,563,-15704270.0,387464.0,61635.81,303980.8,-475061.6,202554.8,15965095.535751484
PART_003_R247G182B210A255,564,-16243550.0,205217.6,-378517.6,775740.4,-506955.6,-2290.87,16244301.305003423
PART_003_R247G182B210A255,565,-16354940.0,296361.0,-438346.1,1137214.0,-396967.9,41994.39,16429534.339691674
PART_001_R158G218B229A255,566,-16635570.0,212541.3,-722460.2,1355366.0,-208391.2,-75951.01,16572227.073355692
PART_001_R158G218B229A255,567,-16444770.0,303412.5,-741524.0,1419337.0,0.0002772569,0.0005805822,16435822.909064647
PART_001_R158G218B229A255,568,-16635570.0,212541.3,-722460.2,1355366.0,208391.2,75951.02,16572227.073493183
PART_001_R158G218B229A255,569,-16354940.0,296361.0,-438346.1,1137214.0,396967.9,-41994.38,16429534.339614993
PART_002_R214G39B40A255,570,-16243550.0,205217.6,-378517.6,775740.4,506955.6,2290.872,16244301.305004269
PART_002_R214G39B40A255,571,-15704270.0,387464.0,61635.8,303980.8,475061.6,-202554.8,15965095.53091591
PART_002_R214G39B40A255,572,-15086360.0,522377.2,-88419.16,-200006.2,208345.3,-73471.68,15321175.356401158
PART_003_R247G182B210A255,573,-22662010.0,198194.4,-318701.7,-117271.4,-150071.3,64619.03,22608872.706850093
PART_003_R247G182B210A255,574,-23509920.0,74224.14,-95594.73,353591.9,-333920.7,212665.4,23517672.739263684
PART_003_R247G182B210A255,575,-24248950.0,-168417.8,-760920.5,759562.6,-355044.5,-84873.54,23834552.576314088
PART_001_R158G218B229A255,576,-24388630.0,-25962.91,-845894.5,1058065.0,-292790.1,8604.991,24038552.78682483
PART_001_R158G218B229A255,577,-24786910.0,-157395.2,-1252440.0,1240075.0,-156715.7,-139192.9,24198902.07691557
PART_001_R158G218B229A255,578,-24499840.0,-28072.34,-1281447.0,1292080.0,0.0001903813,0.0009351405,23974454.72064173
PART_001_R158G218B229A255,579,-24786910.0,-157395.2,-1252440.0,1240075.0,156715.7,139192.9,24198902.07691557
PART_001_R158G218B229A255,580,-24388630.0,-25962.91,-845894.5,1058065.0,292790.1,-8604.989,24038552.786822684
PART_001_R158G218B229A255,581,-24248950.0,-168417.8,-760920.5,759562.6,355044.5,84873.54,23834552.576314088
PART_002_R214G39B40A255,582,-23509920.0,74224.13,-95594.74,353591.9,333920.7,-212665.4,23517672.729271524
PART_002_R214G39B40A255,583,-22662010.0,198194.4,-318701.7,-117271.4,150071.3,-64619.03,22608872.706850093
PART_003_R247G182B210A255,584,-29932110.0,542016.5,-174672.5,-558963.3,-70699.78,41586.26,30138066.649231896
PART_003_R247G182B210A255,585,-31026140.0,525509.4,84945.12,-126669.5,-168401.2,131747.9,31336646.788564455
PART_001_R158G218B229A255,586,-31882560.0,295080.3,-786894.4,138279.3,-192562.1,-271588.6,31656684.86910416
PART_001_R158G218B229A255,587,-31951590.0,517063.7,-872204.0,311315.7,-174313.5,-92139.08,31803195.795377664
PART_001_R158G218B229A255,588,-32441840.0,346771.8,-1391337.0,427327.6,-98173.91,-229954.2,31966533.891675606
PART_001_R158G218B229A255,589,-32048470.0,523258.0,-1417180.0,458127.2,0.0001332084,0.001382661,31656105.057241384
PART_001_R158G218B229A255,590,-32441840.0,346771.8,-1391337.0,427327.6,98173.91,229954.2,31966533.891675606
PART_001_R158G218B229A255,591,-31951590.0,517063.7,-872204.0,311315.7,174313.5,92139.08,31803195.795377664
PART_001_R158G218B229A255,592,-31882560.0,295080.3,-786894.4,138279.3,192562.1,271588.6,31656684.86910416
PART_001_R158G218B229A255,593,-31026140.0,525509.4,84945.11,-126669.5,168401.2,-131747.9,31336646.783670742
PART_002_R214G39B40A255,594,-29932110.0,542016.5,-174672.5,-558963.3,70699.78,-41586.26,30138066.649231896
PART_003_R247G182B210A255,595,-37669700.0,-393273.9,-530191.0,-131017.1,748.9398,-127225.2,37209501.0151952
PART_001_R158G218B229A255,596,-38729080.0,-144381.5,-131375.1,-1661.559,-32879.97,-88226.15,38591548.02084469
PART_001_R158G218B229A255,597,-39562560.0,-411539.0,-1177478.0,103577.2,-65103.46,-554905.7,38786215.014083445
PART_001_R158G218B229A255,598,-39512550.0,-199958.5,-1339817.0,166552.7,-52025.66,-279769.7,38759443.86773671
PART_001_R158G218B229A255,599,-40008130.0,-398440.0,-1970013.0,198216.0,-36124.8,-355915.8,38854210.533346586
PART_001_R158G218B229A255,600,-39536670.0,-217710.7,-2025457.0,220538.0,4.671298e-05,0.001932529,38448871.439277984
PART_001_R158G218B229A255,601,-40008130.0,-398440.0,-1970013.0,198216.0,36124.8,355915.8,38854210.533346586
PART_001_R158G218B229A255,602,-39512550.0,-199958.5,-1339817.0,166552.7,52025.66,279769.7,38759443.86773671
PART_001_R158G218B229A255,603,-39562560.0,-411539.0,-1177478.0,103577.2,65103.46,554905.7,38786215.014083445
PART_001_R158G218B229A255,604,-38729080.0,-144381.5,-131375.1,-1661.558,32879.97,88226.15,38591548.02084456
PART_001_R158G218B229A255,605,-37669700.0,-393273.9,-530191.0,-131017.1,-748.9397,127225.2,37209501.01519519
PART_003_R247G182B210A255,606,37848550.0,-376362.9,-245713.9,-88576.22,-18273.25,-55953.71,38160200.735275865
PART_000_R31G119B180A255,607,38687620.0,-126137.2,363841.1,31517.23,-36307.15,58969.42,38571327.36577552
PART_000_R31G119B180A255,608,39086720.0,-325797.1,201252.9,76177.6,-51208.65,-26798.81,39152003.13277878
PART_000_R31G119B180A255,609,39586310.0,-155604.0,853104.6,125104.6,-52766.34,197756.4,39249482.0362614
PART_000_R31G119B180A255,610,39443930.0,-331053.6,853918.2,154035.6,-27668.48,35565.84,39196919.7381004
PART_000_R31G119B180A255,611,39799850.0,-170917.4,1131803.0,159424.4,3.312692e-05,-0.001615859,39336558.58495745
PART_000_R31G119B180A255,612,39443930.0,-331053.6,853918.2,154035.6,27668.48,-35565.84,39196919.7381004
PART_000_R31G119B180A255,613,39586310.0,-155604.0,853104.6,125104.6,52766.34,-197756.4,39249482.0362614
PART_000_R31G119B180A255,614,39086720.0,-325797.1,201252.9,76177.6,51208.65,26798.81,39152003.13277878
PART_000_R31G119B180A255,615,38687620.0,-126137.2,363841.1,31517.23,36307.15,-58969.43,38571327.365821384
PART_000_R31G119B180A255,616,37848550.0,-376362.9,-245713.9,-88576.22,18273.25,55953.71,38160200.735275865
PART_003_R247G182B210A255,617,30086930.0,-6246.857,-52029.87,20193.79,-53202.27,-89373.67,30116653.590811618
PART_003_R247G182B210A255,618,30866500.0,200016.9,405026.2,225004.1,-132393.2,-95143.49,30568282.934542082
PART_000_R31G119B180A255,619,31338590.0,80702.94,267611.2,407007.0,-168909.1,-143618.2,31175190.687149927
PART_000_R31G119B180A255,620,31828550.0,233469.5,799345.6,544454.2,-143542.7,69296.15,31331389.00761635
PART_000_R31G119B180A255,621,31757550.0,82990.54,768579.8,623835.1,-84026.55,-21576.87,31356372.567641545
PART_000_R31G119B180A255,622,32074120.0,223417.7,1004464.0,656772.4,0.0001127604,-0.001135533,31488004.812918168
PART_000_R31G119B180A255,623,31757550.0,82990.54,768579.8,623835.1,84026.55,21576.87,31356372.567641545
PART_000_R31G119B180A255,624,31828550.0,233469.5,799345.6,544454.2,143542.7,-69296.15,31331389.00761635
PART_000_R31G119B180A255,625,31338590.0,80702.94,267611.2,407007.0,168909.1,143618.2,31175190.687149927
PART_000_R31G119B180A255,626,30866500.0,200016.9,405026.2,225004.1,132393.2,95143.49,30568282.934542082
PART_002_R214G39B40A255,627,30086930.0,-6246.856,-52029.86,20193.79,53202.27,89373.66,30116653.58521243
PART_003_R247G182B210A255,628,22544580.0,-524642.5,-161837.3,-77267.91,-104833.5,-113838.8,22891936.99711247
PART_003_R247G182B210A255,629,23201180.0,-273518.4,179222.5,218051.8,-260001.8,-153291.8,23260576.538661975
PART_003_R247G182B210A255,630,23626130.0,-346899.2,64660.94,490067.2,-288493.9,-190107.1,23792599.13124423
PART_000_R31G119B180A255,631,24049610.0,-244767.2,465677.0,693042.2,-234486.0,-9119.096,23980571.68046891
PART_000_R31G119B180A255,632,24032260.0,-371222.8,439002.3,819821.1,-133398.6,-47802.15,24051833.273051824
PART_000_R31G119B180A255,633,24280500.0,-267724.8,618269.0,867566.7,0.0001473858,-0.0007522678,24164204.245288398
PART_000_R31G119B180A255,634,24032260.0,-371222.8,439002.3,819821.1,133398.6,47802.15,24051833.273051824
PART_000_R31G119B180A255,635,24049610.0,-244767.2,465677.0,693042.2,234486.0,9119.095,23980571.680467766
PART_000_R31G119B180A255,636,23626130.0,-346899.2,64660.94,490067.2,288493.9,190107.1,23792599.13124423
PART_002_R214G39B40A255,637,23201180.0,-273518.4,179222.5,218051.8,260001.8,153291.8,23260576.538661975
PART_002_R214G39B40A255,638,22544580.0,-524642.5,-161837.3,-77267.91,104833.5,113838.8,22891936.99711247
PART_003_R247G182B210A255,639,15126550.0,-233899.4,-28542.65,357971.9,-153873.9,-87199.43,15274471.4996643
PART_003_R247G182B210A255,640,15563840.0,-24535.64,199966.4,659378.9,-358308.0,-137663.9,15533659.699060634
PART_003_R247G182B210A255,641,15871040.0,-44400.55,119680.2,990659.2,-398834.0,-169442.8,15944413.071317423
PART_003_R247G182B210A255,642,16186090.0,40179.72,391288.0,1260777.0,-317111.8,-37251.92,16131312.771611767
PART_000_R31G119B180A255,643,16188150.0,-41416.17,379052.2,1429097.0,-176278.5,-47281.98,16216611.121781388
PART_000_R31G119B180A255,644,16359870.0,28534.78,501204.0,1490465.0,0.0002407765,-0.0004568095,16305859.821801085
PART_000_R31G119B180A255,645,16188150.0,-41416.17,379052.2,1429097.0,176278.5,47281.98,16216611.121781388
PART_000_R31G119B180A255,646,16186090.0,40179.72,391288.0,1260777.0,317111.8,37251.92,16131312.771611767
PART_002_R214G39B40A255,647,15871040.0,-44400.55,119680.2,990659.2,398834.0,169442.8,15944413.071317423
PART_002_R214G39B40A255,648,15563840.0,-24535.64,199966.4,659378.9,358308.0,137663.9,15533659.699060634
PART_002_R214G39B40A255,649,15126550.0,-233899.4,-28542.65,357971.9,153873.9,87199.43,15274471.4996643
PART_003_R247G182B210A255,650,7552404.0,-258805.1,-56415.15,284632.9,-176592.7,-50434.81,7734291.997018316
PART_003_R247G182B210A255,651,7783575.0,-146275.0,52527.86,587954.3,-425606.5,-83178.41,7933902.957506839
PART_003_R247G182B210A255,652,7949736.0,-154770.8,10531.71,939381.4,-470093.2,-97696.68,8228582.447336366
PART_003_R247G182B210A255,653,8111957.0,-114547.6,145912.0,1231860.0,-374678.0,-28082.1,8400982.016550945
PART_003_R247G182B210A255,654,8117555.0,-156919.2,139206.2,1417137.0,-205407.3,-28746.83,8500483.457099257
PART_000_R31G119B180A255,655,8205064.0,-123039.2,201603.5,1484717.0,0.0002385908,-0.000213234,8565756.918921636
PART_000_R31G119B180A255,656,8117555.0,-156919.2,139206.2,1417137.0,205407.3,28746.83,8500483.457099257
PART_002_R214G39B40A255,657,8111957.0,-114547.6,145912.0,1231860.0,374678.0,28082.1,8400982.016550945
PART_002_R214G39B40A255,658,7949736.0,-154770.8,10531.71,939381.4,470093.2,97696.68,8228582.447336366
PART_002_R214G39B40A255,659,7783575.0,-146275.0,52527.86,587954.3,425606.5,83178.41,7933902.957506839
PART_002_R214G39B40A255,660,7552404.0,-258805.1,-56415.15,284632.9,176592.7,50434.81,7734291.997018316
PART_003_R247G182B210A255,661,0.0082861,-0.000293516,-6.293183e-05,581257.5,-191182.1,-5.730178e-05,1059826.698097373
PART_003_R247G182B210A255,662,0.008541263,-0.0001552718,5.335904e-05,889932.1,-450003.4,-8.828428e-05,1727265.6448461858
PART_003_R247G182B210A255,663,0.008724328,-0.0001706683,2.310127e-05,1261580.0,-498101.4,-0.0001126728,2349269.5254580476
PART_003_R247G182B210A255,664,0.008908686,-0.0001300093,0.0001699599,1573240.0,-393639.2,-2.544017e-05,2808933.5613591718
PART_003_R247G182B210A255,665,0.008899569,-0.0001750754,0.0001641161,1770985.0,-217031.6,-3.492679e-05,3090383.755599081
PART_003_R247G182B210A255,666,0.009013436,-0.0001391833,0.0002305492,1842849.0,0.0002833867,-8.830318e-08,3191908.098677498
PART_002_R214G39B40A255,667,0.008897561,-0.0001752339,0.000164149,1770985.0,217031.6,3.473667e-05,3090383.755599081
PART_002_R214G39B40A255,668,0.008904654,-0.0001300312,0.0001699815,1573240.0,393639.2,2.526994e-05,2808933.5613591718
PART_002_R214G39B40A255,669,0.008718278,-0.0001708228,2.315254e-05,1261580.0,498101.4,0.0001124763,2349269.5254580476
PART_002_R214G39B40A255,670,0.008533326,-0.0001554959,5.331481e-05,889932.1,450003.4,8.814858e-05,1727265.6448461858
PART_002_R214G39B40A255,671,0.008276236,-0.0002937279,-6.288035e-05,581257.5,191182.1,5.723883e-05,1059826.698097373
PART_003_R247G182B210A255,672,-7552404.0,258805.1,56415.15,284632.9,-176592.7,50434.81,7734291.997018316
PART_003_R247G182B210A255,673,-7783575.0,146275.0,-52527.86,587954.3,-425606.5,83178.41,7933902.957506839
PART_003_R247G182B210A255,674,-7949736.0,154770.8,-10531.71,939381.4,-470093.2,97696.68,8228582.447336366
PART_003_R247G182B210A255,675,-8111957.0,114547.6,-145912.0,1231860.0,-374678.0,28082.1,8400982.016550945
PART_003_R247G182B210A255,676,-8117555.0,156919.2,-139206.2,1417137.0,-205407.3,28746.83,8500483.457099257
PART_001_R158G218B229A255,677,-8205064.0,123039.2,-201603.5,1484717.0,0.0002385693,0.0002130558,8565756.918921636
PART_001_R158G218B229A255,678,-8117555.0,156919.2,-139206.2,1417137.0,205407.3,-28746.82,8500483.456997804
PART_002_R214G39B40A255,679,-8111957.0,114547.6,-145912.0,1231860.0,374678.0,-28082.1,8400982.016550945
PART_002_R214G39B40A255,680,-7949736.0,154770.8,-10531.71,939381.4,470093.2,-97696.68,8228582.447336366
PART_002_R214G39B40A255,681,-7783575.0,146275.0,-52527.86,587954.3,425606.5,-83178.41,7933902.957506839
PART_002_R214G39B40A255,682,-7552404.0,258805.1,56415.15,284632.9,176592.7,-50434.81,7734291.997018316
PART_003_R247G182B210A255,683,-15126550.0,233899.4,28542.65,357971.9,-153873.9,87199.43,15274471.4996643
PART_003_R247G182B210A255,684,-15563840.0,24535.64,-199966.4,659378.9,-358308.0,137663.9,15533659.699060634
PART_003_R247G182B210A255,685,-15871040.0,44400.55,-119680.2,990659.2,-398834.0,169442.8,15944413.071317423
PART_003_R247G182B210A255,686,-16186090.0,-40179.72,-391288.0,1260777.0,-317111.8,37251.92,16131312.771611767
PART_001_R158G218B229A255,687,-16188150.0,41416.17,-379052.2,1429097.0,-176278.5,47281.98,16216611.121781388
PART_001_R158G218B229A255,688,-16359870.0,-28534.78,-501204.0,1490465.0,0.0002408799,0.0004565542,16305859.821801085
PART_001_R158G218B229A255,689,-16188150.0,41416.17,-379052.2,1429097.0,176278.5,-47281.98,16216611.121781388
PART_001_R158G218B229A255,690,-16186090.0,-40179.72,-391288.0,1260777.0,317111.8,-37251.92,16131312.771611767
PART_002_R214G39B40A255,691,-15871040.0,44400.55,-119680.2,990659.2,398834.0,-169442.8,15944413.071317423
PART_002_R214G39B40A255,692,-15563840.0,24535.64,-199966.4,659378.9,358308.0,-137663.9,15533659.699060634
PART_002_R214G39B40A255,693,-15126550.0,233899.4,28542.65,357971.9,153873.9,-87199.43,15274471.4996643
PART_003_R247G182B210A255,694,-22544580.0,524642.5,161837.3,-77267.91,-104833.5,113838.8,22891936.99711247
PART_003_R247G182B210A255,695,-23201180.0,273518.4,-179222.5,218051.8,-260001.8,153291.8,23260576.538661975
PART_003_R247G182B210A255,696,-23626130.0,346899.2,-64660.94,490067.2,-288493.9,190107.1,23792599.13124423
PART_001_R158G218B229A255,697,-24049610.0,244767.2,-465677.0,693042.2,-234486.0,9119.096,23980571.68046891
PART_001_R158G218B229A255,698,-24032260.0,371222.8,-439002.3,819821.1,-133398.6,47802.15,24051833.273051824
PART_001_R158G218B229A255,699,-24280500.0,267724.8,-618269.0,867566.7,0.0001475114,0.0007520675,24164204.245288398
PART_001_R158G218B229A255,700,-24032260.0,371222.8,-439002.3,819821.1,133398.6,-47802.15,24051833.273051824
PART_001_R158G218B229A255,701,-24049610.0,244767.2,-465677.0,693042.2,234486.0,-9119.095,23980571.680467766
PART_001_R158G218B229A255,702,-23626130.0,346899.2,-64660.94,490067.2,288493.9,-190107.1,23792599.13124423
PART_002_R214G39B40A255,703,-23201180.0,273518.4,-179222.5,218051.8,260001.8,-153291.8,23260576.538661975
PART_002_R214G39B40A255,704,-22544580.0,524642.5,161837.3,-77267.91,104833.5,-113838.8,22891936.99711247
PART_003_R247G182B210A255,705,-30086930.0,6246.857,52029.87,20193.79,-53202.27,89373.67,30116653.590811618
PART_003_R247G182B210A255,706,-30866500.0,-200016.9,-405026.2,225004.1,-132393.2,95143.49,30568282.934542082
PART_001_R158G218B229A255,707,-31338590.0,-80702.94,-267611.2,407007.0,-168909.1,143618.2,31175190.687149927
PART_001_R158G218B229A255,708,-31828550.0,-233469.5,-799345.6,544454.2,-143542.7,-69296.15,31331389.00761635
PART_001_R158G218B229A255,709,-31757550.0,-82990.54,-768579.8,623835.1,-84026.55,21576.87,31356372.567641545
PART_001_R158G218B229A255,710,-32074120.0,-223417.7,-1004464.0,656772.4,0.000112821,0.00113507,31488004.812918168
PART_001_R158G218B229A255,711,-31757550.0,-82990.54,-768579.8,623835.1,84026.55,-21576.87,31356372.567641545
PART_001_R158G218B229A255,712,-31828550.0,-233469.5,-799345.6,544454.2,143542.7,69296.15,31331389.00761635
PART_001_R158G218B229A255,713,-31338590.0,-80702.94,-267611.2,407007.0,168909.1,-143618.2,31175190.687149927
PART_001_R158G218B229A255,714,-30866500.0,-200016.9,-405026.2,225004.1,132393.2,-95143.49,30568282.934542082
PART_002_R214G39B40A255,715,-30086930.0,6246.856,52029.86,20193.79,53202.27,-89373.66,30116653.58521243
PART_003_R247G182B210A255,716,-37848550.0,376362.9,245713.9,-88576.22,-18273.25,55953.71,38160200.735275865
PART_001_R158G218B229A255,717,-38687620.0,126137.2,-363841.1,31517.23,-36307.15,-58969.42,38571327.36577552
PART_001_R158G218B229A255,718,-39086720.0,325797.1,-201252.9,76177.6,-51208.65,26798.81,39152003.13277878
PART_001_R158G218B229A255,719,-39586310.0,155604.0,-853104.6,125104.6,-52766.34,-197756.4,39249482.0362614
PART_001_R158G218B229A255,720,-39443930.0,331053.6,-853918.2,154035.6,-27668.48,-35565.84,39196919.7381004
PART_001_R158G218B229A255,721,-39799850.0,170917.4,-1131803.0,159424.4,3.314627e-05,0.001615277,39336558.58495745
PART_001_R158G218B229A255,722,-39443930.0,331053.6,-853918.2,154035.6,27668.48,35565.84,39196919.7381004
PART_001_R158G218B229A255,723,-39586310.0,155604.0,-853104.6,125104.6,52766.34,197756.4,39249482.0362614
PART_001_R158G218B229A255,724,-39086720.0,325797.1,-201252.9,76177.6,51208.65,-26798.81,39152003.13277878
PART_001_R158G218B229A255,725,-38687620.0,126137.2,-363841.1,31517.23,36307.15,58969.43,38571327.365821384
PART_001_R158G218B229A255,726,-37848550.0,376362.9,245713.9,-88576.22,18273.25,-55953.71,38160200.735275865
PART_003_R247G182B210A255,727,37940250.0,196472.8,242899.6,74346.67,-1191.318,-41314.51,37720872.964204244
PART_000_R31G119B180A255,728,38436670.0,73742.59,-12885.34,106157.6,-30359.96,-147945.2,38407645.61502944
PART_000_R31G119B180A255,729,38902570.0,211816.6,460821.6,152754.7,-44343.61,-36662.35,38567890.071215354
PART_000_R31G119B180A255,730,39035630.0,83668.53,347565.5,179925.6,-38166.01,-81416.84,38822248.96971736
PART_000_R31G119B180A255,731,39350640.0,215674.3,729977.6,201254.1,-24526.07,19439.85,38881965.66746085
PART_000_R31G119B180A255,732,39191800.0,86726.07,571848.4,209742.9,2.743994e-05,-0.001562428,38866481.47721103
PART_000_R31G119B180A255,733,39350640.0,215674.3,729977.6,201254.1,24526.07,-19439.85,38881965.66746085
PART_000_R31G119B180A255,734,39035630.0,83668.53,347565.5,179925.6,38166.01,81416.83,38822248.96965445
PART_000_R31G119B180A255,735,38902570.0,211816.6,460821.6,152754.7,44343.61,36662.34,38567890.07118683
PART_000_R31G119B180A255,736,38436670.0,73742.59,-12885.34,106157.6,30359.96,147945.2,38407645.61502944
PART_000_R31G119B180A255,737,37940250.0,196472.8,242899.6,74346.67,1191.318,41314.51,37720872.964204244
PART_003_R247G182B210A255,738,30170430.0,-237361.3,64293.86,98199.19,-47119.26,-83646.45,30259026.43068005
PART_003_R247G182B210A255,739,30675190.0,-234345.4,-97298.52,233258.5,-106176.3,-189952.4,30846189.38618935
PART_000_R31G119B180A255,740,31131510.0,-129442.1,270773.5,339015.1,-128289.8,-116366.1,31069775.82416437
PART_000_R31G119B180A255,741,31307180.0,-256574.8,144838.1,426128.8,-116864.6,-129857.0,31375117.032925427
PART_000_R31G119B180A255,742,31603250.0,-145988.3,452230.2,487225.9,-65511.5,-19305.83,31465936.772007372
PART_000_R31G119B180A255,743,31481050.0,-268479.3,301929.1,504169.2,8.708212e-05,-0.001103567,31480316.67649277
PART_000_R31G119B180A255,744,31603250.0,-145988.3,452230.2,487225.9,65511.5,19305.83,31465936.772007372
PART_000_R31G119B180A255,745,31307180.0,-256574.8,144838.1,426128.8,116864.6,129857.0,31375117.032925427
PART_000_R31G119B180A255,746,31131510.0,-129442.1,270773.6,339015.1,128289.8,116366.1,31069775.775144834
PART_000_R31G119B180A255,747,30675190.0,-234345.4,-97298.52,233258.5,106176.3,189952.4,30846189.38618935
PART_002_R214G39B40A255,748,30170430.0,-237361.3,64293.86,98199.19,47119.26,83646.45,30259026.43068005
PART_003_R247G182B210A255,749,22593760.0,-14187.05,144691.3,373689.0,-80429.25,-74387.31,22539022.52175342
PART_003_R247G182B210A255,750,22984070.0,2921.517,-14207.61,525320.2,-190888.8,-194149.7,23012548.92168981
PART_003_R247G182B210A255,751,23382380.0,111346.0,261053.2,694316.1,-217634.7,-143478.3,23232082.80652954
PART_000_R31G119B180A255,752,23557430.0,25317.62,166079.6,841489.3,-184426.6,-138877.7,23510676.586454276
PART_000_R31G119B180A255,753,23802010.0,106932.6,396538.4,936216.4,-102610.3,-37357.32,23608125.919624653
PART_000_R31G119B180A255,754,23722130.0,16429.21,282158.3,967281.9,0.0001121928,-0.0007383918,23633418.50891958
PART_000_R31G119B180A255,755,23802010.0,106932.6,396538.4,936216.4,102610.3,37357.32,23608125.919624653
PART_000_R31G119B180A255,756,23557430.0,25317.62,166079.6,841489.3,184426.6,138877.7,23510676.586454276
PART_000_R31G119B180A255,757,23382380.0,111346.0,261053.2,694316.1,217634.7,143478.3,23232082.80652954
PART_002_R214G39B40A255,758,22984070.0,2921.518,-14207.61,525320.2,190888.8,194149.7,23012548.921190865
PART_002_R214G39B40A255,759,22593760.0,-14187.05,144691.3,373689.0,80429.25,74387.31,22539022.52175342
PART_003_R247G182B210A255,760,15062000.0,-259844.8,28034.83,347361.5,-108892.5,-66336.88,15193475.91087617
PART_003_R247G182B210A255,761,15350370.0,-217542.4,-71213.91,529053.4,-259523.6,-157196.5,15531231.812801505
PART_003_R247G182B210A255,762,15636880.0,-141197.5,105139.3,733528.6,-295380.0,-123311.1,15717609.482040899
PART_003_R247G182B210A255,763,15771370.0,-202528.5,35911.47,911617.3,-243321.1,-115851.6,15941282.557756575
PART_000_R31G119B180A255,764,15951080.0,-152894.0,191202.5,1030835.0,-134673.9,-36864.37,16036253.004349938
PART_000_R31G119B180A255,765,15899750.0,-216490.1,112517.5,1070132.0,0.0001839062,-0.0004479478,16061588.432582034
PART_000_R31G119B180A255,766,15951080.0,-152894.0,191202.5,1030835.0,134673.9,36864.37,16036253.004349938
PART_000_R31G119B180A255,767,15771370.0,-202528.5,35911.47,911617.2,243321.1,115851.6,15941282.540600792
PART_002_R214G39B40A255,768,15636880.0,-141197.5,105139.3,733528.6,295380.0,123311.1,15717609.482040899
PART_002_R214G39B40A255,769,15350370.0,-217542.4,-71213.91,529053.4,259523.6,157196.5,15531231.812801505
PART_002_R214G39B40A255,770,15062000.0,-259844.8,28034.83,347361.5,108892.5,66336.88,15193475.91087617
PART_003_R247G182B210A255,771,7550823.0,-63131.95,47731.83,668048.1,-130469.8,-34121.85,7650745.959163584
PART_003_R247G182B210A255,772,7688933.0,-35150.39,-7717.319,848105.8,-306693.9,-85250.47,7868427.935603706
PART_003_R247G182B210A255,773,7837081.0,11945.09,81469.91,1078728.0,-345046.6,-70945.31,8034723.269562489
PART_003_R247G182B210A255,774,7911474.0,-14558.49,47201.33,1288325.0,-286009.5,-64949.66,8220322.290649775
PART_003_R247G182B210A255,775,8004451.0,12705.83,125055.5,1428529.0,-156439.4,-22200.23,8317435.127355673
PART_000_R31G119B180A255,776,7980665.0,-19020.16,86775.56,1474968.0,0.0001838517,-0.0002104539,8347838.926649881
PART_000_R31G119B180A255,777,8004451.0,12705.83,125055.5,1428529.0,156439.4,22200.23,8317435.127355673
PART_002_R214G39B40A255,778,7911474.0,-14558.49,47201.33,1288325.0,286009.5,64949.65,8220322.290412743
PART_002_R214G39B40A255,779,7837081.0,11945.09,81469.91,1078728.0,345046.6,70945.31,8034723.269562489
PART_002_R214G39B40A255,780,7688933.0,-35150.39,-7717.318,848105.8,306693.9,85250.47,7868427.935116366
PART_002_R214G39B40A255,781,7550823.0,-63131.95,47731.83,668048.1,130469.8,34121.85,7650745.959163584
PART_003_R247G182B210A255,782,0.008232196,-7.952053e-05,3.360134e-05,514060.8,-133493.6,-3.686305e-05,919911.4859663402
PART_003_R247G182B210A255,783,0.008387147,-3.804203e-05,-3.612256e-05,695089.6,-319675.0,-9.57503e-05,1325150.9245966966
PART_003_R247G182B210A255,784,0.008555001,1.285057e-05,9.056736e-05,924979.7,-364214.2,-7.430021e-05,1721835.7316193639
PART_003_R247G182B210A255,785,0.008624026,-2.91747e-05,3.744845e-05,1134751.0,-298926.9,-7.470978e-05,2032498.7996635644
PART_003_R247G182B210A255,786,0.008737528,1.402494e-05,0.0001327951,1276208.0,-164887.9,-2.222598e-05,2228830.3292290396
PART_003_R247G182B210A255,787,0.008694903,-3.515047e-05,8.36696e-05,1323515.0,0.000215662,-1.375091e-07,2292395.224579523
PART_002_R214G39B40A255,788,0.008735461,1.399407e-05,0.0001327911,1276208.0,164887.9,2.201592e-05,2228830.3292290396
PART_002_R214G39B40A255,789,0.008620011,-2.912734e-05,3.751382e-05,1134751.0,298926.9,7.443052e-05,2032498.7996635644
PART_002_R214G39B40A255,790,0.008548903,1.278751e-05,9.052873e-05,924979.7,364214.2,7.412938e-05,1721835.7316193639
PART_002_R214G39B40A255,791,0.008379143,-3.803094e-05,-3.60084e-05,695089.6,319675.0,9.561058e-05,1325150.9245966966
PART_002_R214G39B40A255,792,0.008222205,-7.961777e-05,3.356901e-05,514060.7,133493.6,3.682088e-05,919911.3183216903
PART_003_R247G182B210A255,793,-7550823.0,63131.95,-47731.83,668048.1,-130469.8,34121.85,7650745.959163584
PART_003_R247G182B210A255,794,-7688933.0,35150.39,7717.318,848105.8,-306693.9,85250.47,7868427.935116366
PART_003_R247G182B210A255,795,-7837081.0,-11945.09,-81469.91,1078728.0,-345046.6,70945.31,8034723.269562489
PART_003_R247G182B210A255,796,-7911474.0,14558.49,-47201.33,1288325.0,-286009.5,64949.65,8220322.290412743
PART_003_R247G182B210A255,797,-8004451.0,-12705.83,-125055.5,1428529.0,-156439.4,22200.23,8317435.127355673
PART_001_R158G218B229A255,798,-7980665.0,19020.16,-86775.56,1474968.0,0.0001838948,0.0002101853,8347838.926649881
PART_001_R158G218B229A255,799,-8004451.0,-12705.83,-125055.5,1428529.0,156439.4,-22200.23,8317435.127355673
PART_002_R214G39B40A255,800,-7911474.0,14558.49,-47201.33,1288325.0,286009.5,-64949.65,8220322.290412743
PART_002_R214G39B40A255,801,-7837081.0,-11945.09,-81469.91,1078728.0,345046.6,-70945.31,8034723.269562489
PART_002_R214G39B40A255,802,-7688933.0,35150.39,7717.318,848105.8,306693.9,-85250.47,7868427.935116366
PART_002_R214G39B40A255,803,-7550823.0,63131.95,-47731.83,668048.1,130469.8,-34121.85,7650745.959163584
PART_003_R247G182B210A255,804,-15062000.0,259844.8,-28034.83,347361.5,-108892.5,66336.88,15193475.91087617
PART_003_R247G182B210A255,805,-15350370.0,217542.4,71213.91,529053.4,-259523.6,157196.5,15531231.812801505
PART_003_R247G182B210A255,806,-15636880.0,141197.5,-105139.3,733528.6,-295380.0,123311.1,15717609.482040899
PART_003_R247G182B210A255,807,-15771370.0,202528.5,-35911.47,911617.3,-243321.1,115851.6,15941282.557756575
PART_001_R158G218B229A255,808,-15951080.0,152894.0,-191202.5,1030835.0,-134673.9,36864.37,16036253.004349938
PART_001_R158G218B229A255,809,-15899750.0,216490.1,-112517.5,1070132.0,0.0001839219,0.0004476338,16061588.432582034
PART_001_R158G218B229A255,810,-15951080.0,152894.0,-191202.5,1030835.0,134673.9,-36864.37,16036253.004349938
PART_001_R158G218B229A255,811,-15771370.0,202528.5,-35911.47,911617.3,243321.1,-115851.6,15941282.557756575
PART_002_R214G39B40A255,812,-15636880.0,141197.5,-105139.3,733528.6,295380.0,-123311.1,15717609.482040899
PART_002_R214G39B40A255,813,-15350370.0,217542.4,71213.91,529053.4,259523.6,-157196.5,15531231.812801505
PART_002_R214G39B40A255,814,-15062000.0,259844.8,-28034.83,347361.5,108892.5,-66336.88,15193475.91087617
PART_003_R247G182B210A255,815,-22593760.0,14187.05,-144691.3,373689.0,-80429.25,74387.31,22539022.52175342
PART_003_R247G182B210A255,816,-22984070.0,-2921.517,14207.61,525320.2,-190888.8,194149.7,23012548.92168981
PART_003_R247G182B210A255,817,-23382380.0,-111346.0,-261053.2,694316.1,-217634.7,143478.3,23232082.80652954
PART_001_R158G218B229A255,818,-23557430.0,-25317.62,-166079.6,841489.3,-184426.6,138877.7,23510676.586454276
PART_001_R158G218B229A255,819,-23802010.0,-106932.6,-396538.4,936216.4,-102610.3,37357.32,23608125.919624653
PART_001_R158G218B229A255,820,-23722130.0,-16429.21,-282158.3,967281.9,0.0001122942,0.0007379775,23633418.50891958
PART_001_R158G218B229A255,821,-23802010.0,-106932.6,-396538.4,936216.4,102610.3,-37357.32,23608125.919624653
PART_001_R158G218B229A255,822,-23557430.0,-25317.62,-166079.6,841489.3,184426.6,-138877.7,23510676.586454276
PART_001_R158G218B229A255,823,-23382380.0,-111346.0,-261053.2,694316.1,217634.7,-143478.3,23232082.80652954
PART_002_R214G39B40A255,824,-22984070.0,-2921.517,14207.61,525320.2,190888.8,-194149.7,23012548.92168981
PART_002_R214G39B40A255,825,-22593760.0,14187.05,-144691.3,373689.0,80429.25,-74387.31,22539022.52175342
PART_003_R247G182B210A255,826,-30170430.0,237361.3,-64293.86,98199.19,-47119.26,83646.45,30259026.43068005
PART_003_R247G182B210A255,827,-30675190.0,234345.4,97298.52,233258.5,-106176.3,189952.4,30846189.38618935
PART_001_R158G218B229A255,828,-31131510.0,129442.1,-270773.5,339015.1,-128289.8,116366.1,31069775.82416437
PART_001_R158G218B229A255,829,-31307180.0,256574.8,-144838.1,426128.8,-116864.6,129857.0,31375117.032925427
PART_001_R158G218B229A255,830,-31603250.0,145988.3,-452230.2,487225.9,-65511.5,19305.83,31465936.772007372
PART_001_R158G218B229A255,831,-31481050.0,268479.3,-301929.1,504169.2,8.722317e-05,0.001103025,31480316.67649277
PART_001_R158G218B229A255,832,-31603250.0,145988.3,-452230.2,487225.9,65511.5,-19305.83,31465936.772007372
PART_001_R158G218B229A255,833,-31307180.0,256574.8,-144838.1,426128.8,116864.6,-129857.0,31375117.032925427
PART_001_R158G218B229A255,834,-31131510.0,129442.1,-270773.6,339015.1,128289.8,-116366.1,31069775.775144834
PART_001_R158G218B229A255,835,-30675190.0,234345.4,97298.52,233258.5,106176.3,-189952.4,30846189.38618935
PART_002_R214G39B40A255,836,-30170430.0,237361.3,-64293.86,98199.19,47119.26,-83646.45,30259026.43068005
PART_003_R247G182B210A255,837,-37940250.0,-196472.8,-242899.6,74346.67,-1191.318,41314.51,37720872.964204244
PART_001_R158G218B229A255,838,-38436670.0,-73742.59,12885.34,106157.6,-30359.96,147945.2,38407645.61502944
PART_001_R158G218B229A255,839,-38902570.0,-211816.6,-460821.6,152754.7,-44343.61,36662.35,38567890.071215354
PART_001_R158G218B229A255,840,-39035630.0,-83668.53,-347565.5,179925.6,-38166.01,81416.84,38822248.96971736
PART_001_R158G218B229A255,841,-39350640.0,-215674.3,-729977.6,201254.1,-24526.07,-19439.85,38881965.66746085
PART_001_R158G218B229A255,842,-39191800.0,-86726.07,-571848.4,209742.9,2.751475e-05,0.001561785,38866481.47721103
PART_001_R158G218B229A255,843,-39350640.0,-215674.3,-729977.6,201254.1,24526.07,19439.85,38881965.66746085
PART_001_R158G218B229A255,844,-39035630.0,-83668.53,-347565.5,179925.6,38166.01,-81416.83,38822248.96965445
PART_001_R158G218B229A255,845,-38902570.0,-211816.6,-460821.6,152754.7,44343.61,-36662.34,38567890.07118683
PART_001_R158G218B229A255,846,-38436670.0,-73742.59,12885.34,106157.6,30359.96,-147945.2,38407645.61502944
PART_001_R158G218B229A255,847,-37940250.0,-196472.8,-242899.6,74346.67,1191.318,-41314.51,37720872.964204244
PART_003_R247G182B210A255,848,37901100.0,-181942.5,-133207.4,93315.85,-9770.222,-77733.05,38059283.459869824
PART_000_R31G119B180A255,849,38271830.0,-53279.93,149567.5,119340.2,-20131.64,-132256.4,38225351.08455503
PART_000_R31G119B180A255,850,38502000.0,-166613.4,-29505.19,134250.1,-33146.82,-163669.8,38602025.92334796
PART_000_R31G119B180A255,851,38791540.0,-62119.89,301538.2,157468.6,-30862.36,-76953.29,38674341.60100709
PART_000_R31G119B180A255,852,38800540.0,-175490.5,155801.8,169510.9,-17525.29,-61712.73,38812714.38539067
PART_000_R31G119B180A255,853,38969170.0,-66647.72,390594.5,174918.6,1.931815e-05,-0.001500691,38810399.393885225
PART_000_R31G119B180A255,854,38800540.0,-175490.5,155801.8,169510.9,17525.29,61712.73,38812714.38539067
PART_000_R31G119B180A255,855,38791540.0,-62119.89,301538.2,157468.6,30862.36,76953.29,38674341.60100709
PART_000_R31G119B180A255,856,38502000.0,-166613.4,-29505.19,134250.1,33146.82,163669.8,38602025.92334796
PART_000_R31G119B180A255,857,38271830.0,-53279.93,149567.5,119340.2,20131.64,132256.4,38225351.08455503
PART_000_R31G119B180A255,858,37901100.0,-181942.5,-133207.4,93315.84,9770.222,77733.05,38059283.45979627
PART_003_R247G182B210A255,859,30170530.0,31396.83,-41731.27,343718.6,-29449.52,-70155.23,30181923.530847147
PART_003_R247G182B210A255,860,30519390.0,125478.1,168177.2,383969.1,-75650.6,-156580.2,30381358.248779707
PART_000_R31G119B180A255,861,30774760.0,55326.88,22380.87,450029.7,-97598.7,-178449.3,30747819.89952908
PART_000_R31G119B180A255,862,31045780.0,142034.5,280843.5,509163.7,-85484.61,-106374.8,30848089.868388943
PART_000_R31G119B180A255,863,31083870.0,49450.18,140600.5,548305.3,-50468.61,-72940.79,31003874.646108113
PART_000_R31G119B180A255,864,31227890.0,140671.0,337415.3,564735.2,6.889458e-05,-0.001076904,31004748.634214066
PART_000_R31G119B180A255,865,31083870.0,49450.18,140600.5,548305.3,50468.61,72940.79,31003874.646108113
PART_000_R31G119B180A255,866,31045780.0,142034.5,280843.5,509163.7,85484.61,106374.8,30848089.868388943
PART_000_R31G119B180A255,867,30774760.0,55326.88,22380.87,450029.7,97598.7,178449.3,30747819.89952908
PART_000_R31G119B180A255,868,30519390.0,125478.1,168177.2,383969.1,75650.6,156580.2,30381358.248779707
PART_002_R214G39B40A255,869,30170530.0,31396.83,-41731.27,343718.6,29449.52,70155.23,30181923.530847147
PART_003_R247G182B210A255,870,22586820.0,-221098.8,-89988.01,405244.6,-55008.17,-72666.72,22754023.25710551
PART_003_R247G182B210A255,871,22878140.0,-105579.9,64859.1,485598.7,-139051.0,-147685.8,22917110.742391456
PART_003_R247G182B210A255,872,23100620.0,-153444.2,-55721.45,583831.1,-157925.6,-168249.2,23230818.35787492
PART_000_R31G119B180A255,873,23335430.0,-97410.34,135135.3,670857.0,-135086.5,-108843.6,23348304.26903221
PART_000_R31G119B180A255,874,23383490.0,-174086.0,22045.88,732805.3,-77322.9,-69709.86,23495126.914968275
PART_000_R31G119B180A255,875,23496800.0,-106602.6,171383.2,754973.9,7.484236e-05,-0.0007285639,23502051.749097332
PART_000_R31G119B180A255,876,23383490.0,-174086.0,22045.88,732805.3,77322.9,69709.86,23495126.914968275
PART_000_R31G119B180A255,877,23335430.0,-97410.34,135135.3,670857.0,135086.5,108843.6,23348304.26903221
PART_000_R31G119B180A255,878,23100620.0,-153444.2,-55721.45,583831.1,157925.6,168249.2,23230818.35787492
PART_002_R214G39B40A255,879,22878140.0,-105579.9,64859.1,485598.7,139051.0,147685.8,22917110.742391456
PART_002_R214G39B40A255,880,22586820.0,-221098.8,-89988.0,405244.6,55008.17,72666.72,22754023.252151288
PART_003_R247G182B210A255,881,15042930.0,-46055.8,-21392.6,676439.0,-76401.5,-50677.36,15122958.817165138
PART_003_R247G182B210A255,882,15239300.0,35610.43,79993.13,757083.4,-182504.6,-113920.1,15242629.31879503
PART_003_R247G182B210A255,883,15401630.0,12904.51,-6896.067,882772.4,-213329.4,-131209.6,15480439.50991498
PART_003_R247G182B210A255,884,15573790.0,59490.99,120098.7,1001928.0,-176491.9,-86659.11,15584749.521850964
PART_000_R31G119B180A255,885,15613400.0,8208.271,45088.7,1083374.0,-100126.8,-54667.77,15700572.677274976
PART_000_R31G119B180A255,886,15693580.0,53859.61,144317.7,1113008.0,0.0001436237,-0.0004471784,15713391.032269474
PART_000_R31G119B180A255,887,15613400.0,8208.271,45088.7,1083374.0,100126.8,54667.77,15700572.677274976
PART_000_R31G119B180A255,888,15573790.0,59490.99,120098.7,1001928.0,176491.9,86659.11,15584749.521850964
PART_002_R214G39B40A255,889,15401630.0,12904.51,-6896.068,882772.4,213329.4,131209.6,15480439.510413295
PART_002_R214G39B40A255,890,15239300.0,35610.43,79993.13,757083.4,182504.6,113920.1,15242629.31879503
PART_002_R214G39B40A255,891,15042930.0,-46055.8,-21392.6,676439.0,76401.5,50677.36,15122958.817165138
PART_003_R247G182B210A255,892,7524226.0,-109213.4,-32334.59,623141.6,-85462.4,-29547.51,7673193.903457336
PART_003_R247G182B210A255,893,7628179.0,-61555.41,16093.31,714307.5,-214600.7,-62858.29,7760261.984935472
PART_003_R247G182B210A255,894,7714641.0,-72167.35,-27712.54,851220.2,-245812.2,-71121.2,7915830.499637744
PART_003_R247G182B210A255,895,7803919.0,-51821.01,34142.08,979710.8,-205873.9,-48353.97,8003649.376023337
PART_003_R247G182B210A255,896,7827592.0,-78352.59,-4876.941,1069975.0,-115120.4,-29962.55,8087363.909581968
PART_000_R31G119B180A255,897,7868478.0,-56561.27,45614.82,1102888.0,0.0001277182,-0.000211174,8102840.469880718
PART_000_R31G119B180A255,898,7827592.0,-78352.59,-4876.941,1069975.0,115120.4,29962.55,8087363.909581968
PART_002_R214G39B40A255,899,7803919.0,-51821.01,34142.08,979710.8,205873.9,48353.97,8003649.376023337
PART_002_R214G39B40A255,900,7714641.0,-72167.35,-27712.54,851220.2,245812.2,71121.2,7915830.499637744
PART_002_R214G39B40A255,901,7628179.0,-61555.41,16093.31,714307.5,214600.7,62858.29,7760261.984935472
PART_002_R214G39B40A255,902,7524226.0,-109213.4,-32334.59,623141.6,85462.41,29547.51,7673193.9037914695
PART_003_R247G182B210A255,903,0.008246465,-0.0001168344,-3.773958e-05,821256.1,-93251.01,-3.264661e-05,1431597.7081427905
PART_003_R247G182B210A255,904,0.008360302,-5.008667e-05,1.695091e-05,908989.2,-223774.4,-6.840772e-05,1621421.9202403794
PART_003_R247G182B210A255,905,0.008460115,-6.762041e-05,-2.213073e-05,1054302.0,-259890.5,-7.936908e-05,1880767.7521647243
PART_003_R247G182B210A255,906,0.008555852,-4.752202e-05,5.506138e-05,1194495.0,-214907.6,-5.148616e-05,2102144.320613663
PART_003_R247G182B210A255,907,0.008578469,-7.598663e-05,-8.47092e-07,1292057.0,-121476.3,-3.397216e-05,2247777.424064062
PART_003_R247G182B210A255,908,0.008627049,-5.231353e-05,6.943243e-05,1327307.0,0.0001645473,-1.415437e-07,2298963.161241824
PART_002_R214G39B40A255,909,0.008576468,-7.590946e-05,-8.197233e-07,1292057.0,121476.3,3.371178e-05,2247777.424064062
PART_002_R214G39B40A255,910,0.008551748,-4.757222e-05,5.501141e-05,1194495.0,214907.6,5.121233e-05,2102144.320613663
PART_002_R214G39B40A255,911,0.008454015,-6.774157e-05,-2.212377e-05,1054302.0,259890.5,7.916878e-05,1880767.7521647243
PART_002_R214G39B40A255,912,0.008352112,-5.037117e-05,1.685025e-05,908989.2,223774.4,6.827861e-05,1621421.9202403794
PART_002_R214G39B40A255,913,0.008236285,-0.0001170542,-3.776958e-05,821256.1,93251.01,3.260479e-05,1431597.7081427905
PART_003_R247G182B210A255,914,-7524225.0,109213.4,32334.59,623141.6,-85462.4,29547.51,7673192.913647867
PART_003_R247G182B210A255,915,-7628179.0,61555.41,-16093.31,714307.5,-214600.7,62858.29,7760261.984935472
PART_003_R247G182B210A255,916,-7714641.0,72167.35,27712.54,851220.2,-245812.2,71121.2,7915830.499637744
PART_003_R247G182B210A255,917,-7803919.0,51821.01,-34142.08,979710.8,-205873.9,48353.97,8003649.376023337
PART_003_R247G182B210A255,918,-7827592.0,78352.59,4876.941,1069975.0,-115120.4,29962.55,8087363.909581968
PART_001_R158G218B229A255,919,-7868478.0,56561.27,-45614.82,1102888.0,0.0001277167,0.0002109125,8102840.469880718
PART_001_R158G218B229A255,920,-7827592.0,78352.59,4876.941,1069975.0,115120.4,-29962.55,8087363.909581968
PART_002_R214G39B40A255,921,-7803919.0,51821.01,-34142.08,979710.8,205873.9,-48353.97,8003649.376023337
PART_002_R214G39B40A255,922,-7714641.0,72167.35,27712.54,851220.2,245812.2,-71121.2,7915830.499637744
PART_002_R214G39B40A255,923,-7628179.0,61555.41,-16093.31,714307.5,214600.7,-62858.29,7760261.984935472
PART_002_R214G39B40A255,924,-7524225.0,109213.4,32334.59,623141.6,85462.41,-29547.51,7673192.913982
PART_003_R247G182B210A255,925,-15042930.0,46055.8,21392.6,676439.0,-76401.5,50677.36,15122958.817165138
PART_003_R247G182B210A255,926,-15239300.0,-35610.43,-79993.13,757083.4,-182504.6,113920.1,15242629.31879503
PART_003_R247G182B210A255,927,-15401630.0,-12904.51,6896.067,882772.4,-213329.4,131209.6,15480439.50991498
PART_003_R247G182B210A255,928,-15573790.0,-59490.99,-120098.7,1001928.0,-176491.9,86659.11,15584749.521850964
PART_001_R158G218B229A255,929,-15613400.0,-8208.271,-45088.7,1083374.0,-100126.8,54667.77,15700572.677274976
PART_001_R158G218B229A255,930,-15693580.0,-53859.61,-144317.7,1113008.0,0.0001437447,0.0004468961,15713391.032269474
PART_001_R158G218B229A255,931,-15613400.0,-8208.271,-45088.7,1083374.0,100126.8,-54667.77,15700572.677274976
PART_001_R158G218B229A255,932,-15573790.0,-59490.99,-120098.7,1001928.0,176491.9,-86659.11,15584749.521850964
PART_002_R214G39B40A255,933,-15401630.0,-12904.51,6896.068,882772.4,213329.4,-131209.6,15480439.510413295
PART_002_R214G39B40A255,934,-15239300.0,-35610.43,-79993.13,757083.4,182504.6,-113920.1,15242629.31879503
PART_002_R214G39B40A255,935,-15042930.0,46055.8,21392.6,676439.0,76401.5,-50677.36,15122958.817165138
PART_003_R247G182B210A255,936,-22586820.0,221098.8,89988.01,405244.6,-55008.17,72666.72,22754023.25710551
PART_003_R247G182B210A255,937,-22878140.0,105579.9,-64859.1,485598.7,-139051.0,147685.8,22917110.742391456
PART_003_R247G182B210A255,938,-23100620.0,153444.2,55721.45,583831.1,-157925.6,168249.2,23230818.35787492
PART_001_R158G218B229A255,939,-23335430.0,97410.34,-135135.3,670857.0,-135086.5,108843.6,23348304.26903221
PART_001_R158G218B229A255,940,-23383490.0,174086.0,-22045.88,732805.3,-77322.9,69709.86,23495126.914968275
PART_001_R158G218B229A255,941,-23496800.0,106602.6,-171383.2,754973.9,7.489514e-05,0.0007280886,23502051.749097332
PART_001_R158G218B229A255,942,-23383490.0,174086.0,-22045.88,732805.3,77322.9,-69709.86,23495126.914968275
PART_001_R158G218B229A255,943,-23335430.0,97410.34,-135135.3,670857.0,135086.5,-108843.6,23348304.26903221
PART_001_R158G218B229A255,944,-23100620.0,153444.2,55721.45,583831.1,157925.6,-168249.2,23230818.35787492
PART_002_R214G39B40A255,945,-22878140.0,105579.9,-64859.1,485598.7,139051.0,-147685.8,22917110.742391456
PART_002_R214G39B40A255,946,-22586820.0,221098.8,89988.0,405244.6,55008.17,-72666.72,22754023.252151288
PART_003_R247G182B210A255,947,-30170530.0,-31396.83,41731.27,343718.6,-29449.52,70155.23,30181923.530847147
PART_003_R247G182B210A255,948,-30519390.0,-125478.1,-168177.2,383969.1,-75650.6,156580.2,30381358.248779707
PART_001_R158G218B229A255,949,-30774760.0,-55326.88,-22380.87,450029.7,-97598.7,178449.3,30747819.89952908
PART_001_R158G218B229A255,950,-31045780.0,-142034.5,-280843.5,509163.7,-85484.61,106374.8,30848089.868388943
PART_001_R158G218B229A255,951,-31083870.0,-49450.18,-140600.5,548305.3,-50468.61,72940.79,31003874.646108113
PART_001_R158G218B229A255,952,-31227890.0,-140671.0,-337415.3,564735.2,6.893448e-05,0.001076364,31004748.634214066
PART_001_R158G218B229A255,953,-31083870.0,-49450.18,-140600.5,548305.3,50468.61,-72940.79,31003874.646108113
PART_001_R158G218B229A255,954,-31045780.0,-142034.5,-280843.5,509163.7,85484.61,-106374.8,30848089.868388943
PART_001_R158G218B229A255,955,-30774760.0,-55326.88,-22380.87,450029.7,97598.7,-178449.3,30747819.89952908
PART_001_R158G218B229A255,956,-30519390.0,-125478.1,-168177.2,383969.1,75650.6,-156580.2,30381358.248779707
PART_002_R214G39B40A255,957,-30170530.0,-31396.83,41731.27,343718.6,29449.52,-70155.23,30181923.530847147
PART_003_R247G182B210A255,958,-37901100.0,181942.5,133207.4,93315.85,-9770.222,77733.05,38059283.459869824
PART_001_R158G218B229A255,959,-38271830.0,53279.93,-149567.5,119340.2,-20131.64,132256.4,38225351.08455503
PART_001_R158G218B229A255,960,-38502000.0,166613.4,29505.19,134250.1,-33146.82,163669.8,38602025.92334796
PART_001_R158G218B229A255,961,-38791540.0,62119.89,-301538.2,157468.6,-30862.36,76953.29,38674341.60100709
PART_001_R158G218B229A255,962,-38800540.0,175490.5,-155801.8,169510.9,-17525.29,61712.73,38812714.38539067
PART_001_R158G218B229A255,963,-38969170.0,66647.72,-390594.5,174918.6,1.93399e-05,0.001500277,38810399.393885225
PART_001_R158G218B229A255,964,-38800540.0,175490.5,-155801.8,169510.9,17525.29,-61712.73,38812714.38539067
PART_001_R158G218B229A255,965,-38791540.0,62119.89,-301538.2,157468.6,30862.36,-76953.29,38674341.60100709
PART_001_R158G218B229A255,966,-38502000.0,166613.4,29505.19,134250.1,33146.82,-163669.8,38602025.92334796
PART_001_R158G218B229A255,967,-38271830.0,53279.93,-149567.5,119340.2,20131.64,-132256.4,38225351.08455503
PART_001_R158G218B229A255,968,-37901100.0,181942.5,133207.4,93315.84,9770.222,-77733.05,38059283.45979627
PART_003_R247G182B210A255,969,37786670.0,108949.5,132587.8,156808.4,1224.412,-63503.37,37667046.77485802
PART_000_R31G119B180A255,970,37991340.0,40267.8,-47286.31,149148.0,-16291.51,-156176.0,37996776.49022798
PART_000_R31G119B180A255,971,38221070.0,116696.7,184489.4,163929.4,-23040.88,-144596.9,38072425.69195699
PART_000_R31G119B180A255,972,38319890.0,39660.71,35213.87,172647.4,-21630.59,-125521.0,38284256.44974642
PART_000_R31G119B180A255,973,38484370.0,122735.4,264348.8,183605.6,-13125.76,-55202.42,38292470.98139549
PART_000_R31G119B180A255,974,38436150.0,39275.35,94676.75,185607.9,1.30131e-05,-0.001481886,38370550.71886937
PART_000_R31G119B180A255,975,38484370.0,122735.4,264348.8,183605.6,13125.76,55202.42,38292470.98139549
PART_000_R31G119B180A255,976,38319890.0,39660.71,35213.87,172647.4,21630.59,125521.0,38284256.44974642
PART_000_R31G119B180A255,977,38221070.0,116696.7,184489.4,163929.4,23040.88,144596.9,38072425.69195699
PART_000_R31G119B180A255,978,37991340.0,40267.8,-47286.31,149148.0,16291.51,156176.0,37996776.49022798
PART_000_R31G119B180A255,979,37786670.0,108949.5,132587.8,156808.4,-1224.412,63503.36,37667046.774807446
PART_003_R247G182B210A255,980,30130130.0,-96833.36,34139.42,364614.4,-24591.0,-63460.2,30168531.371920034
PART_003_R247G182B210A255,981,30341460.0,-104607.4,-81440.98,377868.8,-52721.27,-140417.6,30442635.806016576
PART_000_R31G119B180A255,982,30562240.0,-47071.09,96152.35,404936.3,-67737.57,-148880.1,30547318.1922193
PART_000_R31G119B180A255,983,30675690.0,-121585.8,-43612.94,437852.4,-62624.13,-125285.3,30768667.886838194
PART_000_R31G119B180A255,984,30826380.0,-52527.18,138509.2,462990.6,-35685.62,-60596.13,30794517.78862462
PART_000_R31G119B180A255,985,30794660.0,-129224.6,-12749.06,470964.3,5.039534e-05,-0.001063441,30876589.048395164
PART_000_R31G119B180A255,986,30826380.0,-52527.18,138509.2,462990.6,35685.62,60596.13,30794517.78862462
PART_000_R31G119B180A255,987,30675690.0,-121585.8,-43612.94,437852.4,62624.13,125285.3,30768667.886838194
PART_000_R31G119B180A255,988,30562240.0,-47071.09,96152.36,404936.3,67737.57,148880.1,30547318.187256034
PART_000_R31G119B180A255,989,30341460.0,-104607.4,-81440.98,377868.8,52721.27,140417.6,30442635.806016576
PART_002_R214G39B40A255,990,30130130.0,-96833.36,34139.42,364614.3,24591.0,63460.2,30168531.368294258
PART_003_R247G182B210A255,991,22545570.0,39445.57,77805.62,620608.1,-38137.04,-50745.72,22512914.60963572
PART_003_R247G182B210A255,992,22709230.0,28965.64,-35873.29,637155.1,-95184.89,-123807.3,22741157.065909598
PART_003_R247G182B210A255,993,22901880.0,86156.42,96691.15,685787.0,-111420.6,-131744.2,22843318.950033404
PART_000_R31G119B180A255,994,23006100.0,34388.05,-10358.16,741274.9,-96204.85,-110415.5,23031332.038846076
PART_000_R31G119B180A255,995,23130140.0,84948.93,124083.4,780159.0,-55054.47,-55414.75,23065661.73306921
PART_000_R31G119B180A255,996,23113070.0,28979.85,8663.671,794789.7,5.026401e-05,-0.0007248523,23135247.63882319
PART_000_R31G119B180A255,997,23130140.0,84948.93,124083.4,780159.0,55054.47,55414.74,23065661.732997138
PART_000_R31G119B180A255,998,23006100.0,34388.05,-10358.16,741274.9,96204.85,110415.5,23031332.038846076
PART_000_R31G119B180A255,999,22901880.0,86156.42,96691.15,685787.0,111420.6,131744.2,22843318.950033404
PART_002_R214G39B40A255,1000,22709230.0,28965.64,-35873.29,637155.1,95184.89,123807.3,22741157.065909598
PART_002_R214G39B40A255,1001,22545570.0,39445.57,77805.62,620608.1,38137.04,50745.72,22512914.60963572
PART_003_R247G182B210A255,1002,15021400.0,-94322.89,15208.31,661973.1,-51864.36,-40833.11,15105268.260561826
PART_003_R247G182B210A255,1003,15144020.0,-84679.9,-52900.21,693856.2,-125275.7,-92406.49,15262612.993556531
PART_003_R247G182B210A255,1004,15280070.0,-46046.46,30218.57,756354.3,-148274.0,-98524.75,15347250.82112036
PART_003_R247G182B210A255,1005,15359250.0,-83297.25,-46459.74,822604.0,-124529.9,-83252.24,15492001.339359073
PART_000_R31G119B180A255,1006,15450540.0,-51992.67,43984.1,871559.2,-70804.64,-41853.69,15528972.571128497
PART_000_R31G119B180A255,1007,15439510.0,-91247.77,-35373.82,889237.5,0.0001059475,-0.0004469005,15579217.696014766
PART_000_R31G119B180A255,1008,15450540.0,-51992.67,43984.1,871559.2,70804.64,41853.69,15528972.571128497
PART_000_R31G119B180A255,1009,15359250.0,-83297.25,-46459.74,822604.0,124529.9,83252.24,15492001.339359073
PART_002_R214G39B40A255,1010,15280070.0,-46046.46,30218.57,756354.3,148274.0,98524.75,15347250.82112036
PART_002_R214G39B40A255,1011,15144020.0,-84679.9,-52900.21,693856.2,125275.7,92406.49,15262612.993556531
PART_002_R214G39B40A255,1012,15021400.0,-94322.89,15208.31,661973.1,51864.36,40833.11,15105268.260561826
PART_003_R247G182B210A255,1013,7504473.0,-14.28357,25754.25,866716.3,-60677.7,-20111.7,7641365.322991271
PART_003_R247G182B210A255,1014,7563068.0,3367.45,-14026.78,895153.0,-146186.1,-48910.3,7730204.046147185
PART_003_R247G182B210A255,1015,7634725.0,25976.5,27966.8,968076.9,-170342.6,-53116.77,7796470.139507853
PART_003_R247G182B210A255,1016,7677242.0,9383.618,-10402.23,1049465.0,-145127.4,-44353.22,7894388.93115616
PART_003_R247G182B210A255,1017,7724130.0,26391.78,34171.69,1107632.0,-81019.1,-22586.58,7930770.152188747
PART_000_R31G119B180A255,1018,7719956.0,6657.815,-4816.831,1128640.0,8.902778e-05,-0.0002126677,7962731.483177769
PART_000_R31G119B180A255,1019,7724130.0,26391.78,34171.69,1107632.0,81019.1,22586.58,7930770.152188747
PART_002_R214G39B40A255,1020,7677242.0,9383.618,-10402.23,1049465.0,145127.4,44353.22,7894388.93115616
PART_002_R214G39B40A255,1021,7634725.0,25976.5,27966.8,968076.9,170342.6,53116.77,7796470.139507853
PART_002_R214G39B40A255,1022,7563068.0,3367.45,-14026.78,895153.0,146186.1,48910.3,7730204.046147185
PART_002_R214G39B40A255,1023,7504473.0,-14.28351,25754.25,866716.3,60677.7,20111.7,7641365.322961707
PART_003_R247G182B210A255,1024,0.00819009,-1.767887e-05,1.210388e-05,773817.6,-61798.25,-2.181975e-05,1344558.7028160829
PART_003_R247G182B210A255,1025,0.008257981,-4.300268e-06,-4.472977e-05,807844.1,-151771.5,-5.354006e-05,1423706.4424772332
PART_003_R247G182B210A255,1026,0.008339938,2.052092e-05,3.426613e-05,881813.0,-179568.7,-5.802399e-05,1558690.8785792228
PART_003_R247G182B210A255,1027,0.008380038,-1.134183e-05,-2.918404e-05,961446.4,-150425.7,-4.917231e-05,1685532.9168783238
PART_003_R247G182B210A255,1028,0.00843482,2.034572e-05,3.799907e-05,1019762.0,-85380.33,-2.450052e-05,1772459.5939498104
PART_003_R247G182B210A255,1029,0.008423821,-1.555385e-05,-2.195684e-05,1041050.0,0.0001188516,-1.74656e-07,1803151.4932195798
PART_002_R214G39B40A255,1030,0.008432746,2.029329e-05,3.795852e-05,1019762.0,85380.33,2.422253e-05,1772459.5939498104
PART_002_R214G39B40A255,1031,0.008375921,-1.129395e-05,-2.920032e-05,961446.4,150425.7,4.886448e-05,1685532.9168783238
PART_002_R214G39B40A255,1032,0.008333858,2.05506e-05,3.434119e-05,881813.0,179568.7,5.78881e-05,1558690.8785792228
PART_002_R214G39B40A255,1033,0.00824979,-4.433764e-06,-4.476287e-05,807844.1,151771.5,5.336085e-05,1423706.4424772332
PART_002_R214G39B40A255,1034,0.008179916,-1.756322e-05,1.216371e-05,773817.6,61798.25,2.179122e-05,1344558.7028160829
PART_003_R247G182B210A255,1035,-7504473.0,14.28339,-25754.25,866716.3,-60677.7,20111.7,7641365.322902579
PART_003_R247G182B210A255,1036,-7563068.0,-3367.45,14026.78,895153.0,-146186.1,48910.3,7730204.046147185
PART_003_R247G182B210A255,1037,-7634725.0,-25976.5,-27966.8,968076.9,-170342.6,53116.77,7796470.139507853
PART_003_R247G182B210A255,1038,-7677242.0,-9383.618,10402.23,1049465.0,-145127.4,44353.22,7894388.93115616
PART_003_R247G182B210A255,1039,-7724130.0,-26391.78,-34171.69,1107632.0,-81019.1,22586.58,7930770.152188747
PART_001_R158G218B229A255,1040,-7719956.0,-6657.815,4816.831,1128640.0,8.902535e-05,0.0002123657,7962731.483177769
PART_001_R158G218B229A255,1041,-7724130.0,-26391.78,-34171.69,1107632.0,81019.1,-22586.58,7930770.152188747
PART_002_R214G39B40A255,1042,-7677242.0,-9383.618,10402.23,1049465.0,145127.4,-44353.22,7894388.93115616
PART_002_R214G39B40A255,1043,-7634725.0,-25976.5,-27966.8,968076.9,170342.6,-53116.77,7796470.139507853
PART_002_R214G39B40A255,1044,-7563068.0,-3367.45,14026.78,895153.0,146186.1,-48910.3,7730204.046147185
PART_002_R214G39B40A255,1045,-7504473.0,14.28332,-25754.25,866716.3,60677.7,-20111.7,7641365.322868088
PART_003_R247G182B210A255,1046,-15021400.0,94322.89,-15208.31,661973.1,-51864.36,40833.11,15105268.260561826
PART_003_R247G182B210A255,1047,-15144020.0,84679.9,52900.21,693856.2,-125275.7,92406.49,15262612.993556531
PART_003_R247G182B210A255,1048,-15280070.0,46046.46,-30218.57,756354.3,-148274.0,98524.75,15347250.82112036
PART_003_R247G182B210A255,1049,-15359250.0,83297.25,46459.74,822604.0,-124529.9,83252.24,15492001.339359073
PART_001_R158G218B229A255,1050,-15450540.0,51992.67,-43984.1,871559.2,-70804.64,41853.69,15528972.571128497
PART_001_R158G218B229A255,1051,-15439510.0,91247.77,35373.82,889237.5,0.0001059498,0.0004465462,15579217.696014766
PART_001_R158G218B229A255,1052,-15450540.0,51992.67,-43984.1,871559.2,70804.64,-41853.69,15528972.571128497
PART_001_R158G218B229A255,1053,-15359250.0,83297.25,46459.74,822604.0,124529.9,-83252.24,15492001.339359073
PART_002_R214G39B40A255,1054,-15280070.0,46046.46,-30218.57,756354.3,148274.0,-98524.75,15347250.82112036
PART_002_R214G39B40A255,1055,-15144020.0,84679.9,52900.21,693856.2,125275.7,-92406.49,15262612.993556531
PART_002_R214G39B40A255,1056,-15021400.0,94322.89,-15208.31,661973.1,51864.36,-40833.11,15105268.260561826
PART_003_R247G182B210A255,1057,-22545570.0,-39445.57,-77805.62,620608.1,-38137.04,50745.72,22512914.60963572
PART_003_R247G182B210A255,1058,-22709230.0,-28965.64,35873.29,637155.1,-95184.89,123807.3,22741157.065909598
PART_003_R247G182B210A255,1059,-22901880.0,-86156.42,-96691.15,685787.0,-111420.6,131744.2,22843318.950033404
PART_001_R158G218B229A255,1060,-23006100.0,-34388.05,10358.16,741274.9,-96204.85,110415.5,23031332.038846076
PART_001_R158G218B229A255,1061,-23130140.0,-84948.93,-124083.4,780159.0,-55054.47,55414.75,23065661.73306921
PART_001_R158G218B229A255,1062,-23113070.0,-28979.85,-8663.67,794789.7,5.031367e-05,0.0007245961,23135247.63932296
PART_001_R158G218B229A255,1063,-23130140.0,-84948.93,-124083.4,780159.0,55054.47,-55414.74,23065661.732997138
PART_001_R158G218B229A255,1064,-23006100.0,-34388.05,10358.16,741274.9,96204.85,-110415.5,23031332.038846076
PART_001_R158G218B229A255,1065,-22901880.0,-86156.42,-96691.15,685787.0,111420.6,-131744.2,22843318.950033404
PART_002_R214G39B40A255,1066,-22709230.0,-28965.64,35873.29,637155.1,95184.89,-123807.3,22741157.065909598
PART_002_R214G39B40A255,1067,-22545570.0,-39445.57,-77805.62,620608.1,38137.04,-50745.72,22512914.60963572
PART_003_R247G182B210A255,1068,-30130130.0,96833.36,-34139.42,364614.4,-24591.0,63460.2,30168531.371920034
PART_003_R247G182B210A255,1069,-30341460.0,104607.4,81440.98,377868.8,-52721.27,140417.6,30442635.806016576
PART_001_R158G218B229A255,1070,-30562240.0,47071.09,-96152.35,404936.3,-67737.57,148880.1,30547318.1922193
PART_001_R158G218B229A255,1071,-30675690.0,121585.8,43612.94,437852.4,-62624.13,125285.3,30768667.886838194
PART_001_R158G218B229A255,1072,-30826380.0,52527.18,-138509.2,462990.6,-35685.62,60596.13,30794517.78862462
PART_001_R158G218B229A255,1073,-30794660.0,129224.6,12749.06,470964.3,5.041594e-05,0.001062911,30876589.048395164
PART_001_R158G218B229A255,1074,-30826380.0,52527.18,-138509.2,462990.6,35685.62,-60596.13,30794517.78862462
PART_001_R158G218B229A255,1075,-30675690.0,121585.8,43612.94,437852.4,62624.13,-125285.3,30768667.886838194
PART_001_R158G218B229A255,1076,-30562240.0,47071.09,-96152.36,404936.3,67737.57,-148880.1,30547318.187256034
PART_001_R158G218B229A255,1077,-30341460.0,104607.4,81440.98,377868.8,52721.27,-140417.6,30442635.806016576
PART_002_R214G39B40A255,1078,-30130130.0,96833.36,-34139.42,364614.3,24591.0,-63460.2,30168531.368294258
PART_003_R247G182B210A255,1079,-37786670.0,-108949.5,-132587.8,156808.4,1224.412,63503.37,37667046.77485802
PART_001_R158G218B229A255,1080,-37991340.0,-40267.8,47286.31,149148.0,-16291.51,156176.0,37996776.49022798
PART_001_R158G218B229A255,1081,-38221070.0,-116696.7,-184489.4,163929.4,-23040.88,144596.9,38072425.69195699
PART_001_R158G218B229A255,1082,-38319890.0,-39660.71,-35213.87,172647.4,-21630.59,125521.0,38284256.44974642
PART_001_R158G218B229A255,1083,-38484370.0,-122735.4,-264348.8,183605.6,-13125.76,55202.42,38292470.98139549
PART_001_R158G218B229A255,1084,-38436150.0,-39275.35,-94676.75,185607.9,1.307106e-05,0.001481373,38370550.71886937
PART_001_R158G218B229A255,1085,-38484370.0,-122735.4,-264348.8,183605.6,13125.76,-55202.42,38292470.98139549
PART_001_R158G218B229A255,1086,-38319890.0,-39660.71,-35213.87,172647.4,21630.59,-125521.0,38284256.44974642
PART_001_R158G218B229A255,1087,-38221070.0,-116696.7,-184489.4,163929.4,23040.88,-144596.9,38072425.69195699
PART_001_R158G218B229A255,1088,-37991340.0,-40267.8,47286.31,149148.0,16291.51,-156176.0,37996776.49022798
PART_001_R158G218B229A255,1089,-37786670.0,-108949.5,-132587.8,156808.4,-1224.412,-63503.36,37667046.774807446
PART_003_R247G182B210A255,1090,37602110.0,-94972.24,-79961.09,157382.2,-3544.336,-63749.25,37690726.913208924
PART_000_R31G119B180A255,1091,37753300.0,-19722.97,72202.06,148869.5,-8179.205,-137383.5,37728778.644346155
PART_000_R31G119B180A255,1092,37857960.0,-88786.15,-74437.19,148490.2,-16737.74,-148311.2,37941326.15016246
PART_000_R31G119B180A255,1093,38003730.0,-22860.71,105503.8,155874.0,-14813.34,-111247.6,37964028.89963205
PART_000_R31G119B180A255,1094,38025410.0,-94818.31,-36429.26,159054.3,-9115.09,-63348.41,38092224.861507796
PART_000_R31G119B180A255,1095,38102100.0,-24175.02,129383.6,162225.1,8.306808e-06,-0.001493018,38050765.56288783
PART_000_R31G119B180A255,1096,38025410.0,-94818.31,-36429.26,159054.3,9115.09,63348.4,38092224.86145791
PART_000_R31G119B180A255,1097,38003730.0,-22860.71,105503.8,155874.0,14813.34,111247.6,37964028.89963205
PART_000_R31G119B180A255,1098,37857960.0,-88786.15,-74437.2,148490.2,16737.74,148311.2,37941326.15515939
PART_000_R31G119B180A255,1099,37753300.0,-19722.97,72202.06,148869.5,8179.205,137383.5,37728778.644346155
PART_000_R31G119B180A255,1100,37602110.0,-94972.24,-79961.09,157382.2,3544.336,63749.25,37690726.913208924
PART_003_R247G182B210A255,1101,30003470.0,25151.08,-38599.28,468693.2,-14183.55,-44482.47,30021331.708267663
PART_003_R247G182B210A255,1102,30148620.0,78056.02,80584.3,444462.6,-35053.18,-118291.7,30079911.961731557
PART_000_R31G119B180A255,1103,30264560.0,32870.21,-36384.1,453517.7,-46650.12,-129815.4,30277510.767279793
PART_000_R31G119B180A255,1104,30397060.0,84899.95,102828.6,470012.9,-42511.89,-105088.2,30314768.69407447
PART_000_R31G119B180A255,1105,30431900.0,29098.91,-23705.24,483901.0,-25162.91,-58907.16,30440980.382956766
PART_000_R31G119B180A255,1106,30494490.0,85346.71,113716.2,489888.6,3.79185e-05,-0.001088484,30406809.78160107
PART_000_R31G119B180A255,1107,30431900.0,29098.91,-23705.24,483901.0,25162.91,58907.15,30440980.382898714
PART_000_R31G119B180A255,1108,30397060.0,84899.95,102828.6,470012.9,42511.89,105088.2,30314768.69407447
PART_000_R31G119B180A255,1109,30264560.0,32870.21,-36384.1,453517.7,46650.12,129815.4,30277510.767279793
PART_000_R31G119B180A255,1110,30148620.0,78056.02,80584.3,444462.6,35053.18,118291.7,30079911.961731557
PART_002_R214G39B40A255,1111,30003470.0,25151.08,-38599.28,468693.2,14183.55,44482.47,30021331.708267663
PART_003_R247G182B210A255,1112,22477700.0,-93113.33,-54808.27,618959.7,-25019.89,-40956.73,22577306.061021294
PART_003_R247G182B210A255,1113,22596780.0,-33715.24,29525.69,608438.8,-65591.97,-96579.16,22624403.27389017
PART_003_R247G182B210A255,1114,22697520.0,-64422.16,-64401.6,623400.8,-74877.11,-107471.1,22788657.23203565
PART_000_R31G119B180A255,1115,22811760.0,-30441.59,38865.28,647104.9,-66301.75,-88776.09,22835956.75744185
PART_000_R31G119B180A255,1116,22846550.0,-76133.8,-61577.95,668573.4,-38075.82,-49445.44,22944904.452905018
PART_000_R31G119B180A255,1117,22896290.0,-33904.48,42830.04,675954.2,2.680208e-05,-0.0007501434,22921843.55264091
PART_000_R31G119B180A255,1118,22846550.0,-76133.8,-61577.95,668573.4,38075.82,49445.44,22944904.452905018
PART_000_R31G119B180A255,1119,22811760.0,-30441.59,38865.28,647104.9,66301.75,88776.08,22835956.75732522
PART_000_R31G119B180A255,1120,22697520.0,-64422.16,-64401.6,623400.8,74877.11,107471.1,22788657.23203565
PART_002_R214G39B40A255,1121,22596780.0,-33715.24,29525.69,608438.8,65591.97,96579.16,22624403.27389017
PART_002_R214G39B40A255,1122,22477700.0,-93113.33,-54808.27,618959.7,25019.89,40956.73,22577306.061021294
PART_003_R247G182B210A255,1123,14962030.0,2565.546,-19127.8,835290.7,-34621.69,-26985.56,15040261.982300904
PART_003_R247G182B210A255,1124,15044620.0,40165.23,38258.97,821588.1,-83627.6,-69875.77,15073915.17108552
PART_003_R247G182B210A255,1125,15118040.0,21823.93,-29413.21,846068.8,-101243.2,-78017.25,15194352.888044368
PART_003_R247G182B210A255,1126,15200940.0,50279.28,39032.4,881417.4,-85127.51,-63811.04,15234096.295229381
PART_000_R31G119B180A255,1127,15227580.0,19139.46,-28083.16,909904.3,-48969.51,-36028.01,15313782.73450705
PART_000_R31G119B180A255,1128,15263040.0,47930.61,41012.67,920364.4,7.96949e-05,-0.0004669403,15301832.26635868
PART_000_R31G119B180A255,1129,15227580.0,19139.46,-28083.16,909904.3,48969.51,36028.01,15313782.73450705
PART_000_R31G119B180A255,1130,15200940.0,50279.28,39032.4,881417.4,85127.51,63811.04,15234096.295229381
PART_002_R214G39B40A255,1131,15118040.0,21823.93,-29413.21,846068.8,101243.2,78017.25,15194352.888044368
PART_002_R214G39B40A255,1132,15044620.0,40165.23,38258.97,821588.1,83627.6,69875.77,15073915.17108552
PART_002_R214G39B40A255,1133,14962030.0,2565.546,-19127.8,835290.7,34621.69,26985.56,15040261.982300904
PART_003_R247G182B210A255,1134,7482362.0,-41329.48,-19721.72,837279.4,-38144.45,-15426.74,7651929.141910195
PART_003_R247G182B210A255,1135,7525420.0,-18364.54,7083.535,830617.5,-98703.58,-36764.09,7669446.934080726
PART_003_R247G182B210A255,1136,7564337.0,-26701.4,-26251.21,859238.1,-114597.2,-40906.42,7738199.705433965
PART_003_R247G182B210A255,1137,7607350.0,-14774.07,6715.689,896683.4,-99106.54,-33834.61,7770358.0071772365
PART_003_R247G182B210A255,1138,7622632.0,-30353.95,-27926.39,927916.2,-55632.17,-18904.13,7819403.052500197
PART_000_R31G119B180A255,1139,7640571.0,-16714.67,7326.734,939410.0,5.541813e-05,-0.0002236014,7816519.901276895
PART_000_R31G119B180A255,1140,7622632.0,-30353.95,-27926.39,927916.2,55632.17,18904.13,7819403.052500197
PART_002_R214G39B40A255,1141,7607350.0,-14774.07,6715.689,896683.4,99106.54,33834.61,7770358.0071772365
PART_002_R214G39B40A255,1142,7564337.0,-26701.4,-26251.21,859238.1,114597.2,40906.42,7738199.705433965
PART_002_R214G39B40A255,1143,7525420.0,-18364.54,7083.535,830617.5,98703.58,36764.09,7669446.934080726
PART_002_R214G39B40A255,1144,7482362.0,-41329.48,-19721.72,837279.4,38144.45,15426.74,7651929.141910195
PART_003_R247G182B210A255,1145,0.008193531,-3.768522e-05,-2.735428e-05,960115.6,-41800.26,-1.634248e-05,1664544.2863733855
PART_003_R247G182B210A255,1146,0.008240654,2.456925e-06,7.745799e-06,949072.2,-101427.5,-4.088592e-05,1653201.9645848689
PART_003_R247G182B210A255,1147,0.008289079,-1.328703e-05,-2.275061e-05,980370.0,-121740.9,-4.455349e-05,1711092.7943564109
PART_003_R247G182B210A255,1148,0.008331128,-1.846506e-06,2.557008e-05,1023623.0,-102577.4,-3.73737e-05,1781846.9371299208
PART_003_R247G182B210A255,1149,0.008349218,-1.813696e-05,-2.923537e-05,1058192.0,-58849.74,-2.084583e-05,1835674.4815697044
PART_003_R247G182B210A255,1150,0.008366566,-3.726523e-06,2.872971e-05,1070611.0,8.647148e-05,-1.045417e-07,1854352.6471421232
PART_002_R214G39B40A255,1151,0.008347096,-1.825223e-05,-2.934876e-05,1058192.0,58849.74,2.049878e-05,1835674.4815697044
PART_002_R214G39B40A255,1152,0.008326804,-2.234955e-06,2.540489e-05,1023623.0,102577.4,3.712314e-05,1781846.9371299208
PART_002_R214G39B40A255,1153,0.008282819,-1.33113e-05,-2.281982e-05,980370.0,121740.9,4.436509e-05,1711092.7943564109
PART_002_R214G39B40A255,1154,0.008232317,2.365435e-06,7.757023e-06,949072.2,101427.5,4.072383e-05,1653201.9645848689
PART_002_R214G39B40A255,1155,0.0081831,-3.774955e-05,-2.746782e-05,960115.6,41800.27,1.627935e-05,1664544.2871267495
PART_003_R247G182B210A255,1156,-7482362.0,41329.48,19721.72,837279.4,-38144.45,15426.74,7651929.141910195
PART_003_R247G182B210A255,1157,-7525420.0,18364.54,-7083.535,830617.5,-98703.58,36764.09,7669446.934080726
PART_003_R247G182B210A255,1158,-7564337.0,26701.4,26251.21,859238.1,-114597.2,40906.42,7738199.705433965
PART_003_R247G182B210A255,1159,-7607350.0,14774.07,-6715.689,896683.4,-99106.54,33834.61,7770358.0071772365
PART_003_R247G182B210A255,1160,-7622632.0,30353.95,27926.39,927916.2,-55632.17,18904.13,7819403.052500197
PART_001_R158G218B229A255,1161,-7640571.0,16714.67,-7326.734,939410.0,5.542598e-05,0.0002232527,7816519.901276895
PART_001_R158G218B229A255,1162,-7622632.0,30353.95,27926.39,927916.2,55632.17,-18904.13,7819403.052500197
PART_002_R214G39B40A255,1163,-7607350.0,14774.07,-6715.689,896683.4,99106.54,-33834.61,7770358.0071772365
PART_002_R214G39B40A255,1164,-7564337.0,26701.4,26251.21,859238.1,114597.2,-40906.42,7738199.705433965
PART_002_R214G39B40A255,1165,-7525420.0,18364.54,-7083.535,830617.5,98703.58,-36764.09,7669446.934080726
PART_002_R214G39B40A255,1166,-7482362.0,41329.48,19721.72,837279.4,38144.45,-15426.74,7651929.141910195
PART_003_R247G182B210A255,1167,-14962030.0,-2565.546,19127.8,835290.7,-34621.69,26985.56,15040261.982300904
PART_003_R247G182B210A255,1168,-15044620.0,-40165.23,-38258.97,821588.1,-83627.6,69875.77,15073915.17108552
PART_003_R247G182B210A255,1169,-15118040.0,-21823.93,29413.21,846068.8,-101243.2,78017.25,15194352.888044368
PART_003_R247G182B210A255,1170,-15200940.0,-50279.28,-39032.4,881417.4,-85127.51,63811.04,15234096.295229381
PART_001_R158G218B229A255,1171,-15227580.0,-19139.46,28083.16,909904.3,-48969.51,36028.01,15313782.73450705
PART_001_R158G218B229A255,1172,-15263040.0,-47930.61,-41012.67,920364.4,7.967147e-05,0.0004665264,15301832.26635868
PART_001_R158G218B229A255,1173,-15227580.0,-19139.46,28083.16,909904.3,48969.51,-36028.01,15313782.73450705
PART_001_R158G218B229A255,1174,-15200940.0,-50279.28,-39032.4,881417.4,85127.51,-63811.04,15234096.295229381
PART_002_R214G39B40A255,1175,-15118040.0,-21823.93,29413.21,846068.8,101243.2,-78017.25,15194352.888044368
PART_002_R214G39B40A255,1176,-15044620.0,-40165.23,-38258.97,821588.1,83627.6,-69875.77,15073915.17108552
PART_002_R214G39B40A255,1177,-14962030.0,-2565.547,19127.8,835290.7,34621.69,-26985.56,15040261.981804311
PART_003_R247G182B210A255,1178,-22477700.0,93113.33,54808.27,618959.7,-25019.89,40956.73,22577306.061021294
PART_003_R247G182B210A255,1179,-22596780.0,33715.24,-29525.69,608438.8,-65591.97,96579.16,22624403.27389017
PART_003_R247G182B210A255,1180,-22697520.0,64422.16,64401.6,623400.8,-74877.11,107471.1,22788657.23203565
PART_001_R158G218B229A255,1181,-22811760.0,30441.59,-38865.28,647104.9,-66301.75,88776.09,22835956.75744185
PART_001_R158G218B229A255,1182,-22846550.0,76133.8,61577.95,668573.4,-38075.82,49445.44,22944904.452905018
PART_001_R158G218B229A255,1183,-22896290.0,33904.48,-42830.04,675954.2,2.687925e-05,0.0007498574,22921843.55264091
PART_001_R158G218B229A255,1184,-22846550.0,76133.8,61577.95,668573.4,38075.82,-49445.44,22944904.452905018
PART_001_R158G218B229A255,1185,-22811760.0,30441.59,-38865.28,647104.9,66301.75,-88776.08,22835956.75732522
PART_001_R158G218B229A255,1186,-22697520.0,64422.16,64401.6,623400.8,74877.12,-107471.1,22788657.232134223
PART_002_R214G39B40A255,1187,-22596780.0,33715.24,-29525.69,608438.8,65591.97,-96579.16,22624403.27389017
PART_002_R214G39B40A255,1188,-22477700.0,93113.33,54808.27,618959.7,25019.89,-40956.73,22577306.061021294
PART_003_R247G182B210A255,1189,-30003470.0,-25151.08,38599.28,468693.2,-14183.55,44482.47,30021331.708267663
PART_003_R247G182B210A255,1190,-30148620.0,-78056.02,-80584.3,444462.6,-35053.18,118291.7,30079911.961731557
PART_001_R158G218B229A255,1191,-30264560.0,-32870.21,36384.1,453517.7,-46650.12,129815.4,30277510.767279793
PART_001_R158G218B229A255,1192,-30397060.0,-84899.95,-102828.6,470012.9,-42511.89,105088.2,30314768.69407447
PART_001_R158G218B229A255,1193,-30431900.0,-29098.91,23705.24,483901.0,-25162.91,58907.16,30440980.382956766
PART_001_R158G218B229A255,1194,-30494490.0,-85346.71,-113716.2,489888.6,3.799745e-05,0.001087894,30406809.78160107
PART_001_R158G218B229A255,1195,-30431900.0,-29098.91,23705.24,483901.0,25162.91,-58907.15,30440980.382898714
PART_001_R158G218B229A255,1196,-30397060.0,-84899.95,-102828.6,470012.9,42511.89,-105088.2,30314768.69407447
PART_001_R158G218B229A255,1197,-30264560.0,-32870.21,36384.1,453517.7,46650.12,-129815.4,30277510.767279793
PART_001_R158G218B229A255,1198,-30148620.0,-78056.02,-80584.3,444462.6,35053.18,-118291.7,30079911.961731557
PART_002_R214G39B40A255,1199,-30003470.0,-25151.08,38599.28,468693.2,14183.55,-44482.47,30021331.708267663
PART_003_R247G182B210A255,1200,-37602110.0,94972.24,79961.09,157382.2,-3544.336,63749.25,37690726.913208924
PART_001_R158G218B229A255,1201,-37753300.0,19722.97,-72202.06,148869.5,-8179.205,137383.5,37728778.644346155
PART_001_R158G218B229A255,1202,-37857960.0,88786.15,74437.19,148490.2,-16737.74,148311.2,37941326.15016246
PART_001_R158G218B229A255,1203,-38003730.0,22860.71,-105503.8,155874.0,-14813.34,111247.6,37964028.89963205
PART_001_R158G218B229A255,1204,-38025410.0,94818.31,36429.26,159054.3,-9115.09,63348.41,38092224.861507796
PART_001_R158G218B229A255,1205,-38102100.0,24175.02,-129383.6,162225.1,8.458114e-06,0.001492577,38050765.56288783
PART_001_R158G218B229A255,1206,-38025410.0,94818.31,36429.26,159054.3,9115.09,-63348.4,38092224.86145791
PART_001_R158G218B229A255,1207,-38003730.0,22860.71,-105503.8,155874.0,14813.34,-111247.6,37964028.89963205
PART_001_R158G218B229A255,1208,-37857960.0,88786.15,74437.2,148490.2,16737.74,-148311.2,37941326.15515939
PART_001_R158G218B229A255,1209,-37753300.0,19722.97,-72202.06,148869.5,8179.205,-137383.5,37728778.644346155
PART_001_R158G218B229A255,1210,-37602110.0,94972.24,79961.09,157382.2,3544.336,-63749.25,37690726.913208924
PART_003_R247G182B210A255,1211,37378020.0,60715.52,83545.36,183621.7,2741.074,-53990.45,37307367.9719808
PART_000_R31G119B180A255,1212,37451590.0,19018.68,-44906.89,161671.3,-6665.947,-122991.0,37466228.88754759
PART_000_R31G119B180A255,1213,37554040.0,63729.54,82468.89,161683.9,-9985.816,-131736.6,37482688.981669456
PART_000_R31G119B180A255,1214,37602560.0,16634.85,-40117.86,161035.1,-10154.77,-104167.1,37615804.550536186
PART_000_R31G119B180A255,1215,37681530.0,68176.73,99002.42,164873.9,-5989.184,-56429.88,37599162.858805396
PART_000_R31G119B180A255,1216,37664520.0,15811.59,-29896.72,164408.3,4.502203e-06,-0.001484836,37672659.62595737
PART_000_R31G119B180A255,1217,37681530.0,68176.73,99002.42,164873.9,5989.184,56429.88,37599162.858805396
PART_000_R31G119B180A255,1218,37602560.0,16634.85,-40117.86,161035.1,10154.77,104167.1,37615804.550536186
PART_000_R31G119B180A255,1219,37554040.0,63729.54,82468.89,161683.9,9985.816,131736.6,37482688.981669456
PART_000_R31G119B180A255,1220,37451590.0,19018.68,-44906.89,161671.3,6665.947,122991.0,37466228.88754759
PART_000_R31G119B180A255,1221,37378020.0,60715.52,83545.36,183621.7,-2741.074,53990.45,37307367.9719808
PART_003_R247G182B210A255,1222,29857830.0,-39648.69,23840.5,464078.2,-11723.63,-40252.38,29876687.818617288
PART_003_R247G182B210A255,1223,29938030.0,-50752.92,-59727.74,431343.1,-22023.75,-90207.13,30003005.90314839
PART_000_R31G119B180A255,1224,30035890.0,-15173.89,40649.2,422726.7,-30264.18,-110787.1,30032776.704612963
PART_000_R31G119B180A255,1225,30089980.0,-60761.91,-67976.79,426644.7,-28725.63,-88019.73,30163829.643579647
PART_000_R31G119B180A255,1226,30161400.0,-17188.05,43303.99,432045.9,-16640.73,-50142.08,30157812.189023387
PART_000_R31G119B180A255,1227,30151900.0,-64790.64,-68516.19,434352.3,2.7298e-05,-0.001081692,30227917.00839716
PART_000_R31G119B180A255,1228,30161400.0,-17188.05,43303.99,432045.9,16640.73,50142.07,30157812.188973505
PART_000_R31G119B180A255,1229,30089980.0,-60761.91,-67976.79,426644.7,28725.63,88019.73,30163829.643579647
PART_000_R31G119B180A255,1230,30035890.0,-15173.89,40649.2,422726.7,30264.18,110787.1,30032776.704612963
PART_000_R31G119B180A255,1231,29938030.0,-50752.92,-59727.74,431343.1,22023.75,90207.13,30003005.90314839
PART_002_R214G39B40A255,1232,29857830.0,-39648.69,23840.5,464078.2,11723.63,40252.38,29876687.818617288
PART_003_R247G182B210A255,1233,22364450.0,36117.95,48112.82,719435.2,-16131.9,-29792.93,22357167.422626033
PART_003_R247G182B210A255,1234,22424780.0,20829.99,-33507.84,682820.4,-42763.16,-70922.08,22462782.9456001
PART_003_R247G182B210A255,1235,22510660.0,55021.9,41914.23,675596.5,-49985.47,-86383.74,22493318.327199254
PART_000_R31G119B180A255,1236,22559550.0,22735.55,-40151.02,684051.3,-44037.04,-69856.25,22599855.292604536
PART_000_R31G119B180A255,1237,22617710.0,54527.04,41649.81,692828.8,-25665.32,-40337.03,22601655.5809136
PART_000_R31G119B180A255,1238,22614030.0,20282.62,-42910.91,697229.4,1.292496e-05,-0.0007479284,22657616.36304742
PART_000_R31G119B180A255,1239,22617710.0,54527.04,41649.81,692828.8,25665.33,40337.03,22601655.580947667
PART_000_R31G119B180A255,1240,22559550.0,22735.55,-40151.02,684051.3,44037.04,69856.25,22599855.292604536
PART_000_R31G119B180A255,1241,22510660.0,55021.9,41914.23,675596.5,49985.47,86383.74,22493318.327199254
PART_002_R214G39B40A255,1242,22424780.0,20829.99,-33507.83,682820.4,42763.16,70922.08,22462782.940589003
PART_002_R214G39B40A255,1243,22364450.0,36117.95,48112.82,719435.2,16131.9,29792.93,22357167.422626033
PART_003_R247G182B210A255,1244,14903000.0,-32536.51,11826.99,817152.1,-22739.67,-22237.43,14980516.471035678
PART_003_R247G182B210A255,1245,14950000.0,-34083.93,-35478.74,785883.1,-54661.62,-49684.71,15047022.271758916
PART_003_R247G182B210A255,1246,15009550.0,-11812.66,11326.86,781784.2,-67252.43,-60334.18,15071573.68667553
PART_003_R247G182B210A255,1247,15046740.0,-34267.36,-46909.78,791258.2,-56628.06,-49172.49,15150008.114924692
PART_000_R31G119B180A255,1248,15089540.0,-14285.64,8863.799,802272.2,-32888.27,-28226.44,15156285.72339088
PART_000_R31G119B180A255,1249,15086860.0,-38229.59,-49636.5,807211.3,5.957105e-05,-0.0004669279,15195254.720055213
PART_000_R31G119B180A255,1250,15089540.0,-14285.64,8863.799,802272.2,32888.27,28226.44,15156285.72339088
PART_000_R31G119B180A255,1251,15046740.0,-34267.36,-46909.78,791258.2,56628.06,49172.49,15150008.114924692
PART_002_R214G39B40A255,1252,15009550.0,-11812.66,11326.86,781784.2,67252.43,60334.18,15071573.68667553
PART_002_R214G39B40A255,1253,14950000.0,-34083.93,-35478.74,785883.1,54661.62,49684.71,15047022.271758916
PART_002_R214G39B40A255,1254,14903000.0,-32536.51,11826.99,817152.1,22739.67,22237.43,14980516.471035678
PART_003_R247G182B210A255,1255,7445385.0,10693.68,15913.16,970327.4,-25989.63,-10737.67,7619897.316161805
PART_003_R247G182B210A255,1256,7467435.0,7740.224,-12286.09,935398.7,-64251.79,-25671.79,7644351.612668503
PART_003_R247G182B210A255,1257,7499397.0,20312.5,11879.31,933912.3,-76121.12,-31312.63,7657463.671924599
PART_003_R247G182B210A255,1258,7518984.0,9869.607,-17232.95,949168.8,-66384.58,-25305.5,7701230.797195205
PART_003_R247G182B210A255,1259,7540852.0,20796.65,9886.838,963248.9,-37260.97,-14617.3,7708550.145601124
PART_000_R31G119B180A255,1260,7540306.0,8632.878,-18642.02,969377.1,3.434902e-05,-0.0002241199,7729899.445588103
PART_000_R31G119B180A255,1261,7540852.0,20796.65,9886.838,963248.9,37260.97,14617.3,7708550.145601124
PART_002_R214G39B40A255,1262,7518984.0,9869.607,-17232.95,949168.8,66384.58,25305.5,7701230.797195205
PART_002_R214G39B40A255,1263,7499397.0,20312.5,11879.31,933912.3,76121.12,31312.63,7657463.671924599
PART_002_R214G39B40A255,1264,7467435.0,7740.224,-12286.09,935398.7,64251.79,25671.79,7644351.612668503
PART_002_R214G39B40A255,1265,7445385.0,10693.68,15913.16,970327.4,25989.63,10737.67,7619897.316161805
PART_003_R247G182B210A255,1266,0.008132137,-6.910446e-06,4.945875e-06,931413.2,-26735.0,-1.167122e-05,1613919.4304790185
PART_003_R247G182B210A255,1267,0.008159146,-1.379662e-06,-4.214673e-05,900543.7,-66167.47,-2.753891e-05,1563992.0936781212
PART_003_R247G182B210A255,1268,0.008197594,1.308716e-05,1.834822e-05,899722.0,-80808.19,-3.514349e-05,1564636.993863186
PART_003_R247G182B210A255,1269,0.008214225,-1.169921e-05,-3.530852e-05,912998.6,-68056.29,-2.738286e-05,1585747.2392003627
PART_003_R247G182B210A255,1270,0.008239349,1.251377e-05,1.3263e-05,926661.6,-39556.46,-1.643229e-05,1606486.6334105846
PART_003_R247G182B210A255,1271,0.008235393,-1.450287e-05,-3.599388e-05,932712.2,6.265592e-05,-2.214657e-07,1615504.9192393443
PART_002_R214G39B40A255,1272,0.008237273,1.278064e-05,1.338747e-05,926661.6,39556.46,1.610622e-05,1606486.6334105846
PART_002_R214G39B40A255,1273,0.00821012,-1.142531e-05,-3.529443e-05,912998.6,68056.29,2.704434e-05,1585747.2392003627
PART_002_R214G39B40A255,1274,0.008191359,1.314492e-05,1.845662e-05,899722.0,80808.19,3.496392e-05,1564636.993863186
PART_002_R214G39B40A255,1275,0.008150801,-1.259798e-06,-4.213137e-05,900543.7,66167.47,2.733678e-05,1563992.0936781212
PART_002_R214G39B40A255,1276,0.008121733,-6.746421e-06,4.991851e-06,931413.2,26735.0,1.16253e-05,1613919.4304790185
PART_003_R247G182B210A255,1277,-7445385.0,-10693.68,-15913.16,970327.4,-25989.63,10737.67,7619897.316161805
PART_003_R247G182B210A255,1278,-7467435.0,-7740.224,12286.09,935398.7,-64251.79,25671.79,7644351.612668503
PART_003_R247G182B210A255,1279,-7499397.0,-20312.5,-11879.31,933912.3,-76121.12,31312.63,7657463.671924599
PART_003_R247G182B210A255,1280,-7518984.0,-9869.608,17232.95,949168.8,-66384.58,25305.5,7701230.796709438
PART_003_R247G182B210A255,1281,-7540851.0,-20796.65,-9886.838,963248.9,-37260.97,14617.3,7708549.169346174
PART_001_R158G218B229A255,1282,-7540306.0,-8632.878,18642.02,969377.1,3.430833e-05,0.0002237886,7729899.445588103
PART_001_R158G218B229A255,1283,-7540851.0,-20796.65,-9886.838,963248.9,37260.97,-14617.3,7708549.169346174
PART_002_R214G39B40A255,1284,-7518984.0,-9869.608,17232.95,949168.8,66384.58,-25305.5,7701230.796709438
PART_002_R214G39B40A255,1285,-7499397.0,-20312.5,-11879.31,933912.3,76121.12,-31312.63,7657463.671924599
PART_002_R214G39B40A255,1286,-7467435.0,-7740.224,12286.09,935398.7,64251.79,-25671.79,7644351.612668503
PART_002_R214G39B40A255,1287,-7445385.0,-10693.68,-15913.16,970327.4,25989.63,-10737.67,7619897.316161805
PART_003_R247G182B210A255,1288,-14903000.0,32536.51,-11826.99,817152.1,-22739.67,22237.43,14980516.471035678
PART_003_R247G182B210A255,1289,-14950000.0,34083.93,35478.74,785883.1,-54661.62,49684.71,15047022.271758916
PART_003_R247G182B210A255,1290,-15009550.0,11812.66,-11326.86,781784.2,-67252.43,60334.18,15071573.68667553
PART_003_R247G182B210A255,1291,-15046740.0,34267.36,46909.78,791258.2,-56628.06,49172.49,15150008.114924692
PART_001_R158G218B229A255,1292,-15089540.0,14285.64,-8863.799,802272.2,-32888.27,28226.44,15156285.72339088
PART_001_R158G218B229A255,1293,-15086860.0,38229.59,49636.5,807211.3,5.965377e-05,0.0004665227,15195254.720055213
PART_001_R158G218B229A255,1294,-15089540.0,14285.64,-8863.799,802272.2,32888.27,-28226.44,15156285.72339088
PART_001_R158G218B229A255,1295,-15046740.0,34267.36,46909.78,791258.2,56628.06,-49172.49,15150008.114924692
PART_002_R214G39B40A255,1296,-15009550.0,11812.66,-11326.86,781784.2,67252.43,-60334.18,15071573.68667553
PART_002_R214G39B40A255,1297,-14950000.0,34083.93,35478.74,785883.1,54661.62,-49684.71,15047022.271758916
PART_002_R214G39B40A255,1298,-14903000.0,32536.51,-11826.99,817152.1,22739.67,-22237.43,14980516.471035678
PART_003_R247G182B210A255,1299,-22364450.0,-36117.95,-48112.82,719435.2,-16131.9,29792.93,22357167.422626033
PART_003_R247G182B210A255,1300,-22424780.0,-20829.99,33507.84,682820.4,-42763.16,70922.08,22462782.9456001
PART_003_R247G182B210A255,1301,-22510660.0,-55021.9,-41914.23,675596.5,-49985.47,86383.74,22493318.327199254
PART_001_R158G218B229A255,1302,-22559550.0,-22735.55,40151.02,684051.3,-44037.04,69856.25,22599855.292604536
PART_001_R158G218B229A255,1303,-22617710.0,-54527.04,-41649.81,692828.8,-25665.32,40337.03,22601655.5809136
PART_001_R158G218B229A255,1304,-22614030.0,-20282.62,42910.91,697229.4,1.329637e-05,0.0007475796,22657616.36304742
PART_001_R158G218B229A255,1305,-22617710.0,-54527.04,-41649.81,692828.8,25665.33,-40337.03,22601655.580947667
PART_001_R158G218B229A255,1306,-22559550.0,-22735.55,40151.02,684051.3,44037.04,-69856.25,22599855.292604536
PART_001_R158G218B229A255,1307,-22510660.0,-55021.9,-41914.23,675596.5,49985.47,-86383.74,22493318.327199254
PART_002_R214G39B40A255,1308,-22424780.0,-20829.99,33507.83,682820.4,42763.16,-70922.08,22462782.940589003
PART_002_R214G39B40A255,1309,-22364450.0,-36117.95,-48112.82,719435.2,16131.9,-29792.93,22357167.422626033
PART_003_R247G182B210A255,1310,-29857830.0,39648.69,-23840.5,464078.2,-11723.63,40252.38,29876687.818617288
PART_003_R247G182B210A255,1311,-29938030.0,50752.92,59727.74,431343.1,-22023.75,90207.13,30003005.90314839
PART_001_R158G218B229A255,1312,-30035890.0,15173.89,-40649.2,422726.7,-30264.18,110787.1,30032776.704612963
PART_001_R158G218B229A255,1313,-30089980.0,60761.91,67976.79,426644.7,-28725.63,88019.73,30163829.643579647
PART_001_R158G218B229A255,1314,-30161400.0,17188.05,-43303.99,432045.9,-16640.73,50142.08,30157812.189023387
PART_001_R158G218B229A255,1315,-30151900.0,64790.64,68516.19,434352.3,2.770957e-05,0.00108122,30227917.00839716
PART_001_R158G218B229A255,1316,-30161400.0,17188.05,-43303.99,432045.9,16640.73,-50142.07,30157812.188973505
PART_001_R158G218B229A255,1317,-30089980.0,60761.91,67976.79,426644.7,28725.63,-88019.73,30163829.643579647
PART_001_R158G218B229A255,1318,-30035890.0,15173.89,-40649.2,422726.7,30264.18,-110787.1,30032776.704612963
PART_001_R158G218B229A255,1319,-29938030.0,50752.92,59727.74,431343.1,22023.75,-90207.13,30003005.90314839
PART_002_R214G39B40A255,1320,-29857830.0,39648.69,-23840.5,464078.2,11723.63,-40252.38,29876687.818617288
PART_003_R247G182B210A255,1321,-37378020.0,-60715.52,-83545.36,183621.7,2741.074,53990.45,37307367.9719808
PART_001_R158G218B229A255,1322,-37451590.0,-19018.68,44906.89,161671.3,-6665.947,122991.0,37466228.88754759
PART_001_R158G218B229A255,1323,-37554040.0,-63729.54,-82468.89,161683.9,-9985.816,131736.6,37482688.981669456
PART_001_R158G218B229A255,1324,-37602560.0,-16634.85,40117.86,161035.1,-10154.77,104167.1,37615804.550536186
PART_001_R158G218B229A255,1325,-37681530.0,-68176.73,-99002.42,164873.9,-5989.184,56429.88,37599162.858805396
PART_001_R158G218B229A255,1326,-37664520.0,-15811.59,29896.72,164408.3,4.476435e-06,0.001484435,37672659.62595737
PART_001_R158G218B229A255,1327,-37681530.0,-68176.73,-99002.42,164873.9,5989.184,-56429.88,37599162.858805396
PART_001_R158G218B229A255,1328,-37602560.0,-16634.85,40117.86,161035.1,10154.77,-104167.1,37615804.550536186
PART_001_R158G218B229A255,1329,-37554040.0,-63729.54,-82468.89,161683.9,9985.816,-131736.6,37482688.981669456
PART_001_R158G218B229A255,1330,-37451590.0,-19018.68,44906.89,161671.3,6665.947,-122991.0,37466228.88754759
PART_001_R158G218B229A255,1331,-37378020.0,-60715.52,-83545.36,183621.7,-2741.074,-53990.45,37307367.9719808
PART_003_R247G182B210A255,1332,37118210.0,-52253.7,-48701.72,179302.9,-237.841,-48962.0,37170082.00337751
PART_000_R31G119B180A255,1333,37175290.0,-3758.715,44751.26,158814.7,-2038.211,-110534.3,37156329.12614592
PART_000_R31G119B180A255,1334,37213320.0,-48754.29,-62379.54,151657.2,-7200.418,-114926.6,37270348.14360865
PART_000_R31G119B180A255,1335,37281680.0,-5540.008,43240.98,151013.3,-6046.514,-93905.41,37264127.89114257
PART_000_R31G119B180A255,1336,37291210.0,-51849.48,-62874.75,150012.9,-4091.381,-50170.43,37349578.88974953
PART_000_R31G119B180A255,1337,37327650.0,-6055.215,46625.3,151212.0,2.218959e-06,-0.001504604,37308312.16641175
PART_000_R31G119B180A255,1338,37291210.0,-51849.48,-62874.75,150012.9,4091.381,50170.43,37349578.88974953
PART_000_R31G119B180A255,1339,37281680.0,-5540.008,43240.98,151013.3,6046.514,93905.41,37264127.89114257
PART_000_R31G119B180A255,1340,37213320.0,-48754.29,-62379.54,151657.2,7200.418,114926.6,37270348.14360865
PART_000_R31G119B180A255,1341,37175290.0,-3758.715,44751.26,158814.7,2038.212,110534.3,37156329.126146086
PART_000_R31G119B180A255,1342,37118210.0,-52253.7,-48701.72,179302.9,237.841,48962.0,37170082.00337751
PART_003_R247G182B210A255,1343,29658920.0,11377.45,-33935.9,509801.0,-6609.006,-27334.83,29683401.520385664
PART_003_R247G182B210A255,1344,29715850.0,45839.81,45409.31,462400.2,-13576.96,-78169.65,29681351.1167934
PART_000_R31G119B180A255,1345,29760860.0,15250.58,-38633.12,446458.9,-19158.46,-86476.44,29783023.671658736
PART_000_R31G119B180A255,1346,29820920.0,47763.01,44127.56,442369.0,-18419.57,-76004.73,29785139.720779706
PART_000_R31G119B180A255,1347,29837700.0,13539.51,-47010.52,442771.3,-10901.05,-40632.86,29864418.92806093
PART_000_R31G119B180A255,1348,29865890.0,48199.75,43205.08,443453.4,2.067157e-05,-0.001106184,29830078.093571078
PART_000_R31G119B180A255,1349,29837700.0,13539.51,-47010.52,442771.3,10901.05,40632.86,29864418.92806093
PART_000_R31G119B180A255,1350,29820920.0,47763.01,44127.56,442369.0,18419.57,76004.72,29785139.72070315
PART_000_R31G119B180A255,1351,29760860.0,15250.58,-38633.12,446458.9,19158.46,86476.44,29783023.671658736
PART_000_R31G119B180A255,1352,29715850.0,45839.81,45409.31,462400.2,13576.96,78169.65,29681351.1167934
PART_002_R214G39B40A255,1353,29658920.0,11377.45,-33935.9,509801.0,6609.006,27334.83,29683401.520385664
PART_003_R247G182B210A255,1354,22235280.0,-44025.8,-34685.34,707259.4,-10111.1,-22483.26,22308337.588894635
PART_003_R247G182B210A255,1355,22279510.0,-10428.61,17969.66,661640.1,-28468.16,-56890.24,22305484.0269559
PART_003_R247G182B210A255,1356,22319490.0,-30137.17,-47858.21,640264.1,-31481.01,-63836.18,22386317.69628884
PART_000_R31G119B180A255,1357,22371190.0,-8477.94,14697.77,633581.6,-28852.97,-57740.33,22395271.50481679
PART_000_R31G119B180A255,1358,22387180.0,-36419.22,-56922.85,634168.3,-16626.29,-30954.23,22460814.75929802
PART_000_R31G119B180A255,1359,22409960.0,-9765.808,11938.45,634304.5,1.185177e-06,-0.0007700336,22435797.27720081
PART_000_R31G119B180A255,1360,22387180.0,-36419.22,-56922.85,634168.3,16626.29,30954.23,22460814.75929802
PART_000_R31G119B180A255,1361,22371190.0,-8477.94,14697.77,633581.6,28852.97,57740.33,22395271.50481679
PART_000_R31G119B180A255,1362,22319490.0,-30137.17,-47858.21,640264.1,31481.01,63836.18,22386317.69628884
PART_002_R214G39B40A255,1363,22279510.0,-10428.61,17969.66,661640.1,28468.16,56890.24,22305484.0269559
PART_002_R214G39B40A255,1364,22235280.0,-44025.8,-34685.34,707259.4,10111.1,22483.26,22308337.588894635
PART_003_R247G182B210A255,1365,14809480.0,6493.786,-16407.94,902929.3,-14570.89,-13876.64,14896811.66738364
PART_003_R247G182B210A255,1366,14841750.0,26956.61,22279.83,852569.3,-34812.11,-38800.94,14890808.776283422
PART_003_R247G182B210A255,1367,14870430.0,13388.05,-25438.1,832007.1,-43995.09,-43256.62,14946510.370852308
PART_003_R247G182B210A255,1368,14907880.0,31744.62,15988.09,827167.9,-36898.56,-38801.27,14953102.344227659
PART_000_R31G119B180A255,1369,14920030.0,12420.33,-31557.84,828823.3,-21588.7,-21144.65,14998598.375758901
PART_000_R31G119B180A255,1370,14936150.0,30669.21,13863.33,829707.5,4.55638e-05,-0.0004829122,14982969.777278114
PART_000_R31G119B180A255,1371,14920030.0,12420.33,-31557.84,828823.3,21588.7,21144.65,14998598.375758901
PART_000_R31G119B180A255,1372,14907880.0,31744.62,15988.09,827167.9,36898.56,38801.26,14953102.344149813
PART_002_R214G39B40A255,1373,14870430.0,13388.05,-25438.1,832007.1,43995.09,43256.62,14946510.370852308
PART_002_R214G39B40A255,1374,14841750.0,26956.61,22279.83,852569.3,34812.11,38800.94,14890808.776283422
PART_002_R214G39B40A255,1375,14809480.0,6493.787,-16407.94,902929.3,14570.89,13876.64,14896811.666887559
PART_003_R247G182B210A255,1376,7405793.0,-17399.79,-12446.1,948792.2,-15677.63,-7724.243,7600564.440424161
PART_003_R247G182B210A255,1377,7421987.0,-5021.554,4784.333,901580.9,-42131.69,-19644.49,7585034.681765387
PART_003_R247G182B210A255,1378,7437499.0,-11006.2,-18130.12,881379.1,-48757.3,-21945.03,7607391.599590033
PART_003_R247G182B210A255,1379,7456794.0,-3456.812,1841.388,875591.4,-43636.07,-19815.33,7610697.43906587
PART_003_R247G182B210A255,1380,7463773.0,-12736.04,-22731.89,877084.6,-24290.57,-10680.46,7634328.123929971
PART_000_R31G119B180A255,1381,7471904.0,-4189.173,640.1194,877964.1,1.749455e-05,-0.0002327626,7626817.887963936
PART_000_R31G119B180A255,1382,7463773.0,-12736.04,-22731.89,877084.6,24290.57,10680.46,7634328.123929971
PART_002_R214G39B40A255,1383,7456794.0,-3456.812,1841.388,875591.4,43636.07,19815.33,7610697.43906587
PART_002_R214G39B40A255,1384,7437499.0,-11006.2,-18130.12,881379.1,48757.3,21945.03,7607391.599590033
PART_002_R214G39B40A255,1385,7421987.0,-5021.554,4784.333,901580.9,42131.69,19644.49,7585034.681765387
PART_002_R214G39B40A255,1386,7405793.0,-17399.79,-12446.1,948792.2,15677.63,7724.243,7600564.440424161
PART_003_R247G182B210A255,1387,0.008105469,-1.226616e-05,-2.251722e-05,1029994.0,-17467.37,-7.803046e-06,1784258.458618636
PART_003_R247G182B210A255,1388,0.008123554,1.649199e-05,4.227492e-06,979422.3,-42363.55,-2.214679e-05,1697995.3287090273
PART_003_R247G182B210A255,1389,0.008146056,3.560478e-06,-1.532809e-05,959633.6,-52698.29,-2.351109e-05,1664638.4796867014
PART_003_R247G182B210A255,1390,0.008161758,9.748535e-06,1.789534e-05,956252.4,-44510.78,-2.240627e-05,1658071.043751113
PART_003_R247G182B210A255,1391,0.008171251,8.432764e-07,-2.488517e-05,959067.9,-26048.47,-1.158933e-05,1661766.9147023156
PART_003_R247G182B210A255,1392,0.008176674,8.747155e-06,1.884898e-05,960215.3,4.571764e-05,-1.833269e-07,1663141.685804992
PART_002_R214G39B40A255,1393,0.008169166,7.513523e-07,-2.487273e-05,959067.9,26048.47,1.12393e-05,1661766.9147023156
PART_002_R214G39B40A255,1394,0.008157298,9.381365e-06,1.770101e-05,956252.4,44510.78,2.209896e-05,1658071.043751113
PART_002_R214G39B40A255,1395,0.008139425,3.047242e-06,-1.545053e-05,959633.6,52698.29,2.33996e-05,1664638.4796867014
PART_002_R214G39B40A255,1396,0.0081151,1.650472e-05,4.026768e-06,979422.3,42363.55,2.199156e-05,1697995.3287090273
PART_002_R214G39B40A255,1397,0.008094701,-1.242601e-05,-2.253691e-05,1029994.0,17467.37,7.684015e-06,1784258.458618636
PART_003_R247G182B210A255,1398,-7405793.0,17399.79,12446.1,948792.2,-15677.63,7724.243,7600564.440424161
PART_003_R247G182B210A255,1399,-7421987.0,5021.554,-4784.333,901580.9,-42131.69,19644.49,7585034.681765387
PART_003_R247G182B210A255,1400,-7437499.0,11006.2,18130.12,881379.1,-48757.3,21945.03,7607391.599590033
PART_003_R247G182B210A255,1401,-7456794.0,3456.812,-1841.388,875591.4,-43636.07,19815.33,7610697.43906587
PART_003_R247G182B210A255,1402,-7463773.0,12736.04,22731.89,877084.6,-24290.57,10680.46,7634328.123929971
PART_001_R158G218B229A255,1403,-7471904.0,4189.173,-640.1194,877964.1,1.753465e-05,0.000232374,7626817.887963936
PART_001_R158G218B229A255,1404,-7463773.0,12736.04,22731.89,877084.6,24290.57,-10680.46,7634328.123929971
PART_002_R214G39B40A255,1405,-7456794.0,3456.812,-1841.388,875591.4,43636.07,-19815.33,7610697.43906587
PART_002_R214G39B40A255,1406,-7437499.0,11006.2,18130.12,881379.1,48757.3,-21945.03,7607391.599590033
PART_002_R214G39B40A255,1407,-7421987.0,5021.554,-4784.333,901580.9,42131.69,-19644.49,7585034.681765387
PART_002_R214G39B40A255,1408,-7405793.0,17399.79,12446.1,948792.2,15677.63,-7724.243,7600564.440424161
PART_003_R247G182B210A255,1409,-14809480.0,-6493.786,16407.94,902929.3,-14570.89,13876.64,14896811.66738364
PART_003_R247G182B210A255,1410,-14841750.0,-26956.61,-22279.83,852569.3,-34812.11,38800.94,14890808.776283422
PART_003_R247G182B210A255,1411,-14870430.0,-13388.05,25438.1,832007.1,-43995.09,43256.62,14946510.370852308
PART_003_R247G182B210A255,1412,-14907880.0,-31744.62,-15988.09,827167.9,-36898.56,38801.26,14953102.344149813
PART_001_R158G218B229A255,1413,-14920030.0,-12420.33,31557.84,828823.3,-21588.7,21144.65,14998598.375758901
PART_001_R158G218B229A255,1414,-14936150.0,-30669.21,-13863.33,829707.5,4.555887e-05,0.0004824794,14982969.777278114
PART_001_R158G218B229A255,1415,-14920030.0,-12420.33,31557.84,828823.3,21588.7,-21144.65,14998598.375758901
PART_001_R158G218B229A255,1416,-14907880.0,-31744.62,-15988.09,827167.9,36898.56,-38801.26,14953102.344149813
PART_002_R214G39B40A255,1417,-14870430.0,-13388.05,25438.1,832007.1,43995.09,-43256.62,14946510.370852308
PART_002_R214G39B40A255,1418,-14841750.0,-26956.61,-22279.83,852569.3,34812.11,-38800.94,14890808.776283422
PART_002_R214G39B40A255,1419,-14809480.0,-6493.787,16407.94,902929.3,14570.89,-13876.64,14896811.666887559
PART_003_R247G182B210A255,1420,-22235280.0,44025.8,34685.34,707259.4,-10111.1,22483.26,22308337.588894635
PART_003_R247G182B210A255,1421,-22279510.0,10428.61,-17969.66,661640.1,-28468.16,56890.24,22305484.0269559
PART_003_R247G182B210A255,1422,-22319490.0,30137.17,47858.21,640264.1,-31481.01,63836.18,22386317.69628884
PART_001_R158G218B229A255,1423,-22371190.0,8477.94,-14697.77,633581.6,-28852.97,57740.33,22395271.50481679
PART_001_R158G218B229A255,1424,-22387180.0,36419.22,56922.85,634168.3,-16626.29,30954.23,22460814.75929802
PART_001_R158G218B229A255,1425,-22409960.0,9765.808,-11938.45,634304.5,1.182993e-06,0.0007696992,22435797.27720081
PART_001_R158G218B229A255,1426,-22387180.0,36419.22,56922.85,634168.3,16626.29,-30954.23,22460814.75929802
PART_001_R158G218B229A255,1427,-22371190.0,8477.94,-14697.77,633581.6,28852.97,-57740.33,22395271.50481679
PART_001_R158G218B229A255,1428,-22319490.0,30137.17,47858.21,640264.1,31481.01,-63836.18,22386317.69628884
PART_002_R214G39B40A255,1429,-22279510.0,10428.61,-17969.66,661640.1,28468.16,-56890.24,22305484.0269559
PART_002_R214G39B40A255,1430,-22235280.0,44025.8,34685.34,707259.4,10111.1,-22483.26,22308337.588894635
PART_003_R247G182B210A255,1431,-29658920.0,-11377.45,33935.9,509801.0,-6609.006,27334.83,29683401.520385664
PART_003_R247G182B210A255,1432,-29715850.0,-45839.81,-45409.31,462400.2,-13576.96,78169.65,29681351.1167934
PART_001_R158G218B229A255,1433,-29760860.0,-15250.58,38633.12,446458.9,-19158.46,86476.44,29783023.671658736
PART_001_R158G218B229A255,1434,-29820920.0,-47763.01,-44127.56,442369.0,-18419.57,76004.73,29785139.720779706
PART_001_R158G218B229A255,1435,-29837700.0,-13539.51,47010.52,442771.3,-10901.05,40632.86,29864418.92806093
PART_001_R158G218B229A255,1436,-29865890.0,-48199.75,-43205.08,443453.4,2.08585e-05,0.001105694,29830078.093571078
PART_001_R158G218B229A255,1437,-29837700.0,-13539.51,47010.52,442771.3,10901.05,-40632.86,29864418.92806093
PART_001_R158G218B229A255,1438,-29820920.0,-47763.01,-44127.56,442369.0,18419.57,-76004.72,29785139.72070315
PART_001_R158G218B229A255,1439,-29760860.0,-15250.58,38633.12,446458.9,19158.46,-86476.44,29783023.671658736
PART_001_R158G218B229A255,1440,-29715850.0,-45839.81,-45409.31,462400.2,13576.96,-78169.65,29681351.1167934
PART_002_R214G39B40A255,1441,-29658920.0,-11377.45,33935.9,509801.0,6609.006,-27334.83,29683401.520385664
PART_003_R247G182B210A255,1442,-37118210.0,52253.7,48701.72,179302.9,-237.841,48962.0,37170082.00337751
PART_001_R158G218B229A255,1443,-37175290.0,3758.715,-44751.26,158814.7,-2038.211,110534.3,37156329.12614592
PART_001_R158G218B229A255,1444,-37213320.0,48754.29,62379.54,151657.2,-7200.418,114926.6,37270348.14360865
PART_001_R158G218B229A255,1445,-37281680.0,5540.008,-43240.98,151013.3,-6046.514,93905.41,37264127.89114257
PART_001_R158G218B229A255,1446,-37291210.0,51849.48,62874.75,150012.9,-4091.381,50170.43,37349578.88974953
PART_001_R158G218B229A255,1447,-37327650.0,6055.215,-46625.3,151212.0,2.184275e-06,0.001504256,37308312.16641175
PART_001_R158G218B229A255,1448,-37291210.0,51849.48,62874.75,150012.9,4091.381,-50170.43,37349578.88974953
PART_001_R158G218B229A255,1449,-37281680.0,5540.008,-43240.98,151013.3,6046.514,-93905.41,37264127.89114257
PART_001_R158G218B229A255,1450,-37213320.0,48754.29,62379.54,151657.2,7200.418,-114926.6,37270348.14360865
PART_001_R158G218B229A255,1451,-37175290.0,3758.715,-44751.26,158814.7,2038.212,-110534.3,37156329.126146086
PART_001_R158G218B229A255,1452,-37118210.0,52253.7,48701.72,179302.9,237.841,-48962.0,37170082.00337751
PART_003_R247G182B210A255,1453,36840850.0,33218.17,57597.59,191126.5,3231.985,-43496.71,36797014.84929028
PART_000_R31G119B180A255,1454,36862490.0,7285.814,-32720.89,164621.7,-1803.561,-96368.46,36876704.06481473
PART_000_R31G119B180A255,1455,36904690.0,34183.03,44981.71,158411.3,-3627.411,-105044.4,36866579.34908323
PART_000_R31G119B180A255,1456,36922360.0,4963.188,-42665.84,153594.9,-4070.425,-81281.69,36942461.20184478
PART_000_R31G119B180A255,1457,36959260.0,36960.9,43821.49,153582.9,-2390.831,-45857.73,36919913.30170632
PART_000_R31G119B180A255,1458,36950100.0,4281.824,-44289.42,152311.8,1.316022e-07,-0.001500019,36971068.971054375
PART_000_R31G119B180A255,1459,36959260.0,36960.9,43821.49,153582.9,2390.831,45857.73,36919913.30170632
PART_000_R31G119B180A255,1460,36922360.0,4963.188,-42665.84,153594.9,4070.425,81281.69,36942461.20184478
PART_000_R31G119B180A255,1461,36904690.0,34183.03,44981.71,158411.3,3627.412,105044.4,36866579.34908353
PART_000_R31G119B180A255,1462,36862490.0,7285.814,-32720.89,164621.7,1803.561,96368.46,36876704.06481473
PART_000_R31G119B180A255,1463,36840850.0,33218.17,57597.59,191126.5,-3231.985,43496.71,36797014.84929028
PART_003_R247G182B210A255,1464,29453720.0,-16697.51,17755.14,500702.5,-5704.387,-25345.89,29466005.753444295
PART_003_R247G182B210A255,1465,29481400.0,-26511.72,-40294.22,451787.1,-7501.911,-59269.32,29525358.23609877
PART_000_R31G119B180A255,1466,29522130.0,-3303.309,23869.7,428486.1,-11534.16,-76390.98,29521489.841491517
PART_000_R31G119B180A255,1467,29542170.0,-32381.19,-51625.34,418982.2,-11590.24,-60276.53,29593268.2642433
PART_000_R31G119B180A255,1468,29575480.0,-4138.033,18717.84,415050.1,-6787.68,-35776.35,29577001.79517772
PART_000_R31G119B180A255,1469,29569790.0,-34405.2,-56644.49,414323.0,1.545264e-05,-0.001102186,29624014.497582518
PART_000_R31G119B180A255,1470,29575480.0,-4138.033,18717.84,415050.1,6787.68,35776.35,29577001.79517772
PART_000_R31G119B180A255,1471,29542170.0,-32381.19,-51625.34,418982.2,11590.24,60276.53,29593268.2642433
PART_000_R31G119B180A255,1472,29522130.0,-3303.308,23869.7,428486.1,11534.16,76390.97,29521489.84091336
PART_000_R31G119B180A255,1473,29481400.0,-26511.72,-40294.22,451787.1,7501.911,59269.31,29525358.23603855
PART_002_R214G39B40A255,1474,29453720.0,-16697.51,17755.14,500702.5,5704.387,25345.89,29466005.753444295
PART_003_R247G182B210A255,1475,22078760.0,22897.67,32291.77,753872.5,-6074.385,-17148.03,22089814.858679563
PART_003_R247G182B210A255,1476,22096820.0,9398.318,-25784.2,698182.5,-18010.86,-40984.91,22138222.926663574
PART_003_R247G182B210A255,1477,22133220.0,31694.68,22832.37,667544.0,-19914.66,-53167.63,22136392.7894202
PART_000_R31G119B180A255,1478,22151850.0,10695.99,-33088.57,654524.1,-18061.53,-43203.61,22192202.287588425
PART_000_R31G119B180A255,1479,22178390.0,31103.65,18514.08,649066.7,-10669.39,-26110.24,22182144.293613203
PART_000_R31G119B180A255,1480,22176000.0,9732.48,-37810.76,648210.5,-5.393237e-06,-0.0007678537,22218462.20739444
PART_000_R31G119B180A255,1481,22178390.0,31103.65,18514.08,649066.7,10669.39,26110.23,22182144.29357789
PART_000_R31G119B180A255,1482,22151850.0,10695.99,-33088.57,654524.1,18061.53,43203.6,22192202.287530024
PART_000_R31G119B180A255,1483,22133220.0,31694.68,22832.37,667544.0,19914.66,53167.63,22136392.7894202
PART_002_R214G39B40A255,1484,22096820.0,9398.318,-25784.2,698182.5,18010.86,40984.91,22138222.926663574
PART_002_R214G39B40A255,1485,22078760.0,22897.67,32291.77,753872.5,6074.385,17148.03,22089814.858679563
PART_003_R247G182B210A255,1486,14716120.0,-12000.8,9596.009,886363.5,-9372.031,-11732.9,14797213.439016966
PART_003_R247G182B210A255,1487,14732080.0,-16469.99,-22576.0,830958.9,-21702.99,-26654.96,14821769.175273301
PART_003_R247G182B210A255,1488,14756470.0,-2531.697,7281.163,798616.7,-28250.82,-34634.36,14818999.905884486
PART_003_R247G182B210A255,1489,14770980.0,-16259.0,-32274.76,782401.4,-23272.92,-28207.76,14857321.10409984
PART_000_R31G119B180A255,1490,14790580.0,-3396.705,3587.884,775666.4,-13900.4,-17125.3,14851427.549866503
PART_000_R31G119B180A255,1491,14788590.0,-18272.32,-35742.74,774293.6,3.617999e-05,-0.0004823066,14876180.652964193
PART_000_R31G119B180A255,1492,14790580.0,-3396.705,3587.885,775666.4,13900.4,17125.3,14851427.549368909
PART_000_R31G119B180A255,1493,14770980.0,-16259.0,-32274.76,782401.4,23272.92,28207.76,14857321.10409984
PART_002_R214G39B40A255,1494,14756470.0,-2531.697,7281.164,798616.7,28250.82,34634.36,14818999.905387169
PART_002_R214G39B40A255,1495,14732080.0,-16469.99,-22576.0,830958.9,21702.99,26654.96,14821769.175273301
PART_002_R214G39B40A255,1496,14716120.0,-12000.8,9596.009,886363.5,9372.031,11732.9,14797213.439016966
PART_003_R247G182B210A255,1497,7354944.0,8232.085,10646.52,1015293.0,-10264.78,-5539.151,7553099.456803849
PART_003_R247G182B210A255,1498,7361770.0,4392.194,-9122.486,956645.0,-26418.59,-13266.08,7548427.266251396
PART_003_R247G182B210A255,1499,7375274.0,12179.78,6823.098,923485.4,-31137.22,-17281.55,7537699.07387332
PART_003_R247G182B210A255,1500,7382757.0,5379.825,-12964.78,908493.6,-28111.32,-13961.62,7552509.712679181
PART_003_R247G182B210A255,1501,7392717.0,12596.95,4256.09,901985.4,-15585.73,-8521.054,7547812.77099134
PART_000_R31G119B180A255,1502,7392174.0,4903.63,-14673.37,900777.0,7.402589e-06,-0.0002326164,7559825.724289511
PART_000_R31G119B180A255,1503,7392717.0,12596.95,4256.09,901985.4,15585.73,8521.054,7547812.77099134
PART_002_R214G39B40A255,1504,7382757.0,5379.825,-12964.78,908493.6,28111.32,13961.62,7552509.712679181
PART_002_R214G39B40A255,1505,7375274.0,12179.78,6823.098,923485.4,31137.22,17281.55,7537699.07387332
PART_002_R214G39B40A255,1506,7361770.0,4392.194,-9122.486,956645.0,26418.59,13266.08,7548427.266251396
PART_002_R214G39B40A255,1507,7354944.0,8232.085,10646.52,1015293.0,10264.78,5539.151,7553099.456803849
PART_003_R247G182B210A255,1508,0.008037424,-7.069384e-06,1.802528e-06,1009830.0,-10858.38,-5.912825e-06,1749177.9783511662
PART_003_R247G182B210A255,1509,0.008046938,-3.661081e-06,-3.661833e-05,953340.6,-26581.91,-1.400672e-05,1651876.112982697
PART_003_R247G182B210A255,1510,0.008065778,6.270241e-06,1.382524e-05,920321.8,-33874.07,-1.974568e-05,1595123.5076071115
PART_003_R247G182B210A255,1511,0.008068969,-1.393056e-05,-2.767394e-05,903638.9,-28172.21,-1.488252e-05,1565908.938932428
PART_003_R247G182B210A255,1512,0.008081152,5.532219e-06,7.898115e-06,896523.1,-16930.11,-9.805164e-06,1553100.4128435052
PART_003_R247G182B210A255,1513,0.008077389,-1.553731e-05,-2.845111e-05,895080.0,3.47777e-05,-1.683701e-07,1550324.0368387506
PART_002_R214G39B40A255,1514,0.008078915,5.228498e-06,7.834596e-06,896523.1,16930.11,9.463476e-06,1553100.4128435052
PART_002_R214G39B40A255,1515,0.00806453,-1.429156e-05,-2.773201e-05,903638.9,28172.21,1.461613e-05,1565908.938932428
PART_002_R214G39B40A255,1516,0.008059448,6.42223e-06,1.390073e-05,920321.8,33874.07,1.954221e-05,1595123.5076071115
PART_002_R214G39B40A255,1517,0.008038294,-3.376126e-06,-3.667807e-05,953340.6,26581.91,1.385273e-05,1651876.112982697
PART_002_R214G39B40A255,1518,0.008026598,-7.421766e-06,1.717809e-06,1009830.0,10858.38,5.814837e-06,1749177.9783511662
PART_003_R247G182B210A255,1519,-7354944.0,-8232.085,-10646.52,1015293.0,-10264.78,5539.151,7553099.456803849
PART_003_R247G182B210A255,1520,-7361770.0,-4392.194,9122.486,956645.0,-26418.59,13266.08,7548427.266251396
PART_003_R247G182B210A255,1521,-7375274.0,-12179.78,-6823.098,923485.4,-31137.22,17281.55,7537699.07387332
PART_003_R247G182B210A255,1522,-7382757.0,-5379.825,12964.78,908493.6,-28111.32,13961.62,7552509.712679181
PART_003_R247G182B210A255,1523,-7392717.0,-12596.95,-4256.09,901985.4,-15585.73,8521.054,7547812.77099134
PART_001_R158G218B229A255,1524,-7392174.0,-4903.63,14673.37,900777.0,7.192603e-06,0.0002321287,7559825.724289511
PART_001_R158G218B229A255,1525,-7392717.0,-12596.95,-4256.09,901985.4,15585.73,-8521.054,7547812.77099134
PART_002_R214G39B40A255,1526,-7382757.0,-5379.825,12964.78,908493.6,28111.32,-13961.62,7552509.712679181
PART_002_R214G39B40A255,1527,-7375274.0,-12179.78,-6823.098,923485.4,31137.22,-17281.55,7537699.07387332
PART_002_R214G39B40A255,1528,-7361770.0,-4392.194,9122.486,956645.0,26418.59,-13266.08,7548427.266251396
PART_002_R214G39B40A255,1529,-7354944.0,-8232.085,-10646.52,1015293.0,10264.78,-5539.151,7553099.456803849
PART_003_R247G182B210A255,1530,-14716120.0,12000.8,-9596.009,886363.5,-9372.031,11732.9,14797213.439016966
PART_003_R247G182B210A255,1531,-14732080.0,16469.99,22576.0,830958.9,-21702.99,26654.96,14821769.175273301
PART_003_R247G182B210A255,1532,-14756470.0,2531.697,-7281.163,798616.7,-28250.82,34634.36,14818999.905884486
PART_003_R247G182B210A255,1533,-14770980.0,16259.0,32274.76,782401.4,-23272.92,28207.76,14857321.10409984
PART_001_R158G218B229A255,1534,-14790580.0,3396.705,-3587.885,775666.4,-13900.4,17125.3,14851427.549368909
PART_001_R158G218B229A255,1535,-14788590.0,18272.32,35742.74,774293.6,3.596034e-05,0.0004818692,14876180.652964193
PART_001_R158G218B229A255,1536,-14790580.0,3396.705,-3587.885,775666.4,13900.4,-17125.3,14851427.549368909
PART_001_R158G218B229A255,1537,-14770980.0,16259.0,32274.76,782401.4,23272.92,-28207.76,14857321.10409984
PART_002_R214G39B40A255,1538,-14756470.0,2531.697,-7281.164,798616.7,28250.82,-34634.36,14818999.905387169
PART_002_R214G39B40A255,1539,-14732080.0,16469.99,22576.0,830958.9,21702.99,-26654.96,14821769.175273301
PART_002_R214G39B40A255,1540,-14716120.0,12000.8,-9596.009,886363.5,9372.031,-11732.9,14797213.439016966
PART_003_R247G182B210A255,1541,-22078760.0,-22897.67,-32291.77,753872.5,-6074.385,17148.03,22089814.858679563
PART_003_R247G182B210A255,1542,-22096820.0,-9398.317,25784.2,698182.5,-18010.86,40984.91,22138222.92716163
PART_003_R247G182B210A255,1543,-22133220.0,-31694.68,-22832.37,667544.0,-19914.66,53167.63,22136392.7894202
PART_001_R158G218B229A255,1544,-22151850.0,-10695.99,33088.57,654524.1,-18061.53,43203.61,22192202.287588425
PART_001_R158G218B229A255,1545,-22178390.0,-31103.65,-18514.08,649066.7,-10669.39,26110.24,22182144.293613203
PART_001_R158G218B229A255,1546,-22176000.0,-9732.48,37810.76,648210.5,-5.417444e-06,0.000767232,22218462.20739444
PART_001_R158G218B229A255,1547,-22178390.0,-31103.65,-18514.08,649066.7,10669.39,-26110.23,22182144.29357789
PART_001_R158G218B229A255,1548,-22151850.0,-10695.99,33088.57,654524.1,18061.53,-43203.6,22192202.287530024
PART_001_R158G218B229A255,1549,-22133220.0,-31694.68,-22832.37,667544.0,19914.66,-53167.63,22136392.7894202
PART_002_R214G39B40A255,1550,-22096820.0,-9398.318,25784.2,698182.5,18010.86,-40984.91,22138222.926663574
PART_002_R214G39B40A255,1551,-22078760.0,-22897.67,-32291.77,753872.5,6074.385,-17148.03,22089814.858679563
PART_003_R247G182B210A255,1552,-29453720.0,16697.51,-17755.14,500702.5,-5704.387,25345.89,29466005.753444295
PART_003_R247G182B210A255,1553,-29481400.0,26511.72,40294.22,451787.1,-7501.911,59269.32,29525358.23609877
PART_001_R158G218B229A255,1554,-29522130.0,3303.309,-23869.7,428486.1,-11534.16,76390.98,29521489.841491517
PART_001_R158G218B229A255,1555,-29542170.0,32381.19,51625.34,418982.2,-11590.24,60276.53,29593268.2642433
PART_001_R158G218B229A255,1556,-29575480.0,4138.033,-18717.84,415050.1,-6787.68,35776.35,29577001.79517772
PART_001_R158G218B229A255,1557,-29569790.0,34405.2,56644.49,414323.0,1.546201e-05,0.001101568,29624014.497582518
PART_001_R158G218B229A255,1558,-29575480.0,4138.032,-18717.84,415050.1,6787.68,-35776.35,29577001.79467729
PART_001_R158G218B229A255,1559,-29542170.0,32381.19,51625.34,418982.2,11590.24,-60276.53,29593268.2642433
PART_001_R158G218B229A255,1560,-29522130.0,3303.308,-23869.7,428486.1,11534.16,-76390.97,29521489.84091336
PART_001_R158G218B229A255,1561,-29481400.0,26511.72,40294.22,451787.1,7501.911,-59269.31,29525358.23603855
PART_002_R214G39B40A255,1562,-29453720.0,16697.51,-17755.14,500702.5,5704.387,-25345.89,29466005.753444295
PART_003_R247G182B210A255,1563,-36840850.0,-33218.17,-57597.59,191126.5,3231.985,43496.71,36797014.84929028
PART_001_R158G218B229A255,1564,-36862490.0,-7285.814,32720.89,164621.7,-1803.561,96368.46,36876704.06481473
PART_001_R158G218B229A255,1565,-36904690.0,-34183.03,-44981.71,158411.3,-3627.411,105044.4,36866579.34908323
PART_001_R158G218B229A255,1566,-36922360.0,-4963.188,42665.84,153594.9,-4070.425,81281.69,36942461.20184478
PART_001_R158G218B229A255,1567,-36959260.0,-36960.9,-43821.49,153582.9,-2390.831,45857.73,36919913.30170632
PART_001_R158G218B229A255,1568,-36950100.0,-4281.824,44289.42,152311.8,2.674841e-09,0.001499599,36971068.971054375
PART_001_R158G218B229A255,1569,-36959260.0,-36960.9,-43821.49,153582.9,2390.831,-45857.73,36919913.30170632
PART_001_R158G218B229A255,1570,-36922360.0,-4963.188,42665.84,153594.9,4070.425,-81281.69,36942461.20184478
PART_001_R158G218B229A255,1571,-36904690.0,-34183.03,-44981.71,158411.3,3627.412,-105044.4,36866579.34908353
PART_001_R158G218B229A255,1572,-36862490.0,-7285.814,32720.89,164621.7,1803.561,-96368.46,36876704.06481473
PART_001_R158G218B229A255,1573,-36840850.0,-33218.17,-57597.59,191126.5,-3231.985,-43496.71,36797014.84929028
PART_003_R247G182B210A255,1574,36545780.0,-30000.6,-28425.71,187034.9,1319.308,-40001.15,36576493.51438277
PART_000_R31G119B180A255,1575,36566200.0,3308.487,32982.21,162527.5,545.8513,-89770.48,36549478.54460137
PART_000_R31G119B180A255,1576,36575000.0,-27583.46,-41155.54,152800.4,-2665.587,-92123.72,36610676.023267984
PART_000_R31G119B180A255,1577,36606410.0,1744.317,24967.68,148545.3,-2010.069,-75624.06,36594198.609685086
PART_000_R31G119B180A255,1578,36606440.0,-28829.02,-47651.55,145835.4,-1623.954,-40008.34,36645620.10269116
PART_000_R31G119B180A255,1579,36625470.0,1388.041,23343.59,145854.6,-6.40981e-07,-0.00151475,36613980.66657972
PART_000_R31G119B180A255,1580,36606440.0,-28829.02,-47651.55,145835.4,1623.954,40008.33,36645620.102658406
PART_000_R31G119B180A255,1581,36606410.0,1744.317,24967.68,148545.3,2010.069,75624.06,36594198.609685086
PART_000_R31G119B180A255,1582,36575000.0,-27583.46,-41155.54,152800.4,2665.587,92123.72,36610676.023267984
PART_000_R31G119B180A255,1583,36566200.0,3308.487,32982.21,162527.5,-545.8513,89770.48,36549478.54460137
PART_000_R31G119B180A255,1584,36545780.0,-30000.6,-28425.71,187034.9,-1319.308,40001.15,36576493.51438277
PART_003_R247G182B210A255,1585,29220080.0,1999.343,-27993.24,521583.4,-3395.77,-18383.32,29247062.394466035
PART_003_R247G182B210A255,1586,29242430.0,26455.64,29001.67,466710.7,-3956.786,-53624.97,29226031.377051838
PART_000_R31G119B180A255,1587,29256450.0,5248.298,-28069.4,440854.2,-6543.688,-61063.15,29278027.01081353
PART_000_R31G119B180A255,1588,29282620.0,26062.03,24738.24,427891.8,-6998.839,-54198.64,29266758.432558995
PART_000_R31G119B180A255,1589,29287420.0,4577.013,-36119.08,422019.9,-4115.48,-28930.77,29312371.296820343
PART_000_R31G119B180A255,1590,29301250.0,26241.54,22235.01,420361.6,1.241777e-05,-0.001118338,29286063.907757614
PART_000_R31G119B180A255,1591,29287420.0,4577.013,-36119.08,422019.9,4115.48,28930.76,29312371.296790734
PART_000_R31G119B180A255,1592,29282620.0,26062.03,24738.24,427891.8,6998.839,54198.63,29266758.432503436
PART_000_R31G119B180A255,1593,29256450.0,5248.298,-28069.4,440854.2,6543.688,61063.14,29278027.01075096
PART_000_R31G119B180A255,1594,29242430.0,26455.64,29001.67,466710.7,3956.786,53624.97,29226031.377051838
PART_002_R214G39B40A255,1595,29220080.0,1999.344,-27993.24,521583.4,3395.77,18383.32,29247062.393967044
PART_003_R247G182B210A255,1596,21914330.0,-23602.93,-21847.21,742397.3,-3611.422,-13251.27,21974722.174008153
PART_003_R247G182B210A255,1597,21929020.0,-3084.382,12928.79,684403.0,-11924.03,-34441.65,21956216.980921272
PART_003_R247G182B210A255,1598,21942540.0,-15641.55,-30932.62,648521.0,-11648.8,-39892.96,21994650.59466633
PART_000_R31G119B180A255,1599,21965150.0,-1534.655,10027.41,628838.6,-11253.98,-37243.32,21988002.257666457
PART_000_R31G119B180A255,1600,21969790.0,-19189.97,-37576.57,619956.7,-6492.285,-19984.07,22024401.109572005
PART_000_R31G119B180A255,1601,21981260.0,-1982.798,7339.115,616923.2,-1.082205e-05,-0.0007819216,22004542.88643949
PART_000_R31G119B180A255,1602,21969790.0,-19189.97,-37576.57,619956.7,6492.285,19984.06,22024401.109544788
PART_000_R31G119B180A255,1603,21965150.0,-1534.655,10027.41,628838.6,11253.98,37243.32,21988002.257666457
PART_000_R31G119B180A255,1604,21942540.0,-15641.55,-30932.62,648521.0,11648.8,39892.96,21994650.59466633
PART_002_R214G39B40A255,1605,21929020.0,-3084.382,12928.79,684403.0,11924.03,34441.65,21956216.980921272
PART_002_R214G39B40A255,1606,21914330.0,-23602.93,-21847.21,742397.3,3611.422,13251.27,21974722.174008153
PART_003_R247G182B210A255,1607,14602320.0,2761.268,-13225.76,927306.9,-5870.71,-7464.835,14695602.714273857
PART_003_R247G182B210A255,1608,14614410.0,15359.06,14778.97,864284.1,-13141.59,-21757.44,14675955.05335059
PART_003_R247G182B210A255,1609,14623480.0,5688.158,-17577.85,825496.3,-17947.08,-24856.18,14699239.079324601
PART_003_R247G182B210A255,1610,14639960.0,17983.92,9435.984,803313.9,-14456.86,-23236.75,14692359.639448045
PART_000_R31G119B180A255,1611,14643700.0,5570.394,-21721.72,792835.8,-8729.664,-12676.2,14716030.892194368
PART_000_R31G119B180A255,1612,14651620.0,17356.47,7656.356,789468.3,2.953856e-05,-0.000491984,14702839.78598561
PART_000_R31G119B180A255,1613,14643700.0,5570.394,-21721.72,792835.8,8729.664,12676.2,14716030.892194368
PART_000_R31G119B180A255,1614,14639960.0,17983.92,9435.983,803313.9,14456.86,23236.75,14692359.639946233
PART_002_R214G39B40A255,1615,14623480.0,5688.158,-17577.85,825496.3,17947.08,24856.18,14699239.079324601
PART_002_R214G39B40A255,1616,14614410.0,15359.06,14778.97,864284.1,13141.59,21757.44,14675955.05335059
PART_002_R214G39B40A255,1617,14602320.0,2761.268,-13225.76,927306.9,5870.71,7464.835,14695602.714273857
PART_003_R247G182B210A255,1618,7302303.0,-8732.492,-7870.94,999320.3,-5910.414,-3989.669,7512723.714315517
PART_003_R247G182B210A255,1619,7307756.0,-1457.142,3815.939,937158.0,-17014.49,-10505.81,7484789.738747367
PART_003_R247G182B210A255,1620,7313087.0,-5557.635,-11228.56,896979.9,-18988.91,-12050.44,7484606.277959112
PART_003_R247G182B210A255,1621,7321403.0,-595.0087,1867.548,872724.3,-17961.75,-11355.57,7475287.8138617035
PART_003_R247G182B210A255,1622,7323685.0,-6266.464,-14393.62,860883.4,-9669.24,-6114.365,7484088.421341107
PART_000_R31G119B180A255,1623,7327705.0,-842.1257,970.3568,857089.6,-1.832823e-07,-0.0002378141,7476505.2760342015
PART_000_R31G119B180A255,1624,7323685.0,-6266.464,-14393.62,860883.4,9669.24,6114.364,7484088.421338656
PART_002_R214G39B40A255,1625,7321403.0,-595.0087,1867.548,872724.3,17961.75,11355.57,7475287.8138617035
PART_002_R214G39B40A255,1626,7313087.0,-5557.635,-11228.56,896979.9,18988.91,12050.44,7484606.277959112
PART_002_R214G39B40A255,1627,7307756.0,-1457.142,3815.938,937158.0,17014.49,10505.81,7484789.739234933
PART_002_R214G39B40A255,1628,7302303.0,-8732.492,-7870.94,999320.3,5910.414,3989.669,7512723.714315517
PART_003_R247G182B210A255,1629,0.007989931,-5.372879e-06,-1.920341e-05,1058210.0,-6916.751,-3.694401e-06,1832912.6374798084
PART_003_R247G182B210A255,1630,0.007996478,1.721065e-05,8.274279e-07,993737.3,-16287.14,-1.196751e-05,1721434.6566227858
PART_003_R247G182B210A255,1631,0.008006806,5.856402e-06,-8.950448e-06,953145.0,-21474.45,-1.291493e-05,1651314.5154946733
PART_003_R247G182B210A255,1632,0.008011177,9.388151e-06,1.449193e-05,929553.9,-17696.55,-1.301598e-05,1610326.3217936102
PART_003_R247G182B210A255,1633,0.00801531,5.443571e-06,-1.612895e-05,918079.9,-10779.28,-6.619953e-06,1590270.6332520843
PART_003_R247G182B210A255,1634,0.00801639,8.748375e-06,1.561908e-05,914257.8,2.657851e-05,-1.718697e-07,1583540.9608161452
PART_002_R214G39B40A255,1635,0.008013062,5.590273e-06,-1.610509e-05,918079.9,10779.28,6.318598e-06,1590270.6332520843
PART_002_R214G39B40A255,1636,0.008006843,9.217069e-06,1.453563e-05,929553.9,17696.55,1.261495e-05,1610326.3217936102
PART_002_R214G39B40A255,1637,0.008000567,6.890217e-06,-8.59408e-06,953145.0,21474.45,1.268811e-05,1651314.5154946733
PART_002_R214G39B40A255,1638,0.007987963,1.788038e-05,1.160309e-06,993737.3,16287.14,1.175396e-05,1721434.6566227858
PART_002_R214G39B40A255,1639,0.007978991,-5.436604e-06,-1.92197e-05,1058210.0,6916.751,3.768672e-06,1832912.6374798084
PART_003_R247G182B210A255,1640,-7302303.0,8732.492,7870.94,999320.3,-5910.414,3989.669,7512723.714315517
PART_003_R247G182B210A255,1641,-7307756.0,1457.142,-3815.938,937158.0,-17014.49,10505.81,7484789.739234933
PART_003_R247G182B210A255,1642,-7313087.0,5557.635,11228.56,896979.9,-18988.91,12050.44,7484606.277959112
PART_003_R247G182B210A255,1643,-7321403.0,595.0087,-1867.548,872724.3,-17961.75,11355.57,7475287.8138617035
PART_003_R247G182B210A255,1644,-7323685.0,6266.464,14393.62,860883.4,-9669.24,6114.365,7484088.421341107
PART_001_R158G218B229A255,1645,-7327705.0,842.1257,-970.3568,857089.6,-1.201226e-07,0.0002374409,7476505.2760342015
PART_001_R158G218B229A255,1646,-7323685.0,6266.464,14393.62,860883.4,9669.24,-6114.364,7484088.421338656
PART_002_R214G39B40A255,1647,-7321403.0,595.0087,-1867.548,872724.3,17961.75,-11355.57,7475287.8138617035
PART_002_R214G39B40A255,1648,-7313087.0,5557.635,11228.56,896979.9,18988.91,-12050.44,7484606.277959112
PART_002_R214G39B40A255,1649,-7307756.0,1457.142,-3815.938,937158.0,17014.49,-10505.81,7484789.739234933
PART_002_R214G39B40A255,1650,-7302303.0,8732.492,7870.939,999320.3,5910.414,-3989.669,7512723.713829055
PART_003_R247G182B210A255,1651,-14602320.0,-2761.268,13225.76,927306.9,-5870.71,7464.835,14695602.714273857
PART_003_R247G182B210A255,1652,-14614410.0,-15359.06,-14778.97,864284.1,-13141.59,21757.44,14675955.05335059
PART_003_R247G182B210A255,1653,-14623480.0,-5688.158,17577.85,825496.3,-17947.08,24856.18,14699239.079324601
PART_003_R247G182B210A255,1654,-14639960.0,-17983.92,-9435.984,803313.9,-14456.86,23236.75,14692359.639448045
PART_001_R158G218B229A255,1655,-14643700.0,-5570.394,21721.72,792835.8,-8729.664,12676.2,14716030.892194368
PART_001_R158G218B229A255,1656,-14651620.0,-17356.47,-7656.356,789468.3,2.949146e-05,0.0004916066,14702839.78598561
PART_001_R158G218B229A255,1657,-14643700.0,-5570.394,21721.72,792835.8,8729.664,-12676.2,14716030.892194368
PART_001_R158G218B229A255,1658,-14639960.0,-17983.92,-9435.983,803313.9,14456.86,-23236.75,14692359.639946233
PART_002_R214G39B40A255,1659,-14623480.0,-5688.158,17577.85,825496.3,17947.08,-24856.18,14699239.079324601
PART_002_R214G39B40A255,1660,-14614410.0,-15359.06,-14778.97,864284.1,13141.59,-21757.44,14675955.05335059
PART_002_R214G39B40A255,1661,-14602320.0,-2761.268,13225.76,927306.9,5870.71,-7464.835,14695602.714273857
PART_003_R247G182B210A255,1662,-21914330.0,23602.93,21847.21,742397.3,-3611.422,13251.27,21974722.174008153
PART_003_R247G182B210A255,1663,-21929020.0,3084.381,-12928.79,684403.0,-11924.03,34441.65,21956216.98042146
PART_003_R247G182B210A255,1664,-21942540.0,15641.55,30932.62,648521.0,-11648.8,39892.96,21994650.59466633
PART_001_R158G218B229A255,1665,-21965150.0,1534.655,-10027.41,628838.6,-11253.98,37243.32,21988002.257666457
PART_001_R158G218B229A255,1666,-21969790.0,19189.97,37576.57,619956.7,-6492.285,19984.07,22024401.109572005
PART_001_R158G218B229A255,1667,-21981260.0,1982.798,-7339.115,616923.2,-1.088584e-05,0.0007813278,22004542.88643949
PART_001_R158G218B229A255,1668,-21969790.0,19189.97,37576.57,619956.7,6492.285,-19984.06,22024401.109544788
PART_001_R158G218B229A255,1669,-21965150.0,1534.655,-10027.41,628838.6,11253.98,-37243.32,21988002.257666457
PART_001_R158G218B229A255,1670,-21942540.0,15641.55,30932.62,648521.0,11648.8,-39892.96,21994650.59466633
PART_002_R214G39B40A255,1671,-21929020.0,3084.381,-12928.79,684403.0,11924.03,-34441.65,21956216.98042146
PART_002_R214G39B40A255,1672,-21914330.0,23602.93,21847.21,742397.3,3611.422,-13251.27,21974722.174008153
PART_003_R247G182B210A255,1673,-29220080.0,-1999.343,27993.24,521583.4,-3395.77,18383.32,29247062.394466035
PART_003_R247G182B210A255,1674,-29242430.0,-26455.64,-29001.67,466710.7,-3956.786,53624.97,29226031.377051838
PART_001_R158G218B229A255,1675,-29256450.0,-5248.298,28069.4,440854.2,-6543.688,61063.15,29278027.01081353
PART_001_R158G218B229A255,1676,-29282620.0,-26062.03,-24738.24,427891.8,-6998.839,54198.64,29266758.432558995
PART_001_R158G218B229A255,1677,-29287420.0,-4577.013,36119.08,422019.9,-4115.48,28930.77,29312371.296820343
PART_001_R158G218B229A255,1678,-29301250.0,-26241.54,-22235.01,420361.6,1.218666e-05,0.001117837,29286063.907757614
PART_001_R158G218B229A255,1679,-29287420.0,-4577.013,36119.08,422019.9,4115.48,-28930.76,29312371.296790734
PART_001_R158G218B229A255,1680,-29282620.0,-26062.03,-24738.24,427891.8,6998.839,-54198.63,29266758.432503436
PART_001_R158G218B229A255,1681,-29256450.0,-5248.298,28069.4,440854.2,6543.688,-61063.14,29278027.01075096
PART_001_R158G218B229A255,1682,-29242430.0,-26455.64,-29001.67,466710.7,3956.786,-53624.97,29226031.377051838
PART_002_R214G39B40A255,1683,-29220080.0,-1999.344,27993.24,521583.4,3395.77,-18383.32,29247062.393967044
PART_003_R247G182B210A255,1684,-36545780.0,30000.6,28425.71,187034.9,1319.308,40001.15,36576493.51438277
PART_001_R158G218B229A255,1685,-36566200.0,-3308.487,-32982.21,162527.5,545.8513,89770.48,36549478.54460137
PART_001_R158G218B229A255,1686,-36575000.0,27583.46,41155.54,152800.4,-2665.587,92123.72,36610676.023267984
PART_001_R158G218B229A255,1687,-36606410.0,-1744.317,-24967.68,148545.3,-2010.069,75624.06,36594198.609685086
PART_001_R158G218B229A255,1688,-36606440.0,28829.02,47651.55,145835.4,-1623.954,40008.34,36645620.10269116
PART_001_R158G218B229A255,1689,-36625470.0,-1388.041,-23343.59,145854.6,-1.006988e-06,0.001514385,36613980.66657972
PART_001_R158G218B229A255,1690,-36606440.0,28829.02,47651.55,145835.4,1623.954,-40008.33,36645620.102658406
PART_001_R158G218B229A255,1691,-36606410.0,-1744.317,-24967.68,148545.3,2010.069,-75624.06,36594198.609685086
PART_001_R158G218B229A255,1692,-36575000.0,27583.46,41155.54,152800.4,2665.587,-92123.72,36610676.023267984
PART_001_R158G218B229A255,1693,-36566200.0,-3308.487,-32982.21,162527.5,-545.8513,-89770.48,36549478.54460137
PART_001_R158G218B229A255,1694,-36545780.0,30000.6,28425.71,187034.9,-1319.308,-40001.15,36576493.51438277
PART_003_R247G182B210A255,1695,36244240.0,17749.52,41695.18,192792.2,3233.539,-37327.43,36216121.22444497
PART_000_R31G119B180A255,1696,36248150.0,2037.233,-20864.33,165142.2,311.1699,-81654.77,36258973.04762285
PART_000_R31G119B180A255,1697,36264350.0,18098.0,29519.4,156478.7,-968.067,-87214.61,36241870.95446376
PART_000_R31G119B180A255,1698,36267940.0,-36.63301,-29763.87,150065.2,-1316.401,-67402.64,36283968.26060816
PART_000_R31G119B180A255,1699,36285370.0,19817.03,25422.44,148231.8,-817.6212,-37797.68,36263718.59512164
PART_000_R31G119B180A255,1700,36278640.0,-567.59,-32652.89,146775.3,-1.584397e-06,-0.001511291,36296151.187834606
PART_000_R31G119B180A255,1701,36285370.0,19817.03,25422.44,148231.8,817.6212,37797.68,36263718.59512164
PART_000_R31G119B180A255,1702,36267940.0,-36.63294,-29763.87,150065.2,1316.401,67402.64,36283968.26057321
PART_000_R31G119B180A255,1703,36264350.0,18098.0,29519.4,156478.7,968.067,87214.6,36241870.95439157
PART_000_R31G119B180A255,1704,36248150.0,2037.233,-20864.33,165142.2,-311.1698,81654.77,36258973.04762285
PART_000_R31G119B180A255,1705,36244240.0,17749.52,41695.18,192792.2,-3233.539,37327.43,36216121.22444497
PART_003_R247G182B210A255,1706,28986300.0,-7390.371,12480.54,514331.7,-3199.491,-17680.71,28997464.11269819
PART_003_R247G182B210A255,1707,28995490.0,-14126.83,-25895.19,460102.5,-1476.609,-43763.01,29026543.67656969
PART_000_R31G119B180A255,1708,29011970.0,1179.521,17912.76,431339.1,-3395.099,-56424.25,29012213.732369382
PART_000_R31G119B180A255,1709,29016510.0,-18001.04,-32391.09,416303.3,-4044.934,-45075.98,29050764.471871935
PART_000_R31G119B180A255,1710,29032530.0,813.9228,13450.27,408458.0,-2358.908,-26600.08,29034057.525941167
PART_000_R31G119B180A255,1711,29027320.0,-19051.51,-35949.69,406321.6,1.015004e-05,-0.00111467,29063346.434769507
PART_000_R31G119B180A255,1712,29032530.0,813.9228,13450.27,408458.0,2358.908,26600.07,29034057.52591368
PART_000_R31G119B180A255,1713,29016510.0,-18001.04,-32391.09,416303.3,4044.934,45075.98,29050764.471871935
PART_000_R31G119B180A255,1714,29011970.0,1179.521,17912.77,431339.1,3395.099,56424.25,29012213.7273754
PART_000_R31G119B180A255,1715,28995490.0,-14126.83,-25895.19,460102.5,1476.609,43763.0,29026543.676524457
PART_002_R214G39B40A255,1716,28986300.0,-7390.371,12480.54,514331.7,3199.491,17680.71,28997464.11269819
PART_003_R247G182B210A255,1717,21736690.0,12674.28,22499.32,764010.6,-1953.606,-10858.88,21759389.19172823
PART_003_R247G182B210A255,1718,21739660.0,2501.091,-18536.03,702255.2,-7587.382,-26467.43,21781725.565601394
PART_003_R247G182B210A255,1719,21755060.0,17857.39,14925.85,662745.9,-6852.981,-35048.1,21769042.968466572
PART_000_R31G119B180A255,1720,21760080.0,3706.791,-21435.11,640831.4,-6604.988,-29241.78,21797295.58175024
PART_000_R31G119B180A255,1721,21772340.0,17042.17,12061.78,629337.4,-3940.88,-17699.38,21785099.0686048
PART_000_R31G119B180A255,1722,21769610.0,3389.611,-24344.69,626100.9,-1.344807e-05,-0.0007793582,21807081.352918703
PART_000_R31G119B180A255,1723,21772340.0,17042.17,12061.78,629337.4,3940.88,17699.38,21785099.0686048
PART_000_R31G119B180A255,1724,21760080.0,3706.791,-21435.11,640831.4,6604.988,29241.78,21797295.58175024
PART_000_R31G119B180A255,1725,21755060.0,17857.39,14925.86,662745.9,6852.981,35048.1,21769042.963472538
PART_002_R214G39B40A255,1726,21739660.0,2501.091,-18536.03,702255.2,7587.382,26467.43,21781725.565601394
PART_002_R214G39B40A255,1727,21736690.0,12674.28,22499.32,764010.6,1953.606,10858.88,21759389.19172823
PART_003_R247G182B210A255,1728,14489850.0,-4938.436,7252.74,914975.9,-3804.343,-6615.778,14575117.47224154
PART_003_R247G182B210A255,1729,14494600.0,-9218.735,-13928.01,851276.2,-7783.275,-15717.34,14580947.11925394
PART_003_R247G182B210A255,1730,14504110.0,-104.2942,6189.492,808071.2,-11337.46,-21009.79,14568515.110356553
PART_003_R247G182B210A255,1731,14508440.0,-8584.908,-19600.87,781330.4,-8590.771,-17519.42,14585493.69414055
PART_000_R31G119B180A255,1732,14517580.0,-257.6738,4216.783,767143.3,-5419.53,-10813.06,14576303.945616325
PART_000_R31G119B180A255,1733,14515330.0,-9715.484,-21545.16,762972.7,2.540415e-05,-0.0004908665,14590931.939334784
PART_000_R31G119B180A255,1734,14517580.0,-257.6739,4216.783,767143.3,5419.53,10813.06,14576303.945666142
PART_000_R31G119B180A255,1735,14508440.0,-8584.908,-19600.87,781330.4,8590.771,17519.42,14585493.69414055
PART_002_R214G39B40A255,1736,14504110.0,-104.2941,6189.492,808071.2,11337.46,21009.79,14568515.110306753
PART_002_R214G39B40A255,1737,14494600.0,-9218.735,-13928.01,851276.2,7783.275,15717.34,14580947.11925394
PART_002_R214G39B40A255,1738,14489850.0,-4938.436,7252.74,914975.9,3804.343,6615.778,14575117.47224154
PART_003_R247G182B210A255,1739,7243735.0,4764.892,7364.195,1030974.0,-3727.625,-3027.339,7454707.911790486
PART_003_R247G182B210A255,1740,7245014.0,1534.307,-6424.457,964583.9,-10453.3,-7391.143,7437571.414923557
PART_003_R247G182B210A255,1741,7250654.0,6707.241,4778.171,919219.8,-11640.01,-9970.918,7417839.462954416
PART_003_R247G182B210A255,1742,7252748.0,2153.261,-8162.861,891637.5,-11292.32,-8251.125,7418333.2089068815
PART_003_R247G182B210A255,1743,7257361.0,7040.016,3101.175,876420.7,-5932.78,-5123.41,7409470.4141959585
PART_000_R31G119B180A255,1744,7256508.0,2011.937,-9059.713,871955.9,-4.305335e-06,-0.0002370229,7415461.969795717
PART_000_R31G119B180A255,1745,7257361.0,7040.016,3101.175,876420.7,5932.78,5123.409,7409470.4141938845
PART_002_R214G39B40A255,1746,7252748.0,2153.261,-8162.861,891637.5,11292.32,8251.125,7418333.2089068815
PART_002_R214G39B40A255,1747,7250654.0,6707.241,4778.171,919219.8,11640.01,9970.917,7417839.462950383
PART_002_R214G39B40A255,1748,7245014.0,1534.307,-6424.457,964583.9,10453.3,7391.143,7437571.414923557
PART_002_R214G39B40A255,1749,7243735.0,4764.892,7364.195,1030974.0,3727.625,3027.339,7454707.911790486
PART_003_R247G182B210A255,1750,0.007918371,-8.089453e-06,-4.008905e-07,1044039.0,-4242.0,-3.028901e-06,1808343.5194273791
PART_003_R247G182B210A255,1751,0.007921054,-4.258436e-06,-3.12153e-05,978599.4,-9825.354,-7.802065e-06,1695069.31120375
PART_003_R247G182B210A255,1752,0.007931827,3.05546e-06,1.191222e-05,933051.1,-13560.64,-1.148256e-05,1616262.583401985
PART_003_R247G182B210A255,1753,0.007928352,-1.480018e-05,-1.958555e-05,904082.0,-10670.87,-8.855975e-06,1566025.0287181463
PART_003_R247G182B210A255,1754,0.007935277,1.718483e-06,6.527401e-06,888239.9,-6859.36,-5.937289e-06,1538522.5095249205
PART_003_R247G182B210A255,1755,0.007930823,-1.479922e-05,-1.89267e-05,883490.0,2.219419e-05,-2.392645e-07,1530249.5679790273
PART_002_R214G39B40A255,1756,0.00793347,2.345829e-06,6.739121e-06,888239.9,6859.36,5.65234e-06,1538522.5095249205
PART_002_R214G39B40A255,1757,0.007924174,-1.450602e-05,-1.939161e-05,904082.0,10670.87,8.526011e-06,1566025.0287181463
PART_002_R214G39B40A255,1758,0.007925219,2.525574e-06,1.194743e-05,933051.1,13560.64,1.118177e-05,1616262.583401985
PART_002_R214G39B40A255,1759,0.007912599,-3.746293e-06,-3.105125e-05,978599.4,9825.354,7.736353e-06,1695069.31120375
PART_002_R214G39B40A255,1760,0.007907264,-8.243503e-06,-4.31541e-07,1044039.0,4242.0,2.892395e-06,1808343.5194273791
PART_003_R247G182B210A255,1761,-7243735.0,-4764.892,-7364.195,1030974.0,-3727.625,3027.339,7454707.911790486
PART_003_R247G182B210A255,1762,-7245014.0,-1534.307,6424.457,964583.9,-10453.3,7391.143,7437571.414923557
PART_003_R247G182B210A255,1763,-7250654.0,-6707.241,-4778.171,919219.8,-11640.01,9970.918,7417839.462954416
PART_003_R247G182B210A255,1764,-7252748.0,-2153.261,8162.861,891637.5,-11292.32,8251.125,7418333.2089068815
PART_003_R247G182B210A255,1765,-7257361.0,-7040.016,-3101.175,876420.7,-5932.78,5123.41,7409470.4141959585
PART_001_R158G218B229A255,1766,-7256508.0,-2011.937,9059.713,871955.9,-4.380208e-06,0.0002367142,7415461.969795717
PART_001_R158G218B229A255,1767,-7257361.0,-7040.016,-3101.175,876420.7,5932.78,-5123.409,7409470.4141938845
PART_002_R214G39B40A255,1768,-7252748.0,-2153.261,8162.861,891637.5,11292.32,-8251.125,7418333.2089068815
PART_002_R214G39B40A255,1769,-7250654.0,-6707.241,-4778.171,919219.8,11640.01,-9970.917,7417839.462950383
PART_002_R214G39B40A255,1770,-7245014.0,-1534.307,6424.457,964583.9,10453.3,-7391.143,7437571.414923557
PART_002_R214G39B40A255,1771,-7243735.0,-4764.892,-7364.195,1030974.0,3727.625,-3027.339,7454707.911790486
PART_003_R247G182B210A255,1772,-14489850.0,4938.436,-7252.74,914975.9,-3804.343,6615.778,14575117.47224154
PART_003_R247G182B210A255,1773,-14494600.0,9218.735,13928.01,851276.2,-7783.275,15717.34,14580947.11925394
PART_003_R247G182B210A255,1774,-14504110.0,104.2942,-6189.492,808071.2,-11337.46,21009.79,14568515.110356553
PART_003_R247G182B210A255,1775,-14508440.0,8584.908,19600.87,781330.4,-8590.771,17519.42,14585493.69414055
PART_001_R158G218B229A255,1776,-14517580.0,257.6738,-4216.783,767143.3,-5419.53,10813.06,14576303.945616325
PART_001_R158G218B229A255,1777,-14515330.0,9715.484,21545.16,762972.7,2.576844e-05,0.0004904457,14590931.939334784
PART_001_R158G218B229A255,1778,-14517580.0,257.6738,-4216.783,767143.3,5419.53,-10813.06,14576303.945616325
PART_001_R158G218B229A255,1779,-14508440.0,8584.908,19600.87,781330.4,8590.771,-17519.42,14585493.69414055
PART_002_R214G39B40A255,1780,-14504110.0,104.2941,-6189.492,808071.2,11337.46,-21009.79,14568515.110306753
PART_002_R214G39B40A255,1781,-14494600.0,9218.735,13928.01,851276.2,7783.275,-15717.34,14580947.11925394
PART_002_R214G39B40A255,1782,-14489850.0,4938.436,-7252.74,914975.9,3804.343,-6615.778,14575117.47224154
PART_003_R247G182B210A255,1783,-21736690.0,-12674.28,-22499.32,764010.6,-1953.606,10858.88,21759389.19172823
PART_003_R247G182B210A255,1784,-21739660.0,-2501.09,18536.03,702255.2,-7587.382,26467.43,21781725.566099886
PART_003_R247G182B210A255,1785,-21755060.0,-17857.39,-14925.85,662745.9,-6852.981,35048.1,21769042.968466572
PART_001_R158G218B229A255,1786,-21760080.0,-3706.791,21435.11,640831.4,-6604.988,29241.78,21797295.58175024
PART_001_R158G218B229A255,1787,-21772340.0,-17042.17,-12061.78,629337.4,-3940.88,17699.38,21785099.0686048
PART_001_R158G218B229A255,1788,-21769610.0,-3389.611,24344.69,626100.9,-1.352203e-05,0.0007788303,21807081.352918703
PART_001_R158G218B229A255,1789,-21772340.0,-17042.17,-12061.78,629337.4,3940.88,-17699.38,21785099.0686048
PART_001_R158G218B229A255,1790,-21760080.0,-3706.791,21435.11,640831.4,6604.988,-29241.78,21797295.58175024
PART_001_R158G218B229A255,1791,-21755060.0,-17857.39,-14925.86,662745.9,6852.981,-35048.1,21769042.963472538
PART_002_R214G39B40A255,1792,-21739660.0,-2501.091,18536.03,702255.2,7587.382,-26467.43,21781725.565601394
PART_002_R214G39B40A255,1793,-21736690.0,-12674.28,-22499.32,764010.6,1953.606,-10858.88,21759389.19172823
PART_003_R247G182B210A255,1794,-28986300.0,7390.371,-12480.54,514331.7,-3199.491,17680.71,28997464.11269819
PART_003_R247G182B210A255,1795,-28995490.0,14126.83,25895.19,460102.5,-1476.609,43763.01,29026543.67656969
PART_001_R158G218B229A255,1796,-29011970.0,-1179.521,-17912.76,431339.1,-3395.099,56424.25,29012213.732369382
PART_001_R158G218B229A255,1797,-29016510.0,18001.04,32391.09,416303.3,-4044.934,45075.98,29050764.471871935
PART_001_R158G218B229A255,1798,-29032530.0,-813.9228,-13450.27,408458.0,-2358.908,26600.08,29034057.525941167
PART_001_R158G218B229A255,1799,-29027320.0,19051.51,35949.69,406321.6,9.883359e-06,0.001114272,29063346.434769507
PART_001_R158G218B229A255,1800,-29032530.0,-813.9228,-13450.27,408458.0,2358.908,-26600.07,29034057.52591368
PART_001_R158G218B229A255,1801,-29016510.0,18001.04,32391.09,416303.3,4044.934,-45075.98,29050764.471871935
PART_001_R158G218B229A255,1802,-29011970.0,-1179.521,-17912.77,431339.1,3395.099,-56424.25,29012213.7273754
PART_001_R158G218B229A255,1803,-28995490.0,14126.83,25895.19,460102.5,1476.609,-43763.0,29026543.676524457
PART_002_R214G39B40A255,1804,-28986300.0,7390.371,-12480.54,514331.7,3199.491,-17680.71,28997464.11269819
PART_003_R247G182B210A255,1805,-36244240.0,-17749.52,-41695.18,192792.2,3233.539,37327.43,36216121.22444497
PART_001_R158G218B229A255,1806,-36248150.0,-2037.233,20864.33,165142.2,311.1699,81654.77,36258973.04762285
PART_001_R158G218B229A255,1807,-36264350.0,-18098.0,-29519.4,156478.7,-968.067,87214.61,36241870.95446376
PART_001_R158G218B229A255,1808,-36267940.0,36.63301,29763.87,150065.2,-1316.401,67402.64,36283968.26060816
PART_001_R158G218B229A255,1809,-36285370.0,-19817.03,-25422.44,148231.8,-817.6212,37797.68,36263718.59512164
PART_001_R158G218B229A255,1810,-36278640.0,567.59,32652.89,146775.3,-1.787329e-06,0.001510867,36296151.187834606
PART_001_R158G218B229A255,1811,-36285370.0,-19817.03,-25422.44,148231.8,817.6212,-37797.68,36263718.59512164
PART_001_R158G218B229A255,1812,-36267940.0,36.63294,29763.87,150065.2,1316.401,-67402.64,36283968.26057321
PART_001_R158G218B229A255,1813,-36264350.0,-18098.0,-29519.4,156478.7,968.067,-87214.6,36241870.95439157
PART_001_R158G218B229A255,1814,-36248150.0,-2037.233,20864.33,165142.2,-311.1698,-81654.77,36258973.04762285
PART_001_R158G218B229A255,1815,-36244240.0,-17749.52,-41695.18,192792.2,-3233.539,-37327.43,36216121.22444497
PART_003_R247G182B210A255,1816,35934030.0,-17992.21,-15002.85,189913.8,2012.074,-35628.78,35952085.593425624
PART_000_R31G119B180A255,1817,35941410.0,5866.588,25869.46,164042.6,1457.923,-78657.76,35926928.11507256
PART_000_R31G119B180A255,1818,35939600.0,-16178.9,-24295.59,153527.7,-767.4968,-80292.45,35961090.066363655
PART_000_R31G119B180A255,1819,35954520.0,4294.428,18816.81,147771.4,-379.4531,-64751.21,35944052.83795966
PART_000_R31G119B180A255,1820,35950460.0,-16456.57,-29320.67,144479.9,-561.3108,-34439.21,35974270.21493466
PART_000_R31G119B180A255,1821,35961550.0,3959.88,16804.38,143891.5,-2.095114e-06,-0.001520883,35952033.45075383
PART_000_R31G119B180A255,1822,35950460.0,-16456.57,-29320.67,144479.9,561.3108,34439.21,35974270.21493466
PART_000_R31G119B180A255,1823,35954520.0,4294.428,18816.81,147771.4,379.453,64751.21,35944052.837959655
PART_000_R31G119B180A255,1824,35939600.0,-16178.9,-24295.59,153527.7,767.4968,80292.45,35961090.066363655
PART_000_R31G119B180A255,1825,35941410.0,5866.588,25869.46,164042.6,-1457.923,78657.76,35926928.11507256
PART_000_R31G119B180A255,1826,35934030.0,-17992.21,-15002.85,189913.8,-2012.074,35628.78,35952085.593425624
PART_003_R247G182B210A255,1827,28738130.0,-2619.761,-22203.66,524156.9,-2190.662,-14379.42,28764888.186148692
PART_003_R247G182B210A255,1828,28748210.0,15619.58,19783.82,467272.7,-148.6543,-41485.88,28741995.66508123
PART_000_R31G119B180A255,1829,28750630.0,754.7682,-17828.28,437841.7,-1413.827,-48712.33,28769292.174533997
PART_000_R31G119B180A255,1830,28761990.0,14191.94,17183.78,421438.5,-2212.767,-42388.09,28755662.565916996
PART_000_R31G119B180A255,1831,28761460.0,488.5051,-22420.17,412955.7,-1258.994,-22955.0,28781349.250359032
PART_000_R31G119B180A255,1832,28768970.0,14179.98,15454.09,410373.6,8.755111e-06,-0.001124541,28762936.801148564
PART_000_R31G119B180A255,1833,28761460.0,488.5052,-22420.17,412955.7,1258.994,22955.0,28781349.250309106
PART_000_R31G119B180A255,1834,28761990.0,14191.94,17183.78,421438.5,2212.767,42388.09,28755662.565916996
PART_000_R31G119B180A255,1835,28750630.0,754.768,-17828.28,437841.7,1413.827,48712.33,28769292.174633868
PART_000_R31G119B180A255,1836,28748210.0,15619.58,19783.82,467272.7,148.6542,41485.88,28741995.66508123
PART_002_R214G39B40A255,1837,28738130.0,-2619.761,-22203.66,524156.9,2190.662,14379.42,28764888.186148692
PART_003_R247G182B210A255,1838,21555840.0,-13836.05,-13352.51,755981.8,-1066.422,-9133.844,21609147.93492509
PART_003_R247G182B210A255,1839,21559980.0,-548.2728,9538.106,694068.5,-5269.414,-23716.17,21589024.46615791
PART_003_R247G182B210A255,1840,21563530.0,-8335.138,-18925.98,652912.0,-3520.844,-28582.12,21606834.84812911
PART_000_R31G119B180A255,1841,21573510.0,850.5998,9079.566,628239.9,-3860.759,-26630.09,21596027.61956907
PART_000_R31G119B180A255,1842,21573150.0,-10620.65,-21949.86,615492.6,-2209.661,-14557.54,21615757.093582645
PART_000_R31G119B180A255,1843,21579640.0,731.927,7581.433,611216.7,-1.5539e-05,-0.0007876495,21601441.46212179
PART_000_R31G119B180A255,1844,21573150.0,-10620.65,-21949.86,615492.6,2209.661,14557.54,21615757.093582645
PART_000_R31G119B180A255,1845,21573510.0,850.5998,9079.566,628239.9,3860.759,26630.09,21596027.61956907
PART_000_R31G119B180A255,1846,21563530.0,-8335.138,-18925.98,652912.0,3520.844,28582.12,21606834.84812911
PART_002_R214G39B40A255,1847,21559980.0,-548.2728,9538.106,694068.5,5269.414,23716.17,21589024.46615791
PART_002_R214G39B40A255,1848,21555840.0,-13836.05,-13352.51,755981.8,1066.422,9133.844,21609147.93492509
PART_003_R247G182B210A255,1849,14366730.0,-83.05578,-10227.45,934182.2,-2434.53,-4656.362,14462687.67823285
PART_003_R247G182B210A255,1850,14371520.0,8314.666,10364.37,867465.4,-4412.939,-13710.29,14440579.709531942
PART_003_R247G182B210A255,1851,14373140.0,1583.046,-11318.87,822001.6,-7198.961,-16303.09,14448364.928277133
PART_003_R247G182B210A255,1852,14380550.0,10041.72,6976.23,793016.8,-5023.669,-15357.05,14437554.51716655
PART_000_R31G119B180A255,1853,14380620.0,1795.037,-12876.16,777547.5,-3280.98,-8565.424,14449075.052490281
PART_000_R31G119B180A255,1854,14384910.0,9555.464,6137.898,772475.5,2.27123e-05,-0.0004964878,14439186.737231916
PART_000_R31G119B180A255,1855,14380620.0,1795.037,-12876.16,777547.5,3280.98,8565.424,14449075.052490281
PART_000_R31G119B180A255,1856,14380550.0,10041.72,6976.23,793016.8,5023.669,15357.05,14437554.51716655
PART_002_R214G39B40A255,1857,14373140.0,1583.046,-11318.87,822001.6,7198.961,16303.09,14448364.928277133
PART_002_R214G39B40A255,1858,14371520.0,8314.666,10364.37,867465.4,4412.939,13710.29,14440579.709531942
PART_002_R214G39B40A255,1859,14366730.0,-83.05573,-10227.45,934182.2,2434.53,4656.362,14462687.678208033
PART_003_R247G182B210A255,1860,7184452.0,-4997.653,-4887.751,1020090.0,-2033.832,-2345.672,7403321.952370686
PART_003_R247G182B210A255,1861,7186028.0,-436.239,2983.631,953120.3,-6816.242,-6239.324,7371992.557663962
PART_003_R247G182B210A255,1862,7187485.0,-3124.87,-6664.18,905530.7,-6720.987,-7476.706,7361426.0433016475
PART_003_R247G182B210A255,1863,7191051.0,174.5854,2248.351,874136.4,-7158.771,-7126.461,7347546.880365759
PART_003_R247G182B210A255,1864,7191281.0,-3354.779,-8312.385,856871.4,-3480.699,-3920.586,7348553.938498661
PART_000_R31G119B180A255,1865,7193503.0,120.3035,1887.559,851219.2,-7.095963e-06,-0.0002401967,7342054.724374474
PART_000_R31G119B180A255,1866,7191281.0,-3354.779,-8312.385,856871.4,3480.7,3920.586,7348553.938500082
PART_002_R214G39B40A255,1867,7191051.0,174.5854,2248.351,874136.4,7158.771,7126.46,7347546.880362849
PART_002_R214G39B40A255,1868,7187485.0,-3124.87,-6664.18,905530.7,6720.987,7476.705,7361426.0432986
PART_002_R214G39B40A255,1869,7186028.0,-436.239,2983.631,953120.3,6816.242,6239.324,7371992.557663962
PART_002_R214G39B40A255,1870,7184452.0,-4997.653,-4887.751,1020090.0,2033.832,2345.672,7403321.952370686
PART_003_R247G182B210A255,1871,0.007859752,-3.766249e-06,-1.64425e-05,1066904.0,-2716.711,-2.001316e-06,1847937.9256901387
PART_003_R247G182B210A255,1872,0.007862332,1.557667e-05,-1.803551e-06,998344.4,-5741.964,-7.011248e-06,1729211.8243540355
PART_003_R247G182B210A255,1873,0.007868289,6.673521e-06,-4.106712e-06,950083.3,-8565.275,-8.014982e-06,1645659.4187814645
PART_003_R247G182B210A255,1874,0.00786746,6.751407e-06,1.195357e-05,918519.7,-6422.315,-8.133143e-06,1590961.676551056
PART_003_R247G182B210A255,1875,0.007868631,5.858623e-06,-9.401969e-06,901174.3,-4310.849,-4.342939e-06,1560897.532575016
PART_003_R247G182B210A255,1876,0.007868223,5.977956e-06,1.317047e-05,895359.3,1.859198e-05,-1.093007e-07,1550807.7986293049
PART_002_R214G39B40A255,1877,0.007866471,6.120922e-06,-9.482851e-06,901174.3,4310.849,4.153159e-06,1560897.532575016
PART_002_R214G39B40A255,1878,0.007862935,6.841745e-06,1.196834e-05,918519.7,6422.315,7.876738e-06,1590961.676551056
PART_002_R214G39B40A255,1879,0.007861516,6.456848e-06,-3.969592e-06,950083.3,8565.275,7.887615e-06,1645659.4187814645
PART_002_R214G39B40A255,1880,0.007853503,1.574171e-05,-1.950583e-06,998344.4,5741.964,6.797306e-06,1729211.8243540355
PART_002_R214G39B40A255,1881,0.00784835,-4.244348e-06,-1.660764e-05,1066904.0,2716.711,1.988388e-06,1847937.9256901387
PART_003_R247G182B210A255,1882,-7184452.0,4997.653,4887.75,1020090.0,-2033.832,2345.672,7403321.951885146
PART_003_R247G182B210A255,1883,-7186028.0,436.239,-2983.631,953120.3,-6816.242,6239.324,7371992.557663962
PART_003_R247G182B210A255,1884,-7187485.0,3124.87,6664.18,905530.7,-6720.987,7476.705,7361426.0432986
PART_003_R247G182B210A255,1885,-7191051.0,-174.5854,-2248.351,874136.4,-7158.771,7126.461,7347546.880365759
PART_003_R247G182B210A255,1886,-7191281.0,3354.779,8312.385,856871.4,-3480.699,3920.586,7348553.938498661
PART_001_R158G218B229A255,1887,-7193503.0,-120.3035,-1887.559,851219.2,-7.046645e-06,0.0002397692,7342054.724374474
PART_001_R158G218B229A255,1888,-7191281.0,3354.779,8312.385,856871.4,3480.7,-3920.586,7348553.938500082
PART_002_R214G39B40A255,1889,-7191051.0,-174.5854,-2248.351,874136.4,7158.771,-7126.46,7347546.880362849
PART_002_R214G39B40A255,1890,-7187485.0,3124.87,6664.18,905530.7,6720.987,-7476.705,7361426.0432986
PART_002_R214G39B40A255,1891,-7186028.0,436.239,-2983.631,953120.3,6816.242,-6239.324,7371992.557663962
PART_002_R214G39B40A255,1892,-7184452.0,4997.653,4887.75,1020090.0,2033.832,-2345.672,7403321.951885146
PART_003_R247G182B210A255,1893,-14366730.0,83.05581,10227.45,934182.2,-2434.53,4656.362,14462687.67824774
PART_003_R247G182B210A255,1894,-14371520.0,-8314.666,-10364.37,867465.4,-4412.939,13710.29,14440579.709531942
PART_003_R247G182B210A255,1895,-14373140.0,-1583.046,11318.87,822001.6,-7198.961,16303.09,14448364.928277133
PART_003_R247G182B210A255,1896,-14380550.0,-10041.72,-6976.23,793016.8,-5023.669,15357.05,14437554.51716655
PART_001_R158G218B229A255,1897,-14380620.0,-1795.037,12876.16,777547.5,-3280.98,8565.424,14449075.052490281
PART_001_R158G218B229A255,1898,-14384910.0,-9555.464,-6137.898,772475.5,2.271872e-05,0.0004958794,14439186.737231916
PART_001_R158G218B229A255,1899,-14380620.0,-1795.037,12876.16,777547.5,3280.98,-8565.423,14449075.052488502
PART_001_R158G218B229A255,1900,-14380550.0,-10041.72,-6976.23,793016.8,5023.669,-15357.05,14437554.51716655
PART_002_R214G39B40A255,1901,-14373140.0,-1583.046,11318.87,822001.6,7198.961,-16303.09,14448364.928277133
PART_002_R214G39B40A255,1902,-14371520.0,-8314.666,-10364.37,867465.4,4412.939,-13710.29,14440579.709531942
PART_002_R214G39B40A255,1903,-14366730.0,83.05575,10227.45,934182.2,2434.53,-4656.362,14462687.678217959
PART_003_R247G182B210A255,1904,-21555840.0,13836.05,13352.51,755981.8,-1066.422,9133.844,21609147.93492509
PART_003_R247G182B210A255,1905,-21559980.0,548.2727,-9538.106,694068.5,-5269.414,23716.17,21589024.466107953
PART_003_R247G182B210A255,1906,-21563530.0,8335.138,18925.98,652912.0,-3520.844,28582.12,21606834.84812911
PART_001_R158G218B229A255,1907,-21573510.0,-850.5999,-9079.566,628239.9,-3860.759,26630.09,21596027.619519107
PART_001_R158G218B229A255,1908,-21573150.0,10620.65,21949.86,615492.6,-2209.661,14557.54,21615757.093582645
PART_001_R158G218B229A255,1909,-21579640.0,-731.9271,-7581.433,611216.7,-1.545938e-05,0.0007871868,21601441.462071825
PART_001_R158G218B229A255,1910,-21573150.0,10620.65,21949.86,615492.6,2209.661,-14557.54,21615757.093582645
PART_001_R158G218B229A255,1911,-21573510.0,-850.5998,-9079.566,628239.9,3860.759,-26630.09,21596027.61956907
PART_001_R158G218B229A255,1912,-21563530.0,8335.138,18925.98,652912.0,3520.844,-28582.12,21606834.84812911
PART_002_R214G39B40A255,1913,-21559980.0,548.2727,-9538.106,694068.5,5269.414,-23716.17,21589024.466107953
PART_002_R214G39B40A255,1914,-21555840.0,13836.05,13352.51,755981.8,1066.422,-9133.844,21609147.93492509
PART_003_R247G182B210A255,1915,-28738130.0,2619.761,22203.66,524156.9,-2190.662,14379.42,28764888.186148692
PART_003_R247G182B210A255,1916,-28748210.0,-15619.58,-19783.82,467272.7,-148.6543,41485.88,28741995.66508123
PART_001_R158G218B229A255,1917,-28750630.0,-754.7682,17828.28,437841.7,-1413.827,48712.33,28769292.174533997
PART_001_R158G218B229A255,1918,-28761990.0,-14191.94,-17183.78,421438.5,-2212.767,42388.09,28755662.565916996
PART_001_R158G218B229A255,1919,-28761460.0,-488.5051,22420.17,412955.7,-1258.994,22955.0,28781349.250359032
PART_001_R158G218B229A255,1920,-28768970.0,-14179.98,-15454.09,410373.6,9.074398e-06,0.001123909,28762936.801148564
PART_001_R158G218B229A255,1921,-28761460.0,-488.5051,22420.17,412955.7,1258.994,-22955.0,28781349.250359032
PART_001_R158G218B229A255,1922,-28761990.0,-14191.94,-17183.78,421438.5,2212.767,-42388.09,28755662.565916996
PART_001_R158G218B229A255,1923,-28750630.0,-754.768,17828.28,437841.7,1413.827,-48712.33,28769292.174633868
PART_001_R158G218B229A255,1924,-28748210.0,-15619.58,-19783.82,467272.7,148.6542,-41485.88,28741995.66508123
PART_002_R214G39B40A255,1925,-28738130.0,2619.761,22203.66,524156.9,2190.662,-14379.42,28764888.186148692
PART_003_R247G182B210A255,1926,-35934030.0,17992.21,15002.85,189913.8,2012.074,35628.78,35952085.593425624
PART_001_R158G218B229A255,1927,-35941410.0,-5866.588,-25869.46,164042.6,1457.923,78657.76,35926928.11507256
PART_001_R158G218B229A255,1928,-35939600.0,16178.9,24295.59,153527.7,-767.4968,80292.45,35961090.066363655
PART_001_R158G218B229A255,1929,-35954520.0,-4294.428,-18816.81,147771.4,-379.4531,64751.21,35944052.83795966
PART_001_R158G218B229A255,1930,-35950460.0,16456.57,29320.67,144479.9,-561.3108,34439.21,35974270.21493466
PART_001_R158G218B229A255,1931,-35961550.0,-3959.88,-16804.38,143891.5,-2.1923e-06,0.001520193,35952033.45075383
PART_001_R158G218B229A255,1932,-35950460.0,16456.57,29320.67,144479.9,561.3108,-34439.21,35974270.21493466
PART_001_R158G218B229A255,1933,-35954520.0,-4294.428,-18816.81,147771.4,379.453,-64751.21,35944052.837959655
PART_001_R158G218B229A255,1934,-35939600.0,16178.9,24295.59,153527.7,767.4968,-80292.45,35961090.066363655
PART_001_R158G218B229A255,1935,-35941410.0,-5866.588,-25869.46,164042.6,-1457.923,-78657.76,35926928.11507256
PART_001_R158G218B229A255,1936,-35934030.0,17992.21,15002.85,189913.8,-2012.074,-35628.78,35952085.593425624
PART_003_R247G182B210A255,1937,35622260.0,9120.246,31212.5,192878.3,3082.865,-34458.57,35603716.568408705
PART_000_R31G119B180A255,1938,35621420.0,315.1942,-11877.85,165142.0,1138.984,-74878.87,35628587.202263966
PART_000_R31G119B180A255,1939,35627090.0,9422.99,21449.92,155543.4,1.743019,-78197.55,35612931.67534418
PART_000_R31G119B180A255,1940,35625810.0,-1597.234,-17840.35,148630.6,-207.4228,-60614.71,35636616.08358208
PART_000_R31G119B180A255,1941,35634350.0,10573.48,18076.3,146000.8,-208.3522,-33466.96,35620970.50895063
PART_000_R31G119B180A255,1942,35629190.0,-2045.566,-19865.64,144559.6,-2.128728e-06,-0.001517066,35641028.453219116
PART_000_R31G119B180A255,1943,35634350.0,10573.48,18076.3,146000.8,208.3522,33466.95,35620970.50892244
PART_000_R31G119B180A255,1944,35625810.0,-1597.233,-17840.35,148630.6,207.4228,60614.71,35636616.08308244
PART_000_R31G119B180A255,1945,35627090.0,9422.99,21449.92,155543.4,-1.742998,78197.54,35612931.675278306
PART_000_R31G119B180A255,1946,35621420.0,315.1943,-11877.85,165142.0,-1138.983,74878.87,35628587.2022139
PART_000_R31G119B180A255,1947,35622260.0,9120.246,31212.5,192878.3,-3082.865,34458.57,35603716.568408705
PART_003_R247G182B210A255,1948,28491940.0,-3741.808,7854.345,519460.7,-2236.992,-14254.56,28504100.033746675
PART_003_R247G182B210A255,1949,28495740.0,-7271.095,-16184.26,463606.8,748.8882,-36999.25,28518847.720027383
PART_000_R31G119B180A255,1950,28502600.0,2708.01,14471.3,433044.8,-247.1439,-46875.4,28503998.04959381
PART_000_R31G119B180A255,1951,28501460.0,-10268.77,-18659.13,415960.1,-1076.363,-38001.2,28525100.80060089
PART_000_R31G119B180A255,1952,28509780.0,2543.049,11871.29,406648.9,-583.8217,-21981.27,28511300.63246618
PART_000_R31G119B180A255,1953,28505080.0,-10880.43,-20448.34,403930.6,7.831265e-06,-0.00112126,28529325.416525964
PART_000_R31G119B180A255,1954,28509780.0,2543.049,11871.29,406648.9,583.8217,21981.27,28511300.63246618
PART_000_R31G119B180A255,1955,28501460.0,-10268.77,-18659.13,415960.1,1076.363,38001.19,28525100.800560925
PART_000_R31G119B180A255,1956,28502600.0,2708.011,14471.31,433044.8,247.1439,46875.4,28503998.044098523
PART_000_R31G119B180A255,1957,28495740.0,-7271.095,-16184.26,463606.8,-748.8882,36999.25,28518847.720027383
PART_002_R214G39B40A255,1958,28491940.0,-3741.808,7854.344,519460.7,2236.992,14254.56,28504100.034246117
PART_003_R247G182B210A255,1959,21369420.0,6423.071,16006.92,766027.5,-435.7614,-8135.369,21399382.781203974
PART_003_R247G182B210A255,1960,21367990.0,-580.1938,-13051.4,702695.1,-3623.307,-20210.42,21409461.58786835
PART_003_R247G182B210A255,1961,21375050.0,10387.54,10558.78,660189.2,-1740.698,-26628.26,21395205.752607923
PART_000_R31G119B180A255,1962,21375030.0,587.227,-12637.14,634918.1,-2053.489,-22880.43,21409357.495954663
PART_000_R31G119B180A255,1963,21380990.0,9390.388,9496.918,621117.4,-1226.664,-13602.4,21398619.42589287
PART_000_R31G119B180A255,1964,21378360.0,517.1535,-13909.83,616901.4,-1.65126e-05,-0.0007851621,21411737.265002158
PART_000_R31G119B180A255,1965,21380990.0,9390.388,9496.918,621117.4,1226.664,13602.4,21398619.42589287
PART_000_R31G119B180A255,1966,21375030.0,587.227,-12637.14,634918.1,2053.489,22880.42,21409357.495922603
PART_000_R31G119B180A255,1967,21375050.0,10387.54,10558.78,660189.2,1740.698,26628.26,21395205.752607923
PART_002_R214G39B40A255,1968,21367990.0,-580.1938,-13051.4,702695.1,3623.307,20210.42,21409461.58786835
PART_002_R214G39B40A255,1969,21369420.0,6423.071,16006.92,766027.5,435.7614,8135.369,21399382.781203974
PART_003_R247G182B210A255,1970,14245470.0,-2308.191,5017.416,926145.5,-1695.917,-4390.833,14334160.817744449
PART_003_R247G182B210A255,1971,14246850.0,-5457.622,-8418.626,859942.2,-2443.056,-11049.41,14331411.94703147
PART_003_R247G182B210A255,1972,14250460.0,622.0201,5241.943,812991.4,-4671.923,-14757.94,14316970.858553777
PART_003_R247G182B210A255,1973,14251000.0,-4603.827,-11370.41,782352.6,-2732.567,-12709.52,14323249.692516586
PART_000_R31G119B180A255,1974,14255530.0,768.2099,4817.803,765347.7,-1986.962,-7788.79,14314258.250157455
PART_000_R31G119B180A255,1975,14253350.0,-5354.856,-12071.34,760049.8,2.099414e-05,-0.0004950386,14322691.951590018
PART_000_R31G119B180A255,1976,14255530.0,768.2098,4817.803,765347.7,1986.962,7788.789,14314258.250205629
PART_000_R31G119B180A255,1977,14251000.0,-4603.827,-11370.41,782352.6,2732.567,12709.52,14323249.692516586
PART_002_R214G39B40A255,1978,14250460.0,622.0202,5241.943,812991.4,4671.923,14757.94,14316970.858503995
PART_002_R214G39B40A255,1979,14246850.0,-5457.622,-8418.626,859942.2,2443.056,11049.41,14331411.94703147
PART_002_R214G39B40A255,1980,14245470.0,-2308.191,5017.416,926145.5,1695.917,4390.832,14334160.817743529
PART_003_R247G182B210A255,1981,7122495.0,2447.959,5173.311,1034816.0,-1243.412,-1948.967,7340859.70131281
PART_003_R247G182B210A255,1982,7122112.0,98.32152,-4478.208,966385.7,-4302.618,-4882.836,7318300.684874919
PART_003_R247G182B210A255,1983,7124629.0,3692.947,3545.952,916827.7,-3935.226,-6641.695,7295935.507070232
PART_003_R247G182B210A255,1984,7124706.0,582.3839,-4834.882,884463.2,-4550.822,-5696.3,7289632.696239425
PART_003_R247G182B210A255,1985,7126979.0,3955.439,2658.165,865894.2,-2021.582,-3510.087,7279840.270640732
PART_000_R31G119B180A255,1986,7126078.0,570.5399,-5087.411,860107.1,-9.103163e-06,-0.0002393527,7282345.571181526
PART_000_R31G119B180A255,1987,7126979.0,3955.439,2658.165,865894.2,2021.582,3510.086,7279840.270639285
PART_002_R214G39B40A255,1988,7124706.0,582.3839,-4834.882,884463.2,4550.822,5696.3,7289632.696239425
PART_002_R214G39B40A255,1989,7124629.0,3692.947,3545.952,916827.7,3935.226,6641.695,7295935.507070232
PART_002_R214G39B40A255,1990,7122112.0,98.32153,-4478.208,966385.7,4302.618,4882.836,7318300.684870056
PART_002_R214G39B40A255,1991,7122495.0,2447.959,5173.311,1034816.0,1243.412,1948.967,7340859.70131281
PART_003_R247G182B210A255,1992,0.007787474,-8.501761e-06,-2.210714e-06,1057689.0,-1723.534,-1.776718e-06,1831973.5188783018
PART_003_R247G182B210A255,1993,0.007788202,-2.862397e-06,-2.660223e-05,989557.1,-3343.805,-5.06548e-06,1713972.959406555
PART_003_R247G182B210A255,1994,0.007795055,1.290645e-06,1.040677e-05,939643.3,-5524.759,-7.64104e-06,1627538.067939025
PART_003_R247G182B210A255,1995,0.007789744,-1.22307e-05,-1.320457e-05,906109.1,-3665.559,-6.153026e-06,1569439.8402859466
PART_003_R247G182B210A255,1996,0.007794259,5.629603e-07,5.96206e-06,886955.2,-2771.845,-4.151543e-06,1536258.9722423858
PART_003_R247G182B210A255,1997,0.007789583,-1.256242e-05,-1.147345e-05,880875.5,1.669325e-05,-2.291001e-07,1525721.1211426386
PART_002_R214G39B40A255,1998,0.007792274,1.275573e-06,6.058857e-06,886955.2,2771.845,3.740141e-06,1536258.9722423858
PART_002_R214G39B40A255,1999,0.007785618,-1.202014e-05,-1.276393e-05,906109.1,3665.559,5.872569e-06,1569439.8402859466
PART_002_R214G39B40A255,2000,0.007788639,1.89866e-06,1.066233e-05,939643.3,5524.759,7.363926e-06,1627538.067939025
PART_002_R214G39B40A255,2001,0.007778994,-2.91404e-06,-2.656659e-05,989557.1,3343.805,5.006589e-06,1713972.959406555
PART_002_R214G39B40A255,2002,0.00777626,-8.469705e-06,-2.123021e-06,1057689.0,1723.534,1.825579e-06,1831973.5188783018
PART_003_R247G182B210A255,2003,-7122495.0,-2447.959,-5173.311,1034816.0,-1243.412,1948.967,7340859.70131281
PART_003_R247G182B210A255,2004,-7122112.0,-98.32152,4478.208,966385.7,-4302.618,4882.836,7318300.684874919
PART_003_R247G182B210A255,2005,-7124629.0,-3692.947,-3545.952,916827.7,-3935.226,6641.695,7295935.507070232
PART_003_R247G182B210A255,2006,-7124706.0,-582.3839,4834.882,884463.2,-4550.822,5696.3,7289632.696239425
PART_003_R247G182B210A255,2007,-7126979.0,-3955.439,-2658.165,865894.2,-2021.582,3510.087,7279840.270640732
PART_001_R158G218B229A255,2008,-7126078.0,-570.5399,5087.411,860107.1,-9.050658e-06,0.0002390525,7282345.571181526
PART_001_R158G218B229A255,2009,-7126979.0,-3955.439,-2658.165,865894.2,2021.582,-3510.086,7279840.270639285
PART_002_R214G39B40A255,2010,-7124706.0,-582.3839,4834.882,884463.2,4550.822,-5696.3,7289632.696239425
PART_002_R214G39B40A255,2011,-7124629.0,-3692.947,-3545.952,916827.7,3935.226,-6641.695,7295935.507070232
PART_002_R214G39B40A255,2012,-7122112.0,-98.32153,4478.208,966385.7,4302.618,-4882.836,7318300.684870056
PART_002_R214G39B40A255,2013,-7122495.0,-2447.959,-5173.311,1034816.0,1243.412,-1948.967,7340859.70131281
PART_003_R247G182B210A255,2014,-14245470.0,2308.191,-5017.416,926145.5,-1695.917,4390.833,14334160.817744449
PART_003_R247G182B210A255,2015,-14246850.0,5457.622,8418.626,859942.2,-2443.056,11049.41,14331411.94703147
PART_003_R247G182B210A255,2016,-14250460.0,-622.0201,-5241.943,812991.4,-4671.923,14757.94,14316970.858553777
PART_003_R247G182B210A255,2017,-14251000.0,4603.827,11370.41,782352.6,-2732.567,12709.52,14323249.692516586
PART_001_R158G218B229A255,2018,-14255530.0,-768.2099,-4817.803,765347.7,-1986.962,7788.79,14314258.250157455
PART_001_R158G218B229A255,2019,-14253350.0,5354.856,12071.34,760049.8,2.133578e-05,0.0004946284,14322691.951590018
PART_001_R158G218B229A255,2020,-14255530.0,-768.2098,-4817.803,765347.7,1986.962,-7788.789,14314258.250205629
PART_001_R158G218B229A255,2021,-14251000.0,4603.826,11370.41,782352.6,2732.567,-12709.52,14323249.692019181
PART_002_R214G39B40A255,2022,-14250460.0,-622.0202,-5241.943,812991.4,4671.923,-14757.94,14316970.858503995
PART_002_R214G39B40A255,2023,-14246850.0,5457.622,8418.626,859942.2,2443.056,-11049.41,14331411.94703147
PART_002_R214G39B40A255,2024,-14245470.0,2308.191,-5017.416,926145.5,1695.917,-4390.832,14334160.817743529
PART_003_R247G182B210A255,2025,-21369420.0,-6423.071,-16006.92,766027.5,-435.7613,8135.369,21399382.781203967
PART_003_R247G182B210A255,2026,-21367990.0,580.1939,13051.4,702695.1,-3623.307,20210.42,21409461.58791823
PART_003_R247G182B210A255,2027,-21375050.0,-10387.54,-10558.78,660189.2,-1740.698,26628.26,21395205.752607923
PART_001_R158G218B229A255,2028,-21375030.0,-587.2269,12637.14,634918.1,-2053.489,22880.43,21409357.49600455
PART_001_R158G218B229A255,2029,-21380990.0,-9390.388,-9496.918,621117.4,-1226.664,13602.4,21398619.42589287
PART_001_R158G218B229A255,2030,-21378360.0,-517.1534,13909.83,616901.4,-1.606028e-05,0.0007845753,21411737.265052043
PART_001_R158G218B229A255,2031,-21380990.0,-9390.388,-9496.918,621117.4,1226.664,-13602.4,21398619.42589287
PART_001_R158G218B229A255,2032,-21375030.0,-587.2269,12637.14,634918.1,2053.489,-22880.42,21409357.495972488
PART_001_R158G218B229A255,2033,-21375050.0,-10387.54,-10558.78,660189.2,1740.698,-26628.26,21395205.752607923
PART_002_R214G39B40A255,2034,-21367990.0,580.1938,13051.4,702695.1,3623.307,-20210.42,21409461.58786835
PART_002_R214G39B40A255,2035,-21369420.0,-6423.071,-16006.92,766027.5,435.7613,-8135.369,21399382.781203967
PART_003_R247G182B210A255,2036,-28491940.0,3741.808,-7854.345,519460.7,-2236.992,14254.56,28504100.033746675
PART_003_R247G182B210A255,2037,-28495740.0,7271.095,16184.26,463606.8,748.8882,36999.25,28518847.720027383
PART_001_R158G218B229A255,2038,-28502600.0,-2708.01,-14471.3,433044.8,-247.1439,46875.4,28503998.04959381
PART_001_R158G218B229A255,2039,-28501460.0,10268.77,18659.13,415960.1,-1076.363,38001.2,28525100.80060089
PART_001_R158G218B229A255,2040,-28509780.0,-2543.049,-11871.29,406648.9,-583.8217,21981.27,28511300.63246618
PART_001_R158G218B229A255,2041,-28505080.0,10880.43,20448.34,403930.6,7.891137e-06,0.001120768,28529325.416525964
PART_001_R158G218B229A255,2042,-28509780.0,-2543.049,-11871.29,406648.9,583.8217,-21981.27,28511300.63246618
PART_001_R158G218B229A255,2043,-28501460.0,10268.77,18659.13,415960.1,1076.363,-38001.19,28525100.800560925
PART_001_R158G218B229A255,2044,-28502600.0,-2708.011,-14471.31,433044.8,247.1439,-46875.4,28503998.044098523
PART_001_R158G218B229A255,2045,-28495740.0,7271.095,16184.26,463606.8,-748.8882,-36999.25,28518847.720027383
PART_002_R214G39B40A255,2046,-28491940.0,3741.808,-7854.344,519460.7,2236.992,-14254.56,28504100.034246117
PART_003_R247G182B210A255,2047,-35622260.0,-9120.246,-31212.5,192878.3,3082.865,34458.57,35603716.568408705
PART_001_R158G218B229A255,2048,-35621420.0,-315.1942,11877.85,165142.0,1138.984,74878.87,35628587.202263966
PART_001_R158G218B229A255,2049,-35627090.0,-9422.99,-21449.92,155543.4,1.743019,78197.55,35612931.67534418
PART_001_R158G218B229A255,2050,-35625810.0,1597.234,17840.35,148630.6,-207.4228,60614.71,35636616.08358208
PART_001_R158G218B229A255,2051,-35634350.0,-10573.48,-18076.3,146000.8,-208.3522,33466.96,35620970.50895063
PART_001_R158G218B229A255,2052,-35629190.0,2045.566,19865.64,144559.6,-2.241695e-06,0.001516939,35641028.453219116
PART_001_R158G218B229A255,2053,-35634350.0,-10573.48,-18076.3,146000.8,208.3522,-33466.95,35620970.50892244
PART_001_R158G218B229A255,2054,-35625810.0,1597.233,17840.35,148630.6,207.4228,-60614.71,35636616.08308244
PART_001_R158G218B229A255,2055,-35627090.0,-9422.99,-21449.92,155543.4,-1.742999,-78197.54,35612931.675278306
PART_001_R158G218B229A255,2056,-35621420.0,-315.1943,11877.85,165142.0,-1138.983,-74878.87,35628587.2022139
PART_001_R158G218B229A255,2057,-35622260.0,-9120.246,-31212.5,192878.3,-3082.865,-34458.57,35603716.568408705
PART_003_R247G182B210A255,2058,35306220.0,-11364.93,-6192.023,191048.1,2308.794,-33775.53,35316597.71190924
PART_000_R31G119B180A255,2059,35309320.0,6311.852,20575.99,164669.9,1702.101,-73713.08,35297261.63397353
PART_000_R31G119B180A255,2060,35304720.0,-9935.335,-13238.57,154015.9,-50.47609,-75061.69,35317553.856667936
PART_000_R31G119B180A255,2061,35312470.0,4717.751,15380.78,147663.6,197.8186,-59558.59,35303499.12404457
PART_000_R31G119B180A255,2062,35307620.0,-9755.804,-16299.69,144235.1,-150.3963,-31876.91,35321574.839702934
PART_000_R31G119B180A255,2063,35314690.0,4384.398,13912.3,143352.4,-2.609307e-06,-0.001523224,35306415.6930145
PART_000_R31G119B180A255,2064,35307620.0,-9755.804,-16299.69,144235.1,150.3963,31876.91,35321574.839702934
PART_000_R31G119B180A255,2065,35312470.0,4717.751,15380.78,147663.6,-197.8187,59558.59,35303499.124044575
PART_000_R31G119B180A255,2066,35304720.0,-9935.335,-13238.57,154015.9,50.47611,75061.69,35317553.856667936
PART_000_R31G119B180A255,2067,35309320.0,6311.852,20575.99,164669.9,-1702.101,73713.08,35297261.63397353
PART_000_R31G119B180A255,2068,35306220.0,-11364.93,-6192.023,191048.1,-2308.794,33775.53,35316597.71190924
PART_003_R247G182B210A255,2069,28238570.0,-4401.439,-17373.18,524189.5,-1790.201,-12810.17,28264054.739056237
PART_003_R247G182B210A255,2070,28244680.0,9710.868,13859.89,466986.6,1184.041,-36262.53,28244548.680482086
PART_000_R31G119B180A255,2071,28243640.0,-789.6685,-10504.34,436395.4,445.8412,-43460.43,28259498.878930844
PART_000_R31G119B180A255,2072,28248760.0,7840.072,13022.64,418801.9,-419.6241,-36986.01,28247716.974442385
PART_000_R31G119B180A255,2073,28246680.0,-931.029,-12619.32,409338.3,-182.2417,-20311.79,28262373.274323698
PART_000_R31G119B180A255,2074,28251100.0,7715.996,12150.66,406429.6,7.369499e-06,-0.001126747,28249939.200016618
PART_000_R31G119B180A255,2075,28246680.0,-931.029,-12619.32,409338.3,182.2417,20311.79,28262373.274323698
PART_000_R31G119B180A255,2076,28248760.0,7840.072,13022.64,418801.9,419.6241,36986.0,28247716.974403106
PART_000_R31G119B180A255,2077,28243640.0,-789.6686,-10504.34,436395.4,-445.8412,43460.42,28259498.878934663
PART_000_R31G119B180A255,2078,28244680.0,9710.868,13859.89,466986.6,-1184.041,36262.53,28244548.680482086
PART_002_R214G39B40A255,2079,28238570.0,-4401.439,-17373.18,524189.5,1790.201,12810.17,28264054.739056237
PART_003_R247G182B210A255,2080,21181880.0,-8681.336,-7738.515,761105.4,-171.2213,-7474.603,21231060.352799334
PART_003_R247G182B210A255,2081,21182600.0,326.7939,6771.556,698126.1,-2841.067,-19196.83,21213568.651351538
PART_003_R247G182B210A255,2082,21183120.0,-4230.85,-11400.55,655253.6,-526.4443,-23833.11,21221347.061832566
PART_000_R31G119B180A255,2083,21187810.0,1643.389,8139.565,628887.2,-1061.454,-21882.62,21210940.71606639
PART_000_R31G119B180A255,2084,21185900.0,-5962.147,-12131.21,614713.8,-578.5889,-12195.22,21221683.712412197
PART_000_R31G119B180A255,2085,21189970.0,1649.608,7550.884,610011.5,-1.716967e-05,-0.0007899617,21211701.01200959
PART_000_R31G119B180A255,2086,21185900.0,-5962.147,-12131.21,614713.8,578.589,12195.21,21221683.712394968
PART_000_R31G119B180A255,2087,21187810.0,1643.389,8139.565,628887.2,1061.454,21882.62,21210940.71606639
PART_000_R31G119B180A255,2088,21183120.0,-4230.85,-11400.55,655253.6,526.4442,23833.11,21221347.06183256
PART_002_R214G39B40A255,2089,21182600.0,326.7939,6771.556,698126.0,2841.067,19196.83,21213568.641478717
PART_002_R214G39B40A255,2090,21181880.0,-8681.336,-7738.515,761105.4,171.2213,7474.603,21231060.352799334
PART_003_R247G182B210A255,2091,14118900.0,-1420.475,-7765.966,935120.6,-1204.428,-3555.265,14216064.322791757
PART_003_R247G182B210A255,2092,14121330.0,4492.405,7400.445,867653.2,-1236.518,-10332.28,14195169.984655812
PART_003_R247G182B210A255,2093,14120630.0,-108.7253,-7179.18,820020.5,-3168.693,-12738.35,14195526.406681556
PART_003_R247G182B210A255,2094,14124250.0,5835.456,5386.689,788628.4,-1429.686,-11872.04,14184576.079108933
PART_000_R31G119B180A255,2095,14123190.0,196.4951,-7143.597,771288.5,-1186.332,-6791.953,14189695.696320534
PART_000_R31G119B180A255,2096,14125730.0,5381.979,5216.409,765603.6,1.961891e-05,-0.0004981119,14182560.16326364
PART_000_R31G119B180A255,2097,14123190.0,196.495,-7143.597,771288.5,1186.332,6791.952,14189695.69636884
PART_000_R31G119B180A255,2098,14124250.0,5835.456,5386.689,788628.4,1429.686,11872.03,14184576.079083825
PART_002_R214G39B40A255,2099,14120630.0,-108.7254,-7179.18,820020.5,3168.693,12738.35,14195526.406731268
PART_002_R214G39B40A255,2100,14121330.0,4492.405,7400.445,867653.2,1236.518,10332.28,14195169.984655812
PART_002_R214G39B40A255,2101,14118900.0,-1420.475,-7765.966,935120.6,1204.428,3555.265,14216064.322791757
PART_003_R247G182B210A255,2102,7060385.0,-3098.404,-2934.951,1028066.0,-643.9328,-1686.409,7284395.112477753
PART_003_R247G182B210A255,2103,7060703.0,-90.5191,2176.976,959830.9,-3042.733,-4457.976,7252772.8084711665
PART_003_R247G182B210A255,2104,7060945.0,-1758.657,-3913.506,909784.3,-2125.444,-5574.561,7237419.142705158
PART_003_R247G182B210A255,2105,7062539.0,422.5316,2219.636,875931.0,-3017.607,-5266.141,7222373.345868667
PART_003_R247G182B210A255,2106,7062103.0,-1782.166,-4655.869,856669.3,-1098.45,-2978.664,7219450.014397171
PART_000_R31G119B180A255,2107,7063460.0,441.116,2223.376,850357.4,-1.024856e-05,-0.0002410878,7214081.640746755
PART_000_R31G119B180A255,2108,7062103.0,-1782.166,-4655.869,856669.3,1098.45,2978.663,7219450.0143959345
PART_002_R214G39B40A255,2109,7062539.0,422.5315,2219.636,875931.0,3017.607,5266.14,7222373.345915382
PART_002_R214G39B40A255,2110,7060945.0,-1758.657,-3913.506,909784.3,2125.444,5574.561,7237419.142705158
PART_002_R214G39B40A255,2111,7060703.0,-90.51911,2176.976,959830.9,3042.733,4457.975,7252772.808474191
PART_002_R214G39B40A255,2112,7060385.0,-3098.404,-2934.951,1028066.0,643.9328,1686.409,7284395.112477753
PART_003_R247G182B210A255,2113,0.007723203,-3.297019e-06,-1.425245e-05,1068349.0,-1192.527,-1.403311e-06,1850435.9010149306
PART_003_R247G182B210A255,2114,0.007724785,1.353652e-05,-4.7486e-06,998962.4,-1866.599,-4.940476e-06,1730256.6521810456
PART_003_R247G182B210A255,2115,0.007728476,5.029595e-06,-1.469466e-06,948197.4,-3695.748,-6.327202e-06,1642338.5472429607
PART_003_R247G182B210A255,2116,0.007725878,3.898969e-06,9.110094e-06,913792.6,-2104.275,-5.99365e-06,1582739.4072822307
PART_003_R247G182B210A255,2117,0.007726686,6.34012e-06,-4.906605e-06,894242.8,-1810.527,-3.417722e-06,1548877.1384714714
PART_003_R247G182B210A255,2118,0.007725439,3.706447e-06,1.117384e-05,887707.6,1.550548e-05,-1.324381e-07,1537554.66546503
PART_002_R214G39B40A255,2119,0.007724309,5.889781e-06,-5.182946e-06,894242.8,1810.527,3.04729e-06,1548877.1384714714
PART_002_R214G39B40A255,2120,0.007721976,5.191651e-06,9.937354e-06,913792.6,2104.275,5.66139e-06,1582739.4072822307
PART_002_R214G39B40A255,2121,0.007721856,5.687913e-06,-1.133823e-06,948197.4,3695.748,5.908233e-06,1642338.5472429607
PART_002_R214G39B40A255,2122,0.007715587,1.268477e-05,-4.755909e-06,998962.4,1866.599,4.811771e-06,1730256.6521810456
PART_002_R214G39B40A255,2123,0.007711725,-4.205658e-06,-1.454303e-05,1068349.0,1192.527,1.335459e-06,1850435.9010149306
PART_003_R247G182B210A255,2124,-7060385.0,3098.404,2934.951,1028066.0,-643.9328,1686.409,7284395.112477753
PART_003_R247G182B210A255,2125,-7060703.0,90.51911,-2176.976,959830.9,-3042.733,4457.976,7252772.808476035
PART_003_R247G182B210A255,2126,-7060945.0,1758.657,3913.506,909784.3,-2125.444,5574.561,7237419.142705158
PART_003_R247G182B210A255,2127,-7062539.0,-422.5315,-2219.636,875931.0,-3017.607,5266.141,7222373.34591757
PART_003_R247G182B210A255,2128,-7062103.0,1782.166,4655.869,856669.3,-1098.45,2978.664,7219450.014397171
PART_001_R158G218B229A255,2129,-7063460.0,-441.116,-2223.376,850357.4,-1.006137e-05,0.0002406438,7214081.640746755
PART_001_R158G218B229A255,2130,-7062103.0,1782.166,4655.869,856669.3,1098.45,-2978.663,7219450.0143959345
PART_002_R214G39B40A255,2131,-7062539.0,-422.5315,-2219.636,875931.0,3017.607,-5266.14,7222373.345915382
PART_002_R214G39B40A255,2132,-7060945.0,1758.657,3913.506,909784.3,2125.444,-5574.561,7237419.142705158
PART_002_R214G39B40A255,2133,-7060703.0,90.51911,-2176.976,959830.9,3042.733,-4457.975,7252772.808474191
PART_002_R214G39B40A255,2134,-7060385.0,3098.404,2934.951,1028066.0,643.9328,-1686.409,7284395.112477753
PART_003_R247G182B210A255,2135,-14118900.0,1420.475,7765.966,935120.6,-1204.428,3555.265,14216064.322791757
PART_003_R247G182B210A255,2136,-14121330.0,-4492.405,-7400.445,867653.2,-1236.518,10332.28,14195169.984655812
PART_003_R247G182B210A255,2137,-14120630.0,108.7254,7179.18,820020.5,-3168.693,12738.35,14195526.406731268
PART_003_R247G182B210A255,2138,-14124250.0,-5835.456,-5386.689,788628.4,-1429.686,11872.04,14184576.079108933
PART_001_R158G218B229A255,2139,-14123190.0,-196.495,7143.597,771288.5,-1186.332,6791.953,14189695.696370276
PART_001_R158G218B229A255,2140,-14125730.0,-5381.979,-5216.409,765603.6,1.980702e-05,0.0004976955,14182560.16326364
PART_001_R158G218B229A255,2141,-14123190.0,-196.495,7143.597,771288.5,1186.332,-6791.952,14189695.69636884
PART_001_R158G218B229A255,2142,-14124250.0,-5835.456,-5386.689,788628.4,1429.686,-11872.03,14184576.079083825
PART_002_R214G39B40A255,2143,-14120630.0,108.7254,7179.18,820020.5,3168.693,-12738.35,14195526.406731268
PART_002_R214G39B40A255,2144,-14121330.0,-4492.405,-7400.445,867653.2,1236.518,-10332.28,14195169.984655812
PART_002_R214G39B40A255,2145,-14118900.0,1420.475,7765.966,935120.6,1204.428,-3555.265,14216064.322791757
PART_003_R247G182B210A255,2146,-21181880.0,8681.336,7738.515,761105.4,-171.2213,7474.603,21231060.352799334
PART_003_R247G182B210A255,2147,-21182600.0,-326.794,-6771.556,698126.1,-2841.067,19196.83,21213568.6513016
PART_003_R247G182B210A255,2148,-21183120.0,4230.85,11400.55,655253.6,-526.4443,23833.11,21221347.061832566
PART_001_R158G218B229A255,2149,-21187810.0,-1643.389,-8139.565,628887.2,-1061.454,21882.62,21210940.71606639
PART_001_R158G218B229A255,2150,-21185900.0,5962.147,12131.21,614713.8,-578.5889,12195.22,21221683.712412197
PART_001_R158G218B229A255,2151,-21189970.0,-1649.608,-7550.884,610011.5,-1.703111e-05,0.0007896454,21211701.01200959
PART_001_R158G218B229A255,2152,-21185900.0,5962.147,12131.21,614713.8,578.589,-12195.21,21221683.712394968
PART_001_R158G218B229A255,2153,-21187810.0,-1643.389,-8139.565,628887.2,1061.454,-21882.62,21210940.71606639
PART_001_R158G218B229A255,2154,-21183120.0,4230.85,11400.55,655253.6,526.4443,-23833.11,21221347.061832566
PART_002_R214G39B40A255,2155,-21182600.0,-326.7939,-6771.556,698126.0,2841.067,-19196.83,21213568.641478717
PART_002_R214G39B40A255,2156,-21181880.0,8681.336,7738.515,761105.4,171.2213,-7474.603,21231060.352799334
PART_003_R247G182B210A255,2157,-28238570.0,4401.439,17373.18,524189.5,-1790.201,12810.17,28264054.739056237
PART_003_R247G182B210A255,2158,-28244680.0,-9710.868,-13859.89,466986.6,1184.041,36262.53,28244548.680482086
PART_001_R158G218B229A255,2159,-28243640.0,789.6685,10504.34,436395.4,445.8412,43460.43,28259498.878930844
PART_001_R158G218B229A255,2160,-28248760.0,-7840.072,-13022.64,418801.9,-419.6241,36986.01,28247716.974442385
PART_001_R158G218B229A255,2161,-28246680.0,931.029,12619.32,409338.3,-182.2417,20311.79,28262373.274323698
PART_001_R158G218B229A255,2162,-28251100.0,-7715.996,-12150.66,406429.6,7.044461e-06,0.001126495,28249939.200016618
PART_001_R158G218B229A255,2163,-28246680.0,931.029,12619.32,409338.3,182.2417,-20311.79,28262373.274323698
PART_001_R158G218B229A255,2164,-28248760.0,-7840.072,-13022.64,418801.9,419.6241,-36986.0,28247716.974403106
PART_001_R158G218B229A255,2165,-28243640.0,789.6686,10504.34,436395.4,-445.8412,-43460.42,28259498.878934663
PART_001_R158G218B229A255,2166,-28244680.0,-9710.868,-13859.89,466986.6,-1184.041,-36262.53,28244548.680482086
PART_002_R214G39B40A255,2167,-28238570.0,4401.439,17373.18,524189.5,1790.201,-12810.17,28264054.739056237
PART_003_R247G182B210A255,2168,-35306220.0,11364.93,6192.023,191048.1,2308.794,33775.53,35316597.71190924
PART_001_R158G218B229A255,2169,-35309320.0,-6311.852,-20575.99,164669.9,1702.101,73713.08,35297261.63397353
PART_001_R158G218B229A255,2170,-35304720.0,9935.335,13238.57,154015.9,-50.47609,75061.69,35317553.856667936
PART_001_R158G218B229A255,2171,-35312470.0,-4717.751,-15380.78,147663.6,197.8186,59558.59,35303499.12404457
PART_001_R158G218B229A255,2172,-35307620.0,9755.804,16299.69,144235.1,-150.3963,31876.91,35321574.839702934
PART_001_R158G218B229A255,2173,-35314690.0,-4384.398,-13912.3,143352.4,-2.466827e-06,0.001522967,35306415.6930145
PART_001_R158G218B229A255,2174,-35307620.0,9755.804,16299.69,144235.1,150.3963,-31876.91,35321574.839702934
PART_001_R158G218B229A255,2175,-35312470.0,-4717.751,-15380.78,147663.6,-197.8187,-59558.59,35303499.124044575
PART_001_R158G218B229A255,2176,-35304720.0,9935.335,13238.57,154015.9,50.47611,-75061.69,35317553.856667936
PART_001_R158G218B229A255,2177,-35309320.0,-6311.852,-20575.99,164669.9,-1702.101,-73713.08,35297261.63397353
PART_001_R158G218B229A255,2178,-35306220.0,11364.93,6192.023,191048.1,-2308.794,-33775.53,35316597.71190924
PART_003_R247G182B210A255,2179,34990460.0,4301.211,24152.69,192637.0,2918.359,-33321.35,34977876.685452364
PART_000_R31G119B180A255,2180,34989060.0,182.361,-5667.561,165068.2,1431.135,-72157.74,34993194.24914334
PART_000_R31G119B180A255,2181,34990570.0,4717.109,16258.24,155107.4,298.125,-74322.16,34981352.25989237
PART_000_R31G119B180A255,2182,34988390.0,-1638.448,-9695.86,148099.7,193.1547,-57744.78,34995140.931892715
PART_000_R31G119B180A255,2183,34992750.0,5581.97,13924.55,145134.4,-1.867388,-31521.3,34983943.257858925
PART_000_R31G119B180A255,2184,34989040.0,-2047.903,-10913.28,143753.9,-3.385724e-06,-0.001520267,34996407.186560996
PART_000_R31G119B180A255,2185,34992750.0,5581.97,13924.55,145134.4,1.867395,31521.3,34983943.257858925
PART_000_R31G119B180A255,2186,34988390.0,-1638.448,-9695.86,148099.7,-193.1548,57744.77,34995140.931843214
PART_000_R31G119B180A255,2187,34990570.0,4717.109,16258.24,155107.4,-298.125,74322.16,34981352.25989237
PART_000_R31G119B180A255,2188,34989060.0,182.3611,-5667.561,165068.2,-1431.134,72157.74,34993194.249093235
PART_000_R31G119B180A255,2189,34990460.0,4301.211,24152.69,192637.0,-2918.359,33321.35,34977876.685452364
PART_003_R247G182B210A255,2190,27987350.0,-2495.679,4112.322,521410.3,-1883.591,-12885.13,28001118.954391524
PART_003_R247G182B210A255,2191,27990140.0,-3369.863,-9919.379,465087.5,1462.578,-34393.28,28008435.435512666
PART_000_R31G119B180A255,2192,27993320.0,2973.886,11670.28,434038.0,826.4366,-42882.51,27996192.988781452
PART_000_R31G119B180A255,2193,27990760.0,-5985.4,-10210.17,416278.8,-35.30896,-35102.61,28008206.143067803
PART_000_R31G119B180A255,2194,27995570.0,2891.253,10386.57,406485.9,49.82223,-19974.59,27997806.966484264
PART_000_R31G119B180A255,2195,27991690.0,-6406.951,-10926.79,403553.0,6.848128e-06,-0.00112436,28009080.050378162
PART_000_R31G119B180A255,2196,27995570.0,2891.253,10386.57,406485.9,-49.82226,19974.59,27997806.966484264
PART_000_R31G119B180A255,2197,27990760.0,-5985.4,-10210.17,416278.8,35.30901,35102.6,28008206.143030208
PART_000_R31G119B180A255,2198,27993320.0,2973.886,11670.28,434038.0,-826.4366,42882.5,27996192.9887355
PART_000_R31G119B180A255,2199,27990140.0,-3369.863,-9919.379,465087.5,-1462.578,34393.28,28008435.435512666
PART_002_R214G39B40A255,2200,27987350.0,-2495.679,4112.321,521410.3,1883.591,12885.13,28001118.95489109
PART_003_R247G182B210A255,2201,20992290.0,2857.479,11630.87,765799.8,55.7768,-7093.451,21026928.09207141
PART_003_R247G182B210A255,2202,20990090.0,-1624.677,-9213.315,702238.8,-2266.962,-17797.26,21030735.242332924
PART_003_R247G182B210A255,2203,20993950.0,6449.985,7574.172,658873.9,50.63401,-23167.42,21017980.847664353
PART_000_R31G119B180A255,2204,20992610.0,-491.9521,-7082.294,632458.0,-430.6822,-20302.24,21024984.45154901
PART_000_R31G119B180A255,2205,20995740.0,5336.125,7649.691,617874.9,-242.5348,-11854.42,21016522.724701896
PART_000_R31G119B180A255,2206,20993600.0,-480.8969,-7433.585,613287.2,-1.776986e-05,-0.0007874202,21024409.858802866
PART_000_R31G119B180A255,2207,20995740.0,5336.125,7649.691,617874.9,242.5348,11854.42,21016522.724701896
PART_000_R31G119B180A255,2208,20992610.0,-491.9521,-7082.293,632458.0,430.6822,20302.24,21024984.451049455
PART_000_R31G119B180A255,2209,20993950.0,6449.985,7574.172,658873.9,-50.63402,23167.42,21017980.847664353
PART_002_R214G39B40A255,2210,20990090.0,-1624.677,-9213.315,702238.8,2266.962,17797.26,21030735.242332924
PART_002_R214G39B40A255,2211,20992290.0,2857.479,11630.87,765799.8,-55.77681,7093.451,21026928.09207141
PART_003_R247G182B210A255,2212,13994020.0,-1319.439,3145.449,930338.0,-975.8447,-3516.861,14085584.285695111
PART_003_R247G182B210A255,2213,13994700.0,-3269.009,-4988.405,863511.0,-602.4423,-9259.233,14078509.13326868
PART_003_R247G182B210A255,2214,13996090.0,822.0581,4146.882,815445.8,-2295.106,-12204.63,14064719.060060019
PART_003_R247G182B210A255,2215,13995580.0,-2327.275,-6551.43,783527.5,-624.9796,-10769.42,14065654.993485987
PART_000_R31G119B180A255,2216,13998050.0,1083.123,4630.168,765581.1,-730.1098,-6509.846,14057877.45221463
PART_000_R31G119B180A255,2217,13996230.0,-2921.216,-6572.215,759870.3,1.873396e-05,-0.0004968382,14062701.291138368
PART_000_R31G119B180A255,2218,13998050.0,1083.123,4630.168,765581.1,730.1098,6509.845,14057877.452213243
PART_000_R31G119B180A255,2219,13995580.0,-2327.275,-6551.43,783527.5,624.9797,10769.42,14065654.993486
PART_002_R214G39B40A255,2220,13996090.0,822.0581,4146.882,815445.8,2295.106,12204.63,14064719.060060019
PART_002_R214G39B40A255,2221,13994700.0,-3269.009,-4988.405,863511.0,602.4423,9259.233,14078509.13326868
PART_002_R214G39B40A255,2222,13994020.0,-1319.44,3145.449,930338.0,975.8447,3516.861,14085584.286192067
PART_003_R247G182B210A255,2223,6997197.0,1114.614,3690.368,1034872.0,-392.5924,-1536.203,7220806.250711579
PART_003_R247G182B210A255,2224,6996500.0,-453.9338,-3152.25,966141.8,-2162.393,-3917.908,7195595.989057563
PART_003_R247G182B210A255,2225,6997831.0,2130.99,2619.046,915359.7,-1181.95,-5286.348,7172875.486396219
PART_003_R247G182B210A255,2226,6997343.0,-24.78506,-2821.301,881354.0,-2095.642,-4669.357,7163320.82167373
PART_003_R247G182B210A255,2227,6998578.0,2341.595,2193.917,861626.0,-585.626,-2830.68,7153710.939463878
PART_000_R31G119B180A255,2228,6997816.0,5.884424,-2725.619,855346.7,-1.069797e-05,-0.0002402892,7154252.046766497
PART_000_R31G119B180A255,2229,6998578.0,2341.595,2193.917,861626.0,585.6261,2830.68,7153710.939463901
PART_002_R214G39B40A255,2230,6997343.0,-24.78507,-2821.301,881354.0,2095.642,4669.357,7163320.821678612
PART_002_R214G39B40A255,2231,6997831.0,2130.99,2619.046,915359.7,1181.95,5286.348,7172875.486396219
PART_002_R214G39B40A255,2232,6996500.0,-453.9338,-3152.25,966141.8,2162.393,3917.907,7195595.98905593
PART_002_R214G39B40A255,2233,6997197.0,1114.614,3690.368,1034872.0,392.5924,1536.203,7220806.250711579
PART_003_R247G182B210A255,2234,0.007651222,-7.979737e-06,-3.930563e-06,1062827.0,-860.5119,-1.153035e-06,1840870.9670232702
PART_003_R247G182B210A255,2235,0.007651411,-7.000032e-07,-2.30878e-05,994054.3,-1080.153,-4.287502e-06,1721753.5695438476
PART_003_R247G182B210A255,2236,0.007657418,1.745627e-06,9.225017e-06,942826.2,-2638.493,-6.008272e-06,1633029.275657743
PART_003_R247G182B210A255,2237,0.007651152,-1.097497e-05,-8.888591e-06,907785.9,-1125.411,-5.274719e-06,1572332.5094795271
PART_003_R247G182B210A255,2238,0.007655082,1.927212e-06,5.488116e-06,887519.1,-1262.67,-3.253309e-06,1537229.7296113605
PART_003_R247G182B210A255,2239,0.007649536,-1.117098e-05,-6.947187e-06,880952.3,1.452565e-05,-2.559377e-07,1525854.1426446598
PART_002_R214G39B40A255,2240,0.007652695,2.449307e-06,5.593226e-06,887519.1,1262.67,2.996736e-06,1537229.7296113605
PART_002_R214G39B40A255,2241,0.007646274,-1.120578e-05,-8.942507e-06,907785.9,1125.411,4.841195e-06,1572332.5094795271
PART_002_R214G39B40A255,2242,0.007650605,1.476966e-06,9.337164e-06,942826.2,2638.493,5.934045e-06,1633029.275657743
PART_002_R214G39B40A255,2243,0.007642497,-2.928112e-07,-2.269104e-05,994054.3,1080.153,3.988634e-06,1721753.5695438476
PART_002_R214G39B40A255,2244,0.007639666,-7.952569e-06,-3.698681e-06,1062827.0,860.5119,1.302826e-06,1840870.9670232702
PART_003_R247G182B210A255,2245,-6997197.0,-1114.614,-3690.368,1034872.0,-392.5924,1536.203,7220806.250711579
PART_003_R247G182B210A255,2246,-6996500.0,453.9338,3152.25,966141.8,-2162.393,3917.908,7195595.989057563
PART_003_R247G182B210A255,2247,-6997831.0,-2130.99,-2619.046,915359.7,-1181.95,5286.348,7172875.486396219
PART_003_R247G182B210A255,2248,-6997343.0,24.78507,2821.301,881354.0,-2095.642,4669.357,7163320.821678612
PART_003_R247G182B210A255,2249,-6998578.0,-2341.595,-2193.917,861626.0,-585.626,2830.68,7153710.939463878
PART_001_R158G218B229A255,2250,-6997816.0,-5.884418,2725.619,855346.7,-1.01864e-05,0.0002399714,7154252.046769431
PART_001_R158G218B229A255,2251,-6998578.0,-2341.595,-2193.916,861626.0,585.6261,-2830.68,7153710.939952917
PART_002_R214G39B40A255,2252,-6997343.0,24.78508,2821.301,881354.0,2095.642,-4669.357,7163320.821683495
PART_002_R214G39B40A255,2253,-6997831.0,-2130.99,-2619.046,915359.7,1181.95,-5286.348,7172875.486396219
PART_002_R214G39B40A255,2254,-6996500.0,453.9338,3152.25,966141.8,2162.393,-3917.907,7195595.98905593
PART_002_R214G39B40A255,2255,-6997197.0,-1114.614,-3690.368,1034872.0,392.5924,-1536.203,7220806.250711579
PART_003_R247G182B210A255,2256,-13994020.0,1319.44,-3145.449,930338.0,-975.8447,3516.861,14085584.286192067
PART_003_R247G182B210A255,2257,-13994700.0,3269.009,4988.405,863511.0,-602.4423,9259.233,14078509.13326868
PART_003_R247G182B210A255,2258,-13996090.0,-822.0581,-4146.882,815445.8,-2295.106,12204.63,14064719.060060019
PART_003_R247G182B210A255,2259,-13995580.0,2327.275,6551.43,783527.5,-624.9797,10769.42,14065654.993486
PART_001_R158G218B229A255,2260,-13998050.0,-1083.123,-4630.168,765581.1,-730.1098,6509.846,14057877.45221463
PART_001_R158G218B229A255,2261,-13996230.0,2921.216,6572.215,759870.3,1.880163e-05,0.0004963344,14062701.291138368
PART_001_R158G218B229A255,2262,-13998050.0,-1083.123,-4630.168,765581.1,730.1098,-6509.845,14057877.452213243
PART_001_R158G218B229A255,2263,-13995580.0,2327.275,6551.43,783527.5,624.9797,-10769.42,14065654.993486
PART_002_R214G39B40A255,2264,-13996090.0,-822.0581,-4146.882,815445.8,2295.106,-12204.63,14064719.060060019
PART_002_R214G39B40A255,2265,-13994700.0,3269.009,4988.405,863511.0,602.4423,-9259.233,14078509.13326868
PART_002_R214G39B40A255,2266,-13994020.0,1319.44,-3145.449,930338.0,975.8447,-3516.861,14085584.286192067
PART_003_R247G182B210A255,2267,-20992290.0,-2857.479,-11630.87,765799.8,55.77683,7093.451,21026928.09207141
PART_003_R247G182B210A255,2268,-20990090.0,1624.677,9213.315,702238.8,-2266.962,17797.26,21030735.242332924
PART_003_R247G182B210A255,2269,-20993950.0,-6449.985,-7574.172,658873.9,50.634,23167.42,21017980.847664353
PART_001_R158G218B229A255,2270,-20992610.0,491.9521,7082.294,632458.1,-430.6822,20302.24,21024984.46057339
PART_001_R158G218B229A255,2271,-20995740.0,-5336.125,-7649.691,617874.9,-242.5348,11854.42,21016522.724701896
PART_001_R158G218B229A255,2272,-20993600.0,480.8969,7433.585,613287.2,-1.784034e-05,0.0007873317,21024409.858802866
PART_001_R158G218B229A255,2273,-20995740.0,-5336.125,-7649.691,617874.9,242.5348,-11854.42,21016522.724701896
PART_001_R158G218B229A255,2274,-20992610.0,491.9521,7082.294,632458.0,430.6822,-20302.24,21024984.45154901
PART_001_R158G218B229A255,2275,-20993950.0,-6449.985,-7574.172,658873.9,-50.63402,-23167.42,21017980.847664353
PART_002_R214G39B40A255,2276,-20990090.0,1624.677,9213.315,702238.8,2266.962,-17797.26,21030735.242332924
PART_002_R214G39B40A255,2277,-20992290.0,-2857.479,-11630.87,765799.8,-55.77684,-7093.451,21026928.09207141
PART_003_R247G182B210A255,2278,-27987350.0,2495.679,-4112.322,521410.3,-1883.591,12885.13,28001118.954391524
PART_003_R247G182B210A255,2279,-27990140.0,3369.863,9919.379,465087.5,1462.578,34393.28,28008435.435512666
PART_001_R158G218B229A255,2280,-27993320.0,-2973.886,-11670.28,434038.0,826.4366,42882.51,27996192.988781452
PART_001_R158G218B229A255,2281,-27990760.0,5985.4,10210.17,416278.8,-35.30896,35102.61,28008206.143067803
PART_001_R158G218B229A255,2282,-27995570.0,-2891.253,-10386.57,406485.9,49.82223,19974.59,27997806.966484264
PART_001_R158G218B229A255,2283,-27991690.0,6406.951,10926.79,403553.0,6.667219e-06,0.001123659,28009080.050378162
PART_001_R158G218B229A255,2284,-27995570.0,-2891.253,-10386.57,406485.9,-49.82226,-19974.59,27997806.966484264
PART_001_R158G218B229A255,2285,-27990760.0,5985.4,10210.17,416278.8,35.30901,-35102.6,28008206.143030208
PART_001_R158G218B229A255,2286,-27993320.0,-2973.886,-11670.28,434038.0,-826.4366,-42882.5,27996192.9887355
PART_001_R158G218B229A255,2287,-27990140.0,3369.863,9919.379,465087.5,-1462.578,-34393.28,28008435.435512666
PART_002_R214G39B40A255,2288,-27987350.0,2495.679,-4112.321,521410.3,1883.591,-12885.13,28001118.95489109
PART_003_R247G182B210A255,2289,-34990460.0,-4301.211,-24152.69,192637.0,2918.359,33321.35,34977876.685452364
PART_001_R158G218B229A255,2290,-34989060.0,-182.361,5667.561,165068.2,1431.135,72157.74,34993194.24914334
PART_001_R158G218B229A255,2291,-34990570.0,-4717.109,-16258.24,155107.4,298.125,74322.16,34981352.25989237
PART_001_R158G218B229A255,2292,-34988390.0,1638.448,9695.86,148099.7,193.1547,57744.78,34995140.931892715
PART_001_R158G218B229A255,2293,-34992750.0,-5581.97,-13924.55,145134.4,-1.867388,31521.3,34983943.257858925
PART_001_R158G218B229A255,2294,-34989040.0,2047.903,10913.28,143753.9,-3.303428e-06,0.001519802,34996407.186560996
PART_001_R158G218B229A255,2295,-34992750.0,-5581.97,-13924.55,145134.4,1.867395,-31521.3,34983943.257858925
PART_001_R158G218B229A255,2296,-34988390.0,1638.448,9695.86,148099.7,-193.1548,-57744.77,34995140.931843214
PART_001_R158G218B229A255,2297,-34990570.0,-4717.109,-16258.24,155107.4,-298.125,-74322.16,34981352.25989237
PART_001_R158G218B229A255,2298,-34989060.0,-182.3611,5667.561,165068.2,-1431.134,-72157.74,34993194.249093235
PART_001_R158G218B229A255,2299,-34990460.0,-4301.211,-24152.69,192637.0,-2918.359,-33321.35,34977876.685452364
PART_003_R247G182B210A255,2300,34672470.0,-7640.546,-488.2597,191524.1,2427.985,-33081.75,34678169.240791306
PART_000_R31G119B180A255,2301,34674240.0,5905.455,16494.34,164916.7,1717.544,-71801.33,34664441.4485153
PART_000_R31G119B180A255,2302,34669560.0,-6458.258,-6472.145,154313.7,194.3799,-73039.5,34677286.02916126
PART_000_R31G119B180A255,2303,34674130.0,4304.605,12584.58,147725.3,367.1508,-57417.63,34666773.072210394
PART_000_R31G119B180A255,2304,34669830.0,-6075.651,-8344.479,144305.4,-7.625971,-30848.68,34677982.04335217
PART_000_R31G119B180A255,2305,34674620.0,3971.576,11596.36,143280.6,-2.639087e-06,-0.001523959,34667724.93348216
PART_000_R31G119B180A255,2306,34669830.0,-6075.651,-8344.479,144305.4,7.625977,30848.68,34677982.04335217
PART_000_R31G119B180A255,2307,34674130.0,4304.605,12584.58,147725.3,-367.1508,57417.63,34666773.072210394
PART_000_R31G119B180A255,2308,34669560.0,-6458.258,-6472.146,154313.7,-194.3798,73039.5,34677286.02966124
PART_000_R31G119B180A255,2309,34674240.0,5905.455,16494.34,164916.7,-1717.544,71801.33,34664441.4485153
PART_000_R31G119B180A255,2310,34672470.0,-7640.546,-488.2595,191524.1,-2427.985,33081.75,34678169.240691334
PART_003_R247G182B210A255,2311,27732500.0,-4827.951,-13680.73,523732.7,-1672.703,-12280.83,27756590.953154407
PART_003_R247G182B210A255,2312,27737420.0,6473.951,9827.848,466633.1,1575.152,-34265.53,27741109.250666413
PART_000_R31G119B180A255,2313,27735850.0,-1021.794,-5741.0,435713.4,1028.803,-41490.51,27749588.84853747
PART_000_R31G119B180A255,2314,27738320.0,4422.277,10051.39,417767.4,171.1988,-34811.48,27740587.985105492
PART_000_R31G119B180A255,2315,27736300.0,-1134.367,-6584.132,407973.9,175.7155,-19280.03,27749178.381046098
PART_000_R31G119B180A255,2316,27738990.0,4237.341,9703.775,404964.7,6.590005e-06,-0.001127812,27740888.84602708
PART_000_R31G119B180A255,2317,27736300.0,-1134.367,-6584.132,407973.9,-175.7155,19280.03,27749178.381046098
PART_000_R31G119B180A255,2318,27738320.0,4422.277,10051.39,417767.4,-171.1987,34811.48,27740587.985105492
PART_000_R31G119B180A255,2319,27735850.0,-1021.795,-5741.0,435713.4,-1028.803,41490.51,27749588.84903716
PART_000_R31G119B180A255,2320,27737420.0,6473.951,9827.848,466633.1,-1575.152,34265.53,27741109.250666413
PART_002_R214G39B40A255,2321,27732500.0,-4827.951,-13680.73,523732.7,1672.703,12280.83,27756590.953154407
PART_003_R247G182B210A255,2322,20802300.0,-5833.031,-4067.078,763009.3,104.2448,-6873.334,20849181.003239766
PART_003_R247G182B210A255,2323,20802030.0,513.0223,4528.782,699811.0,-2042.359,-17500.18,20834820.09512065
PART_003_R247G182B210A255,2324,20802020.0,-1853.704,-6891.34,656462.3,442.8543,-22057.55,20837472.90968196
PART_000_R31G119B180A255,2325,20804490.0,1769.958,6881.917,629615.0,-118.4604,-19997.18,20828761.11232753
PART_000_R31G119B180A255,2326,20802490.0,-3342.804,-6504.475,614972.2,-26.18819,-11280.19,20834668.800170753
PART_000_R31G119B180A255,2327,20805230.0,1818.697,6792.954,610151.6,-1.755601e-05,-0.00079052,20827753.599360414
PART_000_R31G119B180A255,2328,20802490.0,-3342.804,-6504.475,614972.2,26.18822,11280.19,20834668.800170753
PART_000_R31G119B180A255,2329,20804490.0,1769.958,6881.917,629615.0,118.4604,19997.18,20828761.11232753
PART_000_R31G119B180A255,2330,20802020.0,-1853.704,-6891.341,656462.3,-442.8543,22057.55,20837472.910181392
PART_002_R214G39B40A255,2331,20802030.0,513.0223,4528.782,699811.0,2042.359,17500.18,20834820.09512065
PART_002_R214G39B40A255,2332,20802300.0,-5833.031,-4067.078,763009.3,-104.2448,6873.334,20849181.003239766
PART_003_R247G182B210A255,2333,13866480.0,-1881.165,-5902.038,934553.7,-812.3361,-3176.536,13964505.884370781
PART_003_R247G182B210A255,2334,13868210.0,2469.92,5331.555,867124.1,-216.7787,-9062.397,13945430.671171796
PART_003_R247G182B210A255,2335,13867080.0,-628.5341,-4594.73,818903.4,-1809.809,-11408.7,13942043.121555673
PART_003_R247G182B210A255,2336,13869120.0,3639.577,4061.746,786765.0,-205.5882,-10498.1,13932086.068338927
PART_000_R31G119B180A255,2337,13867980.0,-314.2247,-3799.344,768793.4,-462.8068,-6107.298,13933813.9762325
PART_000_R31G119B180A255,2338,13869560.0,3186.667,4246.242,762917.4,1.813498e-05,-0.00049858,13928666.373633072
PART_000_R31G119B180A255,2339,13867980.0,-314.2247,-3799.344,768793.4,462.8068,6107.297,13933813.976231186
PART_000_R31G119B180A255,2340,13869120.0,3639.577,4061.746,786765.0,205.5882,10498.1,13932086.068338927
PART_002_R214G39B40A255,2341,13867080.0,-628.5342,-4594.731,818903.4,1809.809,11408.7,13942043.12210301
PART_002_R214G39B40A255,2342,13868210.0,2469.92,5331.555,867124.1,216.7787,9062.396,13945430.671169845
PART_002_R214G39B40A255,2343,13866480.0,-1881.165,-5902.038,934553.7,812.3361,3176.535,13964505.8843701
PART_003_R247G182B210A255,2344,6934024.0,-2052.382,-1664.486,1031003.0,-206.1868,-1447.594,7162078.83391885
PART_003_R247G182B210A255,2345,6933976.0,16.30098,1469.554,962557.1,-1787.1,-3790.781,7130871.168744177
PART_003_R247G182B210A255,2346,6933977.0,-933.5963,-2307.591,911812.0,-587.8218,-4865.441,7113142.120126909
PART_003_R247G182B210A255,2347,6934756.0,484.618,1909.32,877240.9,-1584.87,-4533.778,7098095.966487037
PART_003_R247G182B210A255,2348,6934237.0,-873.4548,-2614.512,857326.8,-274.7195,-2615.945,7093157.474457932
PART_000_R31G119B180A255,2349,6935125.0,527.6719,2103.099,850815.6,-1.114582e-05,-0.0002412925,7088679.650535352
PART_000_R31G119B180A255,2350,6934237.0,-873.4548,-2614.512,857326.8,274.7195,2615.945,7093157.474457932
PART_002_R214G39B40A255,2351,6934756.0,484.618,1909.32,877240.9,1584.87,4533.777,7098095.96648512
PART_002_R214G39B40A255,2352,6933977.0,-933.5963,-2307.591,911812.0,587.8218,4865.44,7113142.120124856
PART_002_R214G39B40A255,2353,6933976.0,16.30098,1469.554,962557.1,1787.1,3790.781,7130871.168744177
PART_002_R214G39B40A255,2354,6934024.0,-2052.382,-1664.486,1031003.0,206.1868,1447.594,7162078.83391885
PART_003_R247G182B210A255,2355,0.007584618,-4.078629e-06,-1.308143e-05,1067801.0,-697.3295,-1.146437e-06,1849485.9787541768
PART_003_R247G182B210A255,2356,0.007586349,1.218381e-05,-6.37745e-06,998461.9,-600.8045,-4.166466e-06,1729387.0533090539
PART_003_R247G182B210A255,2357,0.007590047,6.512228e-06,1.255541e-06,947016.8,-2039.783,-5.212819e-06,1640285.0180961788
PART_003_R247G182B210A255,2358,0.007586125,2.741109e-06,7.365195e-06,911722.9,-617.4114,-5.284282e-06,1579150.7473144354
PART_003_R247G182B210A255,2359,0.007585695,4.234534e-06,-2.95049e-06,891425.5,-936.1174,-2.886666e-06,1543995.108508479
PART_003_R247G182B210A255,2360,0.007584624,2.095858e-06,9.118921e-06,884664.1,1.418207e-05,-1.309335e-07,1532283.1688321938
PART_002_R214G39B40A255,2361,0.007583428,4.23598e-06,-3.25509e-06,891425.5,936.1174,2.696017e-06,1543995.108508479
PART_002_R214G39B40A255,2362,0.00758127,1.78993e-06,7.313298e-06,911722.9,617.4114,4.914663e-06,1579150.7473144354
PART_002_R214G39B40A255,2363,0.007582264,4.729027e-06,6.915329e-07,947016.8,2039.783,5.234976e-06,1640285.0180961788
PART_002_R214G39B40A255,2364,0.007576813,1.119078e-05,-7.026671e-06,998461.9,600.8045,3.956892e-06,1729387.0533090539
PART_002_R214G39B40A255,2365,0.007572743,-4.800123e-06,-1.296053e-05,1067801.0,697.3295,9.922768e-07,1849485.9787541768
PART_003_R247G182B210A255,2366,-6934024.0,2052.382,1664.486,1031003.0,-206.1868,1447.594,7162078.83391885
PART_003_R247G182B210A255,2367,-6933976.0,-16.30098,-1469.554,962557.1,-1787.1,3790.781,7130871.168744177
PART_003_R247G182B210A255,2368,-6933977.0,933.5963,2307.591,911812.0,-587.8218,4865.441,7113142.120126909
PART_003_R247G182B210A255,2369,-6934756.0,-484.618,-1909.32,877240.9,-1584.87,4533.778,7098095.966487037
PART_003_R247G182B210A255,2370,-6934237.0,873.4548,2614.512,857326.8,-274.7195,2615.945,7093157.474457932
PART_001_R158G218B229A255,2371,-6935125.0,-527.6719,-2103.099,850815.6,-1.066546e-05,0.0002411779,7088679.650535352
PART_001_R158G218B229A255,2372,-6934237.0,873.4547,2614.512,857326.8,274.7195,-2615.945,7093157.474409058
PART_002_R214G39B40A255,2373,-6934756.0,-484.618,-1909.32,877240.9,1584.87,-4533.777,7098095.96648512
PART_002_R214G39B40A255,2374,-6933977.0,933.5963,2307.591,911812.0,587.8218,-4865.44,7113142.120124856
PART_002_R214G39B40A255,2375,-6933976.0,-16.30098,-1469.554,962557.1,1787.1,-3790.781,7130871.168744177
PART_002_R214G39B40A255,2376,-6934024.0,2052.382,1664.486,1031003.0,206.1868,-1447.594,7162078.83391885
PART_003_R247G182B210A255,2377,-13866480.0,1881.165,5902.038,934553.7,-812.3361,3176.536,13964505.884370781
PART_003_R247G182B210A255,2378,-13868210.0,-2469.92,-5331.555,867124.1,-216.7787,9062.397,13945430.671171796
PART_003_R247G182B210A255,2379,-13867080.0,628.5342,4594.73,818903.4,-1809.809,11408.7,13942043.121605393
PART_003_R247G182B210A255,2380,-13869120.0,-3639.577,-4061.746,786765.0,-205.5882,10498.1,13932086.068338927
PART_001_R158G218B229A255,2381,-13867980.0,314.2247,3799.344,768793.4,-462.8068,6107.298,13933813.9762325
PART_001_R158G218B229A255,2382,-13869560.0,-3186.667,-4246.242,762917.4,1.862403e-05,0.0004983209,13928666.373633072
PART_001_R158G218B229A255,2383,-13867980.0,314.2247,3799.344,768793.4,462.8068,-6107.297,13933813.976231186
PART_001_R158G218B229A255,2384,-13869120.0,-3639.577,-4061.746,786765.0,205.5882,-10498.1,13932086.068338927
PART_002_R214G39B40A255,2385,-13867080.0,628.5342,4594.731,818903.4,1809.809,-11408.7,13942043.12210301
PART_002_R214G39B40A255,2386,-13868210.0,-2469.92,-5331.554,867124.1,216.7787,-9062.396,13945430.671666784
PART_002_R214G39B40A255,2387,-13866480.0,1881.165,5902.038,934553.7,812.3361,-3176.535,13964505.8843701
PART_003_R247G182B210A255,2388,-20802300.0,5833.031,4067.078,763009.3,104.2448,6873.334,20849181.003239766
PART_003_R247G182B210A255,2389,-20802030.0,-513.0224,-4528.782,699811.0,-2042.359,17500.18,20834820.095070723
PART_003_R247G182B210A255,2390,-20802020.0,1853.704,6891.34,656462.3,442.8543,22057.55,20837472.90968196
PART_001_R158G218B229A255,2391,-20804490.0,-1769.959,-6881.917,629615.0,-118.4604,19997.18,20828761.111828033
PART_001_R158G218B229A255,2392,-20802490.0,3342.804,6504.475,614972.2,-26.18819,11280.19,20834668.800170753
PART_001_R158G218B229A255,2393,-20805230.0,-1818.697,-6792.954,610151.6,-1.781212e-05,0.000790258,20827753.599360414
PART_001_R158G218B229A255,2394,-20802490.0,3342.804,6504.475,614972.2,26.18823,-11280.19,20834668.800170753
PART_001_R158G218B229A255,2395,-20804490.0,-1769.958,-6881.917,629615.0,118.4604,-19997.18,20828761.11232753
PART_001_R158G218B229A255,2396,-20802020.0,1853.704,6891.341,656462.3,-442.8543,-22057.55,20837472.910181392
PART_002_R214G39B40A255,2397,-20802030.0,-513.0223,-4528.782,699811.0,2042.359,-17500.18,20834820.09512065
PART_002_R214G39B40A255,2398,-20802300.0,5833.031,4067.078,763009.3,-104.2448,-6873.334,20849181.003239766
PART_003_R247G182B210A255,2399,-27732500.0,4827.951,13680.73,523732.7,-1672.703,12280.83,27756590.953154407
PART_003_R247G182B210A255,2400,-27737420.0,-6473.951,-9827.848,466633.1,1575.152,34265.53,27741109.250666413
PART_001_R158G218B229A255,2401,-27735850.0,1021.794,5741.0,435713.4,1028.803,41490.51,27749588.84853747
PART_001_R158G218B229A255,2402,-27738320.0,-4422.277,-10051.39,417767.4,171.1988,34811.48,27740587.985105492
PART_001_R158G218B229A255,2403,-27736300.0,1134.367,6584.132,407973.9,175.7155,19280.03,27749178.381046098
PART_001_R158G218B229A255,2404,-27738990.0,-4237.341,-9703.775,404964.7,6.61818e-06,0.001127331,27740888.84602708
PART_001_R158G218B229A255,2405,-27736300.0,1134.367,6584.132,407973.9,-175.7155,-19280.03,27749178.381046098
PART_001_R158G218B229A255,2406,-27738320.0,-4422.277,-10051.39,417767.4,-171.1987,-34811.48,27740587.985105492
PART_001_R158G218B229A255,2407,-27735850.0,1021.795,5741.0,435713.4,-1028.803,-41490.51,27749588.84903716
PART_001_R158G218B229A255,2408,-27737420.0,-6473.951,-9827.848,466633.1,-1575.152,-34265.53,27741109.250666413
PART_002_R214G39B40A255,2409,-27732500.0,4827.951,13680.73,523732.7,1672.703,-12280.83,27756590.953154407
PART_003_R247G182B210A255,2410,-34672470.0,7640.546,488.2597,191524.1,2427.985,33081.75,34678169.240791306
PART_001_R158G218B229A255,2411,-34674240.0,-5905.455,-16494.34,164916.7,1717.544,71801.33,34664441.4485153
PART_001_R158G218B229A255,2412,-34669560.0,6458.258,6472.145,154313.7,194.3799,73039.5,34677286.02916126
PART_001_R158G218B229A255,2413,-34674130.0,-4304.605,-12584.58,147725.3,367.1508,57417.63,34666773.072210394
PART_001_R158G218B229A255,2414,-34669830.0,6075.651,8344.479,144305.4,-7.625971,30848.68,34677982.04335217
PART_001_R158G218B229A255,2415,-34674620.0,-3971.576,-11596.36,143280.6,-2.875543e-06,0.00152365,34667724.93348216
PART_001_R158G218B229A255,2416,-34669830.0,6075.651,8344.479,144305.4,7.625977,-30848.68,34677982.04335217
PART_001_R158G218B229A255,2417,-34674130.0,-4304.605,-12584.58,147725.3,-367.1508,-57417.63,34666773.072210394
PART_001_R158G218B229A255,2418,-34669560.0,6458.258,6472.146,154313.7,-194.3798,-73039.5,34677286.02966124
PART_001_R158G218B229A255,2419,-34674240.0,-5905.455,-16494.34,164916.7,-1717.544,-71801.33,34664441.4485153
PART_001_R158G218B229A255,2420,-34672470.0,7640.546,488.2595,191524.1,-2427.985,-33081.75,34678169.240691334
PART_003_R247G182B210A255,2421,34355270.0,1592.039,19387.37,192403.5,2779.859,-32935.19,34346448.22590868
PART_000_R31G119B180A255,2422,34354340.0,617.2811,-1538.245,165012.4,1518.516,-71207.41,34356210.86963989
PART_000_R31G119B180A255,2423,34354160.0,2126.95,12602.41,154898.0,359.6633,-72865.74,34348076.21778697
PART_000_R31G119B180A255,2424,34352420.0,-1142.404,-4624.202,147916.3,320.2137,-56685.66,34356398.99536165
PART_000_R31G119B180A255,2425,34354680.0,2848.974,10945.42,144808.1,55.24994,-30758.63,34348740.57506307
PART_000_R31G119B180A255,2426,34352210.0,-1531.658,-5393.033,143484.4,-2.356267e-06,-0.00152141,34356571.377440244
PART_000_R31G119B180A255,2427,34354680.0,2848.974,10945.42,144808.1,-55.24994,30758.63,34348740.57506307
PART_000_R31G119B180A255,2428,34352420.0,-1142.404,-4624.202,147916.3,-320.2137,56685.66,34356398.99536165
PART_000_R31G119B180A255,2429,34354160.0,2126.95,12602.41,154898.0,-359.6633,72865.73,34348076.217723325
PART_000_R31G119B180A255,2430,34354340.0,617.2812,-1538.245,165012.4,-1518.516,71207.41,34356210.869589895
PART_000_R31G119B180A255,2431,34355270.0,1592.039,19387.37,192403.5,-2779.859,32935.19,34346448.22590868
PART_003_R247G182B210A255,2432,27479360.0,-2234.19,1297.033,522168.1,-1749.778,-12392.58,27494716.520509105
PART_003_R247G182B210A255,2433,27482300.0,-1142.172,-5942.066,465704.3,1637.903,-33523.7,27497737.276338037
PART_000_R31G119B180A255,2434,27484060.0,2730.668,9307.977,434576.7,1129.138,-41401.31,27488442.456328906
PART_000_R31G119B180A255,2435,27481600.0,-3574.283,-5272.42,416628.6,278.3629,-34059.27,27495557.829348464
PART_000_R31G119B180A255,2436,27484670.0,2676.49,8722.709,406706.6,244.1865,-19203.37,27488018.825512294
PART_000_R31G119B180A255,2437,27481650.0,-3913.036,-5478.734,403703.9,6.891549e-06,-0.001125281,27495238.541700993
PART_000_R31G119B180A255,2438,27484670.0,2676.49,8722.709,406706.6,-244.1865,19203.37,27488018.825512294
PART_000_R31G119B180A255,2439,27481600.0,-3574.283,-5272.42,416628.6,-278.3628,34059.27,27495557.829348464
PART_000_R31G119B180A255,2440,27484060.0,2730.668,9307.977,434576.7,-1129.138,41401.31,27488442.456328906
PART_000_R31G119B180A255,2441,27482300.0,-1142.172,-5942.066,465704.3,-1637.903,33523.7,27497737.276338037
PART_002_R214G39B40A255,2442,27479360.0,-2234.19,1297.033,522168.1,1749.778,12392.58,27494716.520509105
PART_003_R247G182B210A255,2443,20611750.0,857.7387,8686.762,765220.1,184.6214,-6746.05,20649561.738180634
PART_003_R247G182B210A255,2444,20609760.0,-1785.029,-6605.77,701742.4,-1856.062,-16978.57,20649779.102463115
PART_003_R247G182B210A255,2445,20612380.0,4347.238,5394.175,658203.9,591.377,-21900.88,20639054.65907988
PART_000_R31G119B180A255,2446,20611030.0,-678.9501,-3763.606,631444.0,73.26342,-19378.08,20642272.803880405
PART_000_R31G119B180A255,2447,20612810.0,3169.724,6035.098,616638.0,70.34346,-11190.93,20635874.81023794
PART_000_R31G119B180A255,2448,20611270.0,-646.1652,-3695.437,611918.8,-1.778154e-05,-0.0007886377,20640670.591998175
PART_000_R31G119B180A255,2449,20612810.0,3169.724,6035.098,616638.0,-70.34342,11190.92,20635874.81022167
PART_000_R31G119B180A255,2450,20611030.0,-678.9501,-3763.606,631444.0,-73.26344,19378.08,20642272.803880405
PART_000_R31G119B180A255,2451,20612380.0,4347.238,5394.175,658203.9,-591.377,21900.87,20639054.659048043
PART_002_R214G39B40A255,2452,20609760.0,-1785.029,-6605.77,701742.4,1856.062,16978.56,20649779.10243845
PART_002_R214G39B40A255,2453,20611750.0,857.7387,8686.762,765220.1,-184.6214,6746.05,20649561.738180634
PART_003_R247G182B210A255,2454,13740190.0,-1001.191,1712.379,931887.5,-758.2151,-3207.211,13834317.133423839
PART_003_R247G182B210A255,2455,13740920.0,-1970.372,-2862.432,864954.7,-53.19936,-8654.787,13824758.973632323
PART_003_R247G182B210A255,2456,13741480.0,797.2988,3085.679,816636.9,-1542.102,-11273.65,13812168.487410892
PART_003_R247G182B210A255,2457,13740910.0,-1001.343,-3822.76,784367.4,40.11182,-10073.21,13810318.897461994
PART_000_R31G119B180A255,2458,13742400.0,1095.259,4003.74,766160.4,-321.5592,-6027.264,13803789.79447513
PART_000_R31G119B180A255,2459,13741000.0,-1529.7,-3539.055,760313.7,1.800928e-05,-0.0004976453,13806482.933060033
PART_000_R31G119B180A255,2460,13742400.0,1095.259,4003.74,766160.4,321.5592,6027.263,13803789.794473821
PART_000_R31G119B180A255,2461,13740910.0,-1001.343,-3822.76,784367.4,-40.1118,10073.21,13810318.897461992
PART_002_R214G39B40A255,2462,13741480.0,797.2988,3085.679,816636.9,1542.102,11273.65,13812168.487410892
PART_002_R214G39B40A255,2463,13740920.0,-1970.372,-2862.432,864954.7,53.19936,8654.787,13824758.973632323
PART_002_R214G39B40A255,2464,13740190.0,-1001.191,1712.379,931887.5,758.2151,3207.211,13834317.133423839
PART_003_R247G182B210A255,2465,6870474.0,373.4883,2691.404,1034155.0,-139.6019,-1397.557,7098647.597239556
PART_003_R247G182B210A255,2466,6869837.0,-598.3467,-2264.181,965525.4,-1506.671,-3589.688,7071852.161699431
PART_003_R247G182B210A255,2467,6870715.0,1321.116,1903.504,914489.1,-316.0242,-4792.477,7049362.536096777
PART_003_R247G182B210A255,2468,6870188.0,-192.7296,-1648.907,879988.6,-1296.089,-4301.977,7038134.5790065555
PART_003_R247G182B210A255,2469,6870937.0,1496.484,1703.874,859915.5,-118.1093,-2574.675,7028952.43423432
PART_000_R31G119B180A255,2470,6870368.0,-151.2588,-1399.211,853468.7,-1.104928e-05,-0.0002407877,7028359.480575082
PART_000_R31G119B180A255,2471,6870937.0,1496.484,1703.874,859915.5,118.1093,2574.675,7028952.43423432
PART_002_R214G39B40A255,2472,6870188.0,-192.7297,-1648.907,879988.6,1296.089,4301.977,7038134.579055353
PART_002_R214G39B40A255,2473,6870715.0,1321.116,1903.504,914489.1,316.0242,4792.477,7049362.536096777
PART_002_R214G39B40A255,2474,6869837.0,-598.3467,-2264.181,965525.4,1506.671,3589.687,7071852.161697908
PART_002_R214G39B40A255,2475,6870474.0,373.4883,2691.404,1034155.0,139.6019,1397.557,7098647.597239556
PART_003_R247G182B210A255,2476,0.007513426,-6.876953e-06,-5.01348e-06,1064709.0,-602.089,-1.131814e-06,1844130.3781393797
PART_003_R247G182B210A255,2477,0.00751363,9.074135e-07,-1.989705e-05,995852.4,-388.5897,-3.87522e-06,1724867.0849555756
PART_003_R247G182B210A255,2478,0.007519005,3.132745e-06,8.333081e-06,944319.0,-1714.401,-5.481953e-06,1635611.1820342164
PART_003_R247G182B210A255,2479,0.007513333,-6.776043e-06,-5.350531e-06,908862.1,-311.1358,-4.805597e-06,1574195.4265165706
PART_003_R247G182B210A255,2480,0.007516176,2.323607e-06,5.398582e-06,888284.5,-762.7943,-3.032044e-06,1538554.4528505264
PART_003_R247G182B210A255,2481,0.007510992,-8.47546e-06,-4.111211e-06,881556.8,1.401711e-05,-2.667931e-07,1526901.1673578352
PART_002_R214G39B40A255,2482,0.007513358,1.782947e-06,4.737843e-06,888284.5,762.7943,2.782748e-06,1538554.4528505264
PART_002_R214G39B40A255,2483,0.007507941,-8.787254e-06,-5.868913e-06,908862.1,311.1358,4.600236e-06,1574195.4265165706
PART_002_R214G39B40A255,2484,0.007511767,2.095043e-06,8.194483e-06,944319.0,1714.401,5.292931e-06,1635611.1820342164
PART_002_R214G39B40A255,2485,0.007504121,8.231062e-07,-2.021149e-05,995852.4,388.5897,3.860954e-06,1724867.0849555756
PART_002_R214G39B40A255,2486,0.007501735,-7.848681e-06,-4.91438e-06,1064709.0,602.089,1.014121e-06,1844130.3781393797
PART_003_R247G182B210A255,2487,-6870474.0,-373.4883,-2691.404,1034155.0,-139.6019,1397.557,7098647.597239556
PART_003_R247G182B210A255,2488,-6869837.0,598.3467,2264.181,965525.4,-1506.671,3589.688,7071852.161699431
PART_003_R247G182B210A255,2489,-6870715.0,-1321.116,-1903.504,914489.1,-316.0242,4792.477,7049362.536096777
PART_003_R247G182B210A255,2490,-6870188.0,192.7297,1648.907,879988.6,-1296.089,4301.977,7038134.579055353
PART_003_R247G182B210A255,2491,-6870937.0,-1496.484,-1703.874,859915.5,-118.1093,2574.675,7028952.43423432
PART_001_R158G218B229A255,2492,-6870368.0,151.2588,1399.211,853468.7,-1.085234e-05,0.0002403344,7028359.480575082
PART_001_R158G218B229A255,2493,-6870937.0,-1496.484,-1703.874,859915.5,118.1093,-2574.675,7028952.43423432
PART_002_R214G39B40A255,2494,-6870188.0,192.7297,1648.907,879988.6,1296.089,-4301.977,7038134.579055353
PART_002_R214G39B40A255,2495,-6870715.0,-1321.116,-1903.504,914489.1,316.0242,-4792.477,7049362.536096777
PART_002_R214G39B40A255,2496,-6869837.0,598.3467,2264.181,965525.4,1506.671,-3589.687,7071852.161697908
PART_002_R214G39B40A255,2497,-6870474.0,-373.4883,-2691.404,1034155.0,139.6019,-1397.557,7098647.597239556
PART_003_R247G182B210A255,2498,-13740190.0,1001.191,-1712.378,931887.5,-758.2151,3207.211,13834317.133920277
PART_003_R247G182B210A255,2499,-13740920.0,1970.372,2862.432,864954.7,-53.19936,8654.787,13824758.973632323
PART_003_R247G182B210A255,2500,-13741480.0,-797.2988,-3085.679,816636.9,-1542.102,11273.65,13812168.487410892
PART_003_R247G182B210A255,2501,-13740910.0,1001.343,3822.76,784367.4,40.11181,10073.21,13810318.897461992
PART_001_R158G218B229A255,2502,-13742400.0,-1095.259,-4003.74,766160.4,-321.5592,6027.264,13803789.79447513
PART_001_R158G218B229A255,2503,-13741000.0,1529.7,3539.055,760313.7,1.807167e-05,0.0004975079,13806482.933060033
PART_001_R158G218B229A255,2504,-13742400.0,-1095.259,-4003.74,766160.4,321.5592,-6027.263,13803789.794473821
PART_001_R158G218B229A255,2505,-13740910.0,1001.343,3822.76,784367.4,-40.1118,-10073.21,13810318.897461992
PART_002_R214G39B40A255,2506,-13741480.0,-797.2988,-3085.679,816636.9,1542.102,-11273.65,13812168.487410892
PART_002_R214G39B40A255,2507,-13740920.0,1970.372,2862.432,864954.7,53.19935,-8654.787,13824758.973632323
PART_002_R214G39B40A255,2508,-13740190.0,1001.191,-1712.378,931887.5,758.2151,-3207.211,13834317.133920277
PART_003_R247G182B210A255,2509,-20611750.0,-857.7387,-8686.762,765220.1,184.6214,6746.05,20649561.738180634
PART_003_R247G182B210A255,2510,-20609760.0,1785.029,6605.77,701742.4,-1856.062,16978.57,20649779.102463115
PART_003_R247G182B210A255,2511,-20612380.0,-4347.238,-5394.175,658203.9,591.377,21900.88,20639054.65907988
PART_001_R158G218B229A255,2512,-20611030.0,678.9501,3763.606,631444.0,73.26342,19378.08,20642272.803880405
PART_001_R158G218B229A255,2513,-20612810.0,-3169.724,-6035.098,616638.0,70.34346,11190.93,20635874.81023794
PART_001_R158G218B229A255,2514,-20611270.0,646.1652,3695.437,611918.8,-1.74569e-05,0.0007882691,20640670.591998175
PART_001_R158G218B229A255,2515,-20612810.0,-3169.724,-6035.098,616638.0,-70.34342,-11190.92,20635874.81022167
PART_001_R158G218B229A255,2516,-20611030.0,678.9501,3763.606,631444.0,-73.26344,-19378.08,20642272.803880405
PART_001_R158G218B229A255,2517,-20612380.0,-4347.238,-5394.175,658203.9,-591.377,-21900.87,20639054.659048043
PART_002_R214G39B40A255,2518,-20609760.0,1785.029,6605.77,701742.4,1856.062,-16978.56,20649779.10243845
PART_002_R214G39B40A255,2519,-20611750.0,-857.7387,-8686.762,765220.1,-184.6215,-6746.05,20649561.738180637
PART_003_R247G182B210A255,2520,-27479360.0,2234.19,-1297.033,522168.1,-1749.778,12392.58,27494716.520509105
PART_003_R247G182B210A255,2521,-27482300.0,1142.172,5942.066,465704.3,1637.903,33523.7,27497737.276338037
PART_001_R158G218B229A255,2522,-27484060.0,-2730.668,-9307.977,434576.7,1129.138,41401.31,27488442.456328906
PART_001_R158G218B229A255,2523,-27481600.0,3574.283,5272.42,416628.6,278.3629,34059.27,27495557.829348464
PART_001_R158G218B229A255,2524,-27484670.0,-2676.49,-8722.709,406706.6,244.1865,19203.37,27488018.825512294
PART_001_R158G218B229A255,2525,-27481650.0,3913.036,5478.734,403703.9,6.398844e-06,0.001125072,27495238.541700993
PART_001_R158G218B229A255,2526,-27484670.0,-2676.49,-8722.709,406706.6,-244.1865,-19203.37,27488018.825512294
PART_001_R158G218B229A255,2527,-27481600.0,3574.283,5272.42,416628.6,-278.3628,-34059.27,27495557.829348464
PART_001_R158G218B229A255,2528,-27484060.0,-2730.668,-9307.977,434576.7,-1129.138,-41401.31,27488442.456328906
PART_001_R158G218B229A255,2529,-27482300.0,1142.172,5942.066,465704.3,-1637.903,-33523.7,27497737.276338037
PART_002_R214G39B40A255,2530,-27479360.0,2234.19,-1297.033,522168.1,1749.778,-12392.58,27494716.520509105
PART_003_R247G182B210A255,2531,-34355270.0,-1592.039,-19387.37,192403.5,2779.859,32935.19,34346448.22590868
PART_001_R158G218B229A255,2532,-34354340.0,-617.2811,1538.245,165012.4,1518.516,71207.41,34356210.86963989
PART_001_R158G218B229A255,2533,-34354160.0,-2126.95,-12602.41,154898.0,359.6633,72865.74,34348076.21778697
PART_001_R158G218B229A255,2534,-34352420.0,1142.404,4624.202,147916.3,320.2137,56685.66,34356398.99536165
PART_001_R158G218B229A255,2535,-34354680.0,-2848.974,-10945.42,144808.1,55.24994,30758.63,34348740.57506307
PART_001_R158G218B229A255,2536,-34352210.0,1531.658,5393.033,143484.4,-2.527279e-06,0.001520989,34356571.377440244
PART_001_R158G218B229A255,2537,-34354680.0,-2848.973,-10945.42,144808.1,-55.24994,-30758.63,34348740.57556323
PART_001_R158G218B229A255,2538,-34352420.0,1142.404,4624.202,147916.3,-320.2137,-56685.66,34356398.99536165
PART_001_R158G218B229A255,2539,-34354160.0,-2126.95,-12602.41,154898.0,-359.6633,-72865.73,34348076.217723325
PART_001_R158G218B229A255,2540,-34354340.0,-617.2812,1538.245,165012.4,-1518.516,-71207.41,34356210.869589895
PART_001_R158G218B229A255,2541,-34355270.0,-1592.039,-19387.37,192403.5,-2779.859,-32935.19,34346448.22590868
PART_003_R247G182B210A255,2542,34036810.0,-5506.285,3157.667,191740.6,2466.334,-32857.21,34039653.09059422
PART_000_R31G119B180A255,2543,34038120.0,5256.718,13427.57,165003.4,1670.991,-71159.96,34030202.03301035
PART_000_R31G119B180A255,2544,34034050.0,-4482.332,-2406.522,154481.2,268.3813,-72367.68,34038776.92988789
PART_000_R31G119B180A255,2545,34037090.0,3660.468,10219.37,147793.1,397.9515,-56643.75,34031254.76998082
PART_000_R31G119B180A255,2546,34033650.0,-4012.999,-3720.183,144414.1,35.97242,-30491.32,34038476.62880068
PART_000_R31G119B180A255,2547,34037030.0,3328.282,9509.725,143317.7,-2.961406e-06,-0.001523974,34031516.7652308
PART_000_R31G119B180A255,2548,34033650.0,-4012.999,-3720.183,144414.1,-35.97241,30491.32,34038476.62880068
PART_000_R31G119B180A255,2549,34037090.0,3660.468,10219.37,147793.1,-397.9516,56643.75,34031254.769980825
PART_000_R31G119B180A255,2550,34034050.0,-4482.332,-2406.523,154481.2,-268.3813,72367.68,34038776.93038783
PART_000_R31G119B180A255,2551,34038120.0,5256.719,13427.57,165003.4,-1670.991,71159.96,34030202.03251019
PART_000_R31G119B180A255,2552,34036810.0,-5506.285,3157.667,191740.6,-2466.334,32857.21,34039653.09059422
PART_003_R247G182B210A255,2553,27224310.0,-4704.815,-10992.26,523332.5,-1638.569,-12140.77,27247248.83775957
PART_003_R247G182B210A255,2554,27228840.0,4663.868,7053.255,466382.2,1648.17,-33589.95,27235026.21177075
PART_000_R31G119B180A255,2555,27227580.0,-773.8431,-2724.764,435387.1,1166.925,-40856.89,27239861.873691622
PART_000_R31G119B180A255,2556,27228830.0,2546.802,7787.981,417364.8,330.6208,-34036.59,27233323.013342552
PART_000_R31G119B180A255,2557,27227350.0,-881.096,-3025.644,407474.8,273.7335,-18930.12,27238468.16316646
PART_000_R31G119B180A255,2558,27228970.0,2330.207,7696.924,404441.5,6.450602e-06,-0.001127894,27232967.967696052
PART_000_R31G119B180A255,2559,27227350.0,-881.0959,-3025.644,407474.8,-273.7335,18930.12,27238468.16311648
PART_000_R31G119B180A255,2560,27228830.0,2546.802,7787.981,417364.8,-330.6207,34036.59,27233323.01334255
PART_000_R31G119B180A255,2561,27227580.0,-773.8432,-2724.764,435387.1,-1166.925,40856.88,27239861.8736966
PART_000_R31G119B180A255,2562,27228840.0,4663.868,7053.255,466382.2,-1648.17,33589.95,27235026.21177075
PART_002_R214G39B40A255,2563,27224310.0,-4704.815,-10992.26,523332.5,1638.569,12140.77,27247248.83775957
PART_003_R247G182B210A255,2564,20420990.0,-4222.757,-1687.328,763722.0,171.9169,-6682.851,20466740.91960836
PART_003_R247G182B210A255,2565,20420430.0,409.5225,2806.625,700507.9,-1806.787,-16939.8,20454860.004001006
PART_003_R247G182B210A255,2566,20420620.0,-479.0737,-4202.142,657062.0,696.3098,-21482.07,20454679.35934928
PART_000_R31G119B180A255,2567,20422100.0,1617.775,5595.617,630124.3,150.3646,-19332.13,20447669.105177835
PART_000_R31G119B180A255,2568,20420460.0,-1854.283,-3360.476,615348.7,131.7772,-10970.15,20450868.09994881
PART_000_R31G119B180A255,2569,20422380.0,1677.383,5737.219,610510.8,-1.747215e-05,-0.0007902565,20446035.73951046
PART_000_R31G119B180A255,2570,20420460.0,-1854.283,-3360.477,615348.7,-131.7772,10970.15,20450868.100448187
PART_000_R31G119B180A255,2571,20422100.0,1617.775,5595.617,630124.3,-150.3646,19332.13,20447669.105177835
PART_000_R31G119B180A255,2572,20420620.0,-479.0737,-4202.142,657062.0,-696.3098,21482.07,20454679.35934928
PART_002_R214G39B40A255,2573,20420430.0,409.5225,2806.625,700507.9,1806.787,16939.8,20454860.004001006
PART_002_R214G39B40A255,2574,20420990.0,-4222.757,-1687.328,763722.0,-171.917,6682.851,20466740.919608362
PART_003_R247G182B210A255,2575,13612550.0,-1946.846,-4554.317,933887.3,-704.9036,-3069.884,13711546.112852808
PART_003_R247G182B210A255,2576,13614080.0,1386.674,3891.732,866618.2,51.75909,-8639.902,13693963.288332313
PART_003_R247G182B210A255,2577,13613070.0,-673.1996,-2991.229,818292.0,-1408.179,-10976.64,13688489.293397926
PART_003_R247G182B210A255,2578,13614400.0,2470.007,2973.589,785968.6,150.3787,-10016.71,13679595.19345638
PART_000_R31G119B180A255,2579,13613500.0,-370.2606,-1896.742,767810.5,-245.3538,-5874.85,13679435.285721527
PART_000_R31G119B180A255,2580,13614510.0,2012.778,3316.55,761889.1,1.77907e-05,-0.0004986847,13675663.045284037
PART_000_R31G119B180A255,2581,13613500.0,-370.2606,-1896.742,767810.5,245.3538,5874.849,13679435.285720238
PART_000_R31G119B180A255,2582,13614400.0,2470.007,2973.589,785968.6,-150.3787,10016.71,13679595.19345638
PART_002_R214G39B40A255,2583,13613070.0,-673.1997,-2991.229,818292.0,1408.179,10976.64,13688489.293447644
PART_002_R214G39B40A255,2584,13614080.0,1386.674,3891.732,866618.2,-51.7591,8639.902,13693963.288332313
PART_002_R214G39B40A255,2585,13612550.0,-1946.846,-4554.317,933887.3,704.9036,3069.884,13711546.112852808
PART_003_R247G182B210A255,2586,6806947.0,-1460.343,-842.726,1032071.0,-94.01743,-1371.63,7038872.300254958
PART_003_R247G182B210A255,2587,6806798.0,16.79991,906.6605,963654.0,-1421.044,-3569.843,7008005.807360543
PART_003_R247G182B210A255,2588,6806848.0,-438.325,-1367.421,912758.3,-150.3248,-4634.853,6988914.096788077
PART_003_R247G182B210A255,2589,6807272.0,459.7194,1519.732,878039.2,-1147.832,-4276.668,6974123.35513237
PART_003_R247G182B210A255,2590,6806857.0,-345.4458,-1493.785,857945.9,-28.53184,-2492.998,6968074.022550204
PART_000_R31G119B180A255,2591,6807462.0,508.974,1796.886,851391.7,-1.109129e-05,-0.0002415845,6964226.2944916515
PART_000_R31G119B180A255,2592,6806857.0,-345.4458,-1493.785,857945.9,28.53187,2492.998,6968074.022550204
PART_002_R214G39B40A255,2593,6807272.0,459.7194,1519.732,878039.2,1147.832,4276.668,6974123.35513237
PART_002_R214G39B40A255,2594,6806848.0,-438.325,-1367.421,912758.3,150.3248,4634.853,6988914.096788077
PART_002_R214G39B40A255,2595,6806798.0,16.79991,906.6605,963654.0,1421.044,3569.842,7008005.807359015
PART_002_R214G39B40A255,2596,6806947.0,-1460.343,-842.726,1032071.0,94.01743,1371.63,7038872.300254958
PART_003_R247G182B210A255,2597,0.007445182,-4.502345e-06,-1.163133e-05,1067049.0,-558.5338,-8.58089e-07,1848183.3353547526
PART_003_R247G182B210A255,2598,0.007446475,9.215994e-06,-8.886527e-06,997887.9,-254.2485,-3.924928e-06,1728392.5991585734
PART_003_R247G182B210A255,2599,0.007450377,4.687294e-06,1.821559e-06,946322.3,-1544.94,-5.136586e-06,1639080.4882465904
PART_003_R247G182B210A255,2600,0.007446774,1.486621e-06,5.84474e-06,910804.1,-174.0705,-4.905837e-06,1577559.00575289
PART_003_R247G182B210A255,2601,0.007446137,4.547368e-06,-1.537984e-06,890284.3,-665.2824,-2.955588e-06,1542018.0713213077
PART_003_R247G182B210A255,2602,0.007444297,-1.664964e-07,7.360662e-06,883468.2,1.309371e-05,-1.757816e-07,1530211.8092714222
PART_002_R214G39B40A255,2603,0.007443743,3.402581e-06,-1.692634e-06,890284.3,665.2824,2.645128e-06,1542018.0713213077
PART_002_R214G39B40A255,2604,0.007441207,-1.913613e-07,5.222873e-06,910804.1,174.0705,4.579996e-06,1577559.00575289
PART_002_R214G39B40A255,2605,0.007442642,3.468943e-06,1.448904e-06,946322.3,1544.94,5.100164e-06,1639080.4882465904
PART_002_R214G39B40A255,2606,0.007437313,9.23289e-06,-8.688901e-06,997887.9,254.2485,3.911687e-06,1728392.5991585734
PART_002_R214G39B40A255,2607,0.00743355,-4.946735e-06,-1.164953e-05,1067049.0,558.5338,8.614771e-07,1848183.3353547526
PART_003_R247G182B210A255,2608,-6806947.0,1460.343,842.726,1032071.0,-94.01744,1371.63,7038872.300254958
PART_003_R247G182B210A255,2609,-6806798.0,-16.7999,-906.6605,963654.0,-1421.044,3569.843,7008005.8073654
PART_003_R247G182B210A255,2610,-6806848.0,438.325,1367.421,912758.3,-150.3248,4634.853,6988914.096788077
PART_003_R247G182B210A255,2611,-6807272.0,-459.7194,-1519.732,878039.2,-1147.832,4276.668,6974123.35513237
PART_003_R247G182B210A255,2612,-6806857.0,345.4458,1493.785,857945.9,-28.53184,2492.998,6968074.022550204
PART_001_R158G218B229A255,2613,-6807462.0,-508.974,-1796.886,851391.7,-1.056865e-05,0.0002411063,6964226.2944916515
PART_001_R158G218B229A255,2614,-6806857.0,345.4458,1493.785,857945.9,28.53187,-2492.998,6968074.022550204
PART_002_R214G39B40A255,2615,-6807272.0,-459.7194,-1519.732,878039.2,1147.832,-4276.668,6974123.35513237
PART_002_R214G39B40A255,2616,-6806848.0,438.325,1367.421,912758.3,150.3248,-4634.853,6988914.096788077
PART_002_R214G39B40A255,2617,-6806798.0,-16.7999,-906.6605,963654.0,1421.044,-3569.842,7008005.807363872
PART_002_R214G39B40A255,2618,-6806947.0,1460.343,842.726,1032071.0,94.01744,-1371.63,7038872.300254958
PART_003_R247G182B210A255,2619,-13612550.0,1946.846,4554.317,933887.3,-704.9036,3069.884,13711546.112852808
PART_003_R247G182B210A255,2620,-13614080.0,-1386.674,-3891.732,866618.2,51.7591,8639.902,13693963.288332313
PART_003_R247G182B210A255,2621,-13613070.0,673.1996,2991.229,818292.0,-1408.179,10976.64,13688489.293397926
PART_003_R247G182B210A255,2622,-13614400.0,-2470.007,-2973.589,785968.6,150.3787,10016.71,13679595.19345638
PART_001_R158G218B229A255,2623,-13613500.0,370.2606,1896.742,767810.5,-245.3538,5874.85,13679435.285721527
PART_001_R158G218B229A255,2624,-13614510.0,-2012.778,-3316.55,761889.1,1.770165e-05,0.0004983774,13675663.045284037
PART_001_R158G218B229A255,2625,-13613500.0,370.2606,1896.742,767810.5,245.3538,-5874.849,13679435.285720238
PART_001_R158G218B229A255,2626,-13614400.0,-2470.007,-2973.589,785968.6,-150.3787,-10016.71,13679595.19345638
PART_002_R214G39B40A255,2627,-13613070.0,673.1997,2991.229,818292.0,1408.179,-10976.64,13688489.293447644
PART_002_R214G39B40A255,2628,-13614080.0,-1386.674,-3891.732,866618.2,-51.7591,-8639.902,13693963.288332313
PART_002_R214G39B40A255,2629,-13612550.0,1946.846,4554.317,933887.3,704.9036,-3069.884,13711546.112852808
PART_003_R247G182B210A255,2630,-20420990.0,4222.757,1687.328,763722.0,171.917,6682.851,20466740.919608362
PART_003_R247G182B210A255,2631,-20420430.0,-409.5225,-2806.625,700507.9,-1806.787,16939.8,20454860.004001006
PART_003_R247G182B210A255,2632,-20420620.0,479.0737,4202.142,657062.0,696.3098,21482.07,20454679.35934928
PART_001_R158G218B229A255,2633,-20422100.0,-1617.775,-5595.617,630124.3,150.3646,19332.13,20447669.105177835
PART_001_R158G218B229A255,2634,-20420460.0,1854.283,3360.476,615348.7,131.7772,10970.15,20450868.09994881
PART_001_R158G218B229A255,2635,-20422380.0,-1677.383,-5737.219,610510.8,-1.782028e-05,0.0007903661,20446035.73951046
PART_001_R158G218B229A255,2636,-20420460.0,1854.283,3360.477,615348.7,-131.7772,-10970.15,20450868.100448187
PART_001_R158G218B229A255,2637,-20422100.0,-1617.775,-5595.617,630124.3,-150.3646,-19332.13,20447669.105177835
PART_001_R158G218B229A255,2638,-20420620.0,479.0737,4202.142,657062.0,-696.3098,-21482.07,20454679.35934928
PART_002_R214G39B40A255,2639,-20420430.0,-409.5225,-2806.625,700507.9,1806.787,-16939.8,20454860.004001006
PART_002_R214G39B40A255,2640,-20420990.0,4222.757,1687.328,763722.0,-171.917,-6682.851,20466740.919608362
PART_003_R247G182B210A255,2641,-27224310.0,4704.815,10992.26,523332.5,-1638.569,12140.77,27247248.83775957
PART_003_R247G182B210A255,2642,-27228840.0,-4663.868,-7053.255,466382.2,1648.17,33589.95,27235026.21177075
PART_001_R158G218B229A255,2643,-27227580.0,773.8431,2724.764,435387.1,1166.925,40856.89,27239861.873691622
PART_001_R158G218B229A255,2644,-27228830.0,-2546.802,-7787.981,417364.8,330.6208,34036.59,27233323.013342552
PART_001_R158G218B229A255,2645,-27227350.0,881.096,3025.644,407474.8,273.7335,18930.12,27238468.16316646
PART_001_R158G218B229A255,2646,-27228970.0,-2330.207,-7696.924,404441.5,6.06217e-06,0.001127323,27232967.967696052
PART_001_R158G218B229A255,2647,-27227350.0,881.0959,3025.644,407474.8,-273.7335,-18930.12,27238468.16311648
PART_001_R158G218B229A255,2648,-27228830.0,-2546.802,-7787.981,417364.8,-330.6207,-34036.59,27233323.01334255
PART_001_R158G218B229A255,2649,-27227580.0,773.8432,2724.764,435387.1,-1166.925,-40856.88,27239861.8736966
PART_001_R158G218B229A255,2650,-27228840.0,-4663.868,-7053.255,466382.2,-1648.17,-33589.95,27235026.21177075
PART_002_R214G39B40A255,2651,-27224310.0,4704.815,10992.26,523332.5,1638.569,-12140.77,27247248.83775957
PART_003_R247G182B210A255,2652,-34036810.0,5506.285,-3157.667,191740.6,2466.334,32857.21,34039653.09059422
PART_001_R158G218B229A255,2653,-34038120.0,-5256.718,-13427.57,165003.4,1670.991,71159.96,34030202.03301035
PART_001_R158G218B229A255,2654,-34034050.0,4482.332,2406.522,154481.2,268.3813,72367.68,34038776.92988789
PART_001_R158G218B229A255,2655,-34037090.0,-3660.468,-10219.37,147793.1,397.9515,56643.75,34031254.76998082
PART_001_R158G218B229A255,2656,-34033650.0,4012.999,3720.183,144414.1,35.97242,30491.32,34038476.62880068
PART_001_R158G218B229A255,2657,-34037030.0,-3328.282,-9509.725,143317.7,-3.37984e-06,0.001523682,34031516.7652308
PART_001_R158G218B229A255,2658,-34033650.0,4012.999,3720.183,144414.1,-35.97241,-30491.32,34038476.62880068
PART_001_R158G218B229A255,2659,-34037090.0,-3660.468,-10219.37,147793.1,-397.9516,-56643.75,34031254.769980825
PART_001_R158G218B229A255,2660,-34034050.0,4482.332,2406.523,154481.2,-268.3813,-72367.68,34038776.93038783
PART_001_R158G218B229A255,2661,-34038120.0,-5256.719,-13427.57,165003.4,-1670.991,-71159.96,34030202.03251019
PART_001_R158G218B229A255,2662,-34036810.0,5506.285,-3157.667,191740.6,-2466.334,-32857.21,34039653.09059422
PART_003_R247G182B210A255,2663,33719110.0,54.74519,16169.02,192241.4,2670.371,-32828.74,33712693.65777301
PART_000_R31G119B180A255,2664,33718700.0,1157.846,1161.566,164983.5,1532.671,-70935.17,33718975.14138902
PART_000_R31G119B180A255,2665,33717760.0,674.8711,9995.341,154792.7,353.1791,-72391.05,33713725.12034343
PART_000_R31G119B180A255,2666,33716710.0,-551.5068,-1534.727,147857.6,352.3513,-56356.68,33718866.9765977
PART_000_R31G119B180A255,2667,33717810.0,1321.789,8690.685,144684.2,64.28956,-30497.16,33713777.140568376
PART_000_R31G119B180A255,2668,33716310.0,-926.8527,-2102.817,143402.7,-2.69829e-06,-0.001522045,33718739.680389866
PART_000_R31G119B180A255,2669,33717810.0,1321.789,8690.685,144684.2,-64.28955,30497.16,33713777.140568376
PART_000_R31G119B180A255,2670,33716710.0,-551.5068,-1534.727,147857.6,-352.3513,56356.68,33718866.9765977
PART_000_R31G119B180A255,2671,33717760.0,674.871,9995.341,154792.7,-353.1791,72391.04,33713725.12032904
PART_000_R31G119B180A255,2672,33718700.0,1157.846,1161.566,164983.5,-1532.671,70935.17,33718975.14138902
PART_000_R31G119B180A255,2673,33719110.0,54.74517,16169.02,192241.4,-2670.371,32828.74,33712693.65778302
PART_003_R247G182B210A255,2674,26970450.0,-2328.795,-712.0835,522478.3,-1688.014,-12234.56,26987156.198079757
PART_003_R247G182B210A255,2675,26973700.0,128.1379,-3418.008,465956.6,1645.917,-33293.66,26987477.169718154
PART_000_R31G119B180A255,2676,26974830.0,2334.794,7425.97,434851.1,1179.414,-40919.21,26980558.103814684
PART_000_R31G119B180A255,2677,26972840.0,-2197.392,-2399.272,416863.8,348.7028,-33743.69,26984862.990554154
PART_000_R31G119B180A255,2678,26974970.0,2286.066,7158.332,406921.8,288.4815,-18942.18,26979475.84690513
PART_000_R31G119B180A255,2679,26972690.0,-2497.526,-2399.951,403900.0,6.58363e-06,-0.001126271,26984208.6339115
PART_000_R31G119B180A255,2680,26974970.0,2286.066,7158.332,406921.8,-288.4815,18942.18,26979475.84690513
PART_000_R31G119B180A255,2681,26972840.0,-2197.392,-2399.272,416863.8,-348.7028,33743.68,26984862.99051664
PART_000_R31G119B180A255,2682,26974830.0,2334.794,7425.97,434851.1,-1179.414,40919.2,26980558.103769183
PART_000_R31G119B180A255,2683,26973700.0,128.1379,-3418.008,465956.6,-1645.917,33293.66,26987477.169718154
PART_002_R214G39B40A255,2684,26970450.0,-2328.794,-712.0836,522478.3,1688.014,12234.56,26987156.19762996
PART_003_R247G182B210A255,2685,20230210.0,-264.1422,6712.984,764772.2,202.2714,-6651.027,20270316.83305017
PART_003_R247G182B210A255,2686,20228560.0,-1628.324,-4848.312,701398.7,-1746.08,-16749.64,20268260.955574386
PART_003_R247G182B210A255,2687,20230640.0,3188.909,3814.829,657866.3,713.032,-21495.08,20259241.57294763
PART_000_R31G119B180A255,2688,20229620.0,-540.7102,-1783.899,631021.2,196.3462,-19097.37,20260311.23463018
PART_000_R31G119B180A255,2689,20230690.0,1983.651,4693.572,616172.7,150.4076,-10968.75,20255495.972663313
PART_000_R31G119B180A255,2690,20229670.0,-503.6116,-1554.459,611409.0,-1.759573e-05,-0.0007891148,20258396.95486643
PART_000_R31G119B180A255,2691,20230690.0,1983.651,4693.572,616172.7,-150.4076,10968.75,20255495.972663313
PART_000_R31G119B180A255,2692,20229620.0,-540.7102,-1783.899,631021.2,-196.3463,19097.37,20260311.234630182
PART_000_R31G119B180A255,2693,20230640.0,3188.909,3814.829,657866.3,-713.032,21495.07,20259241.5729158
PART_002_R214G39B40A255,2694,20228560.0,-1628.324,-4848.312,701398.7,1746.08,16749.64,20268260.955574386
PART_002_R214G39B40A255,2695,20230210.0,-264.1422,6712.984,764772.2,-202.2714,6651.026,20270316.833049186
PART_003_R247G182B210A255,2696,13485730.0,-954.2767,677.2758,932471.5,-700.7653,-3109.819,13582238.06995657
PART_003_R247G182B210A255,2697,13486620.0,-1206.028,-1536.124,865537.6,72.9799,-8487.03,13571056.902984098
PART_003_R247G182B210A255,2698,13486840.0,676.8062,2196.208,817202.8,-1337.395,-10976.16,13559496.197900593
PART_003_R247G182B210A255,2699,13486480.0,-234.1486,-2266.996,784868.2,208.7735,-9859.593,13556077.05532477
PART_000_R31G119B180A255,2700,13487450.0,981.2895,3290.422,766615.8,-209.6329,-5866.592,13550531.513750693
PART_000_R31G119B180A255,2701,13486430.0,-732.0821,-1869.022,760729.6,1.794562e-05,-0.0004979021,13551937.314905412
PART_000_R31G119B180A255,2702,13487450.0,981.2895,3290.422,766615.8,209.6329,5866.591,13550531.513749395
PART_000_R31G119B180A255,2703,13486480.0,-234.1486,-2266.996,784868.2,-208.7735,9859.592,13556077.05532259
PART_002_R214G39B40A255,2704,13486840.0,676.8062,2196.208,817202.8,1337.396,10976.16,13559496.19790089
PART_002_R214G39B40A255,2705,13486620.0,-1206.028,-1536.124,865537.6,-72.9799,8487.03,13571056.902984098
PART_002_R214G39B40A255,2706,13485730.0,-954.2767,677.2758,932471.5,700.7653,3109.818,13582238.069955884
PART_003_R247G182B210A255,2707,6743323.0,-38.11561,2022.618,1033538.0,-81.10541,-1358.905,6975932.558675098
PART_003_R247G182B210A255,2708,6742803.0,-585.3279,-1669.523,965034.2,-1338.289,-3496.845,6947986.29411829
PART_003_R247G182B210A255,2709,6743490.0,888.7761,1371.27,914003.2,-94.0689,-4634.381,6925726.54969981
PART_003_R247G182B210A255,2710,6743067.0,-190.3891,-959.8116,879381.1,-1070.597,-4189.766,6913515.652667899
PART_003_R247G182B210A255,2711,6743563.0,1041.505,1268.782,859230.9,8.69512,-2489.335,6904702.423078892
PART_000_R31G119B180A255,2712,6743171.0,-147.603,-653.7256,852732.4,-1.086706e-05,-0.0002408027,6903420.646440373
PART_000_R31G119B180A255,2713,6743563.0,1041.505,1268.782,859230.9,-8.695096,2489.335,6904702.423078892
PART_002_R214G39B40A255,2714,6743067.0,-190.3891,-959.8116,879381.1,1070.597,4189.766,6913515.652667899
PART_002_R214G39B40A255,2715,6743490.0,888.7761,1371.27,914003.2,94.06889,4634.381,6925726.549699809
PART_002_R214G39B40A255,2716,6742803.0,-585.3279,-1669.523,965034.2,1338.289,3496.845,6947986.29411829
PART_002_R214G39B40A255,2717,6743323.0,-38.11561,2022.618,1033538.0,81.10541,1358.905,6975932.558675098
PART_003_R247G182B210A255,2718,0.007374735,-6.77618e-06,-5.47799e-06,1065406.0,-538.2765,-1.044347e-06,1845337.5582079208
PART_003_R247G182B210A255,2719,0.007374918,2.400657e-06,-1.814596e-05,996569.2,-219.2493,-3.772997e-06,1726108.5294316479
PART_003_R247G182B210A255,2720,0.007380097,3.984351e-06,7.41644e-06,945009.9,-1459.493,-5.273137e-06,1636807.1125375405
PART_003_R247G182B210A255,2721,0.007374023,-6.712188e-06,-4.02005e-06,909474.2,-95.60068,-4.784198e-06,1575255.5312759227
PART_003_R247G182B210A255,2722,0.00737718,2.17686e-06,4.120623e-06,888840.9,-618.372,-2.910985e-06,1539517.9712137892
PART_003_R247G182B210A255,2723,0.007372473,-8.022054e-06,-1.656178e-06,882066.2,1.304028e-05,2.853164e-08,1527783.4740392107
PART_002_R214G39B40A255,2724,0.007373914,1.324851e-06,3.332676e-06,888840.9,618.372,2.600837e-06,1539517.9712137892
PART_002_R214G39B40A255,2725,0.007369343,-7.904949e-06,-3.691094e-06,909474.2,95.6007,4.50198e-06,1575255.5312759264
PART_002_R214G39B40A255,2726,0.007373643,3.986559e-06,7.622114e-06,945009.8,1459.493,5.143987e-06,1636806.9393326666
PART_002_R214G39B40A255,2727,0.007365428,1.629298e-06,-1.798424e-05,996569.2,219.2493,3.659182e-06,1726108.5294316479
PART_002_R214G39B40A255,2728,0.007363487,-5.874821e-06,-5.298126e-06,1065406.0,538.2765,1.101945e-06,1845337.5582079208
PART_003_R247G182B210A255,2729,-6743323.0,38.11562,-2022.618,1033538.0,-81.10542,1358.905,6975932.558679935
PART_003_R247G182B210A255,2730,-6742803.0,585.3279,1669.523,965034.2,-1338.289,3496.845,6947986.29411829
PART_003_R247G182B210A255,2731,-6743490.0,-888.7761,-1371.27,914003.2,-94.0689,4634.381,6925726.54969981
PART_003_R247G182B210A255,2732,-6743067.0,190.3891,959.8116,879381.1,-1070.597,4189.766,6913515.652667899
PART_003_R247G182B210A255,2733,-6743563.0,-1041.505,-1268.782,859230.9,8.69512,2489.335,6904702.423078892
PART_001_R158G218B229A255,2734,-6743171.0,147.603,653.7256,852732.4,-1.079648e-05,0.0002405546,6903420.646440373
PART_001_R158G218B229A255,2735,-6743563.0,-1041.505,-1268.782,859230.9,-8.695096,-2489.335,6904702.423078892
PART_002_R214G39B40A255,2736,-6743067.0,190.3891,959.8116,879381.1,1070.597,-4189.766,6913515.652667899
PART_002_R214G39B40A255,2737,-6743490.0,-888.7761,-1371.27,914003.2,94.06889,-4634.381,6925726.549699809
PART_002_R214G39B40A255,2738,-6742803.0,585.3279,1669.523,965034.2,1338.289,-3496.845,6947986.29411829
PART_002_R214G39B40A255,2739,-6743323.0,38.11561,-2022.618,1033538.0,81.10542,-1358.905,6975932.558675099
PART_003_R247G182B210A255,2740,-13485730.0,954.2767,-677.2757,932471.5,-700.7653,3109.819,13582238.070006208
PART_003_R247G182B210A255,2741,-13486620.0,1206.028,1536.124,865537.6,72.9799,8487.03,13571056.902984098
PART_003_R247G182B210A255,2742,-13486840.0,-676.8062,-2196.208,817202.8,-1337.396,10976.16,13559496.19790089
PART_003_R247G182B210A255,2743,-13486480.0,234.1486,2266.996,784868.3,208.7735,9859.593,13556077.072694138
PART_001_R158G218B229A255,2744,-13487450.0,-981.2895,-3290.422,766615.8,-209.6329,5866.592,13550531.513750693
PART_001_R158G218B229A255,2745,-13486430.0,732.082,1869.022,760729.6,1.786348e-05,0.0004975571,13551937.314855656
PART_001_R158G218B229A255,2746,-13487450.0,-981.2895,-3290.422,766615.8,209.6329,-5866.591,13550531.513749395
PART_001_R158G218B229A255,2747,-13486480.0,234.1486,2266.996,784868.2,-208.7735,-9859.592,13556077.05532259
PART_002_R214G39B40A255,2748,-13486840.0,-676.8062,-2196.208,817202.8,1337.396,-10976.16,13559496.19790089
PART_002_R214G39B40A255,2749,-13486620.0,1206.028,1536.124,865537.6,-72.97991,-8487.03,13571056.902984098
PART_002_R214G39B40A255,2750,-13485730.0,954.2767,-677.2757,932471.5,700.7653,-3109.818,13582238.070005521
PART_003_R247G182B210A255,2751,-20230210.0,264.1422,-6712.984,764772.2,202.2714,6651.027,20270316.83305017
PART_003_R247G182B210A255,2752,-20228560.0,1628.324,4848.312,701398.7,-1746.08,16749.64,20268260.955574386
PART_003_R247G182B210A255,2753,-20230640.0,-3188.909,-3814.829,657866.3,713.032,21495.08,20259241.57294763
PART_001_R158G218B229A255,2754,-20229620.0,540.7102,1783.899,631021.2,196.3462,19097.37,20260311.23463018
PART_001_R158G218B229A255,2755,-20230690.0,-1983.651,-4693.572,616172.7,150.4076,10968.75,20255495.972663313
PART_001_R158G218B229A255,2756,-20229670.0,503.6117,1554.459,611409.0,-1.725856e-05,0.0007888849,20258396.954916358
PART_001_R158G218B229A255,2757,-20230690.0,-1983.651,-4693.572,616172.7,-150.4076,-10968.75,20255495.972663313
PART_001_R158G218B229A255,2758,-20229620.0,540.7102,1783.899,631021.2,-196.3463,-19097.37,20260311.234630182
PART_001_R158G218B229A255,2759,-20230640.0,-3188.909,-3814.829,657866.3,-713.032,-21495.07,20259241.5729158
PART_002_R214G39B40A255,2760,-20228560.0,1628.324,4848.312,701398.7,1746.08,-16749.64,20268260.955574386
PART_002_R214G39B40A255,2761,-20230210.0,264.1422,-6712.984,764772.2,-202.2715,-6651.026,20270316.83304919
PART_003_R247G182B210A255,2762,-26970450.0,2328.794,712.0835,522478.3,-1688.014,12234.56,26987156.19757999
PART_003_R247G182B210A255,2763,-26973700.0,-128.1379,3418.008,465956.6,1645.917,33293.66,26987477.169718154
PART_001_R158G218B229A255,2764,-26974830.0,-2334.794,-7425.97,434851.1,1179.414,40919.21,26980558.103814684
PART_001_R158G218B229A255,2765,-26972840.0,2197.392,2399.272,416863.8,348.7028,33743.69,26984862.990554154
PART_001_R158G218B229A255,2766,-26974970.0,-2286.066,-7158.332,406921.8,288.4815,18942.18,26979475.84690513
PART_001_R158G218B229A255,2767,-26972690.0,2497.526,2399.951,403900.0,5.530501e-06,0.001125898,26984208.6339115
PART_001_R158G218B229A255,2768,-26974970.0,-2286.066,-7158.332,406921.8,-288.4815,-18942.18,26979475.84690513
PART_001_R158G218B229A255,2769,-26972840.0,2197.392,2399.272,416863.8,-348.7028,-33743.68,26984862.99051664
PART_001_R158G218B229A255,2770,-26974830.0,-2334.794,-7425.97,434851.1,-1179.414,-40919.2,26980558.103769183
PART_001_R158G218B229A255,2771,-26973700.0,-128.1379,3418.008,465956.6,-1645.917,-33293.66,26987477.169718154
PART_002_R214G39B40A255,2772,-26970450.0,2328.794,712.0836,522478.3,1688.014,-12234.56,26987156.19762996
PART_003_R247G182B210A255,2773,-33719110.0,-54.74518,-16169.02,192241.4,2670.371,32828.74,33712693.65777801
PART_001_R158G218B229A255,2774,-33718700.0,-1157.846,-1161.566,164983.5,1532.671,70935.17,33718975.14138902
PART_001_R158G218B229A255,2775,-33717760.0,-674.871,-9995.341,154792.7,353.1791,72391.05,33713725.12039345
PART_001_R158G218B229A255,2776,-33716710.0,551.5068,1534.727,147857.6,352.3513,56356.68,33718866.9765977
PART_001_R158G218B229A255,2777,-33717810.0,-1321.789,-8690.685,144684.2,64.28955,30497.16,33713777.140568376
PART_001_R158G218B229A255,2778,-33716310.0,926.8527,2102.817,143402.7,-2.963724e-06,0.00152161,33718739.680389866
PART_001_R158G218B229A255,2779,-33717810.0,-1321.789,-8690.685,144684.2,-64.28955,-30497.16,33713777.140568376
PART_001_R158G218B229A255,2780,-33716710.0,551.5068,1534.727,147857.6,-352.3513,-56356.68,33718866.9765977
PART_001_R158G218B229A255,2781,-33717760.0,-674.8709,-9995.341,154792.7,-353.1791,-72391.04,33713725.12037905
PART_001_R158G218B229A255,2782,-33718700.0,-1157.846,-1161.566,164983.5,-1532.671,-70935.17,33718975.14138902
PART_001_R158G218B229A255,2783,-33719110.0,-54.74517,-16169.02,192241.4,-2670.371,-32828.74,33712693.65778302
PART_003_R247G182B210A255,2784,33400640.0,-4253.22,5460.458,191849.1,2466.052,-32800.3,33401738.952838503
PART_000_R31G119B180A255,2785,33401740.0,4625.168,11193.24,165027.0,1616.654,-70981.6,33395280.988817394
PART_000_R31G119B180A255,2786,33398280.0,-3331.279,49.62756,154570.8,286.5776,-72193.28,33401228.001217425
PART_000_R31G119B180A255,2787,33400510.0,3040.325,8336.188,147834.4,389.957,-56402.78,33395946.604658604
PART_000_R31G119B180A255,2788,33397830.0,-2826.498,-1039.439,144493.0,46.86574,-30390.75,33400742.12091644
PART_000_R31G119B180A255,2789,33400300.0,2709.335,7763.595,143357.9,-2.987262e-06,-0.001523728,33395986.916519206
PART_000_R31G119B180A255,2790,33397830.0,-2826.498,-1039.439,144493.0,-46.86574,30390.74,33400742.120889142
PART_000_R31G119B180A255,2791,33400510.0,3040.325,8336.188,147834.4,-389.9571,56402.78,33395946.604658607
PART_000_R31G119B180A255,2792,33398280.0,-3331.279,49.62723,154570.8,-286.5776,72193.27,33401228.001317553
PART_000_R31G119B180A255,2793,33401740.0,4625.168,11193.24,165027.0,-1616.654,70981.6,33395280.988817394
PART_000_R31G119B180A255,2794,33400640.0,-4253.22,5460.459,191849.0,-2466.052,32800.3,33401738.950615637
PART_003_R247G182B210A255,2795,26715540.0,-4408.064,-9083.215,523075.0,-1621.014,-12124.39,26737648.315516423
PART_003_R247G182B210A255,2796,26719870.0,3621.202,5154.667,466235.7,1629.892,-33393.9,26727747.08737845
PART_000_R31G119B180A255,2797,26719020.0,-414.2919,-812.8758,435229.2,1171.201,-40701.48,26730358.51406622
PART_000_R31G119B180A255,2798,26719650.0,1490.739,6099.339,417205.9,355.2825,-33797.11,26725690.479914233
PART_000_R31G119B180A255,2799,26718720.0,-518.0746,-917.5151,407293.4,289.4206,-18834.64,26728768.853350848
PART_000_R31G119B180A255,2800,26719650.0,1258.607,6116.892,404258.1,6.43268e-06,-0.001127527,26725136.678913128
PART_000_R31G119B180A255,2801,26718720.0,-518.0746,-917.5151,407293.4,-289.4207,18834.64,26728768.85335085
PART_000_R31G119B180A255,2802,26719650.0,1490.739,6099.339,417205.9,-355.2824,33797.11,26725690.47991423
PART_000_R31G119B180A255,2803,26719020.0,-414.292,-812.8757,435229.2,-1171.201,40701.48,26730358.51406622
PART_000_R31G119B180A255,2804,26719870.0,3621.202,5154.667,466235.7,-1629.892,33393.89,26727747.08734097
PART_002_R214G39B40A255,2805,26715540.0,-4408.064,-9083.215,523075.0,1621.014,12124.39,26737648.315516423
PART_003_R247G182B210A255,2806,20039250.0,-3292.256,-153.514,764000.2,179.879,-6634.746,20084616.566902995
PART_003_R247G182B210A255,2807,20038590.0,211.2841,1549.139,700798.0,-1739.582,-16784.69,20074461.95231246
PART_003_R247G182B210A255,2808,20039090.0,310.5584,-2570.945,657348.2,729.9061,-21335.65,20072571.305628654
PART_000_R31G119B180A255,2809,20040060.0,1378.099,4490.802,630420.9,203.9643,-19128.91,20066883.090230625
PART_000_R31G119B180A255,2810,20038840.0,-1001.525,-1579.529,615616.2,162.8587,-10884.55,20068486.17127675
PART_000_R31G119B180A255,2811,20040220.0,1437.549,4724.71,610786.9,-1.75162e-05,-0.0007904384,20065047.324424814
PART_000_R31G119B180A255,2812,20038840.0,-1001.525,-1579.529,615616.2,-162.8587,10884.55,20068486.17127675
PART_000_R31G119B180A255,2813,20040060.0,1378.099,4490.802,630420.9,-203.9643,19128.91,20066883.090230625
PART_000_R31G119B180A255,2814,20039090.0,310.5584,-2570.945,657348.2,-729.9061,21335.65,20072571.305628654
PART_002_R214G39B40A255,2815,20038590.0,211.2841,1549.139,700798.0,1739.582,16784.69,20074461.95231246
PART_002_R214G39B40A255,2816,20039250.0,-3292.256,-153.5139,764000.2,-179.879,6634.746,20084616.566853113
PART_003_R247G182B210A255,2817,13358190.0,-1863.991,-3603.772,933430.7,-680.1382,-3051.905,13458387.614517918
PART_003_R247G182B210A255,2818,13359640.0,791.1457,2902.463,866285.7,94.02958,-8520.602,13441808.396624781
PART_003_R247G182B210A255,2819,13358840.0,-561.2427,-1979.66,817969.9,-1307.522,-10865.18,13435033.916532213
PART_003_R247G182B210A255,2820,13359820.0,1824.591,2138.684,785623.7,225.3943,-9871.021,13426978.515296994
PART_000_R31G119B180A255,2821,13359200.0,-269.9918,-795.3356,767421.4,-193.2824,-5809.863,13425697.942515118
PART_000_R31G119B180A255,2822,13359840.0,1365.907,2541.466,761497.0,1.729077e-05,-0.0004986033,13422844.737382306
PART_000_R31G119B180A255,2823,13359200.0,-269.9918,-795.3356,767421.4,193.2823,5809.862,13425697.942513814
PART_000_R31G119B180A255,2824,13359820.0,1824.591,2138.684,785623.7,-225.3943,9871.02,13426978.515294788
PART_002_R214G39B40A255,2825,13358840.0,-561.2427,-1979.66,817969.9,1307.522,10865.18,13435033.916532213
PART_002_R214G39B40A255,2826,13359640.0,791.1457,2902.463,866285.7,-94.02959,8520.602,13441808.396624783
PART_002_R214G39B40A255,2827,13358190.0,-1863.991,-3603.772,933430.7,680.1382,3051.905,13458387.614517918
PART_003_R247G182B210A255,2828,6679696.0,-1119.728,-312.8704,1032471.0,-76.94139,-1352.165,6915627.489671527
PART_003_R247G182B210A255,2829,6679514.0,-26.36049,488.6821,964100.3,-1329.873,-3508.11,6884862.368739889
PART_003_R247G182B210A255,2830,6679663.0,-146.6191,-804.7053,913193.1,-60.56586,-4575.173,6864843.814124158
PART_003_R247G182B210A255,2831,6679913.0,398.9428,1165.349,878478.5,-1034.755,-4198.29,6850256.850708716
PART_003_R247G182B210A255,2832,6679630.0,-41.08053,-865.9765,858350.6,27.73783,-2458.68,6843524.812073724
PART_000_R31G119B180A255,2833,6680053.0,448.2362,1472.758,851797.6,-1.084695e-05,-0.0002414398,6840099.041945661
PART_000_R31G119B180A255,2834,6679630.0,-41.08052,-865.9765,858350.6,-27.73781,2458.679,6843524.812067767
PART_002_R214G39B40A255,2835,6679913.0,398.9428,1165.349,878478.5,1034.755,4198.289,6850256.850706877
PART_002_R214G39B40A255,2836,6679663.0,-146.6191,-804.7053,913193.1,60.56586,4575.173,6864843.814124158
PART_002_R214G39B40A255,2837,6679514.0,-26.36049,488.6821,964100.3,1329.873,3508.109,6884862.368738361
PART_002_R214G39B40A255,2838,6679696.0,-1119.728,-312.8704,1032471.0,76.94139,1352.165,6915627.489671527
PART_003_R247G182B210A255,2839,0.007306236,-5.226922e-06,-1.02945e-05,1066517.0,-526.9475,-9.515301e-07,1847261.8566104814
PART_003_R247G182B210A255,2840,0.007307491,8.969874e-06,-9.925558e-06,997491.6,-189.5124,-3.924928e-06,1727706.1625046455
PART_003_R247G182B210A255,2841,0.007311138,3.991843e-06,2.620007e-06,945940.2,-1419.713,-5.297255e-06,1638418.33262544
PART_003_R247G182B210A255,2842,0.00730688,-7.258233e-07,3.989475e-06,910392.0,-71.87493,-4.550216e-06,1576845.2037184932
PART_003_R247G182B210A255,2843,0.007306695,2.776304e-06,-8.526527e-07,889818.4,-593.5299,-2.663172e-06,1541211.0211677395
PART_003_R247G182B210A255,2844,0.007304873,-1.411313e-06,5.942583e-06,882998.2,1.335589e-05,-3.127892e-07,1529397.745391865
PART_002_R214G39B40A255,2845,0.007304326,2.780778e-06,-8.615531e-07,889818.4,593.5299,2.585836e-06,1541211.0211677395
PART_002_R214G39B40A255,2846,0.007301904,-1.021931e-06,4.019788e-06,910392.0,71.87495,4.486555e-06,1576845.203718496
PART_002_R214G39B40A255,2847,0.007303552,3.618779e-06,2.267895e-06,945940.2,1419.713,4.892462e-06,1638418.33262544
PART_002_R214G39B40A255,2848,0.007297985,8.648699e-06,-9.488683e-06,997491.6,189.5124,3.587497e-06,1727706.1625046455
PART_002_R214G39B40A255,2849,0.007293931,-4.661372e-06,-1.09945e-05,1066517.0,526.9475,6.006801e-07,1847261.8566104814
PART_003_R247G182B210A255,2850,-6679696.0,1119.728,312.8704,1032471.0,-76.9414,1352.165,6915627.489671528
PART_003_R247G182B210A255,2851,-6679514.0,26.3605,-488.6821,964100.3,-1329.873,3508.11,6884862.368744741
PART_003_R247G182B210A255,2852,-6679663.0,146.6191,804.7052,913193.1,-60.56586,4575.173,6864843.814075496
PART_003_R247G182B210A255,2853,-6679913.0,-398.9428,-1165.349,878478.5,-1034.755,4198.29,6850256.850708716
PART_003_R247G182B210A255,2854,-6679630.0,41.08052,865.9765,858350.6,27.73783,2458.68,6843524.812068844
PART_001_R158G218B229A255,2855,-6680053.0,-448.2362,-1472.758,851797.6,-1.116791e-05,0.0002413058,6840099.041945661
PART_001_R158G218B229A255,2856,-6679630.0,41.08051,865.9765,858350.6,-27.73781,-2458.679,6843524.812062887
PART_002_R214G39B40A255,2857,-6679913.0,-398.9428,-1165.349,878478.5,1034.755,-4198.289,6850256.850706877
PART_002_R214G39B40A255,2858,-6679663.0,146.6191,804.7053,913193.1,60.56585,-4575.173,6864843.814124158
PART_002_R214G39B40A255,2859,-6679514.0,26.3605,-488.6821,964100.3,1329.873,-3508.109,6884862.368743213
PART_002_R214G39B40A255,2860,-6679696.0,1119.728,312.8704,1032471.0,76.9414,-1352.165,6915627.489671528
PART_003_R247G182B210A255,2861,-13358190.0,1863.991,3603.772,933430.7,-680.1382,3051.905,13458387.614517918
PART_003_R247G182B210A255,2862,-13359640.0,-791.1457,-2902.463,866285.7,94.02959,8520.602,13441808.396624783
PART_003_R247G182B210A255,2863,-13358840.0,561.2427,1979.66,817969.9,-1307.522,10865.18,13435033.916532213
PART_003_R247G182B210A255,2864,-13359820.0,-1824.591,-2138.684,785623.7,225.3943,9871.021,13426978.515296994
PART_001_R158G218B229A255,2865,-13359200.0,269.9918,795.3356,767421.4,-193.2824,5809.863,13425697.942515118
PART_001_R158G218B229A255,2866,-13359840.0,-1365.907,-2541.466,761497.0,1.659681e-05,0.0004984343,13422844.737382306
PART_001_R158G218B229A255,2867,-13359200.0,269.9918,795.3356,767421.4,193.2823,-5809.862,13425697.942513814
PART_001_R158G218B229A255,2868,-13359820.0,-1824.591,-2138.684,785623.7,-225.3943,-9871.02,13426978.515294788
PART_002_R214G39B40A255,2869,-13358840.0,561.2427,1979.66,817969.9,1307.522,-10865.18,13435033.916532213
PART_002_R214G39B40A255,2870,-13359640.0,-791.1457,-2902.463,866285.7,-94.02959,-8520.602,13441808.396624783
PART_002_R214G39B40A255,2871,-13358190.0,1863.991,3603.772,933430.7,680.1382,-3051.905,13458387.614517918
PART_003_R247G182B210A255,2872,-20039250.0,3292.256,153.514,764000.2,179.879,6634.746,20084616.566902995
PART_003_R247G182B210A255,2873,-20038590.0,-211.2841,-1549.139,700798.0,-1739.582,16784.69,20074461.95231246
PART_003_R247G182B210A255,2874,-20039090.0,-310.5584,2570.945,657348.2,729.9061,21335.65,20072571.305628654
PART_001_R158G218B229A255,2875,-20040060.0,-1378.099,-4490.802,630420.9,203.9643,19128.91,20066883.090230625
PART_001_R158G218B229A255,2876,-20038840.0,1001.525,1579.529,615616.2,162.8587,10884.55,20068486.17127675
PART_001_R158G218B229A255,2877,-20040220.0,-1437.549,-4724.71,610786.9,-1.742819e-05,0.000790346,20065047.324424814
PART_001_R158G218B229A255,2878,-20038840.0,1001.525,1579.529,615616.2,-162.8587,-10884.55,20068486.17127675
PART_001_R158G218B229A255,2879,-20040060.0,-1378.099,-4490.802,630420.9,-203.9643,-19128.91,20066883.090230625
PART_001_R158G218B229A255,2880,-20039090.0,-310.5584,2570.945,657348.2,-729.9061,-21335.65,20072571.305628654
PART_002_R214G39B40A255,2881,-20038590.0,-211.2841,-1549.139,700798.0,1739.582,-16784.69,20074461.95231246
PART_002_R214G39B40A255,2882,-20039250.0,3292.256,153.5139,764000.2,-179.879,-6634.746,20084616.566853113
PART_003_R247G182B210A255,2883,-26715540.0,4408.064,9083.215,523075.0,-1621.014,12124.39,26737648.315516423
PART_003_R247G182B210A255,2884,-26719870.0,-3621.202,-5154.667,466235.7,1629.892,33393.9,26727747.08737845
PART_001_R158G218B229A255,2885,-26719020.0,414.2919,812.8758,435229.2,1171.201,40701.48,26730358.51406622
PART_001_R158G218B229A255,2886,-26719650.0,-1490.739,-6099.339,417205.9,355.2825,33797.11,26725690.479914233
PART_001_R158G218B229A255,2887,-26718720.0,518.0746,917.5151,407293.4,289.4206,18834.64,26728768.853350848
PART_001_R158G218B229A255,2888,-26719650.0,-1258.607,-6116.892,404258.1,5.614491e-06,0.001127392,26725136.678913128
PART_001_R158G218B229A255,2889,-26718720.0,518.0746,917.5151,407293.4,-289.4207,-18834.64,26728768.85335085
PART_001_R158G218B229A255,2890,-26719650.0,-1490.739,-6099.339,417205.9,-355.2824,-33797.11,26725690.47991423
PART_001_R158G218B229A255,2891,-26719020.0,414.292,812.8757,435229.2,-1171.201,-40701.48,26730358.51406622
PART_001_R158G218B229A255,2892,-26719870.0,-3621.202,-5154.667,466235.7,-1629.892,-33393.89,26727747.08734097
PART_002_R214G39B40A255,2893,-26715540.0,4408.064,9083.215,523075.0,1621.014,-12124.39,26737648.315516423
PART_003_R247G182B210A255,2894,-33400640.0,4253.22,-5460.458,191849.1,2466.052,32800.3,33401738.952838503
PART_001_R158G218B229A255,2895,-33401740.0,-4625.168,-11193.24,165027.0,1616.654,70981.6,33395280.988817394
PART_001_R158G218B229A255,2896,-33398280.0,3331.279,-49.62757,154570.8,286.5777,72193.28,33401228.00121243
PART_001_R158G218B229A255,2897,-33400510.0,-3040.325,-8336.188,147834.4,389.957,56402.78,33395946.604658604
PART_001_R158G218B229A255,2898,-33397830.0,2826.498,1039.439,144493.0,46.86574,30390.75,33400742.12091644
PART_001_R158G218B229A255,2899,-33400300.0,-2709.335,-7763.595,143357.9,-2.504988e-06,0.001523429,33395986.916519206
PART_001_R158G218B229A255,2900,-33397830.0,2826.498,1039.439,144493.0,-46.86574,-30390.74,33400742.120889142
PART_001_R158G218B229A255,2901,-33400510.0,-3040.325,-8336.188,147834.4,-389.9571,-56402.78,33395946.604658607
PART_001_R158G218B229A255,2902,-33398280.0,3331.279,-49.62724,154570.8,-286.5776,-72193.27,33401228.001312554
PART_001_R158G218B229A255,2903,-33401740.0,-4625.168,-11193.24,165027.0,-1616.654,-70981.6,33395280.988817394
PART_001_R158G218B229A255,2904,-33400640.0,4253.22,-5460.459,191849.0,-2466.052,-32800.3,33401738.950615637
PART_003_R247G182B210A255,2905,33082770.0,-826.2418,13983.01,192141.8,2583.003,-32810.03,33077917.425693966
PART_000_R31G119B180A255,2906,33082730.0,1628.173,2909.179,164973.3,1521.641,-70886.94,33081923.357469596
PART_000_R31G119B180A255,2907,33081400.0,-154.8676,8157.56,154737.6,333.9084,-72263.72,33078722.030475724
PART_000_R31G119B180A255,2908,33080920.0,-35.22504,360.5053,147841.6,355.3952,-56283.76,33081892.07104021
PART_000_R31G119B180A255,2909,33081330.0,448.5328,7020.133,144634.7,61.09601,-30421.22,33078586.751220323
PART_000_R31G119B180A255,2910,33080530.0,-398.645,-129.5397,143381.8,-2.982626e-06,-0.001522255,33081726.267782427
PART_000_R31G119B180A255,2911,33081330.0,448.5328,7020.133,144634.7,-61.09601,30421.22,33078586.751220323
PART_000_R31G119B180A255,2912,33080920.0,-35.22499,360.5054,147841.6,-355.3953,56283.76,33081892.07096522
PART_000_R31G119B180A255,2913,33081400.0,-154.8677,8157.56,154737.6,-333.9083,72263.72,33078722.030525737
PART_000_R31G119B180A255,2914,33082730.0,1628.173,2909.179,164973.3,-1521.641,70886.94,33081923.357469596
PART_000_R31G119B180A255,2915,33082770.0,-826.2418,13983.01,192141.8,-2583.003,32810.03,33077917.425693966
PART_003_R247G182B210A255,2916,26461400.0,-2511.538,-2091.712,522616.3,-1647.487,-12190.41,26479186.943356536
PART_003_R247G182B210A255,2917,26464860.0,852.6533,-1805.527,466057.7,1612.503,-33264.7,26477707.506043382
PART_000_R31G119B180A255,2918,26465660.0,1944.54,6008.076,434984.0,1161.209,-40787.65,26472501.664611656
PART_000_R31G119B180A255,2919,26464140.0,-1396.98,-694.5985,416994.7,350.3556,-33677.15,26475103.69740887
PART_000_R31G119B180A255,2920,26465690.0,1892.907,5870.094,407058.8,289.1997,-18866.82,26471219.836820804
PART_000_R31G119B180A255,2921,26463970.0,-1676.485,-625.5966,404033.1,5.696386e-06,-0.001126259,26474371.772908166
PART_000_R31G119B180A255,2922,26465690.0,1892.908,5870.094,407058.8,-289.1998,18866.82,26471219.836320873
PART_000_R31G119B180A255,2923,26464140.0,-1396.98,-694.5985,416994.7,-350.3556,33677.14,26475103.697370708
PART_000_R31G119B180A255,2924,26465660.0,1944.54,6008.076,434984.0,-1161.209,40787.65,26472501.664611656
PART_000_R31G119B180A255,2925,26464860.0,852.6533,-1805.527,466057.7,-1612.503,33264.7,26477707.506043382
PART_002_R214G39B40A255,2926,26461400.0,-2511.538,-2091.713,522616.3,1647.487,12190.41,26479186.943856232
PART_003_R247G182B210A255,2927,19848440.0,-896.0172,5388.904,764503.0,193.491,-6634.405,19890323.149223585
PART_003_R247G182B210A255,2928,19847060.0,-1396.649,-3662.087,701199.3,-1713.881,-16710.05,19886731.500973567
PART_003_R247G182B210A255,2929,19848860.0,2525.061,2699.753,657700.2,715.5662,-21387.59,19878949.31901355
PART_000_R31G119B180A255,2930,19848180.0,-323.1261,-575.9684,630840.8,208.8777,-19036.23,19878708.775013387
PART_000_R31G119B180A255,2931,19848820.0,1314.11,3660.743,615996.8,160.8296,-10905.69,19875000.2213996
PART_000_R31G119B180A255,2932,19848210.0,-285.3352,-296.723,611217.7,-1.719258e-05,-0.0007892559,19876713.871580005
PART_000_R31G119B180A255,2933,19848820.0,1314.11,3660.743,615996.8,-160.8296,10905.69,19875000.2213996
PART_000_R31G119B180A255,2934,19848180.0,-323.1261,-575.9683,630840.8,-208.8777,19036.23,19878708.774963457
PART_000_R31G119B180A255,2935,19848860.0,2525.062,2699.753,657700.2,-715.5662,21387.59,19878949.31851437
PART_002_R214G39B40A255,2936,19847060.0,-1396.649,-3662.086,701199.3,1713.881,16710.05,19886731.500474416
PART_002_R214G39B40A255,2937,19848440.0,-896.0172,5388.904,764503.0,-193.491,6634.404,19890323.149222586
PART_003_R247G182B210A255,2938,13231160.0,-1001.895,-42.2041,932705.7,-685.2362,-3083.67,13329938.494054804
PART_003_R247G182B210A255,2939,13232190.0,-758.3531,-699.4029,865775.6,82.96629,-8458.828,13317622.118042124
PART_003_R247G182B210A255,2940,13232240.0,532.2143,1516.361,817466.3,-1290.214,-10897.66,13306772.13598362
PART_003_R247G182B210A255,2941,13232100.0,206.4992,-1352.964,785136.3,230.522,-9811.118,13302377.556725828
PART_000_R31G119B180A255,2942,13232770.0,832.5805,2666.119,766891.8,-187.561,-5821.409,13297532.885441827
PART_000_R31G119B180A255,2943,13232030.0,-273.8703,-922.4562,760995.9,1.698116e-05,-0.0004983154,13298112.373633532
PART_000_R31G119B180A255,2944,13232770.0,832.5805,2666.119,766891.8,187.561,5821.408,13297532.885440513
PART_000_R31G119B180A255,2945,13232100.0,206.4992,-1352.964,785136.3,-230.5219,9811.117,13302377.556723611
PART_002_R214G39B40A255,2946,13232240.0,532.2143,1516.361,817466.3,1290.214,10897.66,13306772.13598362
PART_002_R214G39B40A255,2947,13232190.0,-758.3531,-699.4029,865775.6,-82.9663,8458.828,13317622.118042124
PART_002_R214G39B40A255,2948,13231160.0,-1001.895,-42.20409,932705.7,685.2362,3083.67,13329938.494049842
PART_003_R247G182B210A255,2949,6616075.0,-268.1044,1575.701,1033156.0,-75.5612,-1351.668,6853177.342282283
PART_003_R247G182B210A255,2950,6615647.0,-524.7268,-1268.93,964732.1,-1303.378,-3479.883,6824281.51148294
PART_003_R247G182B210A255,2951,6616236.0,648.49,991.0331,913747.9,-60.65752,-4592.396,6802102.693399599
PART_003_R247G182B210A255,2952,6615926.0,-135.7166,-541.559,879107.4,-1017.261,-4164.606,6789219.578083134
PART_003_R247G182B210A255,2953,6616275.0,786.9488,926.556,858954.1,31.16932,-2465.198,6780647.703393477
PART_000_R31G119B180A255,2954,6616020.0,-93.60567,-220.8411,852440.8,-1.029894e-05,-0.0002410647,6778920.785485992
PART_000_R31G119B180A255,2955,6616275.0,786.9488,926.556,858954.1,-31.1693,2465.198,6780647.703393477
PART_002_R214G39B40A255,2956,6615926.0,-135.7166,-541.559,879107.4,1017.261,4164.606,6789219.578083134
PART_002_R214G39B40A255,2957,6616236.0,648.49,991.0332,913747.9,60.65751,4592.396,6802102.6933509745
PART_002_R214G39B40A255,2958,6615647.0,-524.7268,-1268.93,964732.1,1303.378,3479.882,6824281.51148141
PART_002_R214G39B40A255,2959,6616075.0,-268.1044,1575.701,1033156.0,75.5612,1351.668,6853177.342282283
PART_003_R247G182B210A255,2960,0.00723606,-6.806641e-06,-6.541297e-06,1065679.0,-525.8763,-1.074127e-06,1845810.3972945455
PART_003_R247G182B210A255,2961,0.00723693,3.948891e-06,-1.639889e-05,996859.3,-196.702,-3.746293e-06,1726610.9892110906
PART_003_R247G182B210A255,2962,0.007240978,2.088676e-06,6.664883e-06,945326.3,-1400.185,-4.923312e-06,1637354.977385531
PART_003_R247G182B210A255,2963,0.00723543,-5.941903e-06,-2.922588e-06,909795.0,-59.60644,-4.844204e-06,1575811.1678541256
PART_003_R247G182B210A255,2964,0.007236763,7.460525e-07,2.764398e-06,889170.3,-582.9547,-2.697009e-06,1540088.4671715507
PART_003_R247G182B210A255,2965,0.007234547,-4.899512e-06,1.575337e-08,882383.8,1.351754e-05,-6.065202e-08,1528333.573375695
PART_002_R214G39B40A255,2966,0.007235411,1.691558e-06,3.669112e-06,889170.3,582.9547,2.47026e-06,1540088.4671715507
PART_002_R214G39B40A255,2967,0.007231996,-2.445337e-06,-1.4042e-06,909795.0,59.60645,4.377912e-06,1575811.1678541268
PART_002_R214G39B40A255,2968,0.007233673,3.67675e-06,7.007372e-06,945326.3,1400.185,5.04582e-06,1637354.977385531
PART_002_R214G39B40A255,2969,0.007226931,4.386729e-06,-1.629621e-05,996859.3,196.702,3.481038e-06,1726610.9892110906
PART_002_R214G39B40A255,2970,0.007223741,-6.247285e-06,-6.32539e-06,1065679.0,525.8763,1.248081e-06,1845810.3972945455
PART_003_R247G182B210A255,2971,-6616074.0,268.1044,-1575.701,1033156.0,-75.56121,1351.668,6853176.376975123
PART_003_R247G182B210A255,2972,-6615647.0,524.7268,1268.93,964732.1,-1303.378,3479.883,6824281.51148294
PART_003_R247G182B210A255,2973,-6616236.0,-648.49,-991.0331,913747.9,-60.65752,4592.396,6802102.693399599
PART_003_R247G182B210A255,2974,-6615926.0,135.7166,541.559,879107.4,-1017.261,4164.606,6789219.578083134
PART_003_R247G182B210A255,2975,-6616275.0,-786.9488,-926.556,858954.1,31.16932,2465.198,6780647.703393477
PART_001_R158G218B229A255,2976,-6616020.0,93.60567,220.8411,852440.8,-1.116008e-05,0.0002410117,6778920.785485992
PART_001_R158G218B229A255,2977,-6616275.0,-786.9488,-926.5559,858954.1,-31.1693,-2465.198,6780647.703442257
PART_002_R214G39B40A255,2978,-6615926.0,135.7166,541.559,879107.4,1017.261,-4164.606,6789219.578083134
PART_002_R214G39B40A255,2979,-6616236.0,-648.49,-991.0332,913747.9,60.65751,-4592.396,6802102.6933509745
PART_002_R214G39B40A255,2980,-6615647.0,524.7268,1268.93,964732.1,1303.378,-3479.882,6824281.51148141
PART_002_R214G39B40A255,2981,-6616074.0,268.1044,-1575.701,1033156.0,75.56121,-1351.668,6853176.376975123
PART_003_R247G182B210A255,2982,-13231160.0,1001.895,42.20417,932705.7,-685.2362,3083.67,13329938.494089542
PART_003_R247G182B210A255,2983,-13232190.0,758.3531,699.4029,865775.6,82.9663,8458.828,13317622.118042124
PART_003_R247G182B210A255,2984,-13232240.0,-532.2143,-1516.361,817466.3,-1290.214,10897.66,13306772.13598362
PART_003_R247G182B210A255,2985,-13232100.0,-206.4992,1352.964,785136.3,230.522,9811.118,13302377.556725828
PART_001_R158G218B229A255,2986,-13232770.0,-832.5805,-2666.119,766891.8,-187.561,5821.409,13297532.885441827
PART_001_R158G218B229A255,2987,-13232030.0,273.8703,922.4562,760995.9,1.706187e-05,0.0004980566,13298112.373633532
PART_001_R158G218B229A255,2988,-13232770.0,-832.5805,-2666.119,766891.8,187.561,-5821.408,13297532.885440513
PART_001_R158G218B229A255,2989,-13232100.0,-206.4992,1352.964,785136.3,-230.5219,-9811.117,13302377.556723611
PART_002_R214G39B40A255,2990,-13232240.0,-532.2143,-1516.361,817466.3,1290.214,-10897.66,13306772.13598362
PART_002_R214G39B40A255,2991,-13232190.0,758.3531,699.4029,865775.6,-82.9663,-8458.828,13317622.118042124
PART_002_R214G39B40A255,2992,-13231160.0,1001.895,42.20417,932705.7,685.2362,-3083.67,13329938.494089542
PART_003_R247G182B210A255,2993,-19848440.0,896.0172,-5388.904,764503.0,193.491,6634.405,19890323.149223585
PART_003_R247G182B210A255,2994,-19847060.0,1396.649,3662.087,701199.3,-1713.881,16710.05,19886731.500973567
PART_003_R247G182B210A255,2995,-19848860.0,-2525.061,-2699.753,657700.2,715.5662,21387.59,19878949.31901355
PART_001_R158G218B229A255,2996,-19848180.0,323.1261,575.9684,630840.8,208.8777,19036.23,19878708.775013387
PART_001_R158G218B229A255,2997,-19848820.0,-1314.11,-3660.743,615996.8,160.8296,10905.69,19875000.2213996
PART_001_R158G218B229A255,2998,-19848210.0,285.3352,296.723,611217.7,-1.71452e-05,0.0007895947,19876713.871580005
PART_001_R158G218B229A255,2999,-19848820.0,-1314.11,-3660.743,615996.8,-160.8296,-10905.69,19875000.2213996
PART_001_R158G218B229A255,3000,-19848180.0,323.1261,575.9683,630840.8,-208.8777,-19036.23,19878708.774963457
PART_001_R158G218B229A255,3001,-19848860.0,-2525.062,-2699.753,657700.2,-715.5662,-21387.59,19878949.31851437
PART_002_R214G39B40A255,3002,-19847060.0,1396.649,3662.087,701199.3,1713.881,-16710.05,19886731.500973567
PART_002_R214G39B40A255,3003,-19848440.0,896.0172,-5388.904,764503.0,-193.491,-6634.404,19890323.149222586
PART_003_R247G182B210A255,3004,-26461400.0,2511.538,2091.712,522616.3,-1647.487,12190.41,26479186.943356536
PART_003_R247G182B210A255,3005,-26464860.0,-852.6533,1805.527,466057.7,1612.503,33264.7,26477707.506043382
PART_001_R158G218B229A255,3006,-26465660.0,-1944.54,-6008.076,434984.0,1161.209,40787.65,26472501.664611656
PART_001_R158G218B229A255,3007,-26464140.0,1396.98,694.5985,416994.7,350.3556,33677.15,26475103.69740887
PART_001_R158G218B229A255,3008,-26465690.0,-1892.907,-5870.094,407058.8,289.1998,18866.82,26471219.836820807
PART_001_R158G218B229A255,3009,-26463970.0,1676.485,625.5966,404033.1,5.500364e-06,0.001126076,26474371.772908166
PART_001_R158G218B229A255,3010,-26465690.0,-1892.908,-5870.094,407058.8,-289.1998,-18866.82,26471219.836320873
PART_001_R158G218B229A255,3011,-26464140.0,1396.98,694.5985,416994.7,-350.3556,-33677.14,26475103.697370708
PART_001_R158G218B229A255,3012,-26465660.0,-1944.54,-6008.076,434984.0,-1161.209,-40787.65,26472501.664611656
PART_001_R158G218B229A255,3013,-26464860.0,-852.6533,1805.527,466057.7,-1612.503,-33264.7,26477707.506043382
PART_002_R214G39B40A255,3014,-26461400.0,2511.538,2091.712,522616.3,1647.487,-12190.41,26479186.943356536
PART_003_R247G182B210A255,3015,-33082770.0,826.2418,-13983.01,192141.8,2583.003,32810.03,33077917.425693966
PART_001_R158G218B229A255,3016,-33082730.0,-1628.173,-2909.179,164973.3,1521.641,70886.94,33081923.357469596
PART_001_R158G218B229A255,3017,-33081400.0,154.8676,-8157.56,154737.6,333.9084,72263.72,33078722.030475724
PART_001_R158G218B229A255,3018,-33080920.0,35.22503,-360.5053,147841.6,355.3952,56283.76,33081892.07103521
PART_001_R158G218B229A255,3019,-33081330.0,-448.5328,-7020.133,144634.7,61.09601,30421.22,33078586.751220323
PART_001_R158G218B229A255,3020,-33080530.0,398.645,129.5397,143381.8,-2.293052e-06,0.001521924,33081726.267782427
PART_001_R158G218B229A255,3021,-33081330.0,-448.5328,-7020.133,144634.7,-61.09601,-30421.22,33078586.751220323
PART_001_R158G218B229A255,3022,-33080920.0,35.22498,-360.5054,147841.6,-355.3953,-56283.76,33081892.07096022
PART_001_R158G218B229A255,3023,-33081400.0,154.8677,-8157.56,154737.6,-333.9083,-72263.72,33078722.030525737
PART_001_R158G218B229A255,3024,-33082730.0,-1628.173,-2909.179,164973.3,-1521.641,-70886.94,33081923.357469596
PART_001_R158G218B229A255,3025,-33082770.0,826.2418,-13983.01,192141.8,-2583.003,-32810.03,33077917.425693966
PART_003_R247G182B210A255,3026,32764390.0,-3494.774,6893.216,191908.5,2445.952,-32794.39,32764427.646371767
PART_000_R31G119B180A255,3027,32765350.0,4098.385,9598.401,165028.0,1567.968,-70946.99,32759979.559632614
PART_000_R31G119B180A255,3028,32762360.0,-2640.325,1552.697,154617.7,288.503,-72174.15,32764237.01209044
PART_000_R31G119B180A255,3029,32764090.0,2529.678,6920.385,147853.7,375.217,-56342.45,32760511.49761411
PART_000_R31G119B180A255,3030,32762000.0,-2122.78,544.7357,144539.6,48.46292,-30374.51,32763787.82702278
PART_000_R31G119B180A255,3031,32763850.0,2200.457,6410.921,143381.7,-1.835654e-06,-0.001523505,32760485.82814459
PART_000_R31G119B180A255,3032,32762000.0,-2122.78,544.7357,144539.6,-48.46291,30374.51,32763787.82702278
PART_000_R31G119B180A255,3033,32764090.0,2529.678,6920.385,147853.7,-375.2171,56342.44,32760511.49756252
PART_000_R31G119B180A255,3034,32762360.0,-2640.325,1552.697,154617.7,-288.503,72174.15,32764237.01209044
PART_000_R31G119B180A255,3035,32765350.0,4098.385,9598.401,165028.0,-1567.968,70946.99,32759979.559632614
PART_000_R31G119B180A255,3036,32764390.0,-3494.774,6893.216,191908.5,-2445.952,32794.39,32764427.646371767
PART_003_R247G182B210A255,3037,26206650.0,-4094.043,-7740.987,522929.3,-1601.881,-12137.04,26228219.92593602
PART_003_R247G182B210A255,3038,26210830.0,2998.382,3865.119,466160.2,1592.726,-33349.25,26219896.714046523
PART_000_R31G119B180A255,3039,26210310.0,-84.54228,409.6683,435153.1,1144.477,-40690.08,26221076.91324995
PART_000_R31G119B180A255,3040,26210570.0,879.1942,4880.981,417141.9,346.4702,-33737.11,26217712.707010526
PART_000_R31G119B180A255,3041,26210080.0,-183.1172,362.1507,407226.5,283.9698,-18820.6,26219499.69981921
PART_000_R31G119B180A255,3042,26210540.0,640.3921,4939.047,404193.7,6.062349e-06,-0.001127603,26217099.501329504
PART_000_R31G119B180A255,3043,26210080.0,-183.1172,362.1507,407226.5,-283.9698,18820.6,26219499.69981921
PART_000_R31G119B180A255,3044,26210570.0,879.1942,4880.981,417141.9,-346.4702,33737.11,26217712.707010526
PART_000_R31G119B180A255,3045,26210310.0,-84.54233,409.6684,435153.1,-1144.477,40690.08,26221076.91322496
PART_000_R31G119B180A255,3046,26210830.0,2998.382,3865.119,466160.2,-1592.726,33349.25,26219896.714046523
PART_002_R214G39B40A255,3047,26206650.0,-4094.043,-7740.987,522929.3,1601.881,12137.04,26228219.92593602
PART_003_R247G182B210A255,3048,19657470.0,-2738.369,830.8125,764117.6,174.9791,-6628.915,19702928.565034233
PART_003_R247G182B210A255,3049,19656760.0,10.31423,665.1814,700920.5,-1711.217,-16754.22,19693898.943993974
PART_003_R247G182B210A255,3050,19657490.0,762.1941,-1556.335,657479.4,710.5296,-21319.77,19690879.37860716
PART_000_R31G119B180A255,3051,19658170.0,1141.096,3632.399,630575.9,201.4203,-19079.13,19686131.920275755
PART_000_R31G119B180A255,3052,19657280.0,-506.9623,-535.9971,615768.2,160.5079,-10870.83,19686722.049301263
PART_000_R31G119B180A255,3053,19658300.0,1197.279,3897.347,610949.7,-1.701003e-05,-0.0007904033,19684216.971169397
PART_000_R31G119B180A255,3054,19657280.0,-506.9623,-535.9971,615768.2,-160.5078,10870.83,19686722.04930126
PART_000_R31G119B180A255,3055,19658170.0,1141.096,3632.399,630575.9,-201.4204,19079.13,19686131.920275755
PART_000_R31G119B180A255,3056,19657490.0,762.1941,-1556.335,657479.4,-710.5296,21319.77,19690879.37860716
PART_002_R214G39B40A255,3057,19656760.0,10.31423,665.1814,700920.5,1711.217,16754.22,19693898.943993974
PART_002_R214G39B40A255,3058,19657470.0,-2738.369,830.8125,764117.6,-174.9791,6628.914,19702928.565033227
PART_003_R247G182B210A255,3059,13103740.0,-1741.475,-2940.93,933170.5,-672.9587,-3056.545,13205370.744427286
PART_003_R247G182B210A255,3060,13105130.0,453.9204,2229.613,866100.2,83.88785,-8495.513,13189384.88480944
PART_003_R247G182B210A255,3061,13104510.0,-421.1732,-1326.902,817807.4,-1283.382,-10851.63,13181725.093232399
PART_003_R247G182B210A255,3062,13105290.0,1453.129,1533.445,785472.6,225.205,-9836.16,13174243.064358665
PART_000_R31G119B180A255,3063,13104900.0,-138.2988,-134.4424,767264.3,-186.2307,-5798.686,13172249.723234335
PART_000_R31G119B180A255,3064,13105290.0,996.7004,1952.992,761345.7,1.676724e-05,-0.000498608,13170000.53513872
PART_000_R31G119B180A255,3065,13104900.0,-138.2988,-134.4423,767264.3,186.2306,5798.685,13172249.723183267
PART_000_R31G119B180A255,3066,13105290.0,1453.129,1533.445,785472.6,-225.205,9836.16,13174243.064358665
PART_002_R214G39B40A255,3067,13104510.0,-421.1732,-1326.902,817807.4,1283.382,10851.63,13181725.093232399
PART_002_R214G39B40A255,3068,13105130.0,453.9204,2229.613,866100.2,-83.88785,8495.513,13189384.88480944
PART_002_R214G39B40A255,3069,13103740.0,-1741.475,-2940.93,933170.5,672.9587,3056.545,13205370.744427286
PART_003_R247G182B210A255,3070,6552428.0,-919.0981,28.17374,1032631.0,-80.34423,-1349.565,6792579.562593398
PART_003_R247G182B210A255,3071,6552228.0,-79.86037,192.5293,964286.7,-1306.618,-3495.612,6761696.672384752
PART_003_R247G182B210A255,3072,6552458.0,23.11456,-458.0519,913389.4,-59.93902,-4567.754,6740953.876370572
PART_003_R247G182B210A255,3073,6552610.0,331.471,885.1913,878702.9,-1009.218,-4179.121,6726450.61742766
PART_003_R247G182B210A255,3074,6552436.0,133.4267,-499.7123,858575.5,31.74712,-2452.802,6719247.848574652
PART_000_R31G119B180A255,3075,6552737.0,379.1173,1199.751,852031.4,-1.033205e-05,-0.0002412735,6716091.86435723
PART_000_R31G119B180A255,3076,6552436.0,133.4267,-499.7123,858575.5,-31.74709,2452.801,6719247.848573556
PART_002_R214G39B40A255,3077,6552610.0,331.471,885.1913,878702.9,1009.218,4179.121,6726450.61742766
PART_002_R214G39B40A255,3078,6552458.0,23.11457,-458.0519,913389.4,59.93901,4567.754,6740953.87636571
PART_002_R214G39B40A255,3079,6552228.0,-79.86037,192.5293,964286.7,1306.618,3495.612,6761696.672384752
PART_002_R214G39B40A255,3080,6552428.0,-919.0981,28.17374,1032631.0,80.34423,1349.565,6792579.562593398
PART_003_R247G182B210A255,3081,0.007167307,-5.243805e-06,-9.958123e-06,1066211.0,-520.4147,-1.068688e-06,1846731.8435705223
PART_003_R247G182B210A255,3082,0.007168132,6.422765e-06,-1.075471e-05,997265.2,-192.6356,-3.679689e-06,1727314.027245348
PART_003_R247G182B210A255,3083,0.007171311,2.463146e-06,2.401268e-06,945742.3,-1390.696,-5.147553e-06,1638075.4854810457
PART_003_R247G182B210A255,3084,0.00716717,-2.810453e-06,2.704623e-06,910206.3,-62.80622,-4.721339e-06,1576523.5607224314
PART_003_R247G182B210A255,3085,0.007167363,1.534138e-06,-8.819121e-07,889624.6,-576.9005,-2.633481e-06,1540875.3308486838
PART_003_R247G182B210A255,3086,0.007165251,-1.833128e-06,5.009048e-06,882811.2,1.326293e-05,-2.546671e-08,1529073.8518908496
PART_002_R214G39B40A255,3087,0.007165104,2.25971e-06,-4.720609e-07,889624.6,576.9004,2.520592e-06,1540875.3308485714
PART_002_R214G39B40A255,3088,0.007162313,-3.427192e-06,2.380511e-06,910206.3,62.80623,4.389236e-06,1576523.5607224328
PART_002_R214G39B40A255,3089,0.007163995,1.316187e-06,2.193446e-06,945742.3,1390.696,4.98519e-06,1638075.4854810457
PART_002_R214G39B40A255,3090,0.00715889,7.603419e-06,-1.044605e-05,997265.2,192.6356,3.835276e-06,1727314.027245348
PART_002_R214G39B40A255,3091,0.007154848,-6.1363e-06,-9.770696e-06,1066211.0,520.4147,9.180946e-07,1846731.8435705223
PART_003_R247G182B210A255,3092,-6552428.0,919.0981,-28.17377,1032631.0,-80.34424,1349.565,6792579.5625789305
PART_003_R247G182B210A255,3093,-6552228.0,79.86037,-192.5293,964286.7,-1306.618,3495.612,6761696.672384752
PART_003_R247G182B210A255,3094,-6552458.0,-23.11457,458.0519,913389.4,-59.93901,4567.754,6740953.87636571
PART_003_R247G182B210A255,3095,-6552610.0,-331.471,-885.1912,878702.9,-1009.218,4179.121,6726450.617476357
PART_003_R247G182B210A255,3096,-6552436.0,-133.4267,499.7123,858575.5,31.74712,2452.802,6719247.848574652
PART_001_R158G218B229A255,3097,-6552737.0,-379.1173,-1199.751,852031.4,-9.806034e-06,0.000241399,6716091.86435723
PART_001_R158G218B229A255,3098,-6552436.0,-133.4267,499.7123,858575.5,-31.74709,-2452.801,6719247.848573556
PART_002_R214G39B40A255,3099,-6552610.0,-331.471,-885.1913,878702.9,1009.218,-4179.121,6726450.61742766
PART_002_R214G39B40A255,3100,-6552458.0,-23.11457,458.0519,913389.4,59.93901,-4567.754,6740953.87636571
PART_002_R214G39B40A255,3101,-6552228.0,79.86037,-192.5293,964286.7,1306.618,-3495.611,6761696.6723832
PART_002_R214G39B40A255,3102,-6552428.0,919.0981,-28.17377,1032631.0,80.34424,-1349.565,6792579.5625789305
PART_003_R247G182B210A255,3103,-13103740.0,1741.475,2940.93,933170.5,-672.9588,3056.545,13205370.744427301
PART_003_R247G182B210A255,3104,-13105130.0,-453.9205,-2229.613,866100.2,83.88785,8495.513,13189384.884759756
PART_003_R247G182B210A255,3105,-13104510.0,421.1732,1326.902,817807.4,-1283.382,10851.63,13181725.093232399
PART_003_R247G182B210A255,3106,-13105290.0,-1453.129,-1533.445,785472.6,225.205,9836.16,13174243.064358665
PART_001_R158G218B229A255,3107,-13104900.0,138.2988,134.4424,767264.3,-186.2307,5798.686,13172249.723234335
PART_001_R158G218B229A255,3108,-13105290.0,-996.7004,-1952.992,761345.7,1.817314e-05,0.0004982373,13170000.53513872
PART_001_R158G218B229A255,3109,-13104900.0,138.2988,134.4423,767264.3,186.2306,-5798.685,13172249.723183267
PART_001_R158G218B229A255,3110,-13105290.0,-1453.129,-1533.445,785472.6,-225.205,-9836.16,13174243.064358665
PART_002_R214G39B40A255,3111,-13104510.0,421.1732,1326.902,817807.4,1283.382,-10851.63,13181725.093232399
PART_002_R214G39B40A255,3112,-13105130.0,-453.9205,-2229.613,866100.2,-83.88786,-8495.513,13189384.884759756
PART_002_R214G39B40A255,3113,-13103740.0,1741.475,2940.93,933170.5,672.9588,-3056.545,13205370.744427301
PART_003_R247G182B210A255,3114,-19657470.0,2738.369,-830.8125,764117.6,174.9791,6628.915,19702928.565034233
PART_003_R247G182B210A255,3115,-19656760.0,-10.31424,-665.1814,700920.5,-1711.217,16754.22,19693898.943988983
PART_003_R247G182B210A255,3116,-19657490.0,-762.1941,1556.335,657479.4,710.5296,21319.77,19690879.37860716
PART_001_R158G218B229A255,3117,-19658170.0,-1141.096,-3632.399,630575.9,201.4203,19079.13,19686131.920275755
PART_001_R158G218B229A255,3118,-19657280.0,506.9623,535.9971,615768.2,160.5079,10870.83,19686722.049301263
PART_001_R158G218B229A255,3119,-19658300.0,-1197.279,-3897.347,610949.7,-1.717609e-05,0.0007901731,19684216.971169397
PART_001_R158G218B229A255,3120,-19657280.0,506.9623,535.9972,615768.2,-160.5078,-10870.83,19686722.049351186
PART_001_R158G218B229A255,3121,-19658170.0,-1141.096,-3632.399,630575.9,-201.4204,-19079.13,19686131.920275755
PART_001_R158G218B229A255,3122,-19657490.0,-762.1941,1556.335,657479.4,-710.5296,-21319.77,19690879.37860716
PART_002_R214G39B40A255,3123,-19656760.0,-10.31423,-665.1814,700920.5,1711.217,-16754.22,19693898.943993974
PART_002_R214G39B40A255,3124,-19657470.0,2738.369,-830.8125,764117.6,-174.9791,-6628.914,19702928.565033227
PART_003_R247G182B210A255,3125,-26206650.0,4094.043,7740.987,522929.3,-1601.881,12137.04,26228219.92593602
PART_003_R247G182B210A255,3126,-26210830.0,-2998.382,-3865.119,466160.2,1592.726,33349.25,26219896.714046523
PART_001_R158G218B229A255,3127,-26210310.0,84.54228,-409.6683,435153.1,1144.477,40690.08,26221076.91324995
PART_001_R158G218B229A255,3128,-26210570.0,-879.1942,-4880.981,417141.9,346.4702,33737.11,26217712.707010526
PART_001_R158G218B229A255,3129,-26210080.0,183.1172,-362.1507,407226.5,283.9698,18820.6,26219499.69981921
PART_001_R158G218B229A255,3130,-26210540.0,-640.3921,-4939.047,404193.7,6.208395e-06,0.001126906,26217099.501329504
PART_001_R158G218B229A255,3131,-26210080.0,183.1172,-362.1507,407226.5,-283.9698,-18820.6,26219499.69981921
PART_001_R158G218B229A255,3132,-26210570.0,-879.1942,-4880.981,417141.9,-346.4702,-33737.11,26217712.707010526
PART_001_R158G218B229A255,3133,-26210310.0,84.54233,-409.6684,435153.1,-1144.477,-40690.08,26221076.91322496
PART_001_R158G218B229A255,3134,-26210830.0,-2998.382,-3865.119,466160.2,-1592.726,-33349.25,26219896.714046523
PART_002_R214G39B40A255,3135,-26206650.0,4094.043,7740.987,522929.3,1601.881,-12137.04,26228219.92593602
PART_003_R247G182B210A255,3136,-32764390.0,3494.774,-6893.216,191908.5,2445.952,32794.39,32764427.646371767
PART_001_R158G218B229A255,3137,-32765350.0,-4098.385,-9598.401,165028.0,1567.968,70946.99,32759979.559632614
PART_001_R158G218B229A255,3138,-32762360.0,2640.325,-1552.697,154617.7,288.503,72174.15,32764237.01209044
PART_001_R158G218B229A255,3139,-32764090.0,-2529.678,-6920.385,147853.7,375.217,56342.45,32760511.49761411
PART_001_R158G218B229A255,3140,-32762000.0,2122.78,-544.7357,144539.6,48.46292,30374.51,32763787.82702278
PART_001_R158G218B229A255,3141,-32763850.0,-2200.457,-6410.921,143381.7,-2.200948e-06,0.001523074,32760485.82814459
PART_001_R158G218B229A255,3142,-32762000.0,2122.78,-544.7358,144539.6,-48.46291,-30374.51,32763787.826972786
PART_001_R158G218B229A255,3143,-32764090.0,-2529.678,-6920.385,147853.7,-375.2171,-56342.44,32760511.49756252
PART_001_R158G218B229A255,3144,-32762360.0,2640.325,-1552.697,154617.7,-288.503,-72174.15,32764237.01209044
PART_001_R158G218B229A255,3145,-32765350.0,-4098.385,-9598.401,165028.0,-1567.968,-70946.99,32759979.559632614
PART_001_R158G218B229A255,3146,-32764390.0,3494.774,-6893.216,191908.5,-2445.952,-32794.39,32764427.646371767
PART_003_R247G182B210A255,3147,32446440.0,-1334.956,12478.9,192083.8,2510.383,-32812.06,32442626.263692893
PART_000_R31G119B180A255,3148,32446640.0,1982.215,4027.239,164973.1,1501.69,-70897.19,32445126.093684413
PART_000_R31G119B180A255,3149,32445080.0,-637.1136,6876.497,154708.2,316.5622,-72240.46,32443308.88211513
PART_000_R31G119B180A255,3150,32445010.0,361.7934,1539.359,147839.5,350.9168,-56284.69,32445216.392509308
PART_000_R31G119B180A255,3151,32444980.0,-62.20062,5818.97,144613.1,56.48897,-30404.41,32443111.67720069
PART_000_R31G119B180A255,3152,32444660.0,9.339317,1077.359,143379.0,-2.116602e-06,-0.001522279,32445067.09381001
PART_000_R31G119B180A255,3153,32444980.0,-62.20063,5818.97,144613.1,-56.48896,30404.4,32443111.67717758
PART_000_R31G119B180A255,3154,32445010.0,361.7934,1539.359,147839.5,-350.9169,56284.69,32445216.39250931
PART_000_R31G119B180A255,3155,32445080.0,-637.1137,6876.497,154708.2,-316.5621,72240.46,32443308.88216514
PART_000_R31G119B180A255,3156,32446640.0,1982.215,4027.239,164973.1,-1501.69,70897.19,32445126.093684413
PART_000_R31G119B180A255,3157,32446440.0,-1334.956,12478.9,192083.8,-2510.383,32812.06,32442626.263692893
PART_003_R247G182B210A255,3158,25952390.0,-2679.353,-3009.914,522684.0,-1612.538,-12180.0,25971027.194002073
PART_003_R247G182B210A255,3159,25955970.0,1266.112,-767.3648,466096.9,1574.02,-33283.03,25968336.60461218
PART_000_R31G119B180A255,3160,25956560.0,1617.576,4979.642,435045.6,1131.066,-40761.54,25964294.09163256
PART_000_R31G119B180A255,3161,25955380.0,-921.3655,343.6923,417059.5,338.3956,-33680.24,25965784.510666758
PART_000_R31G119B180A255,3162,25956570.0,1561.134,4890.627,407131.7,280.735,-18850.14,25962943.09554549
PART_000_R31G119B180A255,3163,25955250.0,-1187.831,430.2213,404105.8,6.401741e-06,-0.00112654,25965064.47347108
PART_000_R31G119B180A255,3164,25956570.0,1561.134,4890.627,407131.7,-280.735,18850.14,25962943.09554549
PART_000_R31G119B180A255,3165,25955380.0,-921.3656,343.6922,417059.5,-338.3956,33680.23,25965784.510727804
PART_000_R31G119B180A255,3166,25956560.0,1617.576,4979.643,435045.6,-1131.066,40761.54,25964294.091132868
PART_000_R31G119B180A255,3167,25955970.0,1266.112,-767.3648,466096.9,-1574.02,33283.03,25968336.60461218
PART_002_R214G39B40A255,3168,25952390.0,-2679.353,-3009.914,522684.0,1612.538,12180.0,25971027.194002073
PART_003_R247G182B210A255,3169,19466670.0,-1252.339,4495.302,764359.9,182.4239,-6636.442,19510023.29576258
PART_003_R247G182B210A255,3170,19465470.0,-1180.279,-2857.465,701095.2,-1693.072,-16718.36,19505347.360139713
PART_003_R247G182B210A255,3171,19467080.0,2127.319,1930.0,657621.4,693.8798,-21368.35,19498384.361230254
PART_000_R31G119B180A255,3172,19466650.0,-119.9251,180.9072,630762.2,197.9506,-19036.82,19497280.46041434
PART_000_R31G119B180A255,3173,19467030.0,923.4613,2908.338,615929.5,155.3051,-10892.32,19494335.929741766
PART_000_R31G119B180A255,3174,19466700.0,-81.64701,468.4976,611144.0,-1.685444e-05,-0.0007894991,19495265.30766471
PART_000_R31G119B180A255,3175,19467030.0,923.4613,2908.338,615929.5,-155.305,10892.32,19494335.929741763
PART_000_R31G119B180A255,3176,19466650.0,-119.9251,180.9072,630762.2,-197.9506,19036.82,19497280.46041434
PART_000_R31G119B180A255,3177,19467080.0,2127.319,1930.0,657621.4,-693.8798,21368.35,19498384.361230254
PART_002_R214G39B40A255,3178,19465470.0,-1180.279,-2857.465,701095.2,1693.072,16718.35,19505347.360114
PART_002_R214G39B40A255,3179,19466670.0,-1252.339,4495.302,764359.9,-182.4239,6636.442,19510023.29576258
PART_003_R247G182B210A255,3180,12976630.0,-1068.265,-528.7728,932808.9,-676.4357,-3078.186,13077617.455469038
PART_003_R247G182B210A255,3181,12977730.0,-494.633,-165.9407,865874.3,71.33255,-8465.606,13064435.648548443
PART_003_R247G182B210A255,3182,12977680.0,399.3269,1025.557,817586.1,-1275.752,-10883.82,13054018.103434198
PART_003_R247G182B210A255,3183,12977710.0,458.6419,-795.3756,785268.5,219.4777,-9809.694,13048967.651513679
PART_000_R31G119B180A255,3184,12978180.0,692.4833,2180.852,767038.1,-186.5983,-5812.1,13044577.914277336
PART_000_R31G119B180A255,3185,12977660.0,-8.825351,-362.7904,761139.9,1.655093e-05,-0.0004980118,13044634.289587276
PART_000_R31G119B180A255,3186,12978180.0,692.4833,2180.852,767038.1,186.5983,5812.099,13044577.914275998
PART_000_R31G119B180A255,3187,12977710.0,458.6419,-795.3757,785268.5,-219.4776,9809.693,13048967.651561152
PART_002_R214G39B40A255,3188,12977680.0,399.3269,1025.557,817586.1,1275.752,10883.82,13054018.103434198
PART_002_R214G39B40A255,3189,12977730.0,-494.633,-165.9408,865874.3,-71.33256,8465.605,13064435.648596168
PART_002_R214G39B40A255,3190,12976630.0,-1068.265,-528.7728,932808.9,676.4357,3078.186,13077617.455469038
PART_003_R247G182B210A255,3191,6488818.0,-396.996,1275.986,1032951.0,-79.62021,-1352.142,6730529.439233047
PART_003_R247G182B210A255,3192,6488452.0,-459.2835,-997.0653,964569.3,-1292.574,-3482.413,6700797.172731315
PART_003_R247G182B210A255,3193,6488979.0,508.9951,727.1859,913621.5,-68.50411,-4584.807,6678547.98132528
PART_003_R247G182B210A255,3194,6488757.0,-75.00757,-278.5425,878983.4,-1003.628,-4164.113,6665144.56419403
PART_003_R247G182B210A255,3195,6489012.0,638.2727,676.6109,858840.4,28.49436,-2460.118,6656694.640060566
PART_000_R31G119B180A255,3196,6488856.0,-33.61992,41.30624,852322.6,-1.054997e-05,-0.0002410597,6654664.8120660335
PART_000_R31G119B180A255,3197,6489012.0,638.2727,676.6109,858840.4,-28.49433,2460.118,6656694.640060566
PART_002_R214G39B40A255,3198,6488757.0,-75.00758,-278.5425,878983.4,1003.628,4164.112,6665144.564197023
PART_002_R214G39B40A255,3199,6488979.0,508.9951,727.1859,913621.5,68.5041,4584.807,6678547.981325279
PART_002_R214G39B40A255,3200,6488452.0,-459.2835,-997.0653,964569.3,1292.574,3482.413,6700797.172731315
PART_002_R214G39B40A255,3201,6488818.0,-396.996,1275.986,1032951.0,79.62022,1352.142,6730529.439233047
PART_003_R247G182B210A255,3202,0.00709779,-4.813056e-06,-6.106253e-06,1065797.0,-521.7727,-8.011148e-07,1846014.775771649
PART_003_R247G182B210A255,3203,0.007098393,5.225391e-06,-1.45588e-05,996979.4,-203.2967,-3.865814e-06,1726819.0108004154
PART_003_R247G182B210A255,3204,0.007102483,4.179625e-06,6.516099e-06,945469.1,-1383.381,-4.903697e-06,1637602.2711248917
PART_003_R247G182B210A255,3205,0.007096247,-6.575304e-06,-2.176439e-06,909952.2,-64.92604,-4.701501e-06,1576083.4468709745
PART_003_R247G182B210A255,3206,0.007098181,1.921012e-06,2.501408e-06,889343.7,-573.8763,-2.947351e-06,1540388.7944902394
PART_003_R247G182B210A255,3207,0.007094073,-7.343132e-06,-8.568656e-07,882554.3,1.295958e-05,-1.180385e-07,1528628.8880383852
PART_002_R214G39B40A255,3208,0.007095952,1.94283e-06,3.324965e-06,889343.7,573.8763,2.545914e-06,1540388.7944902394
PART_002_R214G39B40A255,3209,0.00709236,-2.690032e-06,-1.235008e-06,909952.2,64.92606,4.433861e-06,1576083.446870977
PART_002_R214G39B40A255,3210,0.007095052,3.758741e-06,6.784254e-06,945469.1,1383.381,4.922465e-06,1637602.2711248917
PART_002_R214G39B40A255,3211,0.007088637,5.173709e-06,-1.452739e-05,996979.4,203.2967,3.369497e-06,1726819.0108004154
PART_002_R214G39B40A255,3212,0.007084938,-6.397349e-06,-6.887023e-06,1065797.0,521.7727,1.142425e-06,1846014.775771649
PART_003_R247G182B210A255,3213,-6488818.0,396.996,-1275.986,1032951.0,-79.62022,1352.142,6730529.439233047
PART_003_R247G182B210A255,3214,-6488452.0,459.2835,997.0654,964569.3,-1292.574,3482.413,6700797.172779742
PART_003_R247G182B210A255,3215,-6488979.0,-508.9951,-727.1859,913621.5,-68.5041,4584.807,6678547.981325279
PART_003_R247G182B210A255,3216,-6488757.0,75.00758,278.5425,878983.4,-1003.628,4164.113,6665144.564198898
PART_003_R247G182B210A255,3217,-6489012.0,-638.2727,-676.6109,858840.4,28.49436,2460.118,6656694.640060566
PART_001_R158G218B229A255,3218,-6488856.0,33.61993,-41.30624,852322.6,-1.035317e-05,0.0002407307,6654664.812070908
PART_001_R158G218B229A255,3219,-6489012.0,-638.2727,-676.6109,858840.4,-28.49433,-2460.118,6656694.640060566
PART_002_R214G39B40A255,3220,-6488757.0,75.00758,278.5425,878983.4,1003.628,-4164.112,6665144.564197023
PART_002_R214G39B40A255,3221,-6488979.0,-508.9951,-727.1859,913621.5,68.5041,-4584.807,6678547.981325279
PART_002_R214G39B40A255,3222,-6488452.0,459.2835,997.0653,964569.3,1292.574,-3482.413,6700797.172731315
PART_002_R214G39B40A255,3223,-6488818.0,396.996,-1275.986,1032951.0,79.62023,-1352.142,6730529.439233048
PART_003_R247G182B210A255,3224,-12976630.0,1068.265,528.7729,932808.9,-676.4357,3078.186,13077617.455518652
PART_003_R247G182B210A255,3225,-12977730.0,494.633,165.9407,865874.3,71.33256,8465.606,13064435.648548443
PART_003_R247G182B210A255,3226,-12977680.0,-399.3269,-1025.557,817586.1,-1275.752,10883.82,13054018.103434198
PART_003_R247G182B210A255,3227,-12977710.0,-458.6419,795.3757,785268.5,219.4777,9809.694,13048967.651563413
PART_001_R158G218B229A255,3228,-12978180.0,-692.4833,-2180.852,767038.1,-186.5983,5812.1,13044577.914277336
PART_001_R158G218B229A255,3229,-12977660.0,8.825345,362.7904,761139.9,1.653676e-05,0.0004982398,13044634.289584292
PART_001_R158G218B229A255,3230,-12978180.0,-692.4833,-2180.852,767038.1,186.5983,-5812.099,13044577.914275998
PART_001_R158G218B229A255,3231,-12977710.0,-458.642,795.3757,785268.5,-219.4776,-9809.693,13048967.65151143
PART_002_R214G39B40A255,3232,-12977680.0,-399.3269,-1025.557,817586.1,1275.752,-10883.82,13054018.103434198
PART_002_R214G39B40A255,3233,-12977730.0,494.6329,165.9408,865874.3,-71.33256,-8465.605,13064435.648546496
PART_002_R214G39B40A255,3234,-12976630.0,1068.265,528.7729,932808.9,676.4357,-3078.186,13077617.455518652
PART_003_R247G182B210A255,3235,-19466670.0,1252.339,-4495.302,764359.9,182.4239,6636.442,19510023.29576258
PART_003_R247G182B210A255,3236,-19465470.0,1180.279,2857.465,701095.2,-1693.072,16718.36,19505347.360139713
PART_003_R247G182B210A255,3237,-19467080.0,-2127.319,-1930.0,657621.4,693.8797,21368.35,19498384.361230247
PART_001_R158G218B229A255,3238,-19466650.0,119.9251,-180.9072,630762.2,197.9506,19036.82,19497280.46041434
PART_001_R158G218B229A255,3239,-19467030.0,-923.4613,-2908.338,615929.5,155.3051,10892.32,19494335.929741766
PART_001_R158G218B229A255,3240,-19466700.0,81.64701,-468.4976,611144.0,-1.737737e-05,0.0007893477,19495265.30766471
PART_001_R158G218B229A255,3241,-19467030.0,-923.4613,-2908.338,615929.5,-155.305,-10892.32,19494335.929741763
PART_001_R158G218B229A255,3242,-19466650.0,119.9251,-180.9072,630762.2,-197.9506,-19036.82,19497280.46041434
PART_001_R158G218B229A255,3243,-19467080.0,-2127.319,-1930.0,657621.4,-693.8798,-21368.35,19498384.361230254
PART_002_R214G39B40A255,3244,-19465470.0,1180.279,2857.465,701095.2,1693.072,-16718.35,19505347.360114
PART_002_R214G39B40A255,3245,-19466670.0,1252.339,-4495.302,764359.9,-182.4239,-6636.442,19510023.29576258
PART_003_R247G182B210A255,3246,-25952390.0,2679.353,3009.914,522684.0,-1612.538,12180.0,25971027.194002073
PART_003_R247G182B210A255,3247,-25955970.0,-1266.112,767.3648,466096.9,1574.02,33283.03,25968336.60461218
PART_001_R158G218B229A255,3248,-25956560.0,-1617.576,-4979.642,435045.6,1131.066,40761.54,25964294.09163256
PART_001_R158G218B229A255,3249,-25955380.0,921.3655,-343.6923,417059.5,338.3956,33680.24,25965784.510666758
PART_001_R158G218B229A255,3250,-25956570.0,-1561.134,-4890.627,407131.7,280.735,18850.14,25962943.09554549
PART_001_R158G218B229A255,3251,-25955250.0,1187.831,-430.2213,404105.8,6.446188e-06,0.001126215,25965064.47347108
PART_001_R158G218B229A255,3252,-25956570.0,-1561.134,-4890.627,407131.7,-280.735,-18850.14,25962943.09554549
PART_001_R158G218B229A255,3253,-25955380.0,921.3656,-343.6923,417059.5,-338.3956,-33680.23,25965784.51067783
PART_001_R158G218B229A255,3254,-25956560.0,-1617.576,-4979.643,435045.6,-1131.066,-40761.54,25964294.091132868
PART_001_R158G218B229A255,3255,-25955970.0,-1266.112,767.3648,466096.9,-1574.02,-33283.03,25968336.60461218
PART_002_R214G39B40A255,3256,-25952390.0,2679.353,3009.914,522684.0,1612.538,-12180.0,25971027.194002073
PART_003_R247G182B210A255,3257,-32446440.0,1334.956,-12478.9,192083.8,2510.383,32812.06,32442626.263692893
PART_001_R158G218B229A255,3258,-32446640.0,-1982.215,-4027.239,164973.1,1501.69,70897.19,32445126.093684413
PART_001_R158G218B229A255,3259,-32445080.0,637.1136,-6876.497,154708.2,316.5622,72240.46,32443308.88211513
PART_001_R158G218B229A255,3260,-32445010.0,-361.7934,-1539.359,147839.5,350.9168,56284.69,32445216.392509308
PART_001_R158G218B229A255,3261,-32444980.0,62.20063,-5818.97,144613.1,56.48897,30404.41,32443111.677205693
PART_001_R158G218B229A255,3262,-32444660.0,-9.339325,-1077.359,143379.0,-2.48466e-06,0.001522245,32445067.09380601
PART_001_R158G218B229A255,3263,-32444980.0,62.20064,-5818.97,144613.1,-56.48896,-30404.4,32443111.677182578
PART_001_R158G218B229A255,3264,-32445010.0,-361.7934,-1539.359,147839.5,-350.9169,-56284.69,32445216.39250931
PART_001_R158G218B229A255,3265,-32445080.0,637.1137,-6876.497,154708.2,-316.5621,-72240.46,32443308.88216514
PART_001_R158G218B229A255,3266,-32446640.0,-1982.215,-4027.239,164973.1,-1501.69,-70897.19,32445126.093684413
PART_001_R158G218B229A255,3267,-32446440.0,1334.956,-12478.9,192083.8,-2510.383,-32812.06,32442626.263692893
PART_003_R247G182B210A255,3268,32128160.0,-3018.577,7763.094,191943.3,2414.891,-32799.9,32127559.771664795
PART_000_R31G119B180A255,3269,32129000.0,3688.127,8468.924,165022.4,1525.848,-70946.89,32124428.488996528
PART_000_R31G119B180A255,3270,32126350.0,-2210.853,2481.075,154642.0,286.1688,-72190.64,32127575.021475356
PART_000_R31G119B180A255,3271,32127750.0,2139.331,5894.763,147860.4,361.8756,-56333.09,32124902.15005679
PART_000_R31G119B180A255,3272,32126060.0,-1691.052,1502.787,144564.4,47.98437,-30379.8,32127173.11554965
PART_000_R31G119B180A255,3273,32127510.0,1812.713,5415.432,143392.4,-2.826148e-06,-0.001523263,32124856.162116468
PART_000_R31G119B180A255,3274,32126060.0,-1691.052,1502.787,144564.4,-47.98436,30379.8,32127173.11554965
PART_000_R31G119B180A255,3275,32127750.0,2139.331,5894.763,147860.4,-361.8757,56333.09,32124902.150056794
PART_000_R31G119B180A255,3276,32126350.0,-2210.854,2481.075,154642.0,-286.1688,72190.63,32127575.021908034
PART_000_R31G119B180A255,3277,32129000.0,3688.127,8468.924,165022.4,-1525.847,70946.89,32124428.488996387
PART_000_R31G119B180A255,3278,32128160.0,-3018.577,7763.094,191943.3,-2414.891,32799.9,32127559.771664795
PART_003_R247G182B210A255,3279,25697770.0,-3817.575,-6796.688,522852.3,-1578.405,-12150.74,25719034.870355353
PART_003_R247G182B210A255,3280,25701800.0,2610.336,2992.688,466125.4,1555.503,-33343.56,25711742.15604994
PART_000_R31G119B180A255,3281,25701510.0,174.5558,1195.696,435117.3,1115.218,-40709.12,25711969.13139808
PART_000_R31G119B180A255,3282,25701540.0,515.023,4022.983,417116.0,333.5658,-33727.54,25709490.6455498
PART_000_R31G119B180A255,3283,25701340.0,82.03996,1157.922,407201.2,275.4425,-18826.52,25710416.417421423
PART_000_R31G119B180A255,3284,25701500.0,274.4573,4094.087,404170.8,6.15102e-06,-0.001127125,25708848.708734788
PART_000_R31G119B180A255,3285,25701340.0,82.03999,1157.922,407201.2,-275.4425,18826.52,25710416.41740643
PART_000_R31G119B180A255,3286,25701540.0,515.023,4022.983,417116.0,-333.5658,33727.54,25709490.6455498
PART_000_R31G119B180A255,3287,25701510.0,174.5557,1195.697,435117.3,-1115.218,40709.12,25711969.13094831
PART_000_R31G119B180A255,3288,25701800.0,2610.336,2992.688,466125.4,-1555.503,33343.56,25711742.15604994
PART_002_R214G39B40A255,3289,25697770.0,-3817.575,-6796.688,522852.3,1578.405,12150.74,25719034.870355353
PART_003_R247G182B210A255,3290,19275730.0,-2395.494,1458.628,764171.8,169.3707,-6632.388,19321590.12194909
PART_003_R247G182B210A255,3291,19274970.0,-157.4129,60.79203,700973.0,-1686.12,-16753.87,19313240.81942188
PART_003_R247G182B210A255,3292,19275860.0,1019.437,-910.0553,657536.9,685.6423,-21332.91,19309456.33938224
PART_000_R31G119B180A255,3293,19276350.0,941.4635,3001.98,630650.7,190.1788,-19071.97,19305333.808101483
PART_000_R31G119B180A255,3294,19275700.0,-215.3714,98.34217,615843.8,152.8662,-10875.0,19305258.66215056
PART_000_R31G119B180A255,3295,19276470.0,994.0351,3273.837,611033.4,-1.729213e-05,-0.0007900978,19303370.691460926
PART_000_R31G119B180A255,3296,19275700.0,-215.3714,98.34214,615843.8,-152.8661,10875.0,19305258.662165537
PART_000_R31G119B180A255,3297,19276350.0,941.4635,3001.98,630650.7,-190.1788,19071.97,19305333.808101483
PART_000_R31G119B180A255,3298,19275860.0,1019.437,-910.0553,657536.9,-685.6423,21332.91,19309456.33938224
PART_002_R214G39B40A255,3299,19274970.0,-157.4129,60.79205,700973.0,1686.12,16753.86,19313240.819385875
PART_002_R214G39B40A255,3300,19275730.0,-2395.494,1458.628,764171.8,-169.3707,6632.388,19321590.12194909
PART_003_R247G182B210A255,3301,12849290.0,-1622.158,-2479.795,933036.2,-666.1012,-3063.621,12952554.365292141
PART_003_R247G182B210A255,3302,12850630.0,257.3113,1773.791,866007.2,69.58209,-8493.891,12936874.238907604
PART_003_R247G182B210A255,3303,12850130.0,-297.7449,-897.4939,817729.1,-1269.992,-10860.28,12928557.612372257
PART_003_R247G182B210A255,3304,12850770.0,1229.352,1110.868,785406.5,212.2598,-9831.75,12921420.106916672
PART_000_R31G119B180A255,3305,12850540.0,-20.81999,276.0736,767199.3,-187.2319,-5801.12,12918938.949820187
PART_000_R31G119B180A255,3306,12850770.0,777.9326,1530.455,761286.3,1.675505e-05,-0.0004982611,12917093.221130108
PART_000_R31G119B180A255,3307,12850540.0,-20.82,276.0736,767199.3,187.2319,5801.119,12918938.949823814
PART_000_R31G119B180A255,3308,12850770.0,1229.352,1110.868,785406.5,-212.2597,9831.749,12921420.106914384
PART_002_R214G39B40A255,3309,12850130.0,-297.7449,-897.4939,817729.1,1269.992,10860.28,12928557.612372257
PART_002_R214G39B40A255,3310,12850630.0,257.3113,1773.791,866007.2,-69.5821,8493.891,12936874.238907605
PART_002_R214G39B40A255,3311,12849290.0,-1622.158,-2479.795,933036.2,666.1012,3063.621,12952554.365292141
PART_003_R247G182B210A255,3312,6425174.0,-796.7103,247.074,1032702.0,-84.41051,-1350.752,6669769.043164821
PART_003_R247G182B210A255,3313,6424960.0,-128.1701,-10.62194,964366.8,-1291.964,-3495.217,6638603.345738438
PART_003_R247G182B210A255,3314,6425245.0,121.4597,-238.857,913475.6,-72.15314,-4572.236,6617242.889926808
PART_003_R247G182B210A255,3315,6425335.0,271.2272,679.3026,878810.6,-998.9863,-4176.397,6602711.736356287
PART_003_R247G182B210A255,3316,6425239.0,233.2565,-276.3363,858687.8,26.11026,-2454.106,6595151.664967243
PART_000_R31G119B180A255,3317,6425457.0,317.0117,992.0522,852151.1,-1.105539e-05,-0.0002412047,6592159.857506094
PART_000_R31G119B180A255,3318,6425239.0,233.2565,-276.3363,858687.8,-26.11024,2454.105,6595151.664966126
PART_002_R214G39B40A255,3319,6425335.0,271.2272,679.3026,878810.6,998.9863,4176.397,6602711.736356287
PART_002_R214G39B40A255,3320,6425245.0,121.4597,-238.857,913475.6,72.15314,4572.236,6617242.889926808
PART_002_R214G39B40A255,3321,6424960.0,-128.1701,-10.62193,964366.8,1291.964,3495.216,6638603.34573202
PART_002_R214G39B40A255,3322,6425174.0,-796.7103,247.074,1032702.0,84.41051,1350.752,6669769.043164821
PART_003_R247G182B210A255,3323,0.00702797,-6.487968e-06,-9.068655e-06,1066053.0,-516.1246,-1.061823e-06,1846458.175963054
PART_003_R247G182B210A255,3324,0.007029192,6.261493e-06,-1.102957e-05,997149.8,-202.8767,-3.669748e-06,1727114.15210373
PART_003_R247G182B210A255,3325,0.007032285,2.914924e-06,2.966191e-06,945645.3,-1376.522,-5.084783e-06,1637907.4408142604
PART_003_R247G182B210A255,3326,0.007027816,-2.478999e-06,2.129618e-06,910123.3,-70.62342,-4.512657e-06,1576379.8014982534
PART_003_R247G182B210A255,3327,0.007028364,1.235826e-06,-7.760998e-07,889542.4,-570.6607,-2.905752e-06,1540732.9493309942
PART_003_R247G182B210A255,3328,0.007025571,-3.228548e-06,3.942723e-06,882735.4,1.234022e-05,-1.378435e-07,1528942.5624396359
PART_002_R214G39B40A255,3329,0.007025516,1.49815e-06,-4.453007e-07,889542.4,570.6607,2.51435e-06,1540732.9493309942
PART_002_R214G39B40A255,3330,0.007022842,-3.790014e-06,2.027409e-06,910123.3,70.62343,4.298826e-06,1576379.8014982548
PART_002_R214G39B40A255,3331,0.007025373,4.92713e-06,3.465241e-06,945645.3,1376.522,5.055895e-06,1637907.4408142604
PART_002_R214G39B40A255,3332,0.007019077,5.456303e-06,-1.108188e-05,997149.8,202.8767,3.60524e-06,1727114.15210373
PART_002_R214G39B40A255,3333,0.007015606,-7.33338e-06,-9.570082e-06,1066053.0,516.1246,1.049162e-06,1846458.175963054
PART_003_R247G182B210A255,3334,-6425174.0,796.7103,-247.0741,1032702.0,-84.41052,1350.752,6669769.043116665
PART_003_R247G182B210A255,3335,-6424960.0,128.1701,10.62196,964366.8,-1291.964,3495.217,6638603.345748116
PART_003_R247G182B210A255,3336,-6425245.0,-121.4597,238.857,913475.6,-72.15314,4572.236,6617242.889926808
PART_003_R247G182B210A255,3337,-6425335.0,-271.2272,-679.3026,878810.6,-998.9863,4176.397,6602711.736356287
PART_003_R247G182B210A255,3338,-6425239.0,-233.2565,276.3363,858687.8,26.11026,2454.106,6595151.664967243
PART_001_R158G218B229A255,3339,-6425457.0,-317.0117,-992.0521,852151.1,-1.012565e-05,0.0002411944,6592159.857554817
PART_001_R158G218B229A255,3340,-6425239.0,-233.2565,276.3363,858687.8,-26.11024,-2454.105,6595151.664966126
PART_002_R214G39B40A255,3341,-6425335.0,-271.2272,-679.3026,878810.6,998.9863,-4176.397,6602711.736356287
PART_002_R214G39B40A255,3342,-6425245.0,-121.4597,238.857,913475.6,72.15313,-4572.236,6617242.889926808
PART_002_R214G39B40A255,3343,-6424960.0,128.1701,10.62195,964366.8,1291.964,-3495.216,6638603.345741698
PART_002_R214G39B40A255,3344,-6425174.0,796.7103,-247.0741,1032702.0,84.41052,-1350.752,6669769.043116665
PART_003_R247G182B210A255,3345,-12849290.0,1622.158,2479.795,933036.2,-666.1012,3063.621,12952554.365292141
PART_003_R247G182B210A255,3346,-12850630.0,-257.3113,-1773.791,866007.2,69.5821,8493.891,12936874.238907605
PART_003_R247G182B210A255,3347,-12850130.0,297.7449,897.4939,817729.1,-1269.992,10860.28,12928557.612372257
PART_003_R247G182B210A255,3348,-12850770.0,-1229.352,-1110.868,785406.5,212.2598,9831.75,12921420.106916672
PART_001_R158G218B229A255,3349,-12850540.0,20.81999,-276.0736,767199.3,-187.2319,5801.12,12918938.949820187
PART_001_R158G218B229A255,3350,-12850770.0,-777.9326,-1530.455,761286.3,1.638345e-05,0.0004982074,12917093.221130108
PART_001_R158G218B229A255,3351,-12850540.0,20.82,-276.0736,767199.3,187.2319,-5801.119,12918938.949823814
PART_001_R158G218B229A255,3352,-12850770.0,-1229.352,-1110.868,785406.5,-212.2597,-9831.749,12921420.106914384
PART_002_R214G39B40A255,3353,-12850130.0,297.7449,897.4939,817729.1,1269.992,-10860.28,12928557.612372257
PART_002_R214G39B40A255,3354,-12850630.0,-257.3113,-1773.791,866007.2,-69.5821,-8493.891,12936874.238907605
PART_002_R214G39B40A255,3355,-12849290.0,1622.158,2479.795,933036.2,666.1012,-3063.621,12952554.365292141
PART_003_R247G182B210A255,3356,-19275730.0,2395.494,-1458.628,764171.8,169.3707,6632.388,19321590.12194909
PART_003_R247G182B210A255,3357,-19274970.0,157.4129,-60.79203,700973.0,-1686.12,16753.87,19313240.81942188
PART_003_R247G182B210A255,3358,-19275860.0,-1019.437,910.0553,657536.9,685.6423,21332.91,19309456.33938224
PART_001_R158G218B229A255,3359,-19276350.0,-941.4635,-3001.98,630650.7,190.1788,19071.97,19305333.808101483
PART_001_R158G218B229A255,3360,-19275700.0,215.3714,-98.34217,615843.8,152.8662,10875.0,19305258.66215056
PART_001_R158G218B229A255,3361,-19276470.0,-994.0351,-3273.837,611033.4,-1.591035e-05,0.0007900592,19303370.691460926
PART_001_R158G218B229A255,3362,-19275700.0,215.3714,-98.34214,615843.8,-152.8661,-10875.0,19305258.662165537
PART_001_R158G218B229A255,3363,-19276350.0,-941.4635,-3001.98,630650.7,-190.1788,-19071.97,19305333.808101483
PART_001_R158G218B229A255,3364,-19275860.0,-1019.437,910.0553,657536.9,-685.6423,-21332.91,19309456.33938224
PART_002_R214G39B40A255,3365,-19274970.0,157.4129,-60.79205,700973.0,1686.12,-16753.86,19313240.819385875
PART_002_R214G39B40A255,3366,-19275730.0,2395.494,-1458.628,764171.8,-169.3707,-6632.388,19321590.12194909
PART_003_R247G182B210A255,3367,-25697770.0,3817.575,6796.688,522852.3,-1578.405,12150.74,25719034.870355353
PART_003_R247G182B210A255,3368,-25701800.0,-2610.336,-2992.688,466125.4,1555.503,33343.56,25711742.15604994
PART_001_R158G218B229A255,3369,-25701510.0,-174.5558,-1195.696,435117.3,1115.218,40709.12,25711969.13139808
PART_001_R158G218B229A255,3370,-25701540.0,-515.023,-4022.983,417116.0,333.5658,33727.54,25709490.6455498
PART_001_R158G218B229A255,3371,-25701340.0,-82.03997,-1157.922,407201.2,275.4425,18826.52,25710416.417416424
PART_001_R158G218B229A255,3372,-25701500.0,-274.4573,-4094.087,404170.8,6.004661e-06,0.001127039,25708848.708734788
PART_001_R158G218B229A255,3373,-25701340.0,-82.03999,-1157.922,407201.2,-275.4426,-18826.52,25710416.417406432
PART_001_R158G218B229A255,3374,-25701540.0,-515.023,-4022.983,417116.0,-333.5658,-33727.54,25709490.6455498
PART_001_R158G218B229A255,3375,-25701510.0,-174.5557,-1195.697,435117.3,-1115.218,-40709.12,25711969.13094831
PART_001_R158G218B229A255,3376,-25701800.0,-2610.336,-2992.688,466125.4,-1555.503,-33343.56,25711742.15604994
PART_002_R214G39B40A255,3377,-25697770.0,3817.575,6796.688,522852.3,1578.405,-12150.74,25719034.870355353
PART_003_R247G182B210A255,3378,-32128160.0,3018.577,-7763.094,191943.3,2414.891,32799.9,32127559.771664795
PART_001_R158G218B229A255,3379,-32129000.0,-3688.127,-8468.924,165022.4,1525.847,70946.89,32124428.488996387
PART_001_R158G218B229A255,3380,-32126350.0,2210.853,-2481.075,154642.0,286.1688,72190.64,32127575.021475356
PART_001_R158G218B229A255,3381,-32127750.0,-2139.331,-5894.763,147860.4,361.8756,56333.09,32124902.15005679
PART_001_R158G218B229A255,3382,-32126060.0,1691.052,-1502.787,144564.4,47.98437,30379.8,32127173.11554965
PART_001_R158G218B229A255,3383,-32127510.0,-1812.713,-5415.432,143392.4,-2.208259e-06,0.001523202,32124856.162116468
PART_001_R158G218B229A255,3384,-32126060.0,1691.052,-1502.787,144564.4,-47.98436,-30379.8,32127173.11554965
PART_001_R158G218B229A255,3385,-32127750.0,-2139.331,-5894.763,147860.4,-361.8757,-56333.09,32124902.150056794
PART_001_R158G218B229A255,3386,-32126350.0,2210.854,-2481.075,154642.0,-286.1688,-72190.63,32127575.021908034
PART_001_R158G218B229A255,3387,-32129000.0,-3688.127,-8468.924,165022.4,-1525.847,-70946.89,32124428.488996387
PART_001_R158G218B229A255,3388,-32128160.0,3018.577,-7763.094,191943.3,-2414.891,-32799.9,32127559.771664795
PART_003_R247G182B210A255,3389,31810170.0,-1628.813,11422.53,192050.6,2447.023,-32815.73,31807065.665314663
PART_000_R31G119B180A255,3390,31810500.0,2225.514,4728.497,164977.0,1478.034,-70914.64,31808543.850908738
PART_000_R31G119B180A255,3391,31808790.0,-920.5748,5986.122,154692.2,303.1954,-72240.7,31807632.417251397
PART_000_R31G119B180A255,3392,31809000.0,645.3653,2278.165,147841.4,344.9591,-56299.09,31808718.47338757
PART_000_R31G119B180A255,3393,31808690.0,-366.632,4971.985,144602.8,52.8734,-30402.71,31807417.35570717
PART_000_R31G119B180A255,3394,31808690.0,303.0343,1827.336,143380.8,-2.662358e-06,-0.001522545,31808594.314529352
PART_000_R31G119B180A255,3395,31808690.0,-366.632,4971.985,144602.8,-52.8734,30402.71,31807417.35570717
PART_000_R31G119B180A255,3396,31809000.0,645.3654,2278.165,147841.4,-344.9591,56299.09,31808718.473337565
PART_000_R31G119B180A255,3397,31808790.0,-920.5749,5986.122,154692.2,-303.1954,72240.7,31807632.417301416
PART_000_R31G119B180A255,3398,31810500.0,2225.514,4728.497,164977.0,-1478.034,70914.63,31808543.850841857
PART_000_R31G119B180A255,3399,31810170.0,-1628.813,11422.53,192050.6,-2447.023,32815.73,31807065.665314663
PART_003_R247G182B210A255,3400,25443440.0,-2801.337,-3602.285,522719.9,-1579.003,-12177.75,25462752.023152884
PART_003_R247G182B210A255,3401,25447060.0,1500.886,-95.43544,466111.0,1538.084,-33303.66,25459226.48776383
PART_000_R31G119B180A255,3402,25447510.0,1364.323,4248.936,435073.0,1102.567,-40760.08,25455957.83306517
PART_000_R31G119B180A255,3403,25446570.0,-631.6653,989.3266,417088.6,326.8062,-33694.99,25456710.71824667
PART_000_R31G119B180A255,3404,25447510.0,1303.632,4177.916,407166.3,272.1621,-18848.41,25454561.6021567
PART_000_R31G119B180A255,3405,25446470.0,-888.5754,1076.485,404140.5,6.005909e-06,-0.001126775,25456002.148040567
PART_000_R31G119B180A255,3406,25447510.0,1303.632,4177.916,407166.3,-272.1621,18848.41,25454561.6021567
PART_000_R31G119B180A255,3407,25446570.0,-631.6653,989.3265,417088.6,-326.8062,33694.99,25456710.718296643
PART_000_R31G119B180A255,3408,25447510.0,1364.323,4248.937,435073.0,-1102.567,40760.07,25455957.83251744
PART_000_R31G119B180A255,3409,25447060.0,1500.886,-95.43547,466111.0,-1538.084,33303.66,25459226.487778824
PART_002_R214G39B40A255,3410,25443440.0,-2801.337,-3602.285,522719.9,1579.003,12177.75,25462752.023152884
PART_003_R247G182B210A255,3411,19084920.0,-1451.658,3885.374,764289.2,173.8697,-6640.135,19129565.946029563
PART_003_R247G182B210A255,3412,19083840.0,-1004.986,-2308.334,701045.1,-1668.761,-16732.06,19124105.86065125
PART_003_R247G182B210A255,3413,19085310.0,1877.257,1406.27,657586.2,672.3131,-21368.92,19117662.608349968
PART_000_R31G119B180A255,3414,19085060.0,41.25548,663.817,630727.8,186.5659,-19048.26,19115977.624858998
PART_000_R31G119B180A255,3415,19085270.0,687.6944,2377.705,615903.5,148.5768,-10891.36,19113539.671769153
PART_000_R31G119B180A255,3416,19085130.0,80.16705,946.8676,611114.6,-1.708902e-05,-0.0007899181,19113947.002572943
PART_000_R31G119B180A255,3417,19085270.0,687.6944,2377.705,615903.5,-148.5768,10891.36,19113539.671769153
PART_000_R31G119B180A255,3418,19085060.0,41.25547,663.817,630727.8,-186.5659,19048.26,19115977.62486399
PART_000_R31G119B180A255,3419,19085310.0,1877.257,1406.27,657586.2,-672.3131,21368.92,19117662.608349968
PART_002_R214G39B40A255,3420,19083840.0,-1004.986,-2308.334,701045.1,1668.761,16732.06,19124105.86065125
PART_002_R214G39B40A255,3421,19084920.0,-1451.658,3885.374,764289.2,-173.8697,6640.135,19129565.946029563
PART_003_R247G182B210A255,3422,12722130.0,-1124.722,-850.3334,932858.7,-666.3864,-3077.436,12825304.108935598
PART_003_R247G182B210A255,3423,12723270.0,-336.8188,176.3739,865915.6,61.20412,-8476.1,12811451.366010997
PART_003_R247G182B210A255,3424,12723150.0,291.3702,683.3392,817638.9,-1261.502,-10884.47,12801254.048058918
PART_003_R247G182B210A255,3425,12723290.0,602.3516,-443.7234,785329.1,206.5667,-9817.075,12795726.068391709
PART_000_R31G119B180A255,3426,12723650.0,576.8463,1825.46,767108.4,-187.5443,-5811.663,12791644.661803374
PART_000_R31G119B180A255,3427,12723260.0,145.9848,-18.61827,761209.4,1.678313e-05,-0.0004980231,12791326.897020683
PART_000_R31G119B180A255,3428,12723650.0,576.8462,1825.46,767108.4,187.5443,5811.662,12791644.661851747
PART_000_R31G119B180A255,3429,12723290.0,602.3517,-443.7235,785329.1,-206.5667,9817.074,12795726.06838942
PART_002_R214G39B40A255,3430,12723150.0,291.3702,683.3393,817638.9,1261.502,10884.47,12801254.048009228
PART_002_R214G39B40A255,3431,12723270.0,-336.8188,176.3739,865915.6,-61.20413,8476.1,12811451.366010997
PART_002_R214G39B40A255,3432,12722130.0,-1124.722,-850.3334,932858.7,666.3864,3077.436,12825304.108935598
PART_003_R247G182B210A255,3433,6361570.0,-468.7598,1073.258,1032850.0,-82.76345,-1353.47,6608030.876569586
PART_003_R247G182B210A255,3434,6361244.0,-403.0561,-811.2044,964488.9,-1279.197,-3487.399,6577530.527330288
PART_003_R247G182B210A255,3435,6361726.0,424.3289,547.1895,913562.7,-78.25848,-4585.01,6555091.98397028
PART_003_R247G182B210A255,3436,6361565.0,-23.70876,-108.6957,878927.6,-993.1555,-4168.149,6541249.713640389
PART_003_R247G182B210A255,3437,6361759.0,547.3559,501.7259,858793.2,23.10067,-2459.794,6532832.408661809
PART_000_R31G119B180A255,3438,6361670.0,17.1484,205.4368,852273.6,-1.088861e-05,-0.0002409029,6530584.972424525
PART_000_R31G119B180A255,3439,6361759.0,547.3559,501.7259,858793.2,-23.10064,2459.793,6532832.408660679
PART_002_R214G39B40A255,3440,6361565.0,-23.70877,-108.6957,878927.6,993.1554,4168.148,6541249.713643296
PART_002_R214G39B40A255,3441,6361726.0,424.3289,547.1895,913562.7,78.25847,4585.01,6555091.98397028
PART_002_R214G39B40A255,3442,6361244.0,-403.0561,-811.2044,964488.9,1279.197,3487.398,6577530.527328697
PART_002_R214G39B40A255,3443,6361570.0,-468.7598,1073.258,1032850.0,82.76345,1353.47,6608030.876569586
PART_003_R247G182B210A255,3444,0.006958716,-6.401041e-06,-6.154599e-06,1065853.0,-516.0403,-1.315933e-06,1846111.7657714481
PART_003_R247G182B210A255,3445,0.006958995,4.334144e-06,-1.401098e-05,997030.1,-209.309,-3.761673e-06,1726906.82792929
PART_003_R247G182B210A255,3446,0.006964639,6.417772e-06,6.897103e-06,945532.2,-1368.263,-5.562688e-06,1637711.525312511
PART_003_R247G182B210A255,3447,0.006958517,-2.420766e-06,-1.490686e-07,910024.3,-73.43536,-4.664343e-06,1576208.3288543194
PART_003_R247G182B210A255,3448,0.006960767,7.133996e-06,4.475795e-06,889427.3,-567.6729,-2.865618e-06,1540533.5870124463
PART_003_R247G182B210A255,3449,0.006955859,-4.337103e-06,7.496973e-07,882636.8,1.187573e-05,-4.06743e-07,1528771.7822300098
PART_002_R214G39B40A255,3450,0.006956778,1.884025e-06,2.858871e-06,889427.3,567.6729,2.980241e-06,1540533.5870124463
PART_002_R214G39B40A255,3451,0.006953436,-3.575397e-06,-7.751951e-07,910024.3,73.43538,4.324906e-06,1576208.3288543222
PART_002_R214G39B40A255,3452,0.00695616,3.128423e-06,5.776605e-06,945532.2,1368.263,4.838029e-06,1637711.525312511
PART_002_R214G39B40A255,3453,0.006949046,4.09216e-06,-1.399511e-05,997030.1,209.309,3.995677e-06,1726906.82792929
PART_002_R214G39B40A255,3454,0.006946145,-5.094187e-06,-5.814254e-06,1065853.0,516.0403,1.144921e-06,1846111.7657714481
PART_003_R247G182B210A255,3455,-6361570.0,468.7598,-1073.258,1032850.0,-82.76346,1353.47,6608030.876569586
PART_003_R247G182B210A255,3456,-6361244.0,403.0561,811.2045,964488.9,-1279.197,3487.399,6577530.527378653
PART_003_R247G182B210A255,3457,-6361726.0,-424.3289,-547.1895,913562.7,-78.25848,4585.01,6555091.98397028
PART_003_R247G182B210A255,3458,-6361565.0,23.70876,108.6957,878927.6,-993.1555,4168.149,6541249.713640389
PART_003_R247G182B210A255,3459,-6361759.0,-547.3559,-501.7259,858793.2,23.10067,2459.794,6532832.408661809
PART_001_R158G218B229A255,3460,-6361670.0,-17.1484,-205.4368,852273.6,-1.02886e-05,0.0002408199,6530584.972424525
PART_001_R158G218B229A255,3461,-6361759.0,-547.3559,-501.7259,858793.2,-23.10064,-2459.793,6532832.408660679
PART_002_R214G39B40A255,3462,-6361565.0,23.70877,108.6957,878927.6,993.1555,-4168.148,6541249.71364334
PART_002_R214G39B40A255,3463,-6361726.0,-424.3289,-547.1895,913562.7,78.25847,-4585.01,6555091.98397028
PART_002_R214G39B40A255,3464,-6361244.0,403.0561,811.2044,964488.9,1279.197,-3487.398,6577530.527328697
PART_002_R214G39B40A255,3465,-6361570.0,468.7598,-1073.258,1032850.0,82.76346,-1353.47,6608030.876569586
PART_003_R247G182B210A255,3466,-12722130.0,1124.722,850.3334,932858.7,-666.3864,3077.436,12825304.108935598
PART_003_R247G182B210A255,3467,-12723270.0,336.8188,-176.3739,865915.6,61.20413,8476.1,12811451.366010997
PART_003_R247G182B210A255,3468,-12723150.0,-291.3702,-683.3392,817638.9,-1261.502,10884.47,12801254.048058918
PART_003_R247G182B210A255,3469,-12723290.0,-602.3517,443.7234,785329.1,206.5667,9817.075,12795726.068341998
PART_001_R158G218B229A255,3470,-12723650.0,-576.8463,-1825.46,767108.4,-187.5443,5811.663,12791644.661803374
PART_001_R158G218B229A255,3471,-12723260.0,-145.9849,18.61828,761209.4,1.688792e-05,0.0004978888,12791326.896975923
PART_001_R158G218B229A255,3472,-12723650.0,-576.8462,-1825.46,767108.4,187.5443,-5811.662,12791644.661851747
PART_001_R158G218B229A255,3473,-12723290.0,-602.3517,443.7235,785329.1,-206.5667,-9817.074,12795726.06838942
PART_002_R214G39B40A255,3474,-12723150.0,-291.3702,-683.3393,817638.9,1261.502,-10884.47,12801254.048009228
PART_002_R214G39B40A255,3475,-12723270.0,336.8188,-176.3739,865915.6,-61.20413,-8476.1,12811451.366010997
PART_002_R214G39B40A255,3476,-12722130.0,1124.722,850.3334,932858.7,666.3864,-3077.436,12825304.108935598
PART_003_R247G182B210A255,3477,-19084920.0,1451.658,-3885.374,764289.2,173.8697,6640.135,19129565.946029563
PART_003_R247G182B210A255,3478,-19083840.0,1004.986,2308.334,701045.1,-1668.761,16732.06,19124105.86065125
PART_003_R247G182B210A255,3479,-19085310.0,-1877.257,-1406.27,657586.2,672.3131,21368.92,19117662.608349968
PART_001_R158G218B229A255,3480,-19085060.0,-41.25549,-663.817,630727.8,186.5659,19048.26,19115977.624854006
PART_001_R158G218B229A255,3481,-19085270.0,-687.6944,-2377.705,615903.5,148.5768,10891.36,19113539.671769153
PART_001_R158G218B229A255,3482,-19085130.0,-80.16705,-946.8676,611114.6,-1.624306e-05,0.0007897836,19113947.002572943
PART_001_R158G218B229A255,3483,-19085270.0,-687.6944,-2377.705,615903.5,-148.5768,-10891.36,19113539.671769153
PART_001_R158G218B229A255,3484,-19085060.0,-41.25547,-663.817,630727.8,-186.5659,-19048.26,19115977.62486399
PART_001_R158G218B229A255,3485,-19085310.0,-1877.257,-1406.27,657586.2,-672.3131,-21368.92,19117662.608349968
PART_002_R214G39B40A255,3486,-19083840.0,1004.986,2308.334,701045.1,1668.761,-16732.06,19124105.86065125
PART_002_R214G39B40A255,3487,-19084920.0,1451.658,-3885.374,764289.2,-173.8697,-6640.135,19129565.946029563
PART_003_R247G182B210A255,3488,-25443440.0,2801.337,3602.285,522719.9,-1579.003,12177.75,25462752.023152884
PART_003_R247G182B210A255,3489,-25447060.0,-1500.886,95.43542,466111.0,1538.084,33303.66,25459226.487753835
PART_001_R158G218B229A255,3490,-25447510.0,-1364.323,-4248.936,435073.0,1102.567,40760.08,25455957.83306517
PART_001_R158G218B229A255,3491,-25446570.0,631.6653,-989.3266,417088.6,326.8062,33694.99,25456710.71824667
PART_001_R158G218B229A255,3492,-25447510.0,-1303.632,-4177.916,407166.3,272.1621,18848.41,25454561.6021567
PART_001_R158G218B229A255,3493,-25446470.0,888.5754,-1076.485,404140.5,6.098905e-06,0.001126448,25456002.148040567
PART_001_R158G218B229A255,3494,-25447510.0,-1303.632,-4177.916,407166.3,-272.1621,-18848.41,25454561.6021567
PART_001_R158G218B229A255,3495,-25446570.0,631.6653,-989.3265,417088.6,-326.8062,-33694.99,25456710.718296643
PART_001_R158G218B229A255,3496,-25447510.0,-1364.323,-4248.937,435073.0,-1102.567,-40760.07,25455957.83251744
PART_001_R158G218B229A255,3497,-25447060.0,-1500.886,95.43546,466111.0,-1538.084,-33303.66,25459226.48777383
PART_002_R214G39B40A255,3498,-25443440.0,2801.337,3602.285,522719.9,1579.003,-12177.75,25462752.023152884
PART_003_R247G182B210A255,3499,-31810170.0,1628.813,-11422.53,192050.6,2447.023,32815.73,31807065.665314663
PART_001_R158G218B229A255,3500,-31810500.0,-2225.514,-4728.497,164977.0,1478.034,70914.64,31808543.850908738
PART_001_R158G218B229A255,3501,-31808790.0,920.5748,-5986.122,154692.2,303.1954,72240.7,31807632.417251397
PART_001_R158G218B229A255,3502,-31809000.0,-645.3653,-2278.165,147841.4,344.9591,56299.09,31808718.47338757
PART_001_R158G218B229A255,3503,-31808690.0,366.632,-4971.985,144602.8,52.8734,30402.71,31807417.35570717
PART_001_R158G218B229A255,3504,-31808690.0,-303.0343,-1827.336,143380.8,-1.881216e-06,0.001522574,31808594.314529352
PART_001_R158G218B229A255,3505,-31808690.0,366.632,-4971.985,144602.8,-52.8734,-30402.71,31807417.35570717
PART_001_R158G218B229A255,3506,-31809000.0,-645.3654,-2278.165,147841.4,-344.9591,-56299.09,31808718.473337565
PART_001_R158G218B229A255,3507,-31808790.0,920.575,-5986.122,154692.2,-303.1954,-72240.7,31807632.41735143
PART_001_R158G218B229A255,3508,-31810500.0,-2225.514,-4728.497,164977.0,-1478.034,-70914.63,31808543.850841857
PART_001_R158G218B229A255,3509,-31810170.0,1628.813,-11422.53,192050.6,-2447.023,-32815.73,31807065.665314663
PART_003_R247G182B210A255,3510,31491950.0,-2706.81,8267.763,191964.4,2377.381,-32805.63,31490977.82202329
PART_000_R31G119B180A255,3511,31492700.0,3378.033,7665.759,165016.0,1488.466,-70950.47,31488715.409435228
PART_000_R31G119B180A255,3512,31490280.0,-1933.382,3053.46,154654.7,282.668,-72208.08,31491107.925293744
PART_000_R31G119B180A255,3513,31491450.0,1852.227,5164.957,147861.2,350.8769,-56333.88,31489134.189988833
PART_000_R31G119B180A255,3514,31490050.0,-1416.592,2090.553,144576.9,47.25034,-30387.31,31490752.81551845
PART_000_R31G119B180A255,3515,31491210.0,1529.131,4702.606,143395.7,-2.976295e-06,-0.001522908,31489073.764843386
PART_000_R31G119B180A255,3516,31490050.0,-1416.592,2090.553,144576.9,-47.25033,30387.31,31490752.81551845
PART_000_R31G119B180A255,3517,31491450.0,1852.227,5164.957,147861.2,-350.877,56333.87,31489134.189935166
PART_000_R31G119B180A255,3518,31490280.0,-1933.382,3053.46,154654.7,-282.668,72208.08,31491107.925293744
PART_000_R31G119B180A255,3519,31492700.0,3378.033,7665.759,165016.0,-1488.466,70950.47,31488715.409435228
PART_000_R31G119B180A255,3520,31491950.0,-2706.81,8267.763,191964.4,-2377.381,32805.63,31490977.82202329
PART_003_R247G182B210A255,3521,25188890.0,-3590.232,-6126.38,522812.9,-1551.583,-12159.98,25210025.968509085
PART_003_R247G182B210A255,3522,25192800.0,2356.928,2402.009,466111.4,1521.07,-33344.2,25203420.571719103
PART_000_R31G119B180A255,3523,25192650.0,362.2361,1699.338,435101.0,1088.747,-40727.13,25202987.8824956
PART_000_R31G119B180A255,3524,25192520.0,292.4345,3425.51,417105.8,322.7452,-33728.11,25201086.389102574
PART_000_R31G119B180A255,3525,25192540.0,275.5202,1658.82,407191.5,267.8305,-18834.03,25201464.683814887
PART_000_R31G119B180A255,3526,25192490.0,52.85278,3499.8,404162.6,5.518108e-06,-0.001126745,25200438.617583662
PART_000_R31G119B180A255,3527,25192540.0,275.5202,1658.82,407191.5,-267.8305,18834.03,25201464.683814887
PART_000_R31G119B180A255,3528,25192520.0,292.4345,3425.51,417105.8,-322.7452,33728.11,25201086.389102574
PART_000_R31G119B180A255,3529,25192650.0,362.236,1699.338,435101.0,-1088.747,40727.13,25202987.88254558
PART_000_R31G119B180A255,3530,25192800.0,2356.928,2402.009,466111.4,-1521.07,33344.2,25203420.571719103
PART_002_R214G39B40A255,3531,25188890.0,-3590.232,-6126.38,522812.9,1551.583,12159.98,25210025.968509085
PART_003_R247G182B210A255,3532,18894010.0,-2172.929,1854.323,764198.7,164.9823,-6636.159,18940479.85060616
PART_003_R247G182B210A255,3533,18893220.0,-283.8875,-343.6736,700995.4,-1657.706,-16757.04,18932528.965013217
PART_003_R247G182B210A255,3534,18894210.0,1164.269,-491.1094,657560.5,664.7573,-21346.54,18928205.95453372
PART_000_R31G119B180A255,3535,18894570.0,786.1989,2552.074,630684.4,180.9865,-19073.13,18924483.751664322
PART_000_R31G119B180A255,3536,18894080.0,-40.30105,494.5629,615877.5,146.4151,-10880.89,18923951.674622446
PART_000_R31G119B180A255,3537,18894690.0,835.6188,2822.344,611072.4,-1.727265e-05,-0.0007901564,18922484.743356735
PART_000_R31G119B180A255,3538,18894080.0,-40.30105,494.5629,615877.5,-146.415,10880.88,18923951.674605194
PART_000_R31G119B180A255,3539,18894570.0,786.1989,2552.074,630684.4,-180.9865,19073.13,18924483.751664322
PART_000_R31G119B180A255,3540,18894210.0,1164.269,-491.1095,657560.5,-664.7573,21346.54,18928205.954583634
PART_002_R214G39B40A255,3541,18893220.0,-283.8875,-343.6735,700995.4,1657.706,16757.04,18932528.96496332
PART_002_R214G39B40A255,3542,18894010.0,-2172.929,1854.323,764198.7,-164.9823,6636.158,18940479.850605108
PART_003_R247G182B210A255,3543,12594840.0,-1519.706,-2157.566,932971.1,-656.7568,-3068.661,12699907.390534112
PART_003_R247G182B210A255,3544,12596130.0,139.5229,1464.254,865964.4,60.16743,-8495.551,12684328.5637833
PART_003_R247G182B210A255,3545,12595720.0,-201.7665,-611.4093,817693.4,-1253.013,-10869.72,12675513.078216232
PART_003_R247G182B210A255,3546,12596270.0,1087.834,822.0765,785378.4,201.2751,-9833.059,12668571.703697246
PART_000_R31G119B180A255,3547,12596150.0,70.32062,536.4869,767172.0,-187.358,-5805.076,12665745.594862435
PART_000_R31G119B180A255,3548,12596270.0,643.1395,1235.904,761262.8,1.586733e-05,-0.0004986404,12664158.608918803
PART_000_R31G119B180A255,3549,12596150.0,70.32061,536.4869,767172.0,187.3579,5805.075,12665745.59486603
PART_000_R31G119B180A255,3550,12596270.0,1087.834,822.0764,785378.4,-201.2751,9833.058,12668571.70374463
PART_002_R214G39B40A255,3551,12595720.0,-201.7665,-611.4093,817693.4,1253.013,10869.72,12675513.078216232
PART_002_R214G39B40A255,3552,12596130.0,139.5229,1464.254,865964.4,-60.16743,8495.55,12684328.56378129
PART_002_R214G39B40A255,3553,12594840.0,-1519.706,-2157.566,932971.1,656.7568,3068.661,12699907.390534112
PART_003_R247G182B210A255,3554,6297933.0,-718.5639,386.6286,1032736.0,-85.9287,-1352.128,6547189.318050262
PART_003_R247G182B210A255,3555,6297708.0,-165.9806,-146.6446,964402.0,-1273.573,-3496.384,6515623.538317793
PART_003_R247G182B210A255,3556,6298026.0,178.3696,-97.68822,913511.7,-80.34784,-4577.19,6493704.4259431185
PART_003_R247G182B210A255,3557,6298075.0,222.792,533.7432,878859.3,-986.804,-4176.889,6479060.153597946
PART_003_R247G182B210A255,3558,6298032.0,290.1013,-135.1478,858739.0,21.28275,-2456.207,6471209.116010167
PART_000_R31G119B180A255,3559,6298194.0,266.8918,841.5846,852207.0,-9.400132e-06,-0.0002409979,6468310.222125653
PART_000_R31G119B180A255,3560,6298032.0,290.1013,-135.1478,858739.0,-21.28272,2456.206,6471209.116009028
PART_002_R214G39B40A255,3561,6298075.0,222.792,533.7432,878859.3,986.804,4176.889,6479060.153597946
PART_002_R214G39B40A255,3562,6298026.0,178.3696,-97.68823,913511.7,80.34783,4577.19,6493704.425947968
PART_002_R214G39B40A255,3563,6297708.0,-165.9806,-146.6445,964402.0,1273.573,3496.383,6515623.538267854
PART_002_R214G39B40A255,3564,6297933.0,-718.5639,386.6286,1032736.0,85.92871,1352.128,6547189.3180502625
PART_003_R247G182B210A255,3565,0.006888885,-6.10715e-06,-9.027184e-06,1065976.0,-509.7091,-7.890781e-07,1846324.8027197437
PART_003_R247G182B210A255,3566,0.006889898,5.77362e-06,-1.157103e-05,997095.8,-208.0726,-3.82052e-06,1727020.6232166253
PART_003_R247G182B210A255,3567,0.006893903,4.46014e-06,3.626124e-06,945600.6,-1358.791,-5.350841e-06,1637829.9738068127
PART_003_R247G182B210A255,3568,0.00688973,-2.212206e-06,2.298735e-06,910087.2,-76.83878,-5.051771e-06,1576317.275336445
PART_003_R247G182B210A255,3569,0.006889128,8.208844e-08,-8.242542e-08,889507.2,-563.7377,-2.803556e-06,1540671.9735089957
PART_003_R247G182B210A255,3570,0.00688703,-5.029594e-06,3.085093e-06,882704.6,1.272732e-05,1.746002e-07,1528889.2152747626
PART_002_R214G39B40A255,3571,0.006885807,-2.315222e-06,-1.449465e-06,889507.2,563.7377,2.706538e-06,1540671.9735089957
PART_002_R214G39B40A255,3572,0.00688459,-1.882535e-06,2.182064e-06,910087.2,76.83879,4.229325e-06,1576317.2753364467
PART_002_R214G39B40A255,3573,0.006885495,1.550616e-06,2.848984e-06,945600.6,1358.791,5.395466e-06,1637829.9738068127
PART_002_R214G39B40A255,3574,0.006880165,4.577518e-06,-1.098239e-05,997095.8,208.0726,3.386884e-06,1727020.6232166253
PART_002_R214G39B40A255,3575,0.006877104,-5.648393e-06,-9.838621e-06,1065976.0,509.709,7.847983e-07,1846324.8027196606
PART_003_R247G182B210A255,3576,-6297933.0,718.5639,-386.6287,1032736.0,-85.92871,1352.128,6547189.318002177
PART_003_R247G182B210A255,3577,-6297708.0,165.9806,146.6446,964402.0,-1273.573,3496.384,6515623.538317793
PART_003_R247G182B210A255,3578,-6298026.0,-178.3696,97.68821,913511.7,-80.34783,4577.19,6493704.425938268
PART_003_R247G182B210A255,3579,-6298075.0,-222.792,-533.7432,878859.3,-986.804,4176.889,6479060.153597946
PART_003_R247G182B210A255,3580,-6298032.0,-290.1013,135.1478,858739.0,21.28275,2456.207,6471209.116010167
PART_001_R158G218B229A255,3581,-6298194.0,-266.8918,-841.5846,852207.0,-9.694782e-06,0.0002406366,6468310.222125653
PART_001_R158G218B229A255,3582,-6298032.0,-290.1013,135.1478,858739.0,-21.28272,-2456.206,6471209.116009028
PART_002_R214G39B40A255,3583,-6298075.0,-222.792,-533.7432,878859.3,986.804,-4176.889,6479060.153597946
PART_002_R214G39B40A255,3584,-6298026.0,-178.3696,97.68823,913511.7,80.34782,-4577.19,6493704.425947967
PART_002_R214G39B40A255,3585,-6297708.0,165.9806,146.6446,964402.0,1273.573,-3496.383,6515623.538316183
PART_002_R214G39B40A255,3586,-6297933.0,718.5639,-386.6287,1032736.0,85.92872,-1352.128,6547189.318002177
PART_003_R247G182B210A255,3587,-12594840.0,1519.706,2157.566,932971.1,-656.7568,3068.661,12699907.390534112
PART_003_R247G182B210A255,3588,-12596130.0,-139.5229,-1464.254,865964.4,60.16743,8495.551,12684328.5637833
PART_003_R247G182B210A255,3589,-12595720.0,201.7665,611.4093,817693.4,-1253.013,10869.72,12675513.078216232
PART_003_R247G182B210A255,3590,-12596270.0,-1087.834,-822.0765,785378.4,201.2751,9833.059,12668571.703697246
PART_001_R158G218B229A255,3591,-12596150.0,-70.32062,-536.4869,767172.0,-187.358,5805.076,12665745.594862435
PART_001_R158G218B229A255,3592,-12596270.0,-643.1395,-1235.904,761262.8,1.690598e-05,0.0004983822,12664158.608918803
PART_001_R158G218B229A255,3593,-12596150.0,-70.32061,-536.4869,767172.0,187.3579,-5805.075,12665745.59486603
PART_001_R158G218B229A255,3594,-12596270.0,-1087.834,-822.0764,785378.4,-201.2751,-9833.058,12668571.70374463
PART_002_R214G39B40A255,3595,-12595720.0,201.7665,611.4093,817693.4,1253.013,-10869.72,12675513.078216232
PART_002_R214G39B40A255,3596,-12596130.0,-139.5229,-1464.254,865964.4,-60.16744,-8495.55,12684328.56378129
PART_002_R214G39B40A255,3597,-12594840.0,1519.706,2157.566,932971.1,656.7568,-3068.661,12699907.390534112
PART_003_R247G182B210A255,3598,-18894010.0,2172.929,-1854.323,764198.7,164.9823,6636.159,18940479.85060616
PART_003_R247G182B210A255,3599,-18893220.0,283.8875,343.6736,700995.4,-1657.706,16757.04,18932528.965013217
PART_003_R247G182B210A255,3600,-18894210.0,-1164.269,491.1094,657560.5,664.7573,21346.54,18928205.95453372
PART_001_R158G218B229A255,3601,-18894570.0,-786.1989,-2552.074,630684.4,180.9865,19073.13,18924483.751664322
PART_001_R158G218B229A255,3602,-18894080.0,40.30105,-494.5629,615877.5,146.4151,10880.89,18923951.674622446
PART_001_R158G218B229A255,3603,-18894690.0,-835.6188,-2822.344,611072.4,-1.681351e-05,0.0007898864,18922484.743356735
PART_001_R158G218B229A255,3604,-18894080.0,40.30105,-494.5629,615877.5,-146.415,-10880.88,18923951.674605194
PART_001_R158G218B229A255,3605,-18894570.0,-786.1989,-2552.074,630684.4,-180.9865,-19073.13,18924483.751664322
PART_001_R158G218B229A255,3606,-18894210.0,-1164.269,491.1095,657560.5,-664.7573,-21346.54,18928205.954583634
PART_002_R214G39B40A255,3607,-18893220.0,283.8875,343.6735,700995.4,1657.706,-16757.04,18932528.96496332
PART_002_R214G39B40A255,3608,-18894010.0,2172.929,-1854.323,764198.7,-164.9823,-6636.158,18940479.850605108
PART_003_R247G182B210A255,3609,-25188890.0,3590.232,6126.38,522812.9,-1551.583,12159.98,25210025.968509085
PART_003_R247G182B210A255,3610,-25192800.0,-2356.928,-2402.009,466111.4,1521.07,33344.2,25203420.571719103
PART_001_R158G218B229A255,3611,-25192650.0,-362.2361,-1699.338,435101.0,1088.747,40727.13,25202987.8824956
PART_001_R158G218B229A255,3612,-25192520.0,-292.4345,-3425.51,417105.8,322.7452,33728.11,25201086.389102574
PART_001_R158G218B229A255,3613,-25192540.0,-275.5202,-1658.82,407191.5,267.8305,18834.03,25201464.683814887
PART_001_R158G218B229A255,3614,-25192490.0,-52.85277,-3499.8,404162.6,6.176208e-06,0.001127125,25200438.61758866
PART_001_R158G218B229A255,3615,-25192540.0,-275.5202,-1658.82,407191.5,-267.8305,-18834.03,25201464.683814887
PART_001_R158G218B229A255,3616,-25192520.0,-292.4345,-3425.51,417105.8,-322.7452,-33728.11,25201086.389102574
PART_001_R158G218B229A255,3617,-25192650.0,-362.236,-1699.338,435101.0,-1088.747,-40727.13,25202987.88254558
PART_001_R158G218B229A255,3618,-25192800.0,-2356.928,-2402.009,466111.4,-1521.07,-33344.2,25203420.571719103
PART_002_R214G39B40A255,3619,-25188890.0,3590.232,6126.38,522812.9,1551.583,-12159.98,25210025.968509085
PART_003_R247G182B210A255,3620,-31491950.0,2706.81,-8267.763,191964.4,2377.381,32805.63,31490977.82202329
PART_001_R158G218B229A255,3621,-31492700.0,-3378.033,-7665.759,165016.0,1488.466,70950.47,31488715.409435228
PART_001_R158G218B229A255,3622,-31490280.0,1933.382,-3053.46,154654.7,282.668,72208.08,31491107.925293744
PART_001_R158G218B229A255,3623,-31491450.0,-1852.227,-5164.957,147861.2,350.8769,56333.88,31489134.189988833
PART_001_R158G218B229A255,3624,-31490050.0,1416.592,-2090.553,144576.9,47.25034,30387.31,31490752.81551845
PART_001_R158G218B229A255,3625,-31491210.0,-1529.131,-4702.606,143395.7,-2.431609e-06,0.001523614,31489073.764843386
PART_001_R158G218B229A255,3626,-31490050.0,1416.592,-2090.553,144576.9,-47.25033,-30387.31,31490752.81551845
PART_001_R158G218B229A255,3627,-31491450.0,-1852.227,-5164.957,147861.2,-350.877,-56333.87,31489134.189935166
PART_001_R158G218B229A255,3628,-31490280.0,1933.382,-3053.46,154654.7,-282.668,-72208.08,31491107.925293744
PART_001_R158G218B229A255,3629,-31492700.0,-3378.033,-7665.759,165016.0,-1488.466,-70950.47,31488715.409435228
PART_001_R158G218B229A255,3630,-31491950.0,2706.81,-8267.763,191964.4,-2377.381,-32805.63,31490977.82202329
PART_003_R247G182B210A255,3631,31173930.0,-1795.949,10659.67,192031.4,2389.336,-32817.54,31171326.678543214
PART_000_R31G119B180A255,3632,31174330.0,2379.597,5152.904,164981.7,1452.387,-70927.51,31172115.83414543
PART_000_R31G119B180A255,3633,31172550.0,-1087.226,5362.918,154683.4,292.8533,-72242.78,31171815.205908068
PART_000_R31G119B180A255,3634,31172930.0,837.3173,2738.341,147844.1,338.8116,-56311.14,31172346.619356718
PART_000_R31G119B180A255,3635,31172440.0,-550.2344,4378.17,144597.3,50.30872,-30403.28,31171576.950233594
PART_000_R31G119B180A255,3636,31172640.0,504.2929,2294.492,143383.2,-3.196257e-06,-0.00152259,31172229.943388883
PART_000_R31G119B180A255,3637,31172440.0,-550.2344,4378.17,144597.3,-50.30872,30403.28,31171576.950233594
PART_000_R31G119B180A255,3638,31172930.0,837.3174,2738.341,147844.1,-338.8116,56311.14,31172346.619306717
PART_000_R31G119B180A255,3639,31172550.0,-1087.226,5362.917,154683.4,-292.8533,72242.78,31171815.20640789
PART_000_R31G119B180A255,3640,31174330.0,2379.597,5152.904,164981.7,-1452.387,70927.5,31172115.83407717
PART_000_R31G119B180A255,3641,31173930.0,-1795.949,10659.67,192031.4,-2389.336,32817.54,31171326.678543214
PART_003_R247G182B210A255,3642,24934530.0,-2875.546,-3969.62,522739.9,-1545.991,-12176.82,24954392.457720973
PART_003_R247G182B210A255,3643,24938140.0,1631.334,339.7519,466115.1,1504.768,-33317.73,24950286.582154285
PART_000_R31G119B180A255,3644,24938490.0,1176.185,3733.017,435084.5,1077.079,-40761.31,24947519.91327235
PART_000_R31G119B180A255,3645,24937710.0,-450.6342,1394.085,417100.3,317.5088,-33706.81,24947769.07955406
PART_000_R31G119B180A255,3646,24938480.0,1112.488,3669.232,407181.1,264.9078,-18848.96,24946081.89487339
PART_000_R31G119B180A255,3647,24937630.0,-699.776,1477.784,404155.3,5.064232e-06,-0.001126761,24947064.287576266
PART_000_R31G119B180A255,3648,24938480.0,1112.488,3669.233,407181.1,-264.9079,18848.96,24946081.894373674
PART_000_R31G119B180A255,3649,24937710.0,-450.6342,1394.085,417100.3,-317.5088,33706.8,24947769.079513527
PART_000_R31G119B180A255,3650,24938490.0,1176.185,3733.017,435084.5,-1077.079,40761.3,24947519.913223337
PART_000_R31G119B180A255,3651,24938140.0,1631.334,339.7518,466115.1,-1504.768,33317.73,24950286.582204264
PART_002_R214G39B40A255,3652,24934530.0,-2875.546,-3969.621,522739.9,1545.991,12176.82,24954392.458220676
PART_003_R247G182B210A255,3653,18703200.0,-1559.91,3462.203,764256.1,167.627,-6642.238,18749040.660681583
PART_003_R247G182B210A255,3654,18702200.0,-871.6328,-1930.872,701022.8,-1640.121,-16741.88,18742994.651075844
PART_003_R247G182B210A255,3655,18703570.0,1711.781,1052.367,657571.7,654.3967,-21371.07,18736872.9146586
PART_000_R31G119B180A255,3656,18703430.0,158.9359,973.2488,630713.0,178.3925,-19057.62,18734769.95280767
PART_000_R31G119B180A255,3657,18703520.0,540.5401,2008.721,615893.9,143.3413,-10892.16,18732653.71865504
PART_000_R31G119B180A255,3658,18703520.0,198.4003,1248.925,611102.6,-1.630275e-05,-0.0007901213,18732723.529355638
PART_000_R31G119B180A255,3659,18703520.0,540.5401,2008.721,615893.9,-143.3412,10892.15,18732653.718637593
PART_000_R31G119B180A255,3660,18703430.0,158.9359,973.2489,630713.0,-178.3925,19057.62,18734769.952757757
PART_000_R31G119B180A255,3661,18703570.0,1711.781,1052.367,657571.7,-654.3967,21371.06,18736872.91462438
PART_002_R214G39B40A255,3662,18702200.0,-871.6328,-1930.872,701022.8,1640.121,16741.88,18742994.651075844
PART_002_R214G39B40A255,3663,18703200.0,-1559.91,3462.203,764256.1,-167.627,6642.238,18749040.660681583
PART_003_R247G182B210A255,3664,12467660.0,-1163.464,-1057.698,932884.3,-654.5235,-3077.274,12573030.217716381
PART_003_R247G182B210A255,3665,12468810.0,-240.2272,396.0598,865932.5,55.30726,-8483.552,12558623.064792758
PART_003_R247G182B210A255,3666,12468650.0,209.6466,449.6062,817661.1,-1242.508,-10886.23,12548509.161122017
PART_003_R247G182B210A255,3667,12468860.0,683.2372,-216.7783,785354.6,197.2064,-9823.373,12542618.917381765
PART_000_R31G119B180A255,3668,12469130.0,487.7452,1572.196,767139.6,-186.7191,-5812.403,12538705.283221703
PART_000_R31G119B180A255,3669,12468840.0,237.1605,198.6738,761239.7,1.668465e-05,-0.0004985522,12538141.580338525
PART_000_R31G119B180A255,3670,12469130.0,487.7452,1572.196,767139.6,186.7191,5812.402,12538705.283220312
PART_000_R31G119B180A255,3671,12468860.0,683.2372,-216.7783,785354.6,-197.2064,9823.372,12542618.917379417
PART_002_R214G39B40A255,3672,12468650.0,209.6466,449.6063,817661.1,1242.508,10886.23,12548509.161072336
PART_002_R214G39B40A255,3673,12468810.0,-240.2272,396.0597,865932.5,-55.30727,8483.551,12558623.06484037
PART_002_R214G39B40A255,3674,12467660.0,-1163.464,-1057.698,932884.3,654.5235,3077.274,12573030.217716381
PART_003_R247G182B210A255,3675,6234330.0,-507.6631,934.3133,1032803.0,-83.79151,-1354.265,6485696.871526552
PART_003_R247G182B210A255,3676,6234030.0,-358.7632,-683.1466,964452.0,-1260.266,-3491.026,6454468.994090351
PART_003_R247G182B210A255,3677,6234478.0,370.5644,425.2594,913537.5,-83.28858,-4585.878,6431754.811126538
PART_003_R247G182B210A255,3678,6234359.0,15.05851,2.493623,878903.2,-979.0544,-4171.545,6417522.130908037
PART_003_R247G182B210A255,3679,6234509.0,488.9853,382.048,858774.1,19.47695,-2460.136,6409069.294899392
PART_000_R31G119B180A255,3680,6234466.0,55.46272,309.8087,852253.2,-1.033355e-05,-0.0002413833,6406660.25831811
PART_000_R31G119B180A255,3681,6234509.0,488.9853,382.048,858774.1,-19.47692,2460.135,6409069.29489824
PART_002_R214G39B40A255,3682,6234359.0,15.0585,2.493638,878903.2,979.0544,4171.544,6417522.130903657
PART_002_R214G39B40A255,3683,6234478.0,370.5644,425.2594,913537.5,83.28857,4585.878,6431754.811126538
PART_002_R214G39B40A255,3684,6234030.0,-358.7632,-683.1466,964452.0,1260.266,3491.026,6454468.994090351
PART_002_R214G39B40A255,3685,6234330.0,-507.6631,934.3133,1032803.0,83.79152,1354.265,6485696.871526552
PART_003_R247G182B210A255,3686,0.006819509,-5.709448e-06,-6.888339e-06,1065881.0,-507.9318,-8.670051e-07,1846160.2564423112
PART_003_R247G182B210A255,3687,0.006820283,5.139793e-06,-1.452751e-05,997051.4,-210.6498,-3.912713e-06,1726943.7210997627
PART_003_R247G182B210A255,3688,0.006824183,4.263133e-06,6.14631e-06,945558.9,-1348.033,-5.17604e-06,1637757.7206920863
PART_003_R247G182B210A255,3689,0.006819951,-1.624966e-07,6.466428e-07,910055.0,-78.07813,-4.16972e-06,1576261.5034833474
PART_003_R247G182B210A255,3690,0.006820671,3.441579e-06,3.489125e-06,889464.6,-559.6296,-2.596178e-06,1540598.1836661198
PART_003_R247G182B210A255,3691,0.006816996,-3.372152e-06,1.603542e-06,882673.0,1.246212e-05,1.350572e-07,1528834.4824692437
PART_002_R214G39B40A255,3692,0.006818565,6.000583e-06,3.782338e-06,889464.6,559.6296,2.380542e-06,1540598.1836661198
PART_002_R214G39B40A255,3693,0.006814287,-2.277336e-06,-9.778641e-08,910055.0,78.07814,4.754173e-06,1576261.503483349
PART_002_R214G39B40A255,3694,0.00681623,2.792691e-06,5.595568e-06,945558.9,1348.033,4.955544e-06,1637757.7206920863
PART_002_R214G39B40A255,3695,0.006810546,5.776104e-06,-1.353268e-05,997051.4,210.6498,3.755922e-06,1726943.7210997627
PART_002_R214G39B40A255,3696,0.006807493,-3.294103e-06,-5.583767e-06,1065881.0,507.9318,1.316646e-06,1846160.2564423112
PART_003_R247G182B210A255,3697,-6234330.0,507.6631,-934.3133,1032803.0,-83.79152,1354.265,6485696.871526552
PART_003_R247G182B210A255,3698,-6234030.0,358.7632,683.1466,964452.0,-1260.266,3491.026,6454468.994090351
PART_003_R247G182B210A255,3699,-6234478.0,-370.5644,-425.2594,913537.5,-83.28858,4585.878,6431754.811126538
PART_003_R247G182B210A255,3700,-6234359.0,-15.05851,-2.493622,878903.2,-979.0544,4171.545,6417522.130908522
PART_003_R247G182B210A255,3701,-6234509.0,-488.9853,-382.048,858774.1,19.47695,2460.136,6409069.294899392
PART_001_R158G218B229A255,3702,-6234466.0,-55.46273,-309.8087,852253.2,-1.024208e-05,0.0002413151,6406660.258313244
PART_001_R158G218B229A255,3703,-6234509.0,-488.9853,-382.048,858774.1,-19.47692,-2460.135,6409069.29489824
PART_002_R214G39B40A255,3704,-6234359.0,-15.0585,-2.493639,878903.2,979.0544,-4171.544,6417522.130903171
PART_002_R214G39B40A255,3705,-6234478.0,-370.5644,-425.2594,913537.5,83.28857,-4585.878,6431754.811126538
PART_002_R214G39B40A255,3706,-6234030.0,358.7632,683.1466,964452.0,1260.266,-3491.026,6454468.994090351
PART_002_R214G39B40A255,3707,-6234330.0,507.6631,-934.3133,1032803.0,83.79152,-1354.265,6485696.871526552
PART_003_R247G182B210A255,3708,-12467660.0,1163.464,1057.698,932884.3,-654.5235,3077.274,12573030.217716381
PART_003_R247G182B210A255,3709,-12468810.0,240.2272,-396.0598,865932.5,55.30727,8483.552,12558623.064792758
PART_003_R247G182B210A255,3710,-12468650.0,-209.6466,-449.6062,817661.1,-1242.508,10886.23,12548509.161122017
PART_003_R247G182B210A255,3711,-12468860.0,-683.2372,216.7783,785354.6,197.2064,9823.373,12542618.917381765
PART_001_R158G218B229A255,3712,-12469130.0,-487.7452,-1572.196,767139.6,-186.7191,5812.403,12538705.283221703
PART_001_R158G218B229A255,3713,-12468840.0,-237.1605,-198.6738,761239.7,1.56924e-05,0.0004981569,12538141.580338525
PART_001_R158G218B229A255,3714,-12469130.0,-487.7452,-1572.196,767139.6,186.7191,-5812.402,12538705.283220312
PART_001_R158G218B229A255,3715,-12468860.0,-683.2372,216.7783,785354.6,-197.2064,-9823.372,12542618.917379417
PART_002_R214G39B40A255,3716,-12468650.0,-209.6466,-449.6062,817661.1,1242.508,-10886.23,12548509.161122017
PART_002_R214G39B40A255,3717,-12468810.0,240.2272,-396.0597,865932.5,-55.30727,-8483.551,12558623.06484037
PART_002_R214G39B40A255,3718,-12467660.0,1163.464,1057.698,932884.3,654.5235,-3077.274,12573030.217716381
PART_003_R247G182B210A255,3719,-18703200.0,1559.91,-3462.203,764256.1,167.627,6642.238,18749040.660681583
PART_003_R247G182B210A255,3720,-18702200.0,871.6328,1930.872,701022.8,-1640.121,16741.88,18742994.651075844
PART_003_R247G182B210A255,3721,-18703570.0,-1711.781,-1052.367,657571.7,654.3967,21371.07,18736872.9146586
PART_001_R158G218B229A255,3722,-18703430.0,-158.9359,-973.2488,630713.0,178.3925,19057.62,18734769.95280767
PART_001_R158G218B229A255,3723,-18703520.0,-540.5401,-2008.721,615893.9,143.3413,10892.16,18732653.71865504
PART_001_R158G218B229A255,3724,-18703520.0,-198.4003,-1248.925,611102.6,-1.603906e-05,0.0007903304,18732723.529355638
PART_001_R158G218B229A255,3725,-18703520.0,-540.5401,-2008.721,615893.9,-143.3412,-10892.15,18732653.718637593
PART_001_R158G218B229A255,3726,-18703430.0,-158.9359,-973.2489,630713.0,-178.3925,-19057.62,18734769.952757757
PART_001_R158G218B229A255,3727,-18703570.0,-1711.781,-1052.367,657571.7,-654.3967,-21371.06,18736872.91462438
PART_002_R214G39B40A255,3728,-18702200.0,871.6328,1930.872,701022.8,1640.121,-16741.88,18742994.651075844
PART_002_R214G39B40A255,3729,-18703200.0,1559.91,-3462.203,764256.1,-167.627,-6642.238,18749040.660681583
PART_003_R247G182B210A255,3730,-24934530.0,2875.546,3969.62,522739.9,-1545.991,12176.82,24954392.457720973
PART_003_R247G182B210A255,3731,-24938140.0,-1631.334,-339.7519,466115.1,1504.768,33317.73,24950286.582154285
PART_001_R158G218B229A255,3732,-24938490.0,-1176.185,-3733.017,435084.5,1077.079,40761.31,24947519.91327235
PART_001_R158G218B229A255,3733,-24937710.0,450.6342,-1394.085,417100.3,317.5088,33706.81,24947769.07955406
PART_001_R158G218B229A255,3734,-24938480.0,-1112.488,-3669.232,407181.1,264.9078,18848.96,24946081.89487339
PART_001_R158G218B229A255,3735,-24937630.0,699.776,-1477.784,404155.3,5.794597e-06,0.001126443,24947064.287576266
PART_001_R158G218B229A255,3736,-24938480.0,-1112.488,-3669.233,407181.1,-264.9079,-18848.96,24946081.894373674
PART_001_R158G218B229A255,3737,-24937710.0,450.6342,-1394.085,417100.3,-317.5088,-33706.8,24947769.079513527
PART_001_R158G218B229A255,3738,-24938490.0,-1176.185,-3733.017,435084.5,-1077.079,-40761.3,24947519.913223337
PART_001_R158G218B229A255,3739,-24938140.0,-1631.334,-339.7518,466115.1,-1504.768,-33317.73,24950286.582204264
PART_002_R214G39B40A255,3740,-24934530.0,2875.546,3969.62,522739.9,1545.991,-12176.82,24954392.457720973
PART_003_R247G182B210A255,3741,-31173930.0,1795.949,-10659.67,192031.4,2389.336,32817.54,31171326.678543214
PART_001_R158G218B229A255,3742,-31174330.0,-2379.597,-5152.904,164981.7,1452.387,70927.51,31172115.83414543
PART_001_R158G218B229A255,3743,-31172550.0,1087.226,-5362.918,154683.4,292.8533,72242.78,31171815.205908068
PART_001_R158G218B229A255,3744,-31172930.0,-837.3173,-2738.341,147844.1,338.8116,56311.14,31172346.619356718
PART_001_R158G218B229A255,3745,-31172440.0,550.2344,-4378.17,144597.3,50.30872,30403.28,31171576.950233594
PART_001_R158G218B229A255,3746,-31172640.0,-504.2929,-2294.493,143383.2,-2.737432e-06,0.001522492,31172229.94288894
PART_001_R158G218B229A255,3747,-31172440.0,550.2344,-4378.17,144597.3,-50.30872,-30403.28,31171576.950233594
PART_001_R158G218B229A255,3748,-31172930.0,-837.3174,-2738.341,147844.1,-338.8116,-56311.14,31172346.619306717
PART_001_R158G218B229A255,3749,-31172550.0,1087.226,-5362.917,154683.4,-292.8533,-72242.78,31171815.20640789
PART_001_R158G218B229A255,3750,-31174330.0,-2379.597,-5152.904,164981.7,-1452.387,-70927.5,31172115.83407717
PART_001_R158G218B229A255,3751,-31173930.0,1795.949,-10659.67,192031.4,-2389.336,-32817.54,31171326.678543214
PART_003_R247G182B210A255,3752,30855750.0,-2493.171,8534.309,191977.6,2335.917,-32809.55,30854575.29301649
PART_000_R31G119B180A255,3753,30856430.0,3145.086,7086.017,165010.6,1454.059,-70951.91,30852883.320789088
PART_000_R31G119B180A255,3754,30854170.0,-1746.58,3399.554,154661.5,278.6266,-72219.9,30854760.30869003
PART_000_R31G119B180A255,3755,30855190.0,1644.688,4646.549,147860.0,341.5703,-56334.73,30853261.710403427
PART_000_R31G119B180A255,3756,30853980.0,-1235.69,2450.269,144583.1,46.54946,-30392.73,30854434.070029132
PART_000_R31G119B180A255,3757,30854950.0,1325.954,4196.383,143395.8,-1.77333e-06,-0.001522993,30853188.634895228
PART_000_R31G119B180A255,3758,30853980.0,-1235.69,2450.269,144583.1,-46.54946,30392.73,30854434.070029132
PART_000_R31G119B180A255,3759,30855190.0,1644.688,4646.549,147860.0,-341.5703,56334.73,30853261.710403427
PART_000_R31G119B180A255,3760,30854170.0,-1746.58,3399.554,154661.5,-278.6266,72219.9,30854760.30869003
PART_000_R31G119B180A255,3761,30856430.0,3145.086,7086.017,165010.6,-1454.059,70951.91,30852883.320789088
PART_000_R31G119B180A255,3762,30855750.0,-2493.171,8534.309,191977.6,-2335.917,32809.55,30854575.29301649
PART_003_R247G182B210A255,3763,24680030.0,-3407.293,-5642.647,522792.9,-1522.723,-12165.36,24701166.895663783
PART_003_R247G182B210A255,3764,24683820.0,2182.86,1999.93,466106.8,1488.668,-33344.18,24694996.16834164
PART_000_R31G119B180A255,3765,24683760.0,490.8568,2016.992,435094.0,1064.663,-40738.89,24694108.824927308
PART_000_R31G119B180A255,3766,24683530.0,153.2702,3009.088,417102.2,314.0717,-33728.89,24692588.759788185
PART_000_R31G119B180A255,3767,24683680.0,409.1504,1972.403,407187.9,261.3323,-18839.28,24692584.858802356
PART_000_R31G119B180A255,3768,24683490.0,-83.76189,3083.426,404159.9,5.248573e-06,-0.001127402,24691915.313481595
PART_000_R31G119B180A255,3769,24683680.0,409.1504,1972.403,407187.9,-261.3323,18839.28,24692584.858802356
PART_000_R31G119B180A255,3770,24683530.0,153.2702,3009.088,417102.2,-314.0716,33728.89,24692588.759788185
PART_000_R31G119B180A255,3771,24683760.0,490.8567,2016.992,435094.0,-1064.663,40738.89,24694108.82497729
PART_000_R31G119B180A255,3772,24683820.0,2182.86,1999.929,466106.8,-1488.668,33344.18,24694996.16884138
PART_002_R214G39B40A255,3773,24680030.0,-3407.293,-5642.647,522792.9,1522.723,12165.36,24701166.895663783
PART_003_R247G182B210A255,3774,18512300.0,-2020.54,2098.024,764212.5,161.4577,-6638.643,18559526.506212167
PART_003_R247G182B210A255,3775,18511500.0,-372.998,-609.147,701004.9,-1626.475,-16758.57,18551789.337012336
PART_003_R247G182B210A255,3776,18512540.0,1243.129,-216.7764,657569.0,647.6426,-21355.55,18547067.13003526
PART_000_R31G119B180A255,3777,18512820.0,670.5909,2234.115,630698.4,174.5562,-19074.24,18543601.780244775
PART_000_R31G119B180A255,3778,18512430.0,66.55258,744.9599,615890.9,141.6365,-10885.04,18542744.19446361
PART_000_R31G119B180A255,3779,18512930.0,717.4368,2500.144,611088.9,-1.604494e-05,-0.0007902759,18541556.143960252
PART_000_R31G119B180A255,3780,18512430.0,66.55258,744.9599,615890.9,-141.6365,10885.04,18542744.19446361
PART_000_R31G119B180A255,3781,18512820.0,670.5909,2234.115,630698.4,-174.5562,19074.24,18543601.780244775
PART_000_R31G119B180A255,3782,18512540.0,1243.129,-216.7764,657569.0,-647.6427,21355.55,18547067.13003527
PART_002_R214G39B40A255,3783,18511500.0,-372.998,-609.1469,701004.9,1626.475,16758.57,18551789.33696244
PART_002_R214G39B40A255,3784,18512300.0,-2020.54,2098.024,764212.5,-161.4577,6638.643,18559526.506212167
PART_003_R247G182B210A255,3785,12340400.0,-1435.79,-1930.034,932940.7,-645.4917,-3071.619,12447416.414402956
PART_003_R247G182B210A255,3786,12341650.0,67.23763,1252.328,865946.4,54.96684,-8496.354,12431807.860088656
PART_003_R247G182B210A255,3787,12341290.0,-131.6611,-419.5206,817678.2,-1231.846,-10875.99,12422575.965775976
PART_003_R247G182B210A255,3788,12341770.0,993.6438,626.5803,785367.1,193.6074,-9834.15,12415715.273245437
PART_000_R31G119B180A255,3789,12341720.0,135.8729,702.197,767160.9,-185.6489,-5807.907,12412631.41274647
PART_000_R31G119B180A255,3790,12341770.0,556.6613,1032.872,761253.9,1.590266e-05,-0.0004982754,12411212.365479698
PART_000_R31G119B180A255,3791,12341720.0,135.8729,702.197,767160.9,185.6488,5807.906,12412631.412745062
PART_000_R31G119B180A255,3792,12341770.0,993.6438,626.5803,785367.1,-193.6074,9834.15,12415715.273245437
PART_002_R214G39B40A255,3793,12341290.0,-131.6612,-419.5206,817678.2,1231.846,10875.99,12422575.965825647
PART_002_R214G39B40A255,3794,12341650.0,67.23764,1252.328,865946.4,-54.96684,8496.354,12431807.86008369
PART_002_R214G39B40A255,3795,12340400.0,-1435.79,-1930.034,932940.7,645.4917,3071.619,12447416.414402956
PART_003_R247G182B210A255,3796,6170699.0,-665.9165,474.3301,1032753.0,-85.54133,-1353.04,6424830.826258124
PART_003_R247G182B210A255,3797,6170467.0,-192.9895,-235.7915,964417.5,-1251.291,-3496.993,6392781.362710866
PART_003_R247G182B210A255,3798,6170803.0,211.1001,-5.906031,913525.7,-83.69729,-4580.488,6370337.045697462
PART_003_R247G182B210A255,3799,6170824.0,186.0601,432.7101,878879.8,-970.933,-4177.37,6355516.890565141
PART_003_R247G182B210A255,3800,6170816.0,321.9269,-43.90376,858760.1,18.48642,-2457.709,6347415.178322231
PART_000_R31G119B180A255,3801,6170941.0,228.7002,734.7053,852231.0,-9.768352e-06,-0.0002411429,6344561.542229127
PART_000_R31G119B180A255,3802,6170816.0,321.9269,-43.90377,858760.1,-18.48639,2457.709,6347415.178327093
PART_002_R214G39B40A255,3803,6170824.0,186.0601,432.7102,878879.8,970.933,4177.37,6355516.8905166
PART_002_R214G39B40A255,3804,6170803.0,211.1002,-5.906043,913525.7,83.69728,4580.487,6370337.045652686
PART_002_R214G39B40A255,3805,6170467.0,-192.9895,-235.7915,964417.5,1251.291,3496.993,6392781.362710866
PART_002_R214G39B40A255,3806,6170699.0,-665.9165,474.3301,1032753.0,85.54133,1353.04,6424830.826258124
PART_003_R247G182B210A255,3807,0.006749813,-4.444143e-06,-8.792543e-06,1065941.0,-501.392,-1.875242e-06,1846264.1741161565
PART_003_R247G182B210A255,3808,0.006750192,5.98638e-06,-1.141712e-05,997072.7,-208.5056,-3.375872e-06,1726980.6130005124
PART_003_R247G182B210A255,3809,0.0067533,-8.11864e-07,1.671369e-06,945581.3,-1336.285,-5.631788e-06,1637796.4897086187
PART_003_R247G182B210A255,3810,0.006749648,-5.670454e-06,1.271248e-06,910072.4,-79.39855,-4.537422e-06,1576291.6413651598
PART_003_R247G182B210A255,3811,0.006750268,-3.603945e-07,-9.197594e-07,889492.4,-554.7697,-2.533648e-06,1540646.3293960558
PART_003_R247G182B210A255,3812,0.006747939,-4.843096e-06,3.64764e-06,882692.6,1.172842e-05,-1.972082e-07,1528868.430665072
PART_002_R214G39B40A255,3813,0.006747791,4.297512e-07,-8.322833e-07,889492.4,554.7697,2.701834e-06,1540646.3293960558
PART_002_R214G39B40A255,3814,0.006744274,-6.839188e-06,5.281264e-07,910072.4,79.39857,4.270785e-06,1576291.6413651628
PART_002_R214G39B40A255,3815,0.006746286,-6.760346e-07,2.105711e-06,945581.3,1336.285,5.499339e-06,1637796.4897086187
PART_002_R214G39B40A255,3816,0.006740786,3.742449e-06,-1.212328e-05,997072.7,208.5056,3.329909e-06,1726980.6130005124
PART_002_R214G39B40A255,3817,0.006737552,-8.984245e-06,-9.18575e-06,1065941.0,501.392,8.689666e-07,1846264.1741161565
PART_003_R247G182B210A255,3818,-6170699.0,665.9165,-474.3301,1032753.0,-85.54133,1353.04,6424830.826258124
PART_003_R247G182B210A255,3819,-6170467.0,192.9896,235.7915,964417.5,-1251.291,3496.993,6392781.362759128
PART_003_R247G182B210A255,3820,-6170803.0,-211.1002,5.906027,913525.7,-83.69729,4580.488,6370337.045647094
PART_003_R247G182B210A255,3821,-6170824.0,-186.0601,-432.7101,878879.8,-970.933,4177.37,6355516.890565141
PART_003_R247G182B210A255,3822,-6170816.0,-321.9269,43.90377,858760.1,18.48642,2457.709,6347415.178327093
PART_001_R158G218B229A255,3823,-6170940.0,-228.7002,-734.7053,852231.0,-1.127615e-05,0.0002410727,6344560.56967031
PART_001_R158G218B229A255,3824,-6170816.0,-321.9269,43.90378,858760.1,-18.48639,-2457.709,6347415.178331954
PART_002_R214G39B40A255,3825,-6170824.0,-186.0601,-432.7101,878879.8,970.933,-4177.37,6355516.890565141
PART_002_R214G39B40A255,3826,-6170803.0,-211.1002,5.906038,913525.7,83.69728,-4580.487,6370337.045650264
PART_002_R214G39B40A255,3827,-6170467.0,192.9896,235.7915,964417.5,1251.291,-3496.993,6392781.362759128
PART_002_R214G39B40A255,3828,-6170699.0,665.9165,-474.3301,1032753.0,85.54134,-1353.04,6424830.826258125
PART_003_R247G182B210A255,3829,-12340400.0,1435.79,1930.034,932940.7,-645.4917,3071.619,12447416.414402956
PART_003_R247G182B210A255,3830,-12341650.0,-67.23765,-1252.328,865946.4,54.96684,8496.354,12431807.860078728
PART_003_R247G182B210A255,3831,-12341290.0,131.6611,419.5206,817678.2,-1231.846,10875.99,12422575.965775976
PART_003_R247G182B210A255,3832,-12341770.0,-993.6438,-626.5803,785367.1,193.6074,9834.15,12415715.273245437
PART_001_R158G218B229A255,3833,-12341720.0,-135.8729,-702.197,767160.9,-185.6489,5807.907,12412631.41274647
PART_001_R158G218B229A255,3834,-12341770.0,-556.6613,-1032.872,761253.9,1.579373e-05,0.0004985111,12411212.365479698
PART_001_R158G218B229A255,3835,-12341720.0,-135.8729,-702.197,767160.9,185.6488,-5807.906,12412631.412745062
PART_001_R158G218B229A255,3836,-12341770.0,-993.6438,-626.5803,785367.1,-193.6074,-9834.15,12415715.273245437
PART_002_R214G39B40A255,3837,-12341290.0,131.6612,419.5206,817678.2,1231.846,-10875.99,12422575.965825647
PART_002_R214G39B40A255,3838,-12341650.0,-67.23766,-1252.328,865946.4,-54.96685,-8496.354,12431807.860073764
PART_002_R214G39B40A255,3839,-12340400.0,1435.79,1930.034,932940.7,645.4917,-3071.619,12447416.414402956
PART_003_R247G182B210A255,3840,-18512300.0,2020.54,-2098.024,764212.5,161.4577,6638.643,18559526.506212167
PART_003_R247G182B210A255,3841,-18511500.0,372.9981,609.147,701004.9,-1626.475,16758.57,18551789.33706223
PART_003_R247G182B210A255,3842,-18512540.0,-1243.129,216.7764,657569.0,647.6426,21355.55,18547067.13003526
PART_001_R158G218B229A255,3843,-18512820.0,-670.5909,-2234.115,630698.4,174.5562,19074.24,18543601.780244775
PART_001_R158G218B229A255,3844,-18512430.0,-66.55258,-744.9599,615890.9,141.6365,10885.04,18542744.19446361
PART_001_R158G218B229A255,3845,-18512930.0,-717.4368,-2500.144,611088.9,-1.700008e-05,0.0007899657,18541556.143960252
PART_001_R158G218B229A255,3846,-18512430.0,-66.55258,-744.9599,615890.9,-141.6364,-10885.04,18542744.194463607
PART_001_R158G218B229A255,3847,-18512820.0,-670.5909,-2234.115,630698.4,-174.5562,-19074.24,18543601.780244775
PART_001_R158G218B229A255,3848,-18512540.0,-1243.129,216.7764,657569.0,-647.6427,-21355.55,18547067.13003527
PART_002_R214G39B40A255,3849,-18511500.0,372.9981,609.147,701004.9,1626.475,-16758.57,18551789.33706223
PART_002_R214G39B40A255,3850,-18512300.0,2020.54,-2098.024,764212.5,-161.4578,-6638.643,18559526.506212167
PART_003_R247G182B210A255,3851,-24680030.0,3407.293,5642.647,522792.9,-1522.723,12165.36,24701166.895663783
PART_003_R247G182B210A255,3852,-24683820.0,-2182.86,-1999.93,466106.8,1488.668,33344.18,24694996.16834164
PART_001_R158G218B229A255,3853,-24683760.0,-490.8568,-2016.992,435094.0,1064.663,40738.89,24694108.824927308
PART_001_R158G218B229A255,3854,-24683530.0,-153.2702,-3009.088,417102.2,314.0717,33728.89,24692588.759788185
PART_001_R158G218B229A255,3855,-24683680.0,-409.1504,-1972.403,407187.9,261.3323,18839.28,24692584.858802356
PART_001_R158G218B229A255,3856,-24683490.0,83.76189,-3083.426,404159.9,6.388233e-06,0.001127083,24691915.313481595
PART_001_R158G218B229A255,3857,-24683680.0,-409.1504,-1972.403,407187.9,-261.3323,-18839.28,24692584.858802356
PART_001_R158G218B229A255,3858,-24683530.0,-153.2702,-3009.088,417102.2,-314.0716,-33728.89,24692588.759788185
PART_001_R158G218B229A255,3859,-24683760.0,-490.8567,-2016.992,435094.0,-1064.663,-40738.89,24694108.82497729
PART_001_R158G218B229A255,3860,-24683820.0,-2182.86,-1999.93,466106.8,-1488.668,-33344.18,24694996.16834164
PART_002_R214G39B40A255,3861,-24680030.0,3407.293,5642.647,522792.9,1522.723,-12165.36,24701166.895663783
PART_003_R247G182B210A255,3862,-30855750.0,2493.171,-8534.309,191977.6,2335.917,32809.55,30854575.29301649
PART_001_R158G218B229A255,3863,-30856430.0,-3145.086,-7086.017,165010.6,1454.059,70951.91,30852883.320789088
PART_001_R158G218B229A255,3864,-30854170.0,1746.58,-3399.554,154661.5,278.6266,72219.9,30854760.30869003
PART_001_R158G218B229A255,3865,-30855190.0,-1644.688,-4646.549,147860.0,341.5703,56334.73,30853261.710403427
PART_001_R158G218B229A255,3866,-30853980.0,1235.69,-2450.269,144583.1,46.54947,30392.73,30854434.070029132
PART_001_R158G218B229A255,3867,-30854950.0,-1325.954,-4196.383,143395.8,-2.606989e-06,0.001522713,30853188.634895228
PART_001_R158G218B229A255,3868,-30853980.0,1235.69,-2450.269,144583.1,-46.54946,-30392.73,30854434.070029132
PART_001_R158G218B229A255,3869,-30855190.0,-1644.688,-4646.549,147860.0,-341.5703,-56334.73,30853261.710403427
PART_001_R158G218B229A255,3870,-30854170.0,1746.58,-3399.554,154661.5,-278.6266,-72219.9,30854760.30869003
PART_001_R158G218B229A255,3871,-30856430.0,-3145.086,-7086.017,165010.6,-1454.059,-70951.91,30852883.320789088
PART_001_R158G218B229A255,3872,-30855750.0,2493.171,-8534.309,191977.6,-2335.917,-32809.55,30854575.29301649
PART_003_R247G182B210A255,3873,30537700.0,-1886.502,10089.43,192020.1,2335.107,-32817.87,30535464.7856749
PART_000_R31G119B180A255,3874,30538160.0,2467.346,5392.967,164986.0,1425.438,-70935.35,30535814.403139424
PART_000_R31G119B180A255,3875,30536320.0,-1183.29,4919.336,154678.5,284.379,-72243.1,30535884.123788625
PART_000_R31G119B180A255,3876,30536810.0,960.9761,3017.634,147846.5,332.5885,-56318.81,30536050.326863483
PART_000_R31G119B180A255,3877,30536210.0,-660.953,3958.853,144594.3,48.43382,-30403.43,30535633.777123652
PART_000_R31G119B180A255,3878,30536540.0,636.5403,2580.573,143385.3,-1.399744e-06,-0.001522545,30535941.43165231
PART_000_R31G119B180A255,3879,30536210.0,-660.953,3958.853,144594.3,-48.43381,30403.43,30535633.777123652
PART_000_R31G119B180A255,3880,30536810.0,960.9762,3017.634,147846.5,-332.5885,56318.81,30536050.32681348
PART_000_R31G119B180A255,3881,30536320.0,-1183.29,4919.335,154678.5,-284.379,72243.1,30535884.12428845
PART_000_R31G119B180A255,3882,30538160.0,2467.346,5392.967,164986.0,-1425.438,70935.34,30535814.403069735
PART_000_R31G119B180A255,3883,30537700.0,-1886.502,10089.43,192020.1,-2335.107,32817.87,30535464.7856749
PART_003_R247G182B210A255,3884,24425640.0,-2909.782,-4183.581,522751.4,-1513.353,-12175.94,24445969.43969215
PART_003_R247G182B210A255,3885,24429220.0,1699.488,620.0867,466115.4,1472.971,-33326.01,24441465.90740404
PART_000_R31G119B180A255,3886,24429490.0,1039.218,3366.687,435089.0,1053.542,-40761.28,24439010.856686737
PART_000_R31G119B180A255,3887,24428830.0,-334.7017,1645.766,417104.3,309.804,-33714.16,24438924.87378142
PART_000_R31G119B180A255,3888,24429480.0,973.7383,3306.686,407186.7,258.637,-18849.13,24437540.839634802
PART_000_R31G119B180A255,3889,24428760.0,-577.0901,1725.793,404160.8,6.320738e-06,-0.001126832,24438213.84459689
PART_000_R31G119B180A255,3890,24429480.0,973.7384,3306.686,407186.7,-258.6371,18849.13,24437540.839584813
PART_000_R31G119B180A255,3891,24428830.0,-334.7017,1645.766,417104.3,-309.804,33714.15,24438924.873740036
PART_000_R31G119B180A255,3892,24429490.0,1039.218,3366.687,435089.0,-1053.542,40761.28,24439010.856686737
PART_000_R31G119B180A255,3893,24429220.0,1699.488,620.0866,466115.4,-1472.971,33326.0,24441465.90741311
PART_002_R214G39B40A255,3894,24425640.0,-2909.782,-4183.581,522751.4,1513.353,12175.93,24445969.439677205
PART_003_R247G182B210A255,3895,18321490.0,-1614.169,3162.217,764241.1,162.7796,-6642.992,18368477.803780217
PART_003_R247G182B210A255,3896,18320540.0,-773.0703,-1669.017,701013.6,-1608.819,-16747.66,18361972.599969976
PART_003_R247G182B210A255,3897,18321830.0,1596.289,813.4277,657566.7,639.0682,-21371.72,18356030.6006454
PART_000_R31G119B180A255,3898,18321770.0,240.3095,1169.281,630706.9,172.634,-19063.43,18353634.375718687
PART_000_R31G119B180A255,3899,18321780.0,445.6457,1752.163,615890.9,139.3544,-10892.5,18351721.387618765
PART_000_R31G119B180A255,3900,18321860.0,280.0792,1437.636,611097.9,-1.610535e-05,-0.0007895776,18351550.50111376
PART_000_R31G119B180A255,3901,18321780.0,445.6457,1752.163,615890.9,-139.3544,10892.5,18351721.387618765
PART_000_R31G119B180A255,3902,18321770.0,240.3095,1169.281,630706.9,-172.6341,19063.43,18353634.375718687
PART_000_R31G119B180A255,3903,18321830.0,1596.289,813.4276,657566.7,-639.0682,21371.72,18356030.60069531
PART_002_R214G39B40A255,3904,18320540.0,-773.0703,-1669.017,701013.6,1608.819,16747.66,18361972.599969976
PART_002_R214G39B40A255,3905,18321490.0,-1614.169,3162.217,764241.1,-162.7797,6642.991,18368477.803779133
PART_003_R247G182B210A255,3906,12213210.0,-1184.999,-1187.092,932897.8,-641.6043,-3076.986,12320811.471269276
PART_003_R247G182B210A255,3907,12214350.0,-179.5557,535.9026,865939.0,52.19368,-8487.93,12305923.817032218
PART_003_R247G182B210A255,3908,12214170.0,150.453,291.8586,817669.8,-1220.043,-10886.86,12295798.393187165
PART_003_R247G182B210A255,3909,12214420.0,727.133,-68.51899,785364.3,190.6968,-9827.303,12289617.285310218
PART_000_R31G119B180A255,3910,12214630.0,421.6134,1392.926,767152.1,-184.327,-5812.766,12285792.287862891
PART_000_R31G119B180A255,3911,12214400.0,290.9088,337.2603,761251.4,1.510657e-05,-0.000498415,12285048.059882032
PART_000_R31G119B180A255,3912,12214630.0,421.6134,1392.926,767152.1,184.327,5812.765,12285792.287861472
PART_000_R31G119B180A255,3913,12214420.0,727.133,-68.51902,785364.3,-190.6968,9827.302,12289617.285322728
PART_002_R214G39B40A255,3914,12214170.0,150.4529,291.8587,817669.8,1220.043,10886.86,12295798.393187165
PART_002_R214G39B40A255,3915,12214350.0,-179.5557,535.9026,865939.0,-52.19369,8487.93,12305923.817032218
PART_002_R214G39B40A255,3916,12213210.0,-1184.999,-1187.092,932897.8,641.6043,3076.986,12320811.471269276
PART_003_R247G182B210A255,3917,6107094.0,-527.2684,837.373,1032783.0,-83.39893,-1354.567,6363539.2988735605
PART_003_R247G182B210A255,3918,6106813.0,-325.134,-594.059,964436.2,-1237.645,-3493.161,6331605.750173365
PART_003_R247G182B210A255,3919,6107234.0,334.8094,342.6227,913527.8,-84.64565,-4586.188,6308552.310486997
PART_003_R247G182B210A255,3920,6107142.0,42.55791,75.40684,878893.1,-961.8571,-4173.654,6293955.613310772
PART_003_R247G182B210A255,3921,6107264.0,449.5439,300.8341,858766.9,17.5323,-2460.303,6285423.684391091
PART_000_R31G119B180A255,3922,6107250.0,82.48087,375.8883,852244.9,-9.985772e-06,-0.0002406235,6282886.869362368
PART_000_R31G119B180A255,3923,6107264.0,449.5439,300.8341,858766.9,-17.53228,2460.302,6285423.684389916
PART_002_R214G39B40A255,3924,6107142.0,42.5579,75.40685,878893.1,961.8571,4173.653,6293955.613308783
PART_002_R214G39B40A255,3925,6107234.0,334.8094,342.6227,913527.8,84.64564,4586.188,6308552.310486997
PART_002_R214G39B40A255,3926,6106813.0,-325.134,-594.0589,964436.2,1237.645,3493.161,6331605.750125133
PART_002_R214G39B40A255,3927,6107094.0,-527.2684,837.373,1032783.0,83.39893,1354.567,6363539.2988735605
PART_003_R247G182B210A255,3928,0.006681361,-2.896244e-06,-5.196964e-06,1065896.0,-498.3878,-8.08961e-07,1846186.2293981062
PART_003_R247G182B210A255,3929,0.006681036,5.035716e-06,-1.321713e-05,997059.9,-208.7575,-3.758776e-06,1726958.4428419555
PART_003_R247G182B210A255,3930,0.006684131,4.900555e-06,5.724941e-06,945569.4,-1323.861,-4.622883e-06,1637775.8480551976
PART_003_R247G182B210A255,3931,0.006679669,-3.367478e-06,-8.848688e-07,910066.8,-79.4401,-4.723301e-06,1576281.9418869547
PART_003_R247G182B210A255,3932,0.006681178,4.752662e-06,3.445701e-06,889479.8,-549.8311,-2.648338e-06,1540624.5002487907
PART_003_R247G182B210A255,3933,0.00667785,-2.909865e-06,1.585104e-06,882687.3,1.130374e-05,-5.75988e-07,1528859.2507957919
PART_002_R214G39B40A255,3934,0.00667911,4.821165e-06,3.146001e-06,889479.8,549.8311,2.704532e-06,1540624.5002487907
PART_002_R214G39B40A255,3935,0.006674156,-4.497921e-06,-1.005381e-06,910066.8,79.44011,4.407023e-06,1576281.941886956
PART_002_R214G39B40A255,3936,0.006676327,3.418858e-06,5.727514e-06,945569.4,1323.861,4.896296e-06,1637775.8480551976
PART_002_R214G39B40A255,3937,0.00666979,4.790808e-06,-1.448766e-05,997059.9,208.7575,3.606042e-06,1726958.4428419555
PART_002_R214G39B40A255,3938,0.006668334,-4.547959e-06,-4.902286e-06,1065896.0,498.3878,1.703784e-06,1846186.2293981062
PART_003_R247G182B210A255,3939,-6107094.0,527.2684,-837.373,1032783.0,-83.39894,1354.567,6363539.298873561
PART_003_R247G182B210A255,3940,-6106813.0,325.134,594.059,964436.2,-1237.645,3493.161,6331605.750173365
PART_003_R247G182B210A255,3941,-6107234.0,-334.8094,-342.6227,913527.8,-84.64565,4586.188,6308552.310486997
PART_003_R247G182B210A255,3942,-6107142.0,-42.55791,-75.40684,878893.1,-961.8571,4173.654,6293955.613310772
PART_003_R247G182B210A255,3943,-6107264.0,-449.5439,-300.8341,858766.9,17.5323,2460.303,6285423.684391091
PART_001_R158G218B229A255,3944,-6107250.0,-82.48088,-375.8883,852244.9,-1.060922e-05,0.0002409023,6282886.869357508
PART_001_R158G218B229A255,3945,-6107264.0,-449.5439,-300.8341,858766.9,-17.53227,-2460.302,6285423.684389916
PART_002_R214G39B40A255,3946,-6107142.0,-42.5579,-75.40685,878893.1,961.8571,-4173.653,6293955.613308783
PART_002_R214G39B40A255,3947,-6107234.0,-334.8094,-342.6227,913527.8,84.64564,-4586.188,6308552.310486997
PART_002_R214G39B40A255,3948,-6106813.0,325.134,594.059,964436.2,1237.645,-3493.161,6331605.750173365
PART_002_R214G39B40A255,3949,-6107094.0,527.2684,-837.373,1032783.0,83.39894,-1354.567,6363539.298873561
PART_003_R247G182B210A255,3950,-12213210.0,1184.999,1187.092,932897.8,-641.6043,3076.986,12320811.471269276
PART_003_R247G182B210A255,3951,-12214350.0,179.5557,-535.9026,865939.0,52.19369,8487.93,12305923.817032218
PART_003_R247G182B210A255,3952,-12214170.0,-150.453,-291.8586,817669.8,-1220.043,10886.86,12295798.393187165
PART_003_R247G182B210A255,3953,-12214420.0,-727.133,68.51899,785364.3,190.6968,9827.303,12289617.285310218
PART_001_R158G218B229A255,3954,-12214630.0,-421.6134,-1392.926,767152.1,-184.327,5812.766,12285792.287862891
PART_001_R158G218B229A255,3955,-12214400.0,-290.9088,-337.2603,761251.4,1.753933e-05,0.0004982761,12285048.059882032
PART_001_R158G218B229A255,3956,-12214630.0,-421.6134,-1392.926,767152.1,184.327,-5812.765,12285792.287861472
PART_001_R158G218B229A255,3957,-12214420.0,-727.133,68.51902,785364.3,-190.6968,-9827.302,12289617.285322728
PART_002_R214G39B40A255,3958,-12214170.0,-150.4529,-291.8587,817669.8,1220.043,-10886.86,12295798.393187165
PART_002_R214G39B40A255,3959,-12214350.0,179.5557,-535.9026,865939.0,-52.19369,-8487.93,12305923.817032218
PART_002_R214G39B40A255,3960,-12213210.0,1184.999,1187.092,932897.8,641.6043,-3076.986,12320811.471269276
PART_003_R247G182B210A255,3961,-18321490.0,1614.169,-3162.217,764241.1,162.7797,6642.992,18368477.803780217
PART_003_R247G182B210A255,3962,-18320540.0,773.0703,1669.017,701013.6,-1608.819,16747.66,18361972.599969976
PART_003_R247G182B210A255,3963,-18321830.0,-1596.289,-813.4276,657566.7,639.0682,21371.72,18356030.60069531
PART_001_R158G218B229A255,3964,-18321770.0,-240.3095,-1169.281,630706.9,172.634,19063.43,18353634.375718687
PART_001_R158G218B229A255,3965,-18321780.0,-445.6457,-1752.163,615890.9,139.3544,10892.5,18351721.387618765
PART_001_R158G218B229A255,3966,-18321860.0,-280.0792,-1437.636,611097.9,-1.607432e-05,0.0007897696,18351550.50111376
PART_001_R158G218B229A255,3967,-18321780.0,-445.6457,-1752.163,615890.9,-139.3544,-10892.5,18351721.387618765
PART_001_R158G218B229A255,3968,-18321770.0,-240.3095,-1169.281,630706.9,-172.6341,-19063.43,18353634.375718687
PART_001_R158G218B229A255,3969,-18321830.0,-1596.289,-813.4276,657566.7,-639.0682,-21371.72,18356030.60069531
PART_002_R214G39B40A255,3970,-18320540.0,773.0703,1669.017,701013.6,1608.819,-16747.66,18361972.599969976
PART_002_R214G39B40A255,3971,-18321490.0,1614.169,-3162.217,764241.1,-162.7797,-6642.991,18368477.803779133
PART_003_R247G182B210A255,3972,-24425640.0,2909.782,4183.581,522751.4,-1513.353,12175.94,24445969.43969215
PART_003_R247G182B210A255,3973,-24429220.0,-1699.488,-620.0867,466115.4,1472.971,33326.01,24441465.90740404
PART_001_R158G218B229A255,3974,-24429490.0,-1039.218,-3366.687,435089.0,1053.542,40761.28,24439010.856686737
PART_001_R158G218B229A255,3975,-24428830.0,334.7017,-1645.766,417104.3,309.804,33714.16,24438924.87378142
PART_001_R158G218B229A255,3976,-24429480.0,-973.7383,-3306.686,407186.7,258.637,18849.13,24437540.839634802
PART_001_R158G218B229A255,3977,-24428760.0,577.0901,-1725.793,404160.8,6.060833e-06,0.001126974,24438213.84459689
PART_001_R158G218B229A255,3978,-24429480.0,-973.7384,-3306.686,407186.7,-258.6371,-18849.13,24437540.839584813
PART_001_R158G218B229A255,3979,-24428830.0,334.7017,-1645.766,417104.3,-309.804,-33714.15,24438924.873740036
PART_001_R158G218B229A255,3980,-24429490.0,-1039.218,-3366.687,435089.0,-1053.542,-40761.28,24439010.856686737
PART_001_R158G218B229A255,3981,-24429220.0,-1699.488,-620.0867,466115.4,-1472.971,-33326.0,24441465.907363135
PART_002_R214G39B40A255,3982,-24425640.0,2909.782,4183.581,522751.4,1513.353,-12175.93,24445969.439677205
PART_003_R247G182B210A255,3983,-30537700.0,1886.502,-10089.43,192020.1,2335.107,32817.87,30535464.7856749
PART_001_R158G218B229A255,3984,-30538160.0,-2467.346,-5392.967,164986.0,1425.438,70935.35,30535814.403139424
PART_001_R158G218B229A255,3985,-30536320.0,1183.29,-4919.336,154678.5,284.379,72243.1,30535884.123788625
PART_001_R158G218B229A255,3986,-30536810.0,-960.9761,-3017.634,147846.5,332.5885,56318.81,30536050.326863483
PART_001_R158G218B229A255,3987,-30536210.0,660.953,-3958.853,144594.3,48.43382,30403.43,30535633.777123652
PART_001_R158G218B229A255,3988,-30536540.0,-636.5404,-2580.573,143385.3,-2.389703e-06,0.001522611,30535941.43160231
PART_001_R158G218B229A255,3989,-30536210.0,660.953,-3958.853,144594.3,-48.43381,-30403.43,30535633.777123652
PART_001_R158G218B229A255,3990,-30536810.0,-960.9762,-3017.634,147846.5,-332.5885,-56318.81,30536050.32681348
PART_001_R158G218B229A255,3991,-30536320.0,1183.29,-4919.335,154678.5,-284.379,-72243.1,30535884.12428845
PART_001_R158G218B229A255,3992,-30538160.0,-2467.346,-5392.967,164986.0,-1425.438,-70935.34,30535814.403069735
PART_001_R158G218B229A255,3993,-30537700.0,1886.502,-10089.43,192020.1,-2335.107,-32817.87,30535464.7856749
PART_003_R247G182B210A255,3994,30219550.0,-2339.586,8644.785,191985.9,2291.969,-32811.92,30218282.276467867
PART_000_R31G119B180A255,3995,30220180.0,2968.135,6657.074,165006.4,1421.428,-70951.57,30216969.186611015
PART_000_R31G119B180A255,3996,30218040.0,-1615.317,3598.94,154665.2,274.1513,-72226.92,30218494.932725493
PART_000_R31G119B180A255,3997,30218950.0,1494.949,4273.985,147858.2,333.2687,-56334.43,30217308.438475583
PART_000_R31G119B180A255,3998,30217870.0,-1112.04,2664.692,144586.1,45.85003,-30396.02,30218177.44309559
PART_000_R31G119B180A255,3999,30218720.0,1181.258,3834.358,143394.9,-2.504275e-06,-0.001522937,30217233.010373604
PART_000_R31G119B180A255,4000,30217870.0,-1112.04,2664.692,144586.1,-45.85003,30396.02,30218177.44309559
PART_000_R31G119B180A255,4001,30218950.0,1494.949,4273.985,147858.2,-333.2688,56334.43,30217308.438475583
PART_000_R31G119B180A255,4002,30218040.0,-1615.318,3598.939,154665.2,-274.1513,72226.91,30218494.93365374
PART_000_R31G119B180A255,4003,30220180.0,2968.135,6657.074,165006.4,-1421.428,70951.57,30216969.186611015
PART_000_R31G119B180A255,4004,30219550.0,-2339.586,8644.785,191985.9,-2291.969,32811.92,30218282.276467867
PART_003_R247G182B210A255,4005,24171170.0,-3259.457,-5285.123,522782.6,-1492.726,-12168.34,24192403.12216603
PART_003_R247G182B210A255,4006,24174850.0,2056.885,1723.519,466106.2,1457.316,-33343.16,24186506.4058118
PART_000_R31G119B180A255,4007,24174860.0,574.8567,2210.753,435091.3,1041.88,-40745.71,24185314.045000736
PART_000_R31G119B180A255,4008,24174560.0,64.71378,2715.536,417101.3,306.653,-33728.62,24184033.590490732
PART_000_R31G119B180A255,4009,24174790.0,497.2833,2163.392,407186.7,255.4961,-18842.4,24183767.74737799
PART_000_R31G119B180A255,4010,24174510.0,-168.8558,2789.027,404159.3,6.203536e-06,-0.001127125,24183333.82481995
PART_000_R31G119B180A255,4011,24174790.0,497.2833,2163.392,407186.7,-255.4961,18842.4,24183767.74737799
PART_000_R31G119B180A255,4012,24174560.0,64.71376,2715.536,417101.3,-306.653,33728.62,24184033.59050073
PART_000_R31G119B180A255,4013,24174860.0,574.8567,2210.754,435091.3,-1041.88,40745.71,24185314.044501033
PART_000_R31G119B180A255,4014,24174850.0,2056.885,1723.519,466106.2,-1457.316,33343.16,24186506.4058118
PART_002_R214G39B40A255,4015,24171170.0,-3259.457,-5285.123,522782.6,1492.726,12168.34,24192403.12216603
PART_003_R247G182B210A255,4016,18130610.0,-1910.158,2241.599,764219.7,158.2925,-6640.069,18178703.207220025
PART_003_R247G182B210A255,4017,18129800.0,-432.3266,-779.6155,701008.6,-1593.747,-16758.64,18171040.424628884
PART_003_R247G182B210A255,4018,18130860.0,1282.432,-36.54859,657571.4,632.6835,-21360.74,18166014.080627453
PART_000_R31G119B180A255,4019,18131080.0,586.409,2008.471,630703.7,169.8009,-19074.31,18162694.46518218
PART_000_R31G119B180A255,4020,18130770.0,132.4943,902.3024,615895.2,137.9003,-10887.5,18161618.766130332
PART_000_R31G119B180A255,4021,18131190.0,631.1728,2269.526,611095.2,-1.520812e-05,-0.0007900471,18160610.50301112
PART_000_R31G119B180A255,4022,18130770.0,132.4943,902.3023,615895.2,-137.9002,10887.5,18161618.766180236
PART_000_R31G119B180A255,4023,18131080.0,586.409,2008.471,630703.7,-169.8009,19074.31,18162694.46518218
PART_000_R31G119B180A255,4024,18130860.0,1282.432,-36.54865,657571.4,-632.6835,21360.74,18166014.080657396
PART_002_R214G39B40A255,4025,18129800.0,-432.3266,-779.6155,701008.6,1593.747,16758.64,18171040.424628884
PART_002_R214G39B40A255,4026,18130610.0,-1910.158,2241.599,764219.7,-158.2926,6640.069,18178703.20722003
PART_003_R247G182B210A255,4027,12085960.0,-1367.798,-1766.673,932926.9,-633.1572,-3073.235,12195056.462661223
PART_003_R247G182B210A255,4028,12087170.0,22.00056,1105.253,865939.8,52.11295,-8496.25,12179319.61481637
PART_003_R247G182B210A255,4029,12086850.0,-82.30257,-290.4524,817672.5,-1208.2,-10879.59,12169740.048603613
PART_003_R247G182B210A255,4030,12087290.0,927.5498,494.3904,785363.3,188.0403,-9834.383,12162897.25258928
PART_000_R31G119B180A255,4031,12087280.0,180.5896,805.9571,767156.6,-182.7442,-5809.577,12159609.48260049
PART_000_R31G119B180A255,4032,12087280.0,498.8315,892.6665,761251.1,1.48112e-05,-0.0004985451,12158290.532990417
PART_000_R31G119B180A255,4033,12087280.0,180.5896,805.9571,767156.6,182.7441,5809.576,12159609.482599054
PART_000_R31G119B180A255,4034,12087290.0,927.5498,494.3903,785363.3,-188.0403,9834.382,12162897.25263654
PART_002_R214G39B40A255,4035,12086850.0,-82.30259,-290.4524,817672.5,1208.2,10879.59,12169740.048613545
PART_002_R214G39B40A255,4036,12087170.0,22.00058,1105.253,865939.8,-52.11296,8496.249,12179319.614804354
PART_002_R214G39B40A255,4037,12085960.0,-1367.798,-1766.673,932926.8,633.1572,3073.235,12195056.439711101
PART_003_R247G182B210A255,4038,6043468.0,-628.3232,527.9358,1032761.0,-84.19151,-1353.56,6302690.261093727
PART_003_R247G182B210A255,4039,6043232.0,-210.8563,-292.834,964424.0,-1226.812,-3497.056,6270094.030424291
PART_003_R247G182B210A255,4040,6043577.0,229.4976,53.83539,913530.2,-84.13391,-4582.379,6247142.222501674
PART_003_R247G182B210A255,4041,6043579.0,159.1023,362.9399,878887.6,-952.6935,-4177.45,6232100.572174666
PART_003_R247G182B210A255,4042,6043594.0,338.9148,15.61566,858767.7,17.04056,-2458.595,6223772.96590412
PART_000_R31G119B180A255,4043,6043693.0,200.4676,658.8477,852240.2,-1.105138e-05,-0.0002416413,6220930.160198203
PART_000_R31G119B180A255,4044,6043594.0,338.9148,15.61565,858767.7,-17.04054,2458.594,6223772.965907792
PART_002_R214G39B40A255,4045,6043579.0,159.1023,362.9399,878887.6,952.6935,4177.449,6232100.572172656
PART_002_R214G39B40A255,4046,6043577.0,229.4976,53.83538,913530.2,84.1339,4582.379,6247142.222506511
PART_002_R214G39B40A255,4047,6043232.0,-210.8563,-292.834,964424.0,1226.812,3497.056,6270094.030424291
PART_002_R214G39B40A255,4048,6043468.0,-628.3232,527.9358,1032761.0,84.19151,1353.56,6302690.261093727
PART_003_R247G182B210A255,4049,0.006610995,-5.208597e-06,-1.028081e-05,1065925.0,-491.9892,-6.707609e-07,1846236.4537174318
PART_003_R247G182B210A255,4050,0.006612122,4.920136e-06,-1.052038e-05,997063.8,-206.2197,-3.817979e-06,1726965.1969252345
PART_003_R247G182B210A255,4051,0.006615889,1.291615e-06,3.051036e-06,945573.9,-1310.867,-5.302293e-06,1637783.610920718
PART_003_R247G182B210A255,4052,0.006609535,-6.183756e-06,-3.685183e-07,910067.1,-79.56858,-4.377823e-06,1576282.4615216355
PART_003_R247G182B210A255,4053,0.006610606,-1.580738e-06,-1.105731e-06,889486.7,-544.4248,-2.8813e-06,1540636.4456372433
PART_003_R247G182B210A255,4054,0.006606417,-9.124814e-06,1.196572e-06,882688.4,1.127044e-05,1.72973e-07,1528861.1560516802
PART_002_R214G39B40A255,4055,0.00660688,-2.861288e-06,-2.73236e-06,889486.7,544.4248,2.753392e-06,1540636.4456372433
PART_002_R214G39B40A255,4056,0.00660449,-7.11772e-06,7.427456e-07,910067.1,79.56859,4.594931e-06,1576282.4615216372
PART_002_R214G39B40A255,4057,0.006606498,-1.437368e-06,8.607664e-07,945573.9,1310.867,4.862014e-06,1637783.610920718
PART_002_R214G39B40A255,4058,0.006601742,1.854855e-06,-1.163615e-05,997063.8,206.2197,3.742013e-06,1726965.1969252345
PART_002_R214G39B40A255,4059,0.006598673,-7.296494e-06,-8.333262e-06,1065925.0,491.9892,5.403179e-07,1846236.4537174318
PART_003_R247G182B210A255,4060,-6043468.0,628.3232,-527.9359,1032761.0,-84.19152,1353.56,6302690.261045798
PART_003_R247G182B210A255,4061,-6043232.0,210.8563,292.8341,964424.0,-1226.812,3497.056,6270094.030472485
PART_003_R247G182B210A255,4062,-6043577.0,-229.4976,-53.8354,913530.2,-84.13391,4582.379,6247142.222496836
PART_003_R247G182B210A255,4063,-6043579.0,-159.1023,-362.9399,878887.6,-952.6935,4177.45,6232100.572174666
PART_003_R247G182B210A255,4064,-6043594.0,-338.9148,-15.61565,858767.7,17.04056,2458.595,6223772.965908976
PART_001_R158G218B229A255,4065,-6043693.0,-200.4676,-658.8477,852240.2,-9.4096e-06,0.0002408318,6220930.160198203
PART_001_R158G218B229A255,4066,-6043594.0,-338.9148,-15.61564,858767.7,-17.04054,-2458.594,6223772.965912646
PART_002_R214G39B40A255,4067,-6043579.0,-159.1023,-362.9399,878887.6,952.6935,-4177.449,6232100.572172656
PART_002_R214G39B40A255,4068,-6043577.0,-229.4976,-53.83539,913530.2,84.1339,-4582.379,6247142.222501674
PART_002_R214G39B40A255,4069,-6043232.0,210.8563,292.8341,964424.0,1226.812,-3497.056,6270094.030472485
PART_002_R214G39B40A255,4070,-6043468.0,628.3232,-527.9359,1032761.0,84.19152,-1353.56,6302690.261045798
PART_003_R247G182B210A255,4071,-12085960.0,1367.798,1766.673,932926.9,-633.1572,3073.235,12195056.462661223
PART_003_R247G182B210A255,4072,-12087170.0,-22.00058,-1105.253,865939.8,52.11296,8496.25,12179319.614806445
PART_003_R247G182B210A255,4073,-12086850.0,82.30257,290.4524,817672.5,-1208.2,10879.59,12169740.048603613
PART_003_R247G182B210A255,4074,-12087290.0,-927.5498,-494.3904,785363.3,188.0403,9834.383,12162897.25258928
PART_001_R158G218B229A255,4075,-12087280.0,-180.5896,-805.9571,767156.6,-182.7442,5809.577,12159609.48260049
PART_001_R158G218B229A255,4076,-12087280.0,-498.8315,-892.6665,761251.1,1.617311e-05,0.0004982412,12158290.532990417
PART_001_R158G218B229A255,4077,-12087280.0,-180.5896,-805.9571,767156.6,182.7441,-5809.576,12159609.482599054
PART_001_R158G218B229A255,4078,-12087290.0,-927.5498,-494.3903,785363.3,-188.0403,-9834.382,12162897.25263654
PART_002_R214G39B40A255,4079,-12086850.0,82.30258,290.4524,817672.5,1208.2,-10879.59,12169740.04860858
PART_002_R214G39B40A255,4080,-12087170.0,-22.00059,-1105.253,865939.8,-52.11296,-8496.249,12179319.614799391
PART_002_R214G39B40A255,4081,-12085960.0,1367.798,1766.673,932926.8,633.1572,-3073.235,12195056.439711101
PART_003_R247G182B210A255,4082,-18130610.0,1910.158,-2241.599,764219.7,158.2926,6640.069,18178703.20722003
PART_003_R247G182B210A255,4083,-18129800.0,432.3266,779.6155,701008.6,-1593.747,16758.64,18171040.424628884
PART_003_R247G182B210A255,4084,-18130860.0,-1282.432,36.54859,657571.4,632.6835,21360.74,18166014.080627453
PART_001_R158G218B229A255,4085,-18131080.0,-586.409,-2008.471,630703.7,169.8009,19074.31,18162694.46518218
PART_001_R158G218B229A255,4086,-18130770.0,-132.4943,-902.3024,615895.2,137.9003,10887.5,18161618.766130332
PART_001_R158G218B229A255,4087,-18131190.0,-631.1728,-2269.526,611095.2,-1.393949e-05,0.0007895158,18160610.50301112
PART_001_R158G218B229A255,4088,-18130770.0,-132.4943,-902.3023,615895.2,-137.9002,-10887.5,18161618.766180236
PART_001_R158G218B229A255,4089,-18131080.0,-586.409,-2008.471,630703.7,-169.8009,-19074.31,18162694.46518218
PART_001_R158G218B229A255,4090,-18130860.0,-1282.432,36.54865,657571.4,-632.6835,-21360.74,18166014.080657396
PART_002_R214G39B40A255,4091,-18129800.0,432.3266,779.6155,701008.6,1593.747,-16758.64,18171040.424628884
PART_002_R214G39B40A255,4092,-18130610.0,1910.158,-2241.599,764219.7,-158.2926,-6640.069,18178703.20722003
PART_003_R247G182B210A255,4093,-24171170.0,3259.457,5285.123,522782.6,-1492.726,12168.34,24192403.12216603
PART_003_R247G182B210A255,4094,-24174850.0,-2056.885,-1723.519,466106.2,1457.316,33343.16,24186506.4058118
PART_001_R158G218B229A255,4095,-24174860.0,-574.8567,-2210.753,435091.3,1041.88,40745.71,24185314.045000736
PART_001_R158G218B229A255,4096,-24174560.0,-64.71378,-2715.536,417101.3,306.653,33728.62,24184033.590490732
PART_001_R158G218B229A255,4097,-24174790.0,-497.2833,-2163.392,407186.7,255.4961,18842.4,24183767.74737799
PART_001_R158G218B229A255,4098,-24174510.0,168.8558,-2789.027,404159.3,7.636047e-06,0.00112672,24183333.82481995
PART_001_R158G218B229A255,4099,-24174790.0,-497.2834,-2163.392,407186.7,-255.4961,-18842.4,24183767.74732801
PART_001_R158G218B229A255,4100,-24174560.0,-64.71376,-2715.536,417101.3,-306.653,-33728.62,24184033.59050073
PART_001_R158G218B229A255,4101,-24174860.0,-574.8567,-2210.754,435091.3,-1041.88,-40745.71,24185314.044501033
PART_001_R158G218B229A255,4102,-24174850.0,-2056.885,-1723.519,466106.2,-1457.316,-33343.16,24186506.4058118
PART_001_R158G218B229A255,4103,-24171170.0,3259.457,5285.123,522782.6,1492.726,-12168.34,24192403.12216603
PART_003_R247G182B210A255,4104,-30219550.0,2339.586,-8644.785,191985.9,2291.969,32811.92,30218282.276467867
PART_001_R158G218B229A255,4105,-30220180.0,-2968.135,-6657.074,165006.4,1421.428,70951.57,30216969.186611015
PART_001_R158G218B229A255,4106,-30218040.0,1615.317,-3598.94,154665.2,274.1513,72226.92,30218494.932725493
PART_001_R158G218B229A255,4107,-30218950.0,-1494.949,-4273.985,147858.2,333.2687,56334.43,30217308.438475583
PART_001_R158G218B229A255,4108,-30217870.0,1112.04,-2664.692,144586.1,45.85003,30396.02,30218177.44309559
PART_001_R158G218B229A255,4109,-30218720.0,-1181.258,-3834.358,143394.9,-1.372907e-06,0.001523099,30217233.010373604
PART_001_R158G218B229A255,4110,-30217870.0,1112.04,-2664.692,144586.1,-45.85003,-30396.02,30218177.44309559
PART_001_R158G218B229A255,4111,-30218950.0,-1494.949,-4273.985,147858.2,-333.2688,-56334.43,30217308.438475583
PART_001_R158G218B229A255,4112,-30218040.0,1615.318,-3598.939,154665.2,-274.1513,-72226.91,30218494.93365374
PART_001_R158G218B229A255,4113,-30220180.0,-2968.135,-6657.074,165006.4,-1421.428,-70951.57,30216969.186611015
PART_001_R158G218B229A255,4114,-30219550.0,2339.586,-8644.785,191985.9,-2291.969,-32811.92,30218282.276467867
PART_003_R247G182B210A255,4115,29901490.0,-1929.614,9645.946,192013.3,2283.0,-32817.54,29899537.51662047
PART_000_R31G119B180A255,4116,29901970.0,2507.978,5510.152,164989.3,1397.579,-70939.83,29899579.302659743
PART_000_R31G119B180A255,4117,29900120.0,-1235.533,4595.388,154675.7,276.9791,-72242.21,29899902.5922491
PART_000_R31G119B180A255,4118,29900670.0,1036.037,3177.621,147848.4,326.2345,-56323.27,29899819.026705313
PART_000_R31G119B180A255,4119,29899990.0,-726.4636,3657.234,144592.6,46.95021,-30403.08,29899620.109004106
PART_000_R31G119B180A255,4120,29900410.0,719.6167,2748.022,143387.0,-2.581489e-06,-0.001523346,29899707.689816896
PART_000_R31G119B180A255,4121,29899990.0,-726.4636,3657.234,144592.6,-46.95021,30403.08,29899620.109004106
PART_000_R31G119B180A255,4122,29900670.0,1036.037,3177.621,147848.4,-326.2345,56323.27,29899819.026705313
PART_000_R31G119B180A255,4123,29900120.0,-1235.533,4595.388,154675.7,-276.9791,72242.21,29899902.5922491
PART_000_R31G119B180A255,4124,29901970.0,2507.978,5510.152,164989.3,-1397.578,70939.83,29899579.302659597
PART_000_R31G119B180A255,4125,29901490.0,-1929.614,9645.946,192013.3,-2283.0,32817.53,29899537.51658754
PART_003_R247G182B210A255,4126,23916770.0,-2913.625,-4293.842,522758.1,-1481.036,-12175.07,23937513.662655197
PART_003_R247G182B210A255,4127,23920290.0,1729.487,798.2421,466114.6,1441.882,-33330.65,23932716.925027795
PART_000_R31G119B180A255,4128,23920520.0,939.9753,3102.396,435090.6,1030.975,-40760.3,23930471.953654226
PART_000_R31G119B180A255,4129,23919930.0,-258.7851,1797.709,417105.2,302.8986,-33718.35,23930139.684446234
PART_000_R31G119B180A255,4130,23920500.0,873.699,3045.066,407188.4,252.8866,-18848.84,23928958.64877053
PART_000_R31G119B180A255,4131,23919870.0,-495.0393,1874.662,404162.3,5.878587e-06,-0.001126472,23929421.77744677
PART_000_R31G119B180A255,4132,23920500.0,873.699,3045.066,407188.4,-252.8866,18848.83,23928958.648746897
PART_000_R31G119B180A255,4133,23919930.0,-258.7851,1797.709,417105.2,-302.8986,33718.35,23930139.684446234
PART_000_R31G119B180A255,4134,23920520.0,939.9752,3102.396,435090.6,-1030.975,40760.3,23930471.953704208
PART_000_R31G119B180A255,4135,23920290.0,1729.487,798.2421,466114.6,-1441.882,33330.65,23932716.925027795
PART_002_R214G39B40A255,4136,23916770.0,-2913.625,-4293.842,522758.1,1481.036,12175.07,23937513.662655197
PART_003_R247G182B210A255,4137,17939780.0,-1635.625,2943.742,764234.4,158.6591,-6643.062,17987900.110733222
PART_003_R247G182B210A255,4138,17938880.0,-700.8637,-1485.056,701010.3,-1576.21,-16750.86,17981037.951429047
PART_003_R247G182B210A255,4139,17940110.0,1511.229,651.5165,657565.5,625.0408,-21371.31,17975185.595000025
PART_000_R31G119B180A255,4140,17940100.0,294.0967,1289.775,630704.7,168.1538,-19066.71,17972568.834836405
PART_000_R31G119B180A255,4141,17940050.0,382.5019,1571.831,615890.4,136.0389,-10892.38,17970772.21852394
PART_000_R31G119B180A255,4142,17940190.0,333.8839,1551.382,611096.3,-1.507786e-05,-0.0007896906,17970445.55016813
PART_000_R31G119B180A255,4143,17940050.0,382.5019,1571.831,615890.4,-136.0388,10892.38,17970772.218523934
PART_000_R31G119B180A255,4144,17940100.0,294.0967,1289.775,630704.7,-168.1538,19066.71,17972568.834836405
PART_000_R31G119B180A255,4145,17940110.0,1511.229,651.5165,657565.5,-625.0408,21371.31,17975185.595000025
PART_002_R214G39B40A255,4146,17938880.0,-700.8637,-1485.056,701010.3,1576.21,16750.86,17981037.951429047
PART_002_R214G39B40A255,4147,17939780.0,-1635.625,2943.742,764234.4,-158.6591,6643.062,17987900.110733222
PART_003_R247G182B210A255,4148,11958760.0,-1192.487,-1263.67,932904.9,-628.2417,-3076.619,12068648.60205196
PART_003_R247G182B210A255,4149,11959890.0,-140.4272,623.1889,865941.1,50.42562,-8490.344,12053338.697735505
PART_003_R247G182B210A255,4150,11959690.0,108.7843,186.1091,817672.6,-1195.778,-10886.68,12043121.828666747
PART_003_R247G182B210A255,4151,11959970.0,748.7642,28.62796,785367.1,185.7167,-9829.512,12036705.519397646
PART_000_R31G119B180A255,4152,11960140.0,373.3924,1265.029,767156.5,-181.0682,-5812.752,12032914.98709836
PART_000_R31G119B180A255,4153,11959960.0,322.1233,425.1243,761255.1,1.519047e-05,-0.0004984095,12032050.29409259
PART_000_R31G119B180A255,4154,11960140.0,373.3924,1265.029,767156.5,181.0682,5812.752,12032914.98709836
PART_000_R31G119B180A255,4155,11959970.0,748.7642,28.62793,785367.1,-185.7167,9829.511,12036705.519410102
PART_002_R214G39B40A255,4156,11959690.0,108.7843,186.1091,817672.6,1195.778,10886.68,12043121.828666747
PART_002_R214G39B40A255,4157,11959890.0,-140.4272,623.1889,865941.1,-50.42563,8490.344,12053338.697735505
PART_002_R214G39B40A255,4158,11958760.0,-1192.487,-1263.67,932904.9,628.2417,3076.619,12068648.60205196
PART_003_R247G182B210A255,4159,5979860.0,-535.2739,768.1779,1032775.0,-82.27118,-1354.61,6241571.300656028
PART_003_R247G182B210A255,4160,5979593.0,-299.8751,-531.2587,964430.0,-1213.155,-3494.331,6208938.6549823275
PART_003_R247G182B210A255,4161,5979993.0,309.8812,286.2652,913525.0,-84.07258,-4586.086,6185499.035053674
PART_003_R247G182B210A255,4162,5979920.0,61.1991,122.8189,878889.4,-942.9651,-4174.836,6170554.0668896455
PART_003_R247G182B210A255,4163,5980021.0,421.4518,245.6692,858764.8,16.53182,-2460.284,6161908.065060514
PART_000_R31G119B180A255,4164,5980027.0,100.5677,416.6544,852242.0,-1.140366e-05,-0.000241286,6159267.760059696
PART_000_R31G119B180A255,4165,5980021.0,421.4518,245.6692,858764.8,-16.53179,2460.283,6161908.065059316
PART_002_R214G39B40A255,4166,5979920.0,61.19909,122.8189,878889.4,942.9651,4174.836,6170554.066894491
PART_002_R214G39B40A255,4167,5979993.0,309.8812,286.2652,913525.0,84.07257,4586.086,6185499.035053674
PART_002_R214G39B40A255,4168,5979593.0,-299.8751,-531.2587,964430.0,1213.155,3494.33,6208938.654980639
PART_002_R214G39B40A255,4169,5979860.0,-535.2739,768.1779,1032775.0,82.27118,1354.61,6241571.300656028
PART_003_R247G182B210A255,4170,0.006541192,-4.547733e-06,-6.549227e-06,1065903.0,-488.1947,-1.33858e-06,1846198.3455818596
PART_003_R247G182B210A255,4171,0.006542476,7.136788e-06,-1.290321e-05,997062.9,-205.2633,-3.632077e-06,1726963.6377377193
PART_003_R247G182B210A255,4172,0.006546482,8.241132e-06,7.779633e-06,945573.1,-1297.61,-5.025402e-06,1637782.1936099948
PART_003_R247G182B210A255,4173,0.006542795,2.987312e-06,1.065974e-06,910070.5,-79.00574,-4.819818e-06,1576288.3504094265
PART_003_R247G182B210A255,4174,0.006543186,7.817407e-06,5.008846e-06,889485.3,-539.0429,-3.157009e-06,1540634.0150892471
PART_003_R247G182B210A255,4175,0.006539322,2.33054e-07,2.816482e-06,882692.0,1.141303e-05,-6.945169e-07,1528867.3914345875
PART_002_R214G39B40A255,4176,0.006540319,8.254571e-06,4.416754e-06,889485.3,539.0429,2.713381e-06,1540634.0150892471
PART_002_R214G39B40A255,4177,0.006536421,-1.399702e-07,1.275288e-06,910070.5,79.00575,4.375148e-06,1576288.350409428
PART_002_R214G39B40A255,4178,0.006538857,7.169387e-06,6.637806e-06,945573.1,1297.61,5.366667e-06,1637782.1936099948
PART_002_R214G39B40A255,4179,0.006532267,6.371838e-06,-1.273972e-05,997062.9,205.2634,3.779104e-06,1726963.637737755
PART_002_R214G39B40A255,4180,0.006529021,-4.42157e-06,-4.66712e-06,1065903.0,488.1947,8.313405e-07,1846198.3455818596
PART_003_R247G182B210A255,4181,-5979860.0,535.2739,-768.1779,1032775.0,-82.27119,1354.61,6241571.300656028
PART_003_R247G182B210A255,4182,-5979593.0,299.8751,531.2588,964430.0,-1213.155,3494.331,6208938.655030486
PART_003_R247G182B210A255,4183,-5979993.0,-309.8812,-286.2652,913525.0,-84.07258,4586.086,6185499.035053674
PART_003_R247G182B210A255,4184,-5979920.0,-61.1991,-122.8189,878889.4,-942.9651,4174.836,6170554.0668896455
PART_003_R247G182B210A255,4185,-5980021.0,-421.4518,-245.6692,858764.8,16.53182,2460.284,6161908.065060514
PART_001_R158G218B229A255,4186,-5980027.0,-100.5678,-416.6544,852242.0,-9.521163e-06,0.0002409996,6159267.760011149
PART_001_R158G218B229A255,4187,-5980021.0,-421.4518,-245.6692,858764.8,-16.53179,-2460.283,6161908.065059316
PART_002_R214G39B40A255,4188,-5979920.0,-61.19909,-122.8189,878889.4,942.9651,-4174.836,6170554.066894491
PART_002_R214G39B40A255,4189,-5979993.0,-309.8813,-286.2652,913525.0,84.07257,-4586.086,6185499.0350053385
PART_002_R214G39B40A255,4190,-5979593.0,299.8751,531.2587,964430.0,1213.155,-3494.33,6208938.654980639
PART_002_R214G39B40A255,4191,-5979860.0,535.2739,-768.1779,1032775.0,82.27119,-1354.61,6241571.300656028
PART_003_R247G182B210A255,4192,-11958760.0,1192.487,1263.67,932904.9,-628.2417,3076.619,12068648.60205196
PART_003_R247G182B210A255,4193,-11959890.0,140.4272,-623.1889,865941.1,50.42563,8490.344,12053338.697735505
PART_003_R247G182B210A255,4194,-11959690.0,-108.7843,-186.1091,817672.6,-1195.778,10886.68,12043121.828666747
PART_003_R247G182B210A255,4195,-11959970.0,-748.7642,-28.62796,785367.1,185.7167,9829.512,12036705.519397646
PART_001_R158G218B229A255,4196,-11960140.0,-373.3924,-1265.029,767156.5,-181.0682,5812.752,12032914.98709836
PART_001_R158G218B229A255,4197,-11959960.0,-322.1232,-425.1243,761255.1,1.623093e-05,0.0004976365,12032050.29414229
PART_001_R158G218B229A255,4198,-11960140.0,-373.3923,-1265.029,767156.5,181.0682,-5812.752,12032914.98714806
PART_001_R158G218B229A255,4199,-11959970.0,-748.7642,-28.62793,785367.1,-185.7167,-9829.511,12036705.519410102
PART_002_R214G39B40A255,4200,-11959690.0,-108.7843,-186.1091,817672.6,1195.778,-10886.68,12043121.828666747
PART_002_R214G39B40A255,4201,-11959890.0,140.4272,-623.1889,865941.1,-50.42563,-8490.344,12053338.697735505
PART_002_R214G39B40A255,4202,-11958760.0,1192.487,1263.67,932904.9,628.2417,-3076.619,12068648.60205196
PART_003_R247G182B210A255,4203,-17939780.0,1635.625,-2943.742,764234.4,158.6591,6643.062,17987900.110733222
PART_003_R247G182B210A255,4204,-17938880.0,700.8637,1485.056,701010.3,-1576.21,16750.86,17981037.951429047
PART_003_R247G182B210A255,4205,-17940110.0,-1511.229,-651.5165,657565.5,625.0408,21371.31,17975185.595000025
PART_001_R158G218B229A255,4206,-17940100.0,-294.0967,-1289.775,630704.7,168.1538,19066.71,17972568.834836405
PART_001_R158G218B229A255,4207,-17940050.0,-382.5019,-1571.831,615890.4,136.0389,10892.38,17970772.21852394
PART_001_R158G218B229A255,4208,-17940190.0,-333.8839,-1551.382,611096.3,-1.46074e-05,0.0007899544,17970445.55016813
PART_001_R158G218B229A255,4209,-17940050.0,-382.5019,-1571.831,615890.4,-136.0388,-10892.38,17970772.218523934
PART_001_R158G218B229A255,4210,-17940100.0,-294.0967,-1289.775,630704.7,-168.1538,-19066.71,17972568.834836405
PART_001_R158G218B229A255,4211,-17940110.0,-1511.229,-651.5165,657565.5,-625.0408,-21371.31,17975185.595000025
PART_002_R214G39B40A255,4212,-17938880.0,700.8637,1485.056,701010.3,1576.21,-16750.86,17981037.951429047
PART_002_R214G39B40A255,4213,-17939780.0,1635.625,-2943.742,764234.4,-158.6591,-6643.062,17987900.110733222
PART_003_R247G182B210A255,4214,-23916770.0,2913.625,4293.842,522758.1,-1481.036,12175.07,23937513.662655197
PART_003_R247G182B210A255,4215,-23920290.0,-1729.487,-798.2422,466114.6,1441.882,33330.65,23932716.92497782
PART_001_R158G218B229A255,4216,-23920520.0,-939.9752,-3102.396,435090.6,1030.975,40760.3,23930471.953704208
PART_001_R158G218B229A255,4217,-23919930.0,258.7851,-1797.709,417105.2,302.8986,33718.35,23930139.684446234
PART_001_R158G218B229A255,4218,-23920500.0,-873.699,-3045.066,407188.4,252.8866,18848.84,23928958.64877053
PART_001_R158G218B229A255,4219,-23919870.0,495.0393,-1874.662,404162.3,6.188155e-06,0.001126389,23929421.77744677
PART_001_R158G218B229A255,4220,-23920500.0,-873.699,-3045.066,407188.4,-252.8866,-18848.83,23928958.648746897
PART_001_R158G218B229A255,4221,-23919930.0,258.7851,-1797.709,417105.2,-302.8986,-33718.35,23930139.684446234
PART_001_R158G218B229A255,4222,-23920520.0,-939.9752,-3102.396,435090.6,-1030.975,-40760.3,23930471.953704208
PART_001_R158G218B229A255,4223,-23920290.0,-1729.487,-798.2421,466114.6,-1441.882,-33330.65,23932716.925027795
PART_002_R214G39B40A255,4224,-23916770.0,2913.625,4293.842,522758.1,1481.036,-12175.07,23937513.662655197
PART_003_R247G182B210A255,4225,-29901490.0,1929.614,-9645.946,192013.3,2283.0,32817.54,29899537.51662047
PART_001_R158G218B229A255,4226,-29901970.0,-2507.978,-5510.152,164989.3,1397.579,70939.83,29899579.302659743
PART_001_R158G218B229A255,4227,-29900120.0,1235.533,-4595.388,154675.7,276.9791,72242.21,29899902.5922491
PART_001_R158G218B229A255,4228,-29900670.0,-1036.037,-3177.621,147848.4,326.2345,56323.27,29899819.026705313
PART_001_R158G218B229A255,4229,-29899990.0,726.4636,-3657.234,144592.6,46.95021,30403.08,29899620.109004106
PART_001_R158G218B229A255,4230,-29900410.0,-719.6167,-2748.022,143387.0,-1.52136e-06,0.001523488,29899707.689816896
PART_001_R158G218B229A255,4231,-29899990.0,726.4636,-3657.234,144592.6,-46.95021,-30403.08,29899620.109004106
PART_001_R158G218B229A255,4232,-29900670.0,-1036.037,-3177.621,147848.4,-326.2345,-56323.27,29899819.026705313
PART_001_R158G218B229A255,4233,-29900120.0,1235.533,-4595.388,154675.7,-276.9791,-72242.21,29899902.5922491
PART_001_R158G218B229A255,4234,-29901970.0,-2507.978,-5510.152,164989.3,-1397.578,-70939.83,29899579.302659597
PART_001_R158G218B229A255,4235,-29901490.0,1929.614,-9645.946,192013.3,-2283.0,-32817.53,29899537.51658754
PART_003_R247G182B210A255,4236,29583360.0,-2223.656,8652.487,191991.2,2246.441,-32813.31,29582071.067796167
PART_000_R31G119B180A255,4237,29583950.0,2830.379,6329.068,165003.4,1389.853,-70950.53,29581006.42691423
PART_000_R31G119B180A255,4238,29581900.0,-1518.954,3701.958,154667.4,269.3012,-72230.91,29582286.42250809
PART_000_R31G119B180A255,4239,29582730.0,1385.695,4000.013,147856.7,325.525,-56333.54,29581306.73613025
PART_000_R31G119B180A255,4240,29581740.0,-1024.356,2784.38,144587.7,45.10673,-30397.92,29581967.09864323
PART_000_R31G119B180A255,4241,29582500.0,1077.56,3570.345,143393.8,-3.219795e-06,-0.001522619,29581218.788400367
PART_000_R31G119B180A255,4242,29581740.0,-1024.356,2784.38,144587.7,-45.10672,30397.91,29581967.0986124
PART_000_R31G119B180A255,4243,29582730.0,1385.695,4000.013,147856.7,-325.5251,56333.54,29581306.736130252
PART_000_R31G119B180A255,4244,29581900.0,-1518.954,3701.957,154667.4,-269.3011,72230.91,29582286.42300793
PART_000_R31G119B180A255,4245,29583950.0,2830.379,6329.068,165003.4,-1389.853,70950.53,29581006.42691423
PART_000_R31G119B180A255,4246,29583360.0,-2223.656,8652.488,191991.2,-2246.441,32813.31,29582071.06729647
PART_003_R247G182B210A255,4247,23662310.0,-3137.546,-5012.606,522777.1,-1462.111,-12169.98,23683710.090055604
PART_003_R247G182B210A255,4248,23665890.0,1960.842,1530.717,466106.9,1426.416,-33341.82,23677981.964030053
PART_000_R31G119B180A255,4249,23665940.0,626.7795,2321.544,435090.4,1019.672,-40749.53,23676567.344616625
PART_000_R31G119B180A255,4250,23665590.0,7.691621,2504.323,417101.5,299.8274,-33727.8,23675431.188037753
PART_000_R31G119B180A255,4251,23665880.0,552.5838,2272.797,407186.6,249.9665,-18844.16,23674997.012516897
PART_000_R31G119B180A255,4252,23665550.0,-221.8685,2576.71,404159.5,5.825848e-06,-0.001127654,23674724.28874117
PART_000_R31G119B180A255,4253,23665880.0,552.5838,2272.797,407186.6,-249.9665,18844.16,23674997.012516897
PART_000_R31G119B180A255,4254,23665590.0,7.691605,2504.323,417101.5,-299.8274,33727.8,23675431.188045748
PART_000_R31G119B180A255,4255,23665940.0,626.7794,2321.544,435090.4,-1019.672,40749.53,23676567.344666608
PART_000_R31G119B180A255,4256,23665890.0,1960.842,1530.717,466106.9,-1426.417,33341.82,23677981.964030232
PART_002_R214G39B40A255,4257,23662310.0,-3137.546,-5012.606,522777.1,1462.111,12169.98,23683710.090055604
PART_003_R247G182B210A255,4258,17748910.0,-1825.593,2318.87,764223.5,155.203,-6640.863,17797958.002298675
PART_003_R247G182B210A255,4259,17748100.0,-469.4928,-885.7872,701009.9,-1560.391,-16758.07,17790283.929353807
PART_003_R247G182B210A255,4260,17749170.0,1297.42,81.53607,657571.5,618.7328,-21363.61,17785025.531052113
PART_000_R31G119B180A255,4261,17749350.0,525.5411,1845.888,630705.3,165.8305,-19073.81,17781782.696072325
PART_000_R31G119B180A255,4262,17749090.0,173.2581,998.647,615896.0,134.6727,-10888.87,17780543.744177986
PART_000_R31G119B180A255,4263,17749450.0,568.5931,2101.772,611097.1,-1.442983e-05,-0.000789684,17779648.48733663
PART_000_R31G119B180A255,4264,17749090.0,173.2581,998.647,615896.0,-134.6727,10888.87,17780543.744177986
PART_000_R31G119B180A255,4265,17749350.0,525.5411,1845.888,630705.3,-165.8305,19073.81,17781782.696072325
PART_000_R31G119B180A255,4266,17749170.0,1297.42,81.53601,657571.5,-618.7328,21363.61,17785025.531082053
PART_002_R214G39B40A255,4267,17748100.0,-469.4928,-885.7871,701009.9,1560.391,16758.07,17790283.92930392
PART_002_R214G39B40A255,4268,17748910.0,-1825.593,2318.87,764223.4,-155.203,6640.862,17797957.989415906
PART_003_R247G182B210A255,4269,11831520.0,-1312.127,-1646.629,932920.5,-620.3014,-3074.108,11942819.007519512
PART_003_R247G182B210A255,4270,11832690.0,-6.699481,1001.239,865937.9,50.34194,-8495.758,11926883.392101865
PART_003_R247G182B210A255,4271,11832400.0,-48.37166,-203.57,817670.7,-1183.397,-10881.56,11916995.695882259
PART_003_R247G182B210A255,4272,11832800.0,878.6337,404.5788,785362.5,183.4908,-9834.141,11910106.860332849
PART_000_R31G119B180A255,4273,11832830.0,209.6757,868.3783,767155.3,-179.2509,-5810.5,11906670.11133809
PART_000_R31G119B180A255,4274,11832800.0,458.4893,794.711,761250.6,1.551381e-05,-0.000498325,11905411.999460699
PART_000_R31G119B180A255,4275,11832830.0,209.6757,868.3783,767155.3,179.2509,5810.499,11906670.111336626
PART_000_R31G119B180A255,4276,11832800.0,878.6337,404.5788,785362.5,-183.4907,9834.14,11910106.860330367
PART_002_R214G39B40A255,4277,11832400.0,-48.37168,-203.5699,817670.7,1183.397,10881.56,11916995.695842542
PART_002_R214G39B40A255,4278,11832690.0,-6.699469,1001.239,865937.9,-50.34195,8495.758,11926883.392095912
PART_002_R214G39B40A255,4279,11831520.0,-1312.127,-1646.629,932920.5,620.3014,3074.108,11942819.007519512
PART_003_R247G182B210A255,4280,5916237.0,-599.8517,559.0013,1032765.0,-82.45874,-1353.846,6180770.104380978
PART_003_R247G182B210A255,4281,5916001.0,-221.683,-328.1326,964426.6,-1201.364,-3496.873,6147578.193098868
PART_003_R247G182B210A255,4282,5916349.0,239.2091,92.45963,913531.0,-83.18603,-4583.415,6124124.669960308
PART_003_R247G182B210A255,4283,5916338.0,139.625,314.5449,878890.2,-933.3003,-4177.302,6108826.998351971
PART_003_R247G182B210A255,4284,5916368.0,346.8962,54.39417,858769.7,16.26748,-2459.084,6100287.744798381
PART_000_R31G119B180A255,4285,5916449.0,179.85,604.3118,852243.2,-9.294738e-06,-0.00024124,6097432.658176355
PART_000_R31G119B180A255,4286,5916368.0,346.8962,54.39416,858769.7,-16.26746,2459.084,6100287.74480323
PART_002_R214G39B40A255,4287,5916338.0,139.625,314.5449,878890.2,933.3003,4177.302,6108826.998351971
PART_002_R214G39B40A255,4288,5916349.0,239.2091,92.45962,913531.0,83.18603,4583.414,6124124.669962894
PART_002_R214G39B40A255,4289,5916001.0,-221.683,-328.1326,964426.6,1201.364,3496.872,6147578.193097162
PART_002_R214G39B40A255,4290,5916237.0,-599.8517,559.0013,1032765.0,82.45875,1353.846,6180770.104380979
PART_003_R247G182B210A255,4291,0.006471832,-7.197619e-06,-9.246547e-06,1065918.0,-482.0631,-1.014389e-06,1846224.321507681
PART_003_R247G182B210A255,4292,0.006471617,2.205666e-06,-1.144663e-05,997061.0,-202.6646,-3.757929e-06,1726960.3459204906
PART_003_R247G182B210A255,4293,0.006476441,1.945139e-06,1.338663e-06,945571.5,-1284.063,-5.101367e-06,1637779.3902995952
PART_003_R247G182B210A255,4294,0.006470133,-6.722221e-06,5.162548e-07,910065.8,-78.56785,-4.513928e-06,1576280.209705001
PART_003_R247G182B210A255,4295,0.006470455,-2.731399e-06,-3.166807e-06,889484.8,-533.3908,-2.568527e-06,1540633.1431623676
PART_003_R247G182B210A255,4296,0.006467995,-1.088669e-05,1.074535e-06,882687.5,1.201085e-05,-2.725384e-07,1528859.5972059534
PART_002_R214G39B40A255,4297,0.006468727,-4.102733e-06,-1.914668e-06,889484.8,533.3907,2.77595e-06,1540633.1431622638
PART_002_R214G39B40A255,4298,0.006465314,-7.949069e-06,-5.903138e-07,910065.8,78.56786,4.32125e-06,1576280.2097050024
PART_002_R214G39B40A255,4299,0.006465393,-7.012004e-06,-7.727589e-07,945571.5,1284.063,5.065792e-06,1637779.3902995952
PART_002_R214G39B40A255,4300,0.006461023,1.058125e-06,-1.16891e-05,997061.0,202.6646,3.637962e-06,1726960.3459204906
PART_002_R214G39B40A255,4301,0.006458142,-1.015633e-05,-1.188232e-05,1065918.0,482.0631,1.009752e-06,1846224.321507681
PART_003_R247G182B210A255,4302,-5916237.0,599.8517,-559.0013,1032765.0,-82.45876,1353.846,6180770.104380979
PART_003_R247G182B210A255,4303,-5916001.0,221.683,328.1326,964426.6,-1201.364,3496.873,6147578.193098868
PART_003_R247G182B210A255,4304,-5916349.0,-239.2091,-92.45964,913531.0,-83.18603,4583.415,6124124.669955478
PART_003_R247G182B210A255,4305,-5916338.0,-139.625,-314.5449,878890.2,-933.3003,4177.302,6108826.998351971
PART_003_R247G182B210A255,4306,-5916368.0,-346.8961,-54.39417,858769.7,16.26748,2459.084,6100287.744846868
PART_001_R158G218B229A255,4307,-5916449.0,-179.8499,-604.3118,852243.2,-8.844562e-06,0.0002411629,6097432.658224873
PART_001_R158G218B229A255,4308,-5916368.0,-346.8961,-54.39416,858769.7,-16.26746,-2459.084,6100287.744851718
PART_002_R214G39B40A255,4309,-5916338.0,-139.625,-314.5449,878890.2,933.3003,-4177.302,6108826.998351971
PART_002_R214G39B40A255,4310,-5916349.0,-239.2091,-92.45963,913531.0,83.18602,-4583.414,6124124.6699580625
PART_002_R214G39B40A255,4311,-5916001.0,221.683,328.1326,964426.6,1201.364,-3496.872,6147578.193097162
PART_002_R214G39B40A255,4312,-5916237.0,599.8517,-559.0013,1032765.0,82.45876,-1353.846,6180770.104380979
PART_003_R247G182B210A255,4313,-11831520.0,1312.127,1646.629,932920.5,-620.3014,3074.108,11942819.007519512
PART_003_R247G182B210A255,4314,-11832690.0,6.699464,-1001.239,865937.9,50.34195,8495.758,11926883.392093431
PART_003_R247G182B210A255,4315,-11832400.0,48.37165,203.57,817670.7,-1183.397,10881.56,11916995.695877293
PART_003_R247G182B210A255,4316,-11832800.0,-878.6337,-404.5788,785362.5,183.4908,9834.141,11910106.860332849
PART_001_R158G218B229A255,4317,-11832830.0,-209.6757,-868.3783,767155.3,-179.2509,5810.5,11906670.11133809
PART_001_R158G218B229A255,4318,-11832800.0,-458.4893,-794.711,761250.6,1.603473e-05,0.0004978339,11905411.999460699
PART_001_R158G218B229A255,4319,-11832830.0,-209.6757,-868.3783,767155.3,179.2509,-5810.499,11906670.111336626
PART_001_R158G218B229A255,4320,-11832800.0,-878.6337,-404.5788,785362.5,-183.4907,-9834.14,11910106.860330367
PART_002_R214G39B40A255,4321,-11832400.0,48.37167,203.5699,817670.7,1183.397,-10881.56,11916995.695837576
PART_002_R214G39B40A255,4322,-11832690.0,6.699452,-1001.239,865937.9,-50.34195,-8495.758,11926883.392087478
PART_002_R214G39B40A255,4323,-11831520.0,1312.127,1646.629,932920.5,620.3014,-3074.107,11942819.007518739
PART_003_R247G182B210A255,4324,-17748910.0,1825.593,-2318.87,764223.5,155.203,6640.863,17797958.002298675
PART_003_R247G182B210A255,4325,-17748100.0,469.4928,885.7872,701009.9,-1560.391,16758.07,17790283.929353807
PART_003_R247G182B210A255,4326,-17749170.0,-1297.42,-81.53608,657571.5,618.7328,21363.61,17785025.531047124
PART_001_R158G218B229A255,4327,-17749350.0,-525.5411,-1845.888,630705.3,165.8305,19073.81,17781782.696072325
PART_001_R158G218B229A255,4328,-17749090.0,-173.2581,-998.647,615896.0,134.6727,10888.87,17780543.744177986
PART_001_R158G218B229A255,4329,-17749450.0,-568.5931,-2101.772,611097.1,-1.569458e-05,0.0007894274,17779648.48733663
PART_001_R158G218B229A255,4330,-17749090.0,-173.2581,-998.647,615896.0,-134.6727,-10888.87,17780543.744177986
PART_001_R158G218B229A255,4331,-17749350.0,-525.5411,-1845.888,630705.3,-165.8305,-19073.81,17781782.696072325
PART_001_R158G218B229A255,4332,-17749170.0,-1297.42,-81.53602,657571.5,-618.7328,-21363.61,17785025.531077065
PART_002_R214G39B40A255,4333,-17748100.0,469.4928,885.7871,701009.9,1560.391,-16758.07,17790283.92930392
PART_002_R214G39B40A255,4334,-17748910.0,1825.593,-2318.87,764223.4,-155.203,-6640.862,17797957.989415906
PART_003_R247G182B210A255,4335,-23662310.0,3137.546,5012.606,522777.1,-1462.111,12169.98,23683710.090055604
PART_003_R247G182B210A255,4336,-23665890.0,-1960.842,-1530.717,466106.9,1426.416,33341.82,23677981.964030053
PART_001_R158G218B229A255,4337,-23665940.0,-626.7795,-2321.544,435090.4,1019.672,40749.53,23676567.344616625
PART_001_R158G218B229A255,4338,-23665590.0,-7.691621,-2504.323,417101.5,299.8274,33727.8,23675431.188037753
PART_001_R158G218B229A255,4339,-23665880.0,-552.5838,-2272.797,407186.6,249.9665,18844.16,23674997.012516897
PART_001_R158G218B229A255,4340,-23665550.0,221.8684,-2576.71,404159.5,4.591186e-06,0.001127021,23674724.288691185
PART_001_R158G218B229A255,4341,-23665880.0,-552.5838,-2272.797,407186.6,-249.9665,-18844.16,23674997.012516897
PART_001_R158G218B229A255,4342,-23665590.0,-7.69161,-2504.323,417101.5,-299.8274,-33727.8,23675431.188043248
PART_001_R158G218B229A255,4343,-23665940.0,-626.7794,-2321.544,435090.4,-1019.672,-40749.53,23676567.344666608
PART_001_R158G218B229A255,4344,-23665890.0,-1960.842,-1530.717,466106.9,-1426.417,-33341.82,23677981.964030232
PART_002_R214G39B40A255,4345,-23662310.0,3137.546,5012.606,522777.1,1462.111,-12169.98,23683710.090055604
PART_003_R247G182B210A255,4346,-29583360.0,2223.656,-8652.487,191991.2,2246.441,32813.31,29582071.067796167
PART_001_R158G218B229A255,4347,-29583950.0,-2830.379,-6329.068,165003.4,1389.853,70950.53,29581006.42691423
PART_001_R158G218B229A255,4348,-29581900.0,1518.954,-3701.958,154667.4,269.3012,72230.91,29582286.42250809
PART_001_R158G218B229A255,4349,-29582730.0,-1385.695,-4000.013,147856.7,325.525,56333.54,29581306.73613025
PART_001_R158G218B229A255,4350,-29581740.0,1024.356,-2784.38,144587.7,45.10673,30397.92,29581967.09864323
PART_001_R158G218B229A255,4351,-29582500.0,-1077.56,-3570.345,143393.8,-2.387028e-06,0.00152371,29581218.788400367
PART_001_R158G218B229A255,4352,-29581740.0,1024.356,-2784.38,144587.7,-45.10672,-30397.91,29581967.0986124
PART_001_R158G218B229A255,4353,-29582730.0,-1385.695,-4000.013,147856.7,-325.5251,-56333.54,29581306.736130252
PART_001_R158G218B229A255,4354,-29581900.0,1518.954,-3701.957,154667.4,-269.3012,-72230.91,29582286.423007935
PART_001_R158G218B229A255,4355,-29583950.0,-2830.379,-6329.068,165003.4,-1389.853,-70950.53,29581006.42691423
PART_001_R158G218B229A255,4356,-29583360.0,2223.656,-8652.488,191991.2,-2246.441,-32813.31,29582071.06729647
PART_003_R247G182B210A255,4357,29265280.0,-1942.66,9286.112,192009.0,2232.211,-32817.03,29263555.17591686
PART_000_R31G119B180A255,4358,29265770.0,2516.079,5545.433,164991.8,1369.08,-70942.39,29263392.855922014
PART_000_R31G119B180A255,4359,29263920.0,-1259.912,4350.797,154674.0,270.1901,-72240.97,29263868.797282096
PART_000_R31G119B180A255,4360,29264510.0,1077.505,3258.284,147849.9,319.7284,-56325.82,29263625.304217365
PART_000_R31G119B180A255,4361,29263800.0,-763.2383,3434.108,144591.6,45.6782,-30402.55,29263583.833558682
PART_000_R31G119B180A255,4362,29264270.0,768.6754,2836.779,143388.1,-7.498471e-07,-0.001522973,29263521.225941785
PART_000_R31G119B180A255,4363,29263800.0,-763.2383,3434.108,144591.6,-45.67819,30402.55,29263583.833558682
PART_000_R31G119B180A255,4364,29264510.0,1077.505,3258.284,147849.9,-319.7284,56325.81,29263625.30415962
PART_000_R31G119B180A255,4365,29263920.0,-1259.912,4350.797,154674.0,-270.1901,72240.97,29263868.797282096
PART_000_R31G119B180A255,4366,29265770.0,2516.08,5545.433,164991.8,-1369.08,70942.39,29263392.855421968
PART_000_R31G119B180A255,4367,29265280.0,-1942.66,9286.112,192009.0,-2232.211,32817.03,29263555.17591686
PART_003_R247G182B210A255,4368,23407890.0,-2895.539,-4334.339,522762.0,-1448.978,-12174.33,23429017.399987288
PART_003_R247G182B210A255,4369,23411360.0,1735.52,908.5809,466113.5,1411.077,-33333.27,23424026.16953308
PART_000_R31G119B180A255,4370,23411550.0,867.4719,2906.896,435091.0,1008.819,-40759.07,23421896.0755517
PART_000_R31G119B180A255,4371,23411020.0,-208.0777,1883.692,417105.0,296.3253,-33720.71,23421399.933595054
PART_000_R31G119B180A255,4372,23411520.0,801.1278,2851.785,407188.7,247.3685,-18848.37,23420337.93176596
PART_000_R31G119B180A255,4373,23410960.0,-438.5907,1958.125,404162.4,7.41243e-06,-0.001127139,23420664.40105908
PART_000_R31G119B180A255,4374,23411520.0,801.1279,2851.785,407188.7,-247.3685,18848.36,23420337.93169183
PART_000_R31G119B180A255,4375,23411020.0,-208.0777,1883.692,417105.0,-296.3253,33720.71,23421399.933595054
PART_000_R31G119B180A255,4376,23411550.0,867.4719,2906.896,435091.0,-1008.819,40759.07,23421896.0755517
PART_000_R31G119B180A255,4377,23411360.0,1735.52,908.5808,466113.5,-1411.077,33333.27,23424026.169583056
PART_002_R214G39B40A255,4378,23407890.0,-2895.539,-4334.339,522762.0,1448.978,12174.33,23429017.399987288
PART_003_R247G182B210A255,4379,17558080.0,-1636.656,2779.384,764231.4,154.8966,-6642.888,17607339.53450581
PART_003_R247G182B210A255,4380,17557210.0,-647.657,-1353.538,701009.3,-1543.036,-16752.62,17600166.219943285
PART_003_R247G182B210A255,4381,17558390.0,1445.209,540.9966,657565.8,611.5499,-21370.54,17594338.17979286
PART_000_R31G119B180A255,4382,17558410.0,327.9717,1359.517,630704.2,164.2428,-19068.52,17591548.76324392
PART_000_R31G119B180A255,4383,17558330.0,339.1855,1442.553,615890.9,133.0158,-10892.07,17589826.335407946
PART_000_R31G119B180A255,4384,17558510.0,367.5207,1614.853,611095.9,-1.474372e-05,-0.0007895893,17589394.03839669
PART_000_R31G119B180A255,4385,17558330.0,339.1855,1442.553,615890.9,-133.0158,10892.07,17589826.335407946
PART_000_R31G119B180A255,4386,17558410.0,327.9716,1359.517,630704.2,-164.2428,19068.52,17591548.763293833
PART_000_R31G119B180A255,4387,17558390.0,1445.209,540.9966,657565.8,-611.5499,21370.54,17594338.17979286
PART_002_R214G39B40A255,4388,17557210.0,-647.657,-1353.538,701009.3,1543.036,16752.62,17600166.219943285
PART_002_R214G39B40A255,4389,17558080.0,-1636.656,2779.384,764231.4,-154.8966,6642.888,17607339.53450581
PART_003_R247G182B210A255,4390,11704310.0,-1189.411,-1304.639,932908.8,-614.7504,-3076.276,11816558.352033537
PART_003_R247G182B210A255,4391,11705430.0,-114.5494,675.6232,865941.4,49.19168,-8491.674,11800860.31945693
PART_003_R247G182B210A255,4392,11705220.0,79.98388,115.4978,817673.2,-1170.734,-10886.2,11790505.2957339
PART_003_R247G182B210A255,4393,11705520.0,756.6593,91.98963,785367.5,181.4135,-9830.725,11783885.669130148
PART_000_R31G119B180A255,4394,11705660.0,338.3342,1172.021,767157.6,-177.4192,-5812.576,11780088.761337213
PART_000_R31G119B180A255,4395,11705500.0,339.4261,479.5388,761255.7,1.565477e-05,-0.0004983114,11779120.288082216
PART_000_R31G119B180A255,4396,11705660.0,338.3342,1172.021,767157.6,177.4192,5812.575,11780088.761335732
PART_000_R31G119B180A255,4397,11705520.0,756.6593,91.9896,785367.5,-181.4135,9830.724,11783885.669142546
PART_002_R214G39B40A255,4398,11705220.0,79.98387,115.4978,817673.2,1170.734,10886.2,11790505.295738865
PART_002_R214G39B40A255,4399,11705430.0,-114.5493,675.6231,865941.3,-49.19168,8491.673,11800860.297440907
PART_002_R214G39B40A255,4400,11704310.0,-1189.411,-1304.639,932908.8,614.7504,3076.276,11816558.352033537
PART_003_R247G182B210A255,4401,5852628.0,-536.1366,717.3714,1032771.0,-80.8054,-1354.556,6119807.867292044
PART_003_R247G182B210A255,4402,5852371.0,-280.7757,-486.1719,964427.8,-1187.846,-3494.968,6086471.784523728
PART_003_R247G182B210A255,4403,5852755.0,291.6472,247.4016,913524.7,-82.6668,-4585.833,6062609.296845854
PART_003_R247G182B210A255,4404,5852694.0,73.32333,153.0848,878888.4,-923.313,-4175.484,6047321.001749688
PART_003_R247G182B210A255,4405,5852781.0,400.3589,207.9123,858764.7,15.95872,-2460.185,6038537.411021566
PART_000_R31G119B180A255,4406,5852800.0,112.0601,440.4346,852241.2,-6.998275e-06,-0.0002408364,6035808.110364106
PART_000_R31G119B180A255,4407,5852781.0,400.3588,207.9123,858764.7,-15.9587,2460.185,6038537.411070024
PART_002_R214G39B40A255,4408,5852694.0,73.32332,153.0848,878888.4,923.313,4175.483,6047321.001752456
PART_002_R214G39B40A255,4409,5852755.0,291.6472,247.4016,913524.7,82.66679,4585.833,6062609.296845854
PART_002_R214G39B40A255,4410,5852371.0,-280.7757,-486.1719,964427.8,1187.846,3494.968,6086471.784523728
PART_002_R214G39B40A255,4411,5852628.0,-536.1366,717.3714,1032771.0,80.8054,1354.556,6119807.867292044
PART_003_R247G182B210A255,4412,0.00640283,-2.75935e-06,-4.069131e-06,1065907.0,-477.772,-1.650644e-06,1846205.2656043563
PART_003_R247G182B210A255,4413,0.006402841,5.600647e-06,-1.333678e-05,997063.6,-201.1185,-3.923412e-06,1726964.8487102548
PART_003_R247G182B210A255,4414,0.006407659,8.035896e-06,7.623703e-06,945574.0,-1270.452,-5.124059e-06,1637783.6885782117
PART_003_R247G182B210A255,4415,0.006402048,6.09751e-07,-4.369143e-07,910071.1,-77.76396,-4.995221e-06,1576289.3894546556
PART_003_R247G182B210A255,4416,0.006404997,1.106031e-05,6.203558e-06,889486.8,-527.8058,-2.460575e-06,1540636.6014929048
PART_003_R247G182B210A255,4417,0.006401586,3.871512e-06,4.02128e-06,882692.9,1.230847e-05,1.359321e-07,1528868.9502803143
PART_002_R214G39B40A255,4418,0.006403048,1.23178e-05,6.811999e-06,889486.8,527.8057,2.49946e-06,1540636.6014928021
PART_002_R214G39B40A255,4419,0.00640051,6.901341e-06,3.239306e-06,910071.1,77.76398,4.660509e-06,1576289.3894546584
PART_002_R214G39B40A255,4420,0.006402056,1.165142e-05,1.09359e-05,945574.0,1270.452,5.538258e-06,1637783.6885782117
PART_002_R214G39B40A255,4421,0.006392524,2.864566e-06,-1.425477e-05,997063.6,201.1185,3.543094e-06,1726964.8487102548
PART_002_R214G39B40A255,4422,0.006389829,-2.506725e-06,-5.022145e-06,1065907.0,477.772,1.24282e-06,1846205.2656043563
PART_003_R247G182B210A255,4423,-5852628.0,536.1366,-717.3714,1032771.0,-80.80541,1354.556,6119807.867292045
PART_003_R247G182B210A255,4424,-5852371.0,280.7757,486.1719,964427.8,-1187.846,3494.968,6086471.784523728
PART_003_R247G182B210A255,4425,-5852755.0,-291.6472,-247.4016,913524.7,-82.66679,4585.833,6062609.296845854
PART_003_R247G182B210A255,4426,-5852694.0,-73.32333,-153.0848,878888.4,-923.313,4175.484,6047321.001749688
PART_003_R247G182B210A255,4427,-5852781.0,-400.3589,-207.9123,858764.7,15.95872,2460.185,6038537.411021566
PART_001_R158G218B229A255,4428,-5852800.0,-112.0601,-440.4346,852241.2,-9.543074e-06,0.0002406728,6035808.110364106
PART_001_R158G218B229A255,4429,-5852781.0,-400.3589,-207.9123,858764.7,-15.9587,-2460.185,6038537.411021566
PART_002_R214G39B40A255,4430,-5852694.0,-73.32333,-153.0848,878888.4,923.313,-4175.483,6047321.001747616
PART_002_R214G39B40A255,4431,-5852755.0,-291.6472,-247.4016,913524.7,82.66679,-4585.833,6062609.296845854
PART_002_R214G39B40A255,4432,-5852371.0,280.7757,486.1719,964427.8,1187.846,-3494.968,6086471.784523728
PART_002_R214G39B40A255,4433,-5852628.0,536.1366,-717.3714,1032771.0,80.80541,-1354.556,6119807.867292045
PART_003_R247G182B210A255,4434,-11704310.0,1189.411,1304.639,932908.8,-614.7504,3076.276,11816558.352033537
PART_003_R247G182B210A255,4435,-11705430.0,114.5493,-675.6232,865941.4,49.19168,8491.674,11800860.319407329
PART_003_R247G182B210A255,4436,-11705220.0,-79.98386,-115.4978,817673.2,-1170.734,10886.2,11790505.295743829
PART_003_R247G182B210A255,4437,-11705520.0,-756.6593,-91.98963,785367.5,181.4135,9830.725,11783885.669130148
PART_001_R158G218B229A255,4438,-11705660.0,-338.3342,-1172.021,767157.6,-177.4192,5812.576,11780088.761337213
PART_001_R158G218B229A255,4439,-11705500.0,-339.426,-479.5388,761255.7,1.583234e-05,0.0004980515,11779120.288131902
PART_001_R158G218B229A255,4440,-11705660.0,-338.3341,-1172.021,767157.6,177.4192,-5812.575,11780088.761385418
PART_001_R158G218B229A255,4441,-11705520.0,-756.6593,-91.9896,785367.5,-181.4135,-9830.724,11783885.669142546
PART_002_R214G39B40A255,4442,-11705220.0,-79.98384,-115.4978,817673.2,1170.734,-10886.2,11790505.295753757
PART_002_R214G39B40A255,4443,-11705430.0,114.5493,-675.6232,865941.3,-49.19169,-8491.673,11800860.297391318
PART_002_R214G39B40A255,4444,-11704310.0,1189.411,1304.639,932908.8,614.7504,-3076.276,11816558.352033537
PART_003_R247G182B210A255,4445,-17558080.0,1636.656,-2779.384,764231.4,154.8966,6642.888,17607339.53450581
PART_003_R247G182B210A255,4446,-17557210.0,647.657,1353.538,701009.3,-1543.036,16752.62,17600166.219943285
PART_003_R247G182B210A255,4447,-17558390.0,-1445.209,-540.9966,657565.8,611.5499,21370.54,17594338.17979286
PART_001_R158G218B229A255,4448,-17558410.0,-327.9717,-1359.517,630704.2,164.2428,19068.52,17591548.76324392
PART_001_R158G218B229A255,4449,-17558330.0,-339.1856,-1442.553,615890.9,133.0158,10892.07,17589826.33535803
PART_001_R158G218B229A255,4450,-17558510.0,-367.5207,-1614.853,611095.9,-1.483797e-05,0.0007904704,17589394.03839669
PART_001_R158G218B229A255,4451,-17558330.0,-339.1856,-1442.553,615890.9,-133.0158,-10892.07,17589826.33535803
PART_001_R158G218B229A255,4452,-17558410.0,-327.9717,-1359.517,630704.2,-164.2428,-19068.52,17591548.76324392
PART_001_R158G218B229A255,4453,-17558390.0,-1445.209,-540.9966,657565.8,-611.5499,-21370.54,17594338.17979286
PART_002_R214G39B40A255,4454,-17557210.0,647.657,1353.538,701009.3,1543.036,-16752.62,17600166.219943285
PART_002_R214G39B40A255,4455,-17558080.0,1636.656,-2779.384,764231.4,-154.8966,-6642.888,17607339.53450581
PART_003_R247G182B210A255,4456,-23407890.0,2895.539,4334.339,522762.0,-1448.978,12174.33,23429017.399987288
PART_003_R247G182B210A255,4457,-23411360.0,-1735.52,-908.5809,466113.5,1411.077,33333.27,23424026.16953308
PART_001_R158G218B229A255,4458,-23411550.0,-867.4719,-2906.896,435091.0,1008.819,40759.07,23421896.0755517
PART_001_R158G218B229A255,4459,-23411020.0,208.0777,-1883.692,417105.0,296.3253,33720.71,23421399.933595054
PART_001_R158G218B229A255,4460,-23411520.0,-801.1278,-2851.785,407188.7,247.3685,18848.37,23420337.93176596
PART_001_R158G218B229A255,4461,-23410960.0,438.5907,-1958.125,404162.4,4.617934e-06,0.001126799,23420664.40105908
PART_001_R158G218B229A255,4462,-23411520.0,-801.1278,-2851.785,407188.7,-247.3685,-18848.36,23420337.931741815
PART_001_R158G218B229A255,4463,-23411020.0,208.0777,-1883.692,417105.0,-296.3253,-33720.71,23421399.933595054
PART_001_R158G218B229A255,4464,-23411550.0,-867.4719,-2906.896,435091.0,-1008.819,-40759.07,23421896.0755517
PART_001_R158G218B229A255,4465,-23411360.0,-1735.52,-908.5809,466113.5,-1411.077,-33333.27,23424026.16953308
PART_002_R214G39B40A255,4466,-23407890.0,2895.539,4334.339,522762.0,1448.978,-12174.33,23429017.399987288
PART_003_R247G182B210A255,4467,-29265280.0,1942.66,-9286.112,192009.0,2232.211,32817.03,29263555.17591686
PART_001_R158G218B229A255,4468,-29265770.0,-2516.079,-5545.433,164991.8,1369.08,70942.39,29263392.855922014
PART_001_R158G218B229A255,4469,-29263920.0,1259.912,-4350.797,154674.0,270.1901,72240.97,29263868.797282096
PART_001_R158G218B229A255,4470,-29264510.0,-1077.505,-3258.284,147849.9,319.7284,56325.82,29263625.304217365
PART_001_R158G218B229A255,4471,-29263800.0,763.2383,-3434.107,144591.6,45.6782,30402.55,29263583.834058553
PART_001_R158G218B229A255,4472,-29264270.0,-768.6754,-2836.779,143388.1,-3.226215e-06,0.001523461,29263521.225941785
PART_001_R158G218B229A255,4473,-29263800.0,763.2383,-3434.107,144591.6,-45.67819,-30402.55,29263583.834058553
PART_001_R158G218B229A255,4474,-29264510.0,-1077.505,-3258.284,147849.9,-319.7284,-56325.81,29263625.30415962
PART_001_R158G218B229A255,4475,-29263920.0,1259.912,-4350.797,154674.0,-270.1901,-72240.97,29263868.797282096
PART_001_R158G218B229A255,4476,-29265770.0,-2516.08,-5545.433,164991.8,-1369.08,-70942.39,29263392.855421968
PART_001_R158G218B229A255,4477,-29265280.0,1942.66,-9286.112,192009.0,-2232.211,-32817.03,29263555.17591686
PART_003_R247G182B210A255,4478,28947160.0,-2131.833,8592.264,191994.6,2199.9,-32814.13,28945897.60612217
PART_000_R31G119B180A255,4479,28947720.0,2719.435,6068.331,165001.3,1358.915,-70949.43,28944998.158890072
PART_000_R31G119B180A255,4480,28945750.0,-1444.999,3741.201,154668.7,264.1522,-72233.21,28946112.34006367
PART_000_R31G119B180A255,4481,28946520.0,1304.148,3791.977,147855.5,318.0888,-56332.56,28945269.393855847
PART_000_R31G119B180A255,4482,28945600.0,-959.7688,2841.482,144588.5,44.30522,-30399.0,28945790.601937763
PART_000_R31G119B180A255,4483,28946290.0,1001.933,3372.02,143392.8,-1.585824e-06,-0.001523365,28945168.656154722
PART_000_R31G119B180A255,4484,28945600.0,-959.7689,2841.482,144588.5,-44.30522,30399.0,28945790.60198777
PART_000_R31G119B180A255,4485,28946520.0,1304.148,3791.977,147855.5,-318.0889,56332.56,28945269.39385585
PART_000_R31G119B180A255,4486,28945750.0,-1444.999,3741.201,154668.7,-264.1522,72233.21,28946112.34006367
PART_000_R31G119B180A255,4487,28947720.0,2719.435,6068.331,165001.3,-1358.915,70949.43,28944998.158890072
PART_000_R31G119B180A255,4488,28947160.0,-2131.833,8592.264,191994.6,-2199.9,32814.13,28945897.60612217
PART_003_R247G182B210A255,4489,23153440.0,-3034.012,-4797.171,522774.0,-1431.156,-12170.91,23175060.923883773
PART_003_R247G182B210A255,4490,23156940.0,1883.885,1393.553,466107.8,1395.684,-33340.59,23169442.97272785
PART_000_R31G119B180A255,4491,23157010.0,656.3479,2376.688,435090.3,997.6807,-40751.7,23167860.851050943
PART_000_R31G119B180A255,4492,23156640.0,-29.20545,2347.986,417101.9,293.2463,-33726.91,23166821.56149037
PART_000_R31G119B180A255,4493,23156950.0,584.9514,2327.526,407186.8,244.5557,-18845.15,23166254.82195533
PART_000_R31G119B180A255,4494,23156590.0,-254.4186,2419.156,404159.8,4.73799e-06,-0.001126995,23166086.73159974
PART_000_R31G119B180A255,4495,23156950.0,584.9514,2327.526,407186.8,-244.5557,18845.15,23166254.82195533
PART_000_R31G119B180A255,4496,23156640.0,-29.20546,2347.986,417101.9,-293.2462,33726.91,23166821.561495367
PART_000_R31G119B180A255,4497,23157010.0,656.3479,2376.688,435090.3,-997.6807,40751.7,23167860.851050943
PART_000_R31G119B180A255,4498,23156940.0,1883.885,1393.553,466107.8,-1395.684,33340.59,23169442.97272785
PART_002_R214G39B40A255,4499,23153440.0,-3034.012,-4797.171,522774.0,1431.156,12170.91,23175060.923883773
PART_003_R247G182B210A255,4500,17367220.0,-1757.286,2352.053,764225.4,152.0787,-6641.314,17417297.942248493
PART_003_R247G182B210A255,4501,17366410.0,-490.8413,-948.6904,701010.2,-1526.823,-16757.38,17409545.9959622
PART_003_R247G182B210A255,4502,17367480.0,1297.087,158.2377,657570.9,605.1963,-21365.22,17404098.84803721
PART_000_R31G119B180A255,4503,17367630.0,481.2833,1725.843,630705.6,162.1675,-19073.19,17400882.21165082
PART_000_R31G119B180A255,4504,17367410.0,198.1384,1054.413,615895.7,131.6596,-10889.64,17399526.310251445
PART_000_R31G119B180A255,4505,17367730.0,522.8874,1976.478,611097.5,-1.49673e-05,-0.000790136,17398705.71793722
PART_000_R31G119B180A255,4506,17367410.0,198.1384,1054.413,615895.7,-131.6595,10889.64,17399526.310251445
PART_000_R31G119B180A255,4507,17367630.0,481.2833,1725.843,630705.6,-162.1675,19073.19,17400882.21165082
PART_000_R31G119B180A255,4508,17367480.0,1297.087,158.2377,657570.9,-605.1963,21365.22,17404098.84803721
PART_002_R214G39B40A255,4509,17366410.0,-490.8413,-948.6904,701010.2,1526.823,16757.38,17409545.9959622
PART_002_R214G39B40A255,4510,17367220.0,-1757.286,2352.053,764225.4,-152.0787,6641.314,17417297.942248493
PART_003_R247G182B210A255,4511,11577080.0,-1265.464,-1555.747,932917.6,-607.2044,-3074.592,11690700.576760087
PART_003_R247G182B210A255,4512,11578220.0,-25.02577,925.8542,865937.8,49.01237,-8495.221,11674523.99858814
PART_003_R247G182B210A255,4513,11577950.0,-25.4383,-145.073,817670.5,-1158.135,-10882.66,11664348.025166925
PART_003_R247G182B210A255,4514,11578330.0,840.5003,342.9881,785362.8,179.3587,-9833.762,11657388.116274545
PART_000_R31G119B180A255,4515,11578370.0,227.5626,902.9872,767155.2,-175.5125,-5811.009,11653808.188452756
PART_000_R31G119B180A255,4516,11578320.0,429.108,724.9209,761251.0,1.680874e-05,-0.0004982836,11652580.914118733
PART_000_R31G119B180A255,4517,11578370.0,227.5626,902.9872,767155.2,175.5125,5811.008,11653808.18845126
PART_000_R31G119B180A255,4518,11578330.0,840.5003,342.9881,785362.8,-179.3586,9833.761,11657388.11627201
PART_002_R214G39B40A255,4519,11577950.0,-25.43833,-145.073,817670.5,1158.135,10882.66,11664348.025181813
PART_002_R214G39B40A255,4520,11578220.0,-25.02577,925.8541,865937.8,-49.01238,8495.22,11674523.998635536
PART_002_R214G39B40A255,4521,11577080.0,-1265.464,-1555.747,932917.5,607.2044,3074.592,11690700.552820096
PART_003_R247G182B210A255,4522,5789007.0,-577.0492,575.1022,1032767.0,-80.6135,-1354.006,6059079.374062992
PART_003_R247G182B210A255,4523,5788772.0,-227.3768,-348.7962,964427.5,-1175.569,-3496.637,6025248.437179292
PART_003_R247G182B210A255,4524,5789120.0,243.5261,117.0412,913530.6,-81.67213,-4583.988,6001291.576135198
PART_003_R247G182B210A255,4525,5789100.0,125.5835,280.5672,878890.7,-913.4334,-4177.095,5985710.405401042
PART_003_R247G182B210A255,4526,5789139.0,349.2751,79.39696,858769.7,15.77813,-2459.354,5976966.049650378
PART_000_R31G119B180A255,4527,5789208.0,164.7617,564.1762,852243.8,-1.037492e-05,-0.0002412832,5974083.028427351
PART_000_R31G119B180A255,4528,5789139.0,349.2751,79.39695,858769.7,-15.7781,2459.354,5976966.0496552205
PART_002_R214G39B40A255,4529,5789100.0,125.5835,280.5672,878890.7,913.4333,4177.094,5985710.4053989025
PART_002_R214G39B40A255,4530,5789120.0,243.5261,117.0412,913530.6,81.67212,4583.987,6001291.576132906
PART_002_R214G39B40A255,4531,5788772.0,-227.3768,-348.7962,964427.5,1175.569,3496.637,6025248.437179292
PART_002_R214G39B40A255,4532,5789007.0,-577.0492,575.1022,1032767.0,80.6135,1354.006,6059079.374062992
PART_003_R247G182B210A255,4533,0.006335599,-5.468434e-06,-8.339073e-06,1065915.0,-471.9041,-1.174612e-06,1846219.1174818438
PART_003_R247G182B210A255,4534,0.006333172,-7.490866e-08,-1.164636e-05,997060.5,-198.5898,-3.119622e-06,1726959.4784749513
PART_003_R247G182B210A255,4535,0.006334697,-6.778529e-06,-1.839703e-06,945571.0,-1256.698,-5.663218e-06,1637778.460596118
PART_003_R247G182B210A255,4536,0.00633066,-1.348632e-05,-1.938367e-06,910066.0,-77.08534,-4.522888e-06,1576280.5558955707
PART_003_R247G182B210A255,4537,0.006330149,-1.080747e-05,-6.556623e-06,889484.4,-522.0653,-2.600558e-06,1540632.438703863
PART_003_R247G182B210A255,4538,0.006328759,-1.320221e-05,1.559935e-06,882687.8,1.215458e-05,-1.904542e-07,1528860.1168211957
PART_002_R214G39B40A255,4539,0.006329751,-5.039478e-06,-4.870918e-06,889484.4,522.0653,3.082732e-06,1540632.438703863
PART_002_R214G39B40A255,4540,0.006325108,-1.365976e-05,-5.920078e-07,910066.0,77.08535,4.742537e-06,1576280.555895572
PART_002_R214G39B40A255,4541,0.006328002,-4.546254e-06,-8.909947e-07,945571.0,1256.698,5.172563e-06,1637778.460596118
PART_002_R214G39B40A255,4542,0.006320268,-2.222321e-06,-1.260926e-05,997060.5,198.5898,3.597928e-06,1726959.4784749513
PART_002_R214G39B40A255,4543,0.006318406,-1.257589e-05,-1.194748e-05,1065915.0,471.9041,7.673227e-07,1846219.1174818438
PART_003_R247G182B210A255,4544,-5789007.0,577.0492,-575.1023,1032767.0,-80.61351,1354.006,6059079.374015234
PART_003_R247G182B210A255,4545,-5788772.0,227.3769,348.7963,964427.5,-1175.569,3496.637,6025248.437275371
PART_003_R247G182B210A255,4546,-5789120.0,-243.5261,-117.0412,913530.6,-81.67213,4583.988,6001291.576135198
PART_003_R247G182B210A255,4547,-5789100.0,-125.5835,-280.5672,878890.7,-913.4334,4177.095,5985710.405401042
PART_003_R247G182B210A255,4548,-5789139.0,-349.275,-79.39695,858769.7,15.77812,2459.354,5976966.049703644
PART_001_R158G218B229A255,4549,-5789208.0,-164.7616,-564.1762,852243.8,-9.062628e-06,0.0002413218,5974083.028475806
PART_001_R158G218B229A255,4550,-5789139.0,-349.275,-79.39695,858769.7,-15.7781,-2459.354,5976966.049703644
PART_002_R214G39B40A255,4551,-5789100.0,-125.5835,-280.5672,878890.7,913.4333,-4177.094,5985710.4053989025
PART_002_R214G39B40A255,4552,-5789120.0,-243.5261,-117.0412,913530.6,81.67212,-4583.987,6001291.576132906
PART_002_R214G39B40A255,4553,-5788772.0,227.3768,348.7963,964427.5,1175.569,-3496.637,6025248.437227333
PART_002_R214G39B40A255,4554,-5789007.0,577.0492,-575.1023,1032767.0,80.61351,-1354.006,6059079.374015234
PART_003_R247G182B210A255,4555,-11577080.0,1265.464,1555.747,932917.6,-607.2044,3074.592,11690700.576760087
PART_003_R247G182B210A255,4556,-11578220.0,25.02576,-925.8541,865937.8,49.01238,8495.221,11674523.998632759
PART_003_R247G182B210A255,4557,-11577950.0,25.4383,145.073,817670.5,-1158.135,10882.66,11664348.025166925
PART_003_R247G182B210A255,4558,-11578330.0,-840.5003,-342.9881,785362.8,179.3587,9833.762,11657388.116274545
PART_001_R158G218B229A255,4559,-11578370.0,-227.5626,-902.9872,767155.2,-175.5125,5811.009,11653808.188452756
PART_001_R158G218B229A255,4560,-11578320.0,-429.108,-724.9209,761251.0,1.439978e-05,0.0004982035,11652580.914118733
PART_001_R158G218B229A255,4561,-11578370.0,-227.5626,-902.9872,767155.2,175.5125,-5811.008,11653808.18845126
PART_001_R158G218B229A255,4562,-11578330.0,-840.5003,-342.9881,785362.8,-179.3586,-9833.761,11657388.11627201
PART_002_R214G39B40A255,4563,-11577950.0,25.43831,145.073,817670.5,1158.135,-10882.66,11664348.025171887
PART_002_R214G39B40A255,4564,-11578220.0,25.02574,-925.8541,865937.8,-49.01238,-8495.22,11674523.998620657
PART_002_R214G39B40A255,4565,-11577080.0,1265.464,1555.747,932917.6,607.2044,-3074.592,11690700.576760087
PART_003_R247G182B210A255,4566,-17367220.0,1757.286,-2352.053,764225.4,152.0787,6641.314,17417297.942248493
PART_003_R247G182B210A255,4567,-17366410.0,490.8413,948.6904,701010.2,-1526.823,16757.38,17409545.9959622
PART_003_R247G182B210A255,4568,-17367480.0,-1297.087,-158.2378,657570.9,605.1963,21365.22,17404098.847987313
PART_001_R158G218B229A255,4569,-17367630.0,-481.2832,-1725.843,630705.6,162.1675,19073.19,17400882.211700726
PART_001_R158G218B229A255,4570,-17367410.0,-198.1384,-1054.413,615895.7,131.6596,10889.64,17399526.310251445
PART_001_R158G218B229A255,4571,-17367730.0,-522.8874,-1976.478,611097.5,-1.324871e-05,0.0007900862,17398705.71793722
PART_001_R158G218B229A255,4572,-17367410.0,-198.1384,-1054.413,615895.7,-131.6595,-10889.64,17399526.310251445
PART_001_R158G218B229A255,4573,-17367630.0,-481.2832,-1725.843,630705.6,-162.1675,-19073.19,17400882.211700726
PART_001_R158G218B229A255,4574,-17367480.0,-1297.087,-158.2377,657570.9,-605.1963,-21365.22,17404098.84803721
PART_002_R214G39B40A255,4575,-17366410.0,490.8413,948.6904,701010.2,1526.823,-16757.38,17409545.9959622
PART_002_R214G39B40A255,4576,-17367220.0,1757.286,-2352.053,764225.4,-152.0787,-6641.314,17417297.942248493
PART_003_R247G182B210A255,4577,-23153440.0,3034.012,4797.171,522774.0,-1431.156,12170.91,23175060.923883773
PART_003_R247G182B210A255,4578,-23156940.0,-1883.885,-1393.553,466107.8,1395.684,33340.59,23169442.97272785
PART_001_R158G218B229A255,4579,-23157010.0,-656.348,-2376.688,435090.3,997.6807,40751.7,23167860.85100096
PART_001_R158G218B229A255,4580,-23156640.0,29.20545,-2347.986,417101.9,293.2463,33726.91,23166821.56149037
PART_001_R158G218B229A255,4581,-23156950.0,-584.9514,-2327.526,407186.8,244.5557,18845.15,23166254.82195533
PART_001_R158G218B229A255,4582,-23156590.0,254.4186,-2419.156,404159.8,5.456586e-06,0.001126964,23166086.73159974
PART_001_R158G218B229A255,4583,-23156950.0,-584.9514,-2327.526,407186.8,-244.5557,-18845.15,23166254.82195533
PART_001_R158G218B229A255,4584,-23156640.0,29.20546,-2347.986,417101.9,-293.2462,-33726.91,23166821.561495367
PART_001_R158G218B229A255,4585,-23157010.0,-656.3479,-2376.688,435090.3,-997.6807,-40751.7,23167860.851050943
PART_001_R158G218B229A255,4586,-23156940.0,-1883.885,-1393.553,466107.8,-1395.684,-33340.59,23169442.97272785
PART_002_R214G39B40A255,4587,-23153440.0,3034.012,4797.171,522774.0,1431.156,-12170.91,23175060.923883773
PART_003_R247G182B210A255,4588,-28947160.0,2131.833,-8592.264,191994.6,2199.9,32814.13,28945897.60612217
PART_001_R158G218B229A255,4589,-28947720.0,-2719.435,-6068.331,165001.3,1358.915,70949.43,28944998.158890072
PART_001_R158G218B229A255,4590,-28945750.0,1444.999,-3741.201,154668.7,264.1522,72233.21,28946112.34006367
PART_001_R158G218B229A255,4591,-28946520.0,-1304.148,-3791.977,147855.5,318.0888,56332.56,28945269.393855847
PART_001_R158G218B229A255,4592,-28945600.0,959.7689,-2841.482,144588.5,44.30522,30399.0,28945790.60198777
PART_001_R158G218B229A255,4593,-28946290.0,-1001.933,-3372.02,143392.8,-3.666494e-06,0.001523332,28945168.656154722
PART_001_R158G218B229A255,4594,-28945600.0,959.7689,-2841.482,144588.5,-44.30522,-30399.0,28945790.60198777
PART_001_R158G218B229A255,4595,-28946520.0,-1304.148,-3791.977,147855.5,-318.0889,-56332.56,28945269.39385585
PART_001_R158G218B229A255,4596,-28945750.0,1444.999,-3741.201,154668.7,-264.1522,-72233.21,28946112.34006367
PART_001_R158G218B229A255,4597,-28947720.0,-2719.435,-6068.331,165001.3,-1358.915,-70949.43,28944998.158890072
PART_001_R158G218B229A255,4598,-28947160.0,2131.833,-8592.264,191994.6,-2199.9,-32814.13,28945897.60612217
PART_003_R247G182B210A255,4599,28629080.0,-1936.281,8981.639,192006.3,2182.253,-32816.57,28627547.321850553
PART_000_R31G119B180A255,4600,28629570.0,2502.136,5526.157,164993.5,1340.142,-70943.89,28627246.24968369
PART_000_R31G119B180A255,4601,28627730.0,-1266.216,4158.802,154673.0,263.7561,-72239.83,28627811.09594956
PART_000_R31G119B180A255,4602,28628350.0,1096.195,3286.055,147850.9,313.0872,-56327.3,28627470.61455999
PART_000_R31G119B180A255,4603,28627610.0,-781.3757,3263.084,144591.0,44.52137,-30402.05,28627513.256907865
PART_000_R31G119B180A255,4604,28628110.0,794.6541,2873.074,143389.0,-2.591564e-06,-0.001523043,28627353.525387138
PART_000_R31G119B180A255,4605,28627610.0,-781.3757,3263.084,144591.0,-44.52137,30402.05,28627513.256907865
PART_000_R31G119B180A255,4606,28628350.0,1096.195,3286.055,147850.9,-313.0872,56327.29,28627470.614500962
PART_000_R31G119B180A255,4607,28627730.0,-1266.216,4158.801,154673.0,-263.7561,72239.83,28627811.096449394
PART_000_R31G119B180A255,4608,28629570.0,2502.136,5526.157,164993.5,-1340.142,70943.89,28627246.24968369
PART_000_R31G119B180A255,4609,28629080.0,-1936.281,8981.639,192006.3,-2182.253,32816.57,28627547.321850553
PART_003_R247G182B210A255,4610,22899020.0,-2862.129,-4328.054,522764.4,-1417.11,-12173.77,22920516.53260585
PART_003_R247G182B210A255,4611,22902430.0,1726.163,973.748,466112.6,1380.369,-33334.8,22915378.89365475
PART_000_R31G119B180A255,4612,22902590.0,813.4446,2757.479,435091.0,986.8169,-40757.98,22913309.460363008
PART_000_R31G119B180A255,4613,22902100.0,-173.5944,1925.717,417104.5,289.8671,-33722.07,22912690.838783253
PART_000_R31G119B180A255,4614,22902560.0,747.5462,2704.31,407188.5,241.9422,-18847.92,22911714.850526992
PART_000_R31G119B180A255,4615,22902040.0,-398.6217,1997.999,404162.1,5.548957e-06,-0.001126633,22911936.913217846
PART_000_R31G119B180A255,4616,22902560.0,747.5463,2704.31,407188.5,-241.9422,18847.92,22911714.85047701
PART_000_R31G119B180A255,4617,22902100.0,-173.5944,1925.717,417104.5,-289.867,33722.07,22912690.83878325
PART_000_R31G119B180A255,4618,22902590.0,813.4446,2757.479,435091.0,-986.8169,40757.97,22913309.460309643
PART_000_R31G119B180A255,4619,22902430.0,1726.163,973.748,466112.6,-1380.369,33334.8,22915378.89365475
PART_002_R214G39B40A255,4620,22899020.0,-2862.129,-4328.054,522764.4,1417.11,12173.77,22920516.53260585
PART_003_R247G182B210A255,4621,17176380.0,-1624.68,2651.062,764229.9,151.3106,-6642.674,17226801.467950612
PART_003_R247G182B210A255,4622,17175540.0,-607.7403,-1257.276,701009.1,-1509.638,-16753.63,17219358.243090212
PART_003_R247G182B210A255,4623,17176670.0,1391.38,464.7366,657566.5,598.2411,-21369.79,17213502.376770727
PART_000_R31G119B180A255,4624,17176720.0,347.914,1395.083,630704.2,160.5556,-19069.56,17210584.735978175
PART_000_R31G119B180A255,4625,17176620.0,308.5469,1347.313,615891.5,130.0995,-10891.74,17208897.61149632
PART_000_R31G119B180A255,4626,17176810.0,387.0253,1644.449,611096.0,-1.488219e-05,-0.0007905172,17208376.5855247
PART_000_R31G119B180A255,4627,17176620.0,308.5469,1347.313,615891.5,-130.0995,10891.74,17208897.61149632
PART_000_R31G119B180A255,4628,17176720.0,347.914,1395.083,630704.2,-160.5556,19069.56,17210584.735978175
PART_000_R31G119B180A255,4629,17176670.0,1391.38,464.7366,657566.5,-598.2411,21369.79,17213502.376770727
PART_002_R214G39B40A255,4630,17175540.0,-607.7403,-1257.276,701009.1,1509.638,16753.63,17219358.243090212
PART_002_R214G39B40A255,4631,17176380.0,-1624.68,2651.062,764229.9,-151.3106,6642.673,17226801.467949457
PART_003_R247G182B210A255,4632,11449870.0,-1178.75,-1321.67,932910.8,-601.2554,-3076.005,11564564.463541392
PART_003_R247G182B210A255,4633,11450970.0,-97.02658,704.8367,865941.0,48.12857,-8492.432,11548486.148307186
PART_003_R247G182B210A255,4634,11450750.0,60.29413,68.47961,817673.1,-1145.396,-10885.71,11537951.65261261
PART_003_R247G182B210A255,4635,11451050.0,755.8735,132.8149,785367.0,177.3686,-9831.407,11531134.558833623
PART_000_R31G119B180A255,4636,11451180.0,312.5989,1102.453,767157.6,-173.6198,-5812.374,11527315.998882748
PART_000_R31G119B180A255,4637,11451040.0,347.9312,511.6342,761255.3,1.426176e-05,-0.0004980439,11526274.474606633
PART_000_R31G119B180A255,4638,11451180.0,312.5989,1102.453,767157.6,173.6198,5812.373,11527315.998881236
PART_000_R31G119B180A255,4639,11451050.0,755.8736,132.8149,785367.0,-177.3686,9831.406,11531134.55878142
PART_002_R214G39B40A255,4640,11450750.0,60.29412,68.47964,817673.1,1145.396,10885.71,11537951.652602686
PART_002_R214G39B40A255,4641,11450970.0,-97.02657,704.8367,865941.0,-48.12857,8492.432,11548486.148302227
PART_002_R214G39B40A255,4642,11449870.0,-1178.75,-1321.67,932910.8,601.2554,3076.004,11564564.463540593
PART_003_R247G182B210A255,4643,5725396.0,-532.4993,678.7903,1032770.0,-79.1917,-1354.484,5998263.918007576
PART_003_R247G182B210A255,4644,5725148.0,-266.0417,-452.9995,964427.2,-1162.215,-3495.329,5964212.988414076
PART_003_R247G182B210A255,4645,5725518.0,277.6536,220.1758,913525.3,-80.95642,-4585.576,5939895.169527281
PART_003_R247G182B210A255,4646,5725465.0,80.83268,171.7962,878888.3,-903.3665,-4175.847,5924262.972177548
PART_003_R247G182B210A255,4647,5725543.0,383.6906,181.7346,858765.2,15.55054,-2460.076,5915323.875487254
PART_000_R31G119B180A255,4648,5725569.0,118.8724,452.7621,852241.3,-7.4917e-06,-0.000240899,5912513.281724514
PART_000_R31G119B180A255,4649,5725543.0,383.6906,181.7346,858765.2,-15.55052,2460.076,5915323.875487254
PART_002_R214G39B40A255,4650,5725465.0,80.83268,171.7962,878888.3,903.3664,4175.846,5924262.972175388
PART_002_R214G39B40A255,4651,5725518.0,277.6536,220.1758,913525.3,80.95641,4585.576,5939895.16952728
PART_002_R214G39B40A255,4652,5725148.0,-266.0417,-452.9995,964427.2,1162.215,3495.329,5964212.988414076
PART_002_R214G39B40A255,4653,5725396.0,-532.4993,678.7903,1032770.0,79.1917,1354.484,5998263.918007576
PART_003_R247G182B210A255,4654,0.006265801,5.511966e-06,-9.393936e-07,1065909.0,-467.2988,-1.247501e-06,1846208.7216638061
PART_003_R247G182B210A255,4655,0.0062648,9.079092e-06,-1.194337e-05,997063.5,-196.7577,-4.258079e-06,1726964.6739981472
PART_003_R247G182B210A255,4656,0.006270483,1.400921e-05,1.056e-05,945573.9,-1242.954,-4.852964e-06,1637783.4520740428
PART_003_R247G182B210A255,4657,0.00626556,7.767328e-06,2.456476e-06,910070.6,-76.20823,-5.178091e-06,1576288.523201309
PART_003_R247G182B210A255,4658,0.006266587,1.580765e-05,8.867155e-06,889487.0,-516.3952,-2.91503e-06,1540636.936302323
PART_003_R247G182B210A255,4659,0.006264057,9.317943e-06,5.713807e-06,882692.5,1.138193e-05,-7.472279e-08,1528868.2574599911
PART_002_R214G39B40A255,4660,0.006262969,1.445786e-05,8.394934e-06,889487.0,516.3952,2.784665e-06,1540636.936302323
PART_002_R214G39B40A255,4661,0.006260563,9.609772e-06,2.733024e-06,910070.6,76.20824,4.981802e-06,1576288.5232013103
PART_002_R214G39B40A255,4662,0.006261884,1.405531e-05,1.12033e-05,945573.9,1242.954,5.106539e-06,1637783.4520740428
PART_002_R214G39B40A255,4663,0.006253949,8.411166e-06,-1.268379e-05,997063.5,196.7578,3.688026e-06,1726964.6739981815
PART_002_R214G39B40A255,4664,0.006251356,-1.654017e-06,-3.058486e-06,1065909.0,467.2988,1.416417e-06,1846208.7216638061
PART_003_R247G182B210A255,4665,-5725396.0,532.4993,-678.7903,1032770.0,-79.19171,1354.484,5998263.918007576
PART_003_R247G182B210A255,4666,-5725148.0,266.0417,452.9995,964427.2,-1162.215,3495.329,5964212.988414076
PART_003_R247G182B210A255,4667,-5725518.0,-277.6536,-220.1758,913525.3,-80.95642,4585.576,5939895.169527281
PART_003_R247G182B210A255,4668,-5725465.0,-80.83271,-171.7962,878888.3,-903.3665,4175.846,5924262.972160937
PART_003_R247G182B210A255,4669,-5725543.0,-383.6906,-181.7346,858765.2,15.55054,2460.076,5915323.875487254
PART_001_R158G218B229A255,4670,-5725569.0,-118.8724,-452.7621,852241.3,-8.785894e-06,0.000241276,5912513.281724514
PART_001_R158G218B229A255,4671,-5725543.0,-383.6906,-181.7346,858765.2,-15.55052,-2460.076,5915323.875487254
PART_002_R214G39B40A255,4672,-5725465.0,-80.8327,-171.7962,878888.3,903.3665,-4175.846,5924262.972165769
PART_002_R214G39B40A255,4673,-5725518.0,-277.6537,-220.1758,913525.3,80.95641,-4585.576,5939895.169479088
PART_002_R214G39B40A255,4674,-5725148.0,266.0417,452.9995,964427.2,1162.215,-3495.329,5964212.988414076
PART_002_R214G39B40A255,4675,-5725396.0,532.4993,-678.7903,1032770.0,79.19171,-1354.484,5998263.918007576
PART_003_R247G182B210A255,4676,-11449870.0,1178.75,1321.67,932910.8,-601.2554,3076.004,11564564.463540593
PART_003_R247G182B210A255,4677,-11450970.0,97.02656,-704.8367,865941.1,48.12857,8492.432,11548486.170792192
PART_003_R247G182B210A255,4678,-11450750.0,-60.29411,-68.47959,817673.1,-1145.396,10885.71,11537951.652632458
PART_003_R247G182B210A255,4679,-11451050.0,-755.8735,-132.8149,785367.0,177.3686,9831.407,11531134.558833623
PART_001_R158G218B229A255,4680,-11451180.0,-312.5989,-1102.453,767157.6,-173.6198,5812.374,11527315.998882748
PART_001_R158G218B229A255,4681,-11451040.0,-347.9311,-511.6342,761255.3,1.469303e-05,0.0004984194,11526274.474656306
PART_001_R158G218B229A255,4682,-11451180.0,-312.5989,-1102.453,767157.6,173.6198,-5812.373,11527315.998881236
PART_001_R158G218B229A255,4683,-11451050.0,-755.8735,-132.8149,785367.0,-177.3686,-9831.406,11531134.558831066
PART_002_R214G39B40A255,4684,-11450750.0,-60.29409,-68.47961,817673.1,1145.396,-10885.71,11537951.652632458
PART_002_R214G39B40A255,4685,-11450970.0,97.02655,-704.8367,865941.0,-48.12858,-8492.432,11548486.14829231
PART_002_R214G39B40A255,4686,-11449870.0,1178.75,1321.67,932910.8,601.2554,-3076.004,11564564.463540593
PART_003_R247G182B210A255,4687,-17176380.0,1624.68,-2651.062,764229.9,151.3106,6642.674,17226801.467950612
PART_003_R247G182B210A255,4688,-17175540.0,607.7403,1257.276,701009.1,-1509.638,16753.63,17219358.243090212
PART_003_R247G182B210A255,4689,-17176670.0,-1391.38,-464.7366,657566.5,598.2411,21369.79,17213502.376770727
PART_001_R158G218B229A255,4690,-17176720.0,-347.914,-1395.083,630704.2,160.5556,19069.56,17210584.735978175
PART_001_R158G218B229A255,4691,-17176620.0,-308.5469,-1347.313,615891.5,130.0995,10891.74,17208897.61149632
PART_001_R158G218B229A255,4692,-17176810.0,-387.0254,-1644.449,611096.0,-1.520286e-05,0.0007892038,17208376.58547479
PART_001_R158G218B229A255,4693,-17176620.0,-308.5469,-1347.313,615891.5,-130.0995,-10891.74,17208897.61149632
PART_001_R158G218B229A255,4694,-17176720.0,-347.914,-1395.083,630704.2,-160.5556,-19069.56,17210584.735978175
PART_001_R158G218B229A255,4695,-17176670.0,-1391.38,-464.7366,657566.5,-598.2411,-21369.79,17213502.376770727
PART_002_R214G39B40A255,4696,-17175540.0,607.7403,1257.276,701009.1,1509.638,-16753.63,17219358.243090212
PART_002_R214G39B40A255,4697,-17176380.0,1624.68,-2651.062,764229.9,-151.3106,-6642.673,17226801.467949457
PART_003_R247G182B210A255,4698,-22899020.0,2862.129,4328.054,522764.4,-1417.11,12173.77,22920516.53260585
PART_003_R247G182B210A255,4699,-22902430.0,-1726.163,-973.7481,466112.6,1380.369,33334.8,22915378.893604778
PART_001_R158G218B229A255,4700,-22902590.0,-813.4446,-2757.479,435091.0,986.8169,40757.98,22913309.460363008
PART_001_R158G218B229A255,4701,-22902100.0,173.5944,-1925.717,417104.5,289.8671,33722.07,22912690.838783253
PART_001_R158G218B229A255,4702,-22902560.0,-747.5462,-2704.31,407188.5,241.9422,18847.92,22911714.850526992
PART_001_R158G218B229A255,4703,-22902040.0,398.6217,-1997.999,404162.1,5.744845e-06,0.001127203,22911936.913217846
PART_001_R158G218B229A255,4704,-22902560.0,-747.5462,-2704.31,407188.5,-241.9422,-18847.92,22911714.850526992
PART_001_R158G218B229A255,4705,-22902100.0,173.5944,-1925.717,417104.5,-289.867,-33722.07,22912690.83878325
PART_001_R158G218B229A255,4706,-22902590.0,-813.4446,-2757.479,435091.0,-986.8169,-40757.97,22913309.460309643
PART_001_R158G218B229A255,4707,-22902430.0,-1726.163,-973.748,466112.6,-1380.369,-33334.8,22915378.89365475
PART_002_R214G39B40A255,4708,-22899020.0,2862.129,4328.054,522764.4,1417.11,-12173.77,22920516.53260585
PART_003_R247G182B210A255,4709,-28629080.0,1936.281,-8981.639,192006.3,2182.253,32816.57,28627547.321850553
PART_001_R158G218B229A255,4710,-28629570.0,-2502.136,-5526.157,164993.5,1340.142,70943.89,28627246.24968369
PART_001_R158G218B229A255,4711,-28627730.0,1266.216,-4158.802,154673.0,263.7561,72239.83,28627811.09594956
PART_001_R158G218B229A255,4712,-28628350.0,-1096.195,-3286.055,147850.9,313.0872,56327.3,28627470.61455999
PART_001_R158G218B229A255,4713,-28627610.0,781.3757,-3263.084,144591.0,44.52137,30402.05,28627513.256907865
PART_001_R158G218B229A255,4714,-28628110.0,-794.6541,-2873.074,143389.0,-2.499371e-06,0.001523324,28627353.525387138
PART_001_R158G218B229A255,4715,-28627610.0,781.3757,-3263.084,144591.0,-44.52137,-30402.05,28627513.256907865
PART_001_R158G218B229A255,4716,-28628350.0,-1096.195,-3286.055,147850.9,-313.0872,-56327.29,28627470.614500962
PART_001_R158G218B229A255,4717,-28627730.0,1266.216,-4158.801,154673.0,-263.7561,-72239.83,28627811.096449394
PART_001_R158G218B229A255,4718,-28629570.0,-2502.136,-5526.158,164993.5,-1340.142,-70943.89,28627246.249183796
PART_001_R158G218B229A255,4719,-28629080.0,1936.281,-8981.639,192006.3,-2182.253,-32816.57,28627547.321850553
PART_003_R247G182B210A255,4720,28310960.0,-2055.721,8487.01,191996.8,2152.704,-32814.63,28309756.383163832
PART_000_R31G119B180A255,4721,28311500.0,2626.541,5852.309,164999.9,1328.372,-70948.53,28308970.139190473
PART_000_R31G119B180A255,4722,28309590.0,-1385.699,3738.052,154669.5,258.7826,-72234.58,28309958.22249449
PART_000_R31G119B180A255,4723,28310320.0,1241.255,3627.784,147854.7,310.827,-56331.74,28309212.06551525
PART_000_R31G119B180A255,4724,28309450.0,-910.2885,2856.948,144589.0,43.45101,-30399.64,28309633.561579444
PART_000_R31G119B180A255,4725,28310090.0,945.2136,3217.395,143392.1,-1.261945e-06,-0.001522853,28309098.256054718
PART_000_R31G119B180A255,4726,28309450.0,-910.2885,2856.948,144589.0,-43.45101,30399.64,28309633.561579444
PART_000_R31G119B180A255,4727,28310320.0,1241.255,3627.784,147854.7,-310.8271,56331.74,28309212.06551525
PART_000_R31G119B180A255,4728,28309590.0,-1385.699,3738.052,154669.5,-258.7825,72234.58,28309958.22249449
PART_000_R31G119B180A255,4729,28311500.0,2626.541,5852.31,164999.9,-1328.372,70948.53,28308970.138690583
PART_000_R31G119B180A255,4730,28310960.0,-2055.721,8487.01,191996.8,-2152.704,32814.63,28309756.383163832
PART_003_R247G182B210A255,4731,22644580.0,-2943.182,-4619.973,522772.1,-1400.006,-12171.47,22666464.359789573
PART_003_R247G182B210A255,4732,22647990.0,1819.322,1293.452,466108.6,1365.004,-33339.63,22660892.909567706
PART_000_R31G119B180A255,4733,22648070.0,670.6351,2394.536,435090.3,975.755,-40752.99,22659182.57738564
PART_000_R31G119B180A255,4734,22647690.0,-53.02126,2228.164,417102.3,286.7554,-33726.15,22658198.098161913
PART_000_R31G119B180A255,4735,22648020.0,601.6219,2345.559,407187.0,239.1821,-18845.73,22657549.204978865
PART_000_R31G119B180A255,4736,22647640.0,-273.6738,2298.034,404160.2,4.612406e-06,-0.001127562,22657444.537615478
PART_000_R31G119B180A255,4737,22648020.0,601.6219,2345.559,407187.0,-239.1822,18845.73,22657549.20497887
PART_000_R31G119B180A255,4738,22647690.0,-53.02128,2228.164,417102.3,-286.7554,33726.15,22658198.098171912
PART_000_R31G119B180A255,4739,22648070.0,670.6351,2394.537,435090.3,-975.755,40752.99,22659182.57688598
PART_000_R31G119B180A255,4740,22647990.0,1819.322,1293.452,466108.6,-1365.004,33339.63,22660892.909567706
PART_002_R214G39B40A255,4741,22644580.0,-2943.182,-4619.973,522772.1,1400.006,12171.47,22666464.359789573
PART_003_R247G182B210A255,4742,16985520.0,-1699.434,2355.834,764226.4,148.8945,-6641.584,17036696.01731744
PART_003_R247G182B210A255,4743,16984730.0,-501.2,-982.5698,701010.1,-1493.209,-16756.79,17028838.770347048
PART_003_R247G182B210A255,4744,16985790.0,1286.886,207.2625,657570.2,591.813,-21366.16,17023226.790378246
PART_000_R31G119B180A255,4745,16985910.0,448.5526,1634.314,630705.5,158.6028,-19072.64,17019994.739659626
PART_000_R31G119B180A255,4746,16985720.0,212.7798,1083.0,615895.0,128.7267,-10890.08,17018549.025624163
PART_000_R31G119B180A255,4747,16986010.0,488.8915,1879.641,611097.4,-1.668624e-05,-0.0007894094,17017773.848343227
PART_000_R31G119B180A255,4748,16985720.0,212.7798,1083.0,615895.0,-128.7266,10890.08,17018549.02562416
PART_000_R31G119B180A255,4749,16985910.0,448.5526,1634.314,630705.5,-158.6029,19072.63,17019994.73962601
PART_000_R31G119B180A255,4750,16985790.0,1286.886,207.2625,657570.2,-591.813,21366.15,17023226.79034059
PART_002_R214G39B40A255,4751,16984730.0,-501.2,-982.5697,701010.1,1493.209,16756.79,17028838.77029717
PART_002_R214G39B40A255,4752,16985520.0,-1699.434,2355.834,764226.4,-148.8945,6641.584,17036696.01731744
PART_003_R247G182B210A255,4753,11322640.0,-1225.159,-1484.454,932916.1,-593.9945,-3074.875,11438701.202498438
PART_003_R247G182B210A255,4754,11323750.0,-36.70085,869.5437,865938.1,47.8457,-8494.773,11422243.510672977
PART_003_R247G182B210A255,4755,11323490.0,-10.14325,-105.6656,817670.7,-1132.717,-10883.29,11411785.68229853
PART_003_R247G182B210A255,4756,11323850.0,809.2863,300.1769,785363.3,175.3734,-9833.412,11404722.38368681
PART_000_R31G119B180A255,4757,11323910.0,237.6483,918.8533,767155.4,-171.6857,-5811.3,11401031.789963987
PART_000_R31G119B180A255,4758,11323840.0,406.7528,673.8648,761251.6,1.428427e-05,-0.0004981553,11399808.241621844
PART_000_R31G119B180A255,4759,11323910.0,237.6483,918.8533,767155.4,171.6857,5811.299,11401031.789962457
PART_000_R31G119B180A255,4760,11323850.0,809.2863,300.1768,785363.3,-175.3734,9833.412,11404722.383736458
PART_002_R214G39B40A255,4761,11323490.0,-10.14326,-105.6655,817670.7,1132.717,10883.29,11411785.682253879
PART_002_R214G39B40A255,4762,11323750.0,-36.70084,869.5437,865938.1,-47.84571,8494.773,11422243.510668019
PART_002_R214G39B40A255,4763,11322640.0,-1225.159,-1484.454,932916.1,593.9945,3074.875,11438701.202498438
PART_003_R247G182B210A255,4764,5661777.0,-557.8508,581.2366,1032768.0,-78.75843,-1354.102,5937627.650053394
PART_003_R247G182B210A255,4765,5661544.0,-229.4546,-359.6436,964427.7,-1149.682,-3496.432,5903119.410513803
PART_003_R247G182B210A255,4766,5661889.0,244.4134,132.2417,913529.8,-79.95589,-4584.318,5878650.156916567
PART_003_R247G182B210A255,4767,5661864.0,115.3637,256.2503,878890.5,-893.4006,-4176.907,5862763.874069928
PART_003_R247G182B210A255,4768,5661909.0,348.088,95.18324,858769.2,15.39261,-2459.509,5853817.184096292
PART_000_R31G119B180A255,4769,5661969.0,153.559,533.687,852243.6,-6.743291e-06,-0.0002410599,5850893.904275333
PART_000_R31G119B180A255,4770,5661909.0,348.088,95.18324,858769.2,-15.39259,2459.508,5853817.184095032
PART_002_R214G39B40A255,4771,5661864.0,115.3637,256.2503,878890.5,893.4006,4176.906,5862763.874067791
PART_002_R214G39B40A255,4772,5661889.0,244.4134,132.2417,913529.8,79.95588,4584.318,5878650.156916566
PART_002_R214G39B40A255,4773,5661544.0,-229.4546,-359.6436,964427.7,1149.682,3496.432,5903119.410513803
PART_002_R214G39B40A255,4774,5661777.0,-557.8508,581.2366,1032768.0,78.75843,1354.101,5937627.6500527095
PART_003_R247G182B210A255,4775,0.00619542,-4.296253e-06,-1.179642e-05,1065914.0,-461.6427,-1.137342e-06,1846217.3776481326
PART_003_R247G182B210A255,4776,0.006193482,-4.537527e-08,-8.752428e-06,997060.7,-194.3238,-3.311854e-06,1726959.8234292213
PART_003_R247G182B210A255,4777,0.006196548,-5.633645e-06,-2.257996e-06,945571.3,-1229.138,-4.862861e-06,1637778.917464668
PART_003_R247G182B210A255,4778,0.006192662,-1.135129e-05,-9.794192e-07,910066.6,-75.43431,-4.639556e-06,1576281.5948864229
PART_003_R247G182B210A255,4779,0.006189417,-1.692384e-05,-8.734011e-06,889484.6,-510.6329,-2.97157e-06,1540632.7736191242
PART_003_R247G182B210A255,4780,0.006187089,-2.167193e-05,-2.394976e-06,882688.4,1.184875e-05,7.641129e-08,1528861.1560516802
PART_002_R214G39B40A255,4781,0.006187817,-1.835071e-05,-9.249117e-06,889484.6,510.6328,2.265055e-06,1540632.7736190245
PART_002_R214G39B40A255,4782,0.00618569,-1.642824e-05,-2.033228e-06,910066.6,75.43432,4.29147e-06,1576281.5948864245
PART_002_R214G39B40A255,4783,0.006187578,-7.69852e-06,-3.961321e-06,945571.3,1229.138,4.744544e-06,1637778.917464668
PART_002_R214G39B40A255,4784,0.006181916,-6.062456e-06,-1.173981e-05,997060.7,194.3238,3.825067e-06,1726959.8234292213
PART_002_R214G39B40A255,4785,0.006181419,-8.895891e-06,-1.099796e-05,1065914.0,461.6427,1.31085e-06,1846217.3776481326
PART_003_R247G182B210A255,4786,-5661777.0,557.8508,-581.2366,1032768.0,-78.75844,1354.102,5937627.650053394
PART_003_R247G182B210A255,4787,-5661544.0,229.4546,359.6436,964427.7,-1149.682,3496.432,5903119.410513803
PART_003_R247G182B210A255,4788,-5661889.0,-244.4134,-132.2417,913529.8,-79.95588,4584.318,5878650.156916566
PART_003_R247G182B210A255,4789,-5661864.0,-115.3637,-256.2503,878890.5,-893.4006,4176.907,5862763.874069928
PART_003_R247G182B210A255,4790,-5661909.0,-348.0879,-95.18324,858769.2,15.39261,2459.509,5853817.184144648
PART_001_R158G218B229A255,4791,-5661969.0,-153.559,-533.6869,852243.6,-8.436448e-06,0.0002403159,5850893.90432371
PART_001_R158G218B229A255,4792,-5661909.0,-348.0879,-95.18323,858769.2,-15.39259,-2459.508,5853817.184148224
PART_002_R214G39B40A255,4793,-5661864.0,-115.3637,-256.2503,878890.5,893.4006,-4176.906,5862763.874067791
PART_002_R214G39B40A255,4794,-5661889.0,-244.4134,-132.2417,913529.8,79.95588,-4584.318,5878650.156916566
PART_002_R214G39B40A255,4795,-5661544.0,229.4546,359.6436,964427.7,1149.682,-3496.432,5903119.410513803
PART_002_R214G39B40A255,4796,-5661777.0,557.8508,-581.2366,1032768.0,78.75844,-1354.101,5937627.6500527095
PART_003_R247G182B210A255,4797,-11322640.0,1225.159,1484.454,932916.1,-593.9945,3074.875,11438701.202498438
PART_003_R247G182B210A255,4798,-11323750.0,36.70083,-869.5437,865938.1,47.8457,8494.773,11422243.510663062
PART_003_R247G182B210A255,4799,-11323490.0,10.14322,105.6655,817670.7,-1132.717,10883.29,11411785.682234032
PART_003_R247G182B210A255,4800,-11323850.0,-809.2863,-300.1768,785363.3,175.3734,9833.412,11404722.383736458
PART_001_R158G218B229A255,4801,-11323910.0,-237.6484,-918.8534,767155.4,-171.6857,5811.3,11401031.789864669
PART_001_R158G218B229A255,4802,-11323840.0,-406.7528,-673.8648,761251.6,1.691391e-05,0.0004978973,11399808.241621844
PART_001_R158G218B229A255,4803,-11323910.0,-237.6484,-918.8534,767155.4,171.6857,-5811.299,11401031.78986314
PART_001_R158G218B229A255,4804,-11323850.0,-809.2863,-300.1768,785363.3,-175.3734,-9833.412,11404722.383736458
PART_002_R214G39B40A255,4805,-11323490.0,10.14324,105.6655,817670.7,1132.717,-10883.29,11411785.682243956
PART_002_R214G39B40A255,4806,-11323750.0,36.70081,-869.5437,865938.1,-47.84571,-8494.773,11422243.510653147
PART_002_R214G39B40A255,4807,-11322640.0,1225.159,1484.454,932916.1,593.9945,-3074.875,11438701.202498438
PART_003_R247G182B210A255,4808,-16985520.0,1699.434,-2355.834,764226.4,148.8945,6641.584,17036696.01731744
PART_003_R247G182B210A255,4809,-16984730.0,501.2,982.5698,701010.1,-1493.209,16756.79,17028838.770347048
PART_003_R247G182B210A255,4810,-16985790.0,-1286.886,-207.2625,657570.2,591.813,21366.16,17023226.790378246
PART_001_R158G218B229A255,4811,-16985910.0,-448.5525,-1634.314,630705.5,158.6028,19072.64,17019994.739709526
PART_001_R158G218B229A255,4812,-16985720.0,-212.7798,-1083.0,615895.0,128.7267,10890.08,17018549.025624163
PART_001_R158G218B229A255,4813,-16986010.0,-488.8914,-1879.641,611097.4,-1.322526e-05,0.0007903899,17017773.84839314
PART_001_R158G218B229A255,4814,-16985720.0,-212.7798,-1083.0,615895.0,-128.7266,-10890.08,17018549.02562416
PART_001_R158G218B229A255,4815,-16985910.0,-448.5525,-1634.314,630705.5,-158.6029,-19072.63,17019994.739675913
PART_001_R158G218B229A255,4816,-16985790.0,-1286.886,-207.2625,657570.2,-591.813,-21366.15,17023226.79034059
PART_002_R214G39B40A255,4817,-16984730.0,501.2,982.5698,701010.1,1493.209,-16756.79,17028838.770347048
PART_002_R214G39B40A255,4818,-16985520.0,1699.434,-2355.834,764226.4,-148.8945,-6641.584,17036696.01731744
PART_003_R247G182B210A255,4819,-22644580.0,2943.182,4619.973,522772.1,-1400.006,12171.47,22666464.359789573
PART_003_R247G182B210A255,4820,-22647990.0,-1819.322,-1293.452,466108.6,1365.004,33339.63,22660892.909567706
PART_001_R158G218B229A255,4821,-22648070.0,-670.6352,-2394.537,435090.3,975.755,40752.99,22659182.576835997
PART_001_R158G218B229A255,4822,-22647690.0,53.02125,-2228.164,417102.3,286.7554,33726.15,22658198.098156914
PART_001_R158G218B229A255,4823,-22648020.0,-601.622,-2345.559,407187.0,239.1821,18845.73,22657549.204928882
PART_001_R158G218B229A255,4824,-22647640.0,273.6738,-2298.034,404160.2,5.385792e-06,0.001126124,22657444.537615478
PART_001_R158G218B229A255,4825,-22648020.0,-601.622,-2345.559,407187.0,-239.1822,-18845.73,22657549.204928886
PART_001_R158G218B229A255,4826,-22647690.0,53.02126,-2228.164,417102.3,-286.7554,-33726.15,22658198.098161913
PART_001_R158G218B229A255,4827,-22648070.0,-670.6351,-2394.537,435090.3,-975.755,-40752.99,22659182.57688598
PART_001_R158G218B229A255,4828,-22647990.0,-1819.322,-1293.452,466108.6,-1365.004,-33339.63,22660892.909567706
PART_002_R214G39B40A255,4829,-22644580.0,2943.182,4619.973,522772.1,1400.006,-12171.47,22666464.359789573
PART_003_R247G182B210A255,4830,-28310960.0,2055.721,-8487.01,191996.8,2152.704,32814.63,28309756.383163832
PART_001_R158G218B229A255,4831,-28311500.0,-2626.541,-5852.309,164999.9,1328.372,70948.53,28308970.139190473
PART_001_R158G218B229A255,4832,-28309590.0,1385.699,-3738.052,154669.5,258.7826,72234.58,28309958.22249449
PART_001_R158G218B229A255,4833,-28310320.0,-1241.255,-3627.784,147854.7,310.827,56331.74,28309212.06551525
PART_001_R158G218B229A255,4834,-28309450.0,910.2885,-2856.948,144589.0,43.45101,30399.64,28309633.561579444
PART_001_R158G218B229A255,4835,-28310090.0,-945.2136,-3217.395,143392.1,-2.060697e-06,0.001523445,28309098.256054718
PART_001_R158G218B229A255,4836,-28309450.0,910.2885,-2856.948,144589.0,-43.45101,-30399.64,28309633.561579444
PART_001_R158G218B229A255,4837,-28310320.0,-1241.255,-3627.784,147854.7,-310.8271,-56331.74,28309212.06551525
PART_001_R158G218B229A255,4838,-28309590.0,1385.699,-3738.052,154669.5,-258.7825,-72234.58,28309958.22249449
PART_001_R158G218B229A255,4839,-28311500.0,-2626.541,-5852.309,164999.9,-1328.372,-70948.53,28308970.139190473
PART_001_R158G218B229A255,4840,-28310960.0,2055.721,-8487.01,191996.8,-2152.704,-32814.63,28309756.383163832
PART_003_R247G182B210A255,4841,27992870.0,-1917.157,8713.887,192004.6,2132.825,-32816.23,27991506.726715107
PART_000_R31G119B180A255,4842,27993360.0,2473.436,5470.576,164994.7,1310.907,-70944.81,27991116.83056825
PART_000_R31G119B180A255,4843,27991550.0,-1260.614,4001.692,154672.3,257.5356,-72238.94,27991741.51747935
PART_000_R31G119B180A255,4844,27992170.0,1099.635,3278.554,147851.6,306.3414,-56328.19,27991322.473480765
PART_000_R31G119B180A255,4845,27991430.0,-787.2385,3126.611,144590.6,43.42969,-30401.65,27991430.403457467
PART_000_R31G119B180A255,4846,27991940.0,805.1754,2874.359,143389.6,-1.558585e-06,-0.001522914,27991202.117549285
PART_000_R31G119B180A255,4847,27991430.0,-787.2385,3126.611,144590.6,-43.42969,30401.65,27991430.403457467
PART_000_R31G119B180A255,4848,27992170.0,1099.635,3278.554,147851.6,-306.3414,56328.19,27991322.473480765
PART_000_R31G119B180A255,4849,27991550.0,-1260.614,4001.692,154672.3,-257.5356,72238.94,27991741.51747935
PART_000_R31G119B180A255,4850,27993360.0,2473.436,5470.576,164994.7,-1310.907,70944.8,27991116.830492213
PART_000_R31G119B180A255,4851,27992870.0,-1917.157,8713.887,192004.6,-2132.825,32816.23,27991506.726715107
PART_003_R247G182B210A255,4852,22390150.0,-2818.234,-4290.469,522765.9,-1385.376,-12173.37,22412012.383925207
PART_003_R247G182B210A255,4853,22393490.0,1706.741,1008.765,466111.9,1349.69,-33335.74,22406755.836625554
PART_000_R31G119B180A255,4854,22393640.0,771.9671,2638.831,435090.9,964.8663,-40757.13,22404723.52618381
PART_000_R31G119B180A255,4855,22393170.0,-149.7333,1938.347,417104.1,283.4387,-33722.88,22404003.066812083
PART_000_R31G119B180A255,4856,22393600.0,706.8668,2587.389,407188.3,236.5486,-18847.56,22403080.78977109
PART_000_R31G119B180A255,4857,22393120.0,-369.443,2008.702,404161.8,2.442041e-06,-0.001126397,22403239.95332176
PART_000_R31G119B180A255,4858,22393600.0,706.8668,2587.389,407188.3,-236.5487,18847.56,22403080.789771095
PART_000_R31G119B180A255,4859,22393170.0,-149.7333,1938.347,417104.1,-283.4386,33722.88,22404003.06681208
PART_000_R31G119B180A255,4860,22393640.0,771.9671,2638.831,435090.9,-964.8663,40757.13,22404723.52618381
PART_000_R31G119B180A255,4861,22393490.0,1706.741,1008.765,466111.9,-1349.69,33335.74,22406755.836625554
PART_002_R214G39B40A255,4862,22390150.0,-2818.234,-4290.469,522765.9,1385.376,12173.37,22412012.383925207
PART_003_R247G182B210A255,4863,16794680.0,-1604.267,2546.79,764229.2,147.8165,-6642.493,16846297.258443836
PART_003_R247G182B210A255,4864,16793870.0,-576.9402,-1184.676,701009.2,-1476.155,-16754.24,16838608.7706025
PART_003_R247G182B210A255,4865,16794960.0,1345.501,411.335,657567.1,584.9765,-21369.19,16832698.276385006
PART_000_R31G119B180A255,4866,16795020.0,358.2998,1407.651,630704.3,156.9475,-19070.17,16829661.139103737
PART_000_R31G119B180A255,4867,16794900.0,286.1684,1274.752,615892.1,127.2139,-10891.47,16827976.022311743
PART_000_R31G119B180A255,4868,16795110.0,396.8285,1651.225,611096.1,-1.430304e-05,-0.000790134,16827407.41134388
PART_000_R31G119B180A255,4869,16794900.0,286.1684,1274.752,615892.1,-127.2139,10891.47,16827976.022311743
PART_000_R31G119B180A255,4870,16795020.0,358.2998,1407.651,630704.3,-156.9475,19070.17,16829661.139103737
PART_000_R31G119B180A255,4871,16794960.0,1345.501,411.335,657567.1,-584.9765,21369.19,16832698.276385006
PART_002_R214G39B40A255,4872,16793870.0,-576.9402,-1184.676,701009.2,1476.155,16754.24,16838608.7706025
PART_002_R214G39B40A255,4873,16794680.0,-1604.267,2546.79,764229.2,-147.8165,6642.493,16846297.258443836
PART_003_R247G182B210A255,4874,11195430.0,-1162.797,-1322.64,932911.9,-587.7919,-3075.807,11312669.147558123
PART_003_R247G182B210A255,4875,11196510.0,-84.88819,718.5346,865940.6,47.10045,-8492.887,11296216.972883279
PART_003_R247G182B210A255,4876,11196280.0,46.90211,37.2547,817672.7,-1119.965,-10885.31,11285471.579109745
PART_003_R247G182B210A255,4877,11196590.0,749.4844,158.5453,785366.4,173.4077,-9831.809,11278481.834459802
PART_000_R31G119B180A255,4878,11196700.0,293.3096,1048.558,767157.3,-169.7712,-5812.203,11274606.852542715
PART_000_R31G119B180A255,4879,11196580.0,350.7551,528.7632,761254.7,1.5089e-05,-0.0004979864,11273512.428314527
PART_000_R31G119B180A255,4880,11196700.0,293.3096,1048.558,767157.3,169.7712,5812.202,11274606.852541167
PART_000_R31G119B180A255,4881,11196590.0,749.4844,158.5453,785366.4,-173.4077,9831.808,11278481.834457187
PART_002_R214G39B40A255,4882,11196280.0,46.9021,37.25472,817672.7,1119.965,10885.31,11285471.579104783
PART_002_R214G39B40A255,4883,11196510.0,-84.88817,718.5346,865940.6,-47.10045,8492.887,11296216.972873366
PART_002_R214G39B40A255,4884,11195430.0,-1162.797,-1322.64,932911.9,587.7919,3075.807,11312669.147558123
PART_003_R247G182B210A255,4885,5598165.0,-525.9701,648.3575,1032769.0,-77.51159,-1354.421,5876955.691841687
PART_003_R247G182B210A255,4886,5597924.0,-254.3292,-427.826,964427.2,-1136.466,-3495.544,5842171.848302615
PART_003_R247G182B210A255,4887,5598282.0,266.4001,200.7012,913526.0,-79.15568,-4585.369,5817370.436731587
PART_003_R247G182B210A255,4888,5598235.0,85.1511,182.7289,878888.6,-883.3215,-4176.06,5801389.976371702
PART_003_R247G182B210A255,4889,5598306.0,369.8772,163.2569,858765.8,15.19589,-2459.986,5792279.324921852
PART_000_R31G119B180A255,4890,5598338.0,122.4447,457.3697,852241.6,-1.018207e-05,-0.0002406927,5789394.59423388
PART_000_R31G119B180A255,4891,5598306.0,369.8772,163.2569,858765.8,-15.19587,2459.985,5792279.324920578
PART_002_R214G39B40A255,4892,5598235.0,85.15109,182.7289,878888.6,883.3215,4176.059,5801389.976374368
PART_002_R214G39B40A255,4893,5598282.0,266.4001,200.7012,913526.0,79.15567,4585.368,5817370.436729223
PART_002_R214G39B40A255,4894,5597924.0,-254.3292,-427.8259,964427.2,1136.466,3495.544,5842171.848254699
PART_002_R214G39B40A255,4895,5598165.0,-525.9701,648.3575,1032769.0,77.51159,1354.421,5876955.691841687
PART_003_R247G182B210A255,4896,0.006125981,4.573036e-06,-1.146222e-07,1065910.0,-456.8353,-1.057588e-06,1846210.4458580755
PART_003_R247G182B210A255,4897,0.006125622,7.103502e-06,-1.342911e-05,997063.1,-192.3473,-3.224565e-06,1726963.9796872665
PART_003_R247G182B210A255,4898,0.006133345,2.329841e-05,1.541146e-05,945573.5,-1215.35,-5.757729e-06,1637782.6971041115
PART_003_R247G182B210A255,4899,0.006125613,1.227624e-05,2.254457e-06,910070.0,-74.54698,-4.74577e-06,1576287.4837325064
PART_003_R247G182B210A255,4900,0.006129407,2.185407e-05,1.276484e-05,889486.7,-504.9283,-2.865574e-06,1540636.4052846583
PART_003_R247G182B210A255,4901,0.006125296,1.491241e-05,6.144047e-06,882691.9,1.154094e-05,7.428813e-08,1528867.2182295066
PART_002_R214G39B40A255,4902,0.006127804,2.865347e-05,1.510179e-05,889486.7,504.9282,2.438942e-06,1540636.40528456
PART_002_R214G39B40A255,4903,0.006121208,1.194814e-05,3.457662e-06,910070.0,74.54699,4.361774e-06,1576287.4837325078
PART_002_R214G39B40A255,4904,0.006122193,1.438611e-05,1.059568e-05,945573.5,1215.35,5.280448e-06,1637782.6971041115
PART_002_R214G39B40A255,4905,0.006115161,1.014106e-05,-1.216221e-05,997063.1,192.3473,3.983373e-06,1726963.9796872665
PART_002_R214G39B40A255,4906,0.006113255,2.012634e-06,1.173091e-06,1065910.0,456.8353,5.770523e-07,1846210.4458580755
PART_003_R247G182B210A255,4907,-5598165.0,525.9701,-648.3576,1032769.0,-77.5116,1354.421,5876955.691794075
PART_003_R247G182B210A255,4908,-5597924.0,254.3292,427.826,964427.2,-1136.466,3495.544,5842171.848302615
PART_003_R247G182B210A255,4909,-5598282.0,-266.4001,-200.7012,913526.0,-79.15568,4585.369,5817370.436731587
PART_003_R247G182B210A255,4910,-5598235.0,-85.15112,-182.729,878888.6,-883.3215,4176.06,5801389.976313806
PART_003_R247G182B210A255,4911,-5598306.0,-369.8772,-163.2569,858765.8,15.19589,2459.986,5792279.324921852
PART_001_R158G218B229A255,4912,-5598338.0,-122.4448,-457.3697,852241.6,-7.753182e-06,0.0002404519,5789394.594185527
PART_001_R158G218B229A255,4913,-5598306.0,-369.8772,-163.2569,858765.8,-15.19587,-2459.985,5792279.324920578
PART_002_R214G39B40A255,4914,-5598235.0,-85.15112,-182.729,878888.6,883.3215,-4176.059,5801389.976311646
PART_002_R214G39B40A255,4915,-5598282.0,-266.4001,-200.7012,913526.0,79.15567,-4585.368,5817370.436729223
PART_002_R214G39B40A255,4916,-5597924.0,254.3292,427.8259,964427.2,1136.466,-3495.544,5842171.848254699
PART_002_R214G39B40A255,4917,-5598165.0,525.9701,-648.3575,1032769.0,77.5116,-1354.421,5876955.691841688
PART_003_R247G182B210A255,4918,-11195430.0,1162.797,1322.64,932911.9,-587.7919,3075.807,11312669.147558123
PART_003_R247G182B210A255,4919,-11196510.0,84.88818,-718.5346,865940.6,47.10045,8492.887,11296216.972878322
PART_003_R247G182B210A255,4920,-11196280.0,-46.90207,-37.25466,817672.7,-1119.965,10885.31,11285471.579149429
PART_003_R247G182B210A255,4921,-11196590.0,-749.4844,-158.5453,785366.4,173.4077,9831.809,11278481.834459802
PART_001_R158G218B229A255,4922,-11196700.0,-293.3096,-1048.558,767157.3,-169.7712,5812.203,11274606.852542715
PART_001_R158G218B229A255,4923,-11196580.0,-350.755,-528.7632,761254.7,1.43425e-05,0.0004980723,11273512.428364186
PART_001_R158G218B229A255,4924,-11196700.0,-293.3096,-1048.558,767157.3,169.7712,-5812.202,11274606.852541167
PART_001_R158G218B229A255,4925,-11196590.0,-749.4844,-158.5453,785366.4,-173.4077,-9831.808,11278481.834457187
PART_002_R214G39B40A255,4926,-11196280.0,-46.90206,-37.25468,817672.7,1119.965,-10885.31,11285471.579144469
PART_002_R214G39B40A255,4927,-11196510.0,84.88817,-718.5346,865940.6,-47.10046,-8492.887,11296216.972873366
PART_002_R214G39B40A255,4928,-11195430.0,1162.797,1322.64,932911.9,587.7919,-3075.807,11312669.147558123
PART_003_R247G182B210A255,4929,-16794680.0,1604.267,-2546.79,764229.2,147.8165,6642.493,16846297.258443836
PART_003_R247G182B210A255,4930,-16793870.0,576.9402,1184.676,701009.2,-1476.155,16754.24,16838608.7706025
PART_003_R247G182B210A255,4931,-16794960.0,-1345.501,-411.335,657567.1,584.9765,21369.19,16832698.276385006
PART_001_R158G218B229A255,4932,-16795020.0,-358.2998,-1407.651,630704.3,156.9475,19070.17,16829661.139103737
PART_001_R158G218B229A255,4933,-16794900.0,-286.1685,-1274.752,615892.1,127.2139,10891.47,16827976.02226184
PART_001_R158G218B229A255,4934,-16795110.0,-396.8285,-1651.225,611096.1,-1.326989e-05,0.0007898477,16827407.41134388
PART_001_R158G218B229A255,4935,-16794900.0,-286.1685,-1274.752,615892.1,-127.2139,-10891.47,16827976.02226184
PART_001_R158G218B229A255,4936,-16795020.0,-358.2998,-1407.652,630704.3,-156.9475,-19070.17,16829661.13860484
PART_001_R158G218B229A255,4937,-16794960.0,-1345.501,-411.335,657567.1,-584.9765,-21369.19,16832698.276385006
PART_002_R214G39B40A255,4938,-16793870.0,576.9402,1184.676,701009.2,1476.155,-16754.24,16838608.7706025
PART_002_R214G39B40A255,4939,-16794680.0,1604.267,-2546.79,764229.2,-147.8165,-6642.493,16846297.258443836
PART_003_R247G182B210A255,4940,-22390150.0,2818.234,4290.469,522765.9,-1385.376,12173.37,22412012.383925207
PART_003_R247G182B210A255,4941,-22393490.0,-1706.741,-1008.765,466111.9,1349.69,33335.74,22406755.836625554
PART_001_R158G218B229A255,4942,-22393640.0,-771.9671,-2638.831,435090.9,964.8663,40757.13,22404723.52618381
PART_001_R158G218B229A255,4943,-22393170.0,149.7333,-1938.347,417104.1,283.4387,33722.88,22404003.066812083
PART_001_R158G218B229A255,4944,-22393600.0,-706.8667,-2587.389,407188.3,236.5486,18847.56,22403080.789821073
PART_001_R158G218B229A255,4945,-22393120.0,369.4431,-2008.702,404161.8,4.903429e-06,0.001126557,22403239.953371745
PART_001_R158G218B229A255,4946,-22393600.0,-706.8667,-2587.389,407188.3,-236.5487,-18847.56,22403080.789821077
PART_001_R158G218B229A255,4947,-22393170.0,149.7333,-1938.347,417104.1,-283.4386,-33722.88,22404003.06681208
PART_001_R158G218B229A255,4948,-22393640.0,-771.9671,-2638.831,435090.9,-964.8663,-40757.13,22404723.52618381
PART_001_R158G218B229A255,4949,-22393490.0,-1706.741,-1008.765,466111.9,-1349.69,-33335.74,22406755.836625554
PART_002_R214G39B40A255,4950,-22390150.0,2818.234,4290.469,522765.9,1385.376,-12173.37,22412012.383925207
PART_003_R247G182B210A255,4951,-27992870.0,1917.157,-8713.887,192004.6,2132.825,32816.23,27991506.726715107
PART_001_R158G218B229A255,4952,-27993360.0,-2473.436,-5470.576,164994.7,1310.907,70944.81,27991116.83056825
PART_001_R158G218B229A255,4953,-27991550.0,1260.614,-4001.692,154672.3,257.5356,72238.94,27991741.51747935
PART_001_R158G218B229A255,4954,-27992170.0,-1099.635,-3278.554,147851.6,306.3414,56328.19,27991322.473480765
PART_001_R158G218B229A255,4955,-27991430.0,787.2385,-3126.611,144590.6,43.4297,30401.65,27991430.403457467
PART_001_R158G218B229A255,4956,-27991940.0,-805.1754,-2874.359,143389.6,-2.259795e-06,0.00152308,27991202.117549285
PART_001_R158G218B229A255,4957,-27991430.0,787.2385,-3126.611,144590.6,-43.42969,-30401.65,27991430.403457467
PART_001_R158G218B229A255,4958,-27992170.0,-1099.635,-3278.554,147851.6,-306.3414,-56328.19,27991322.473480765
PART_001_R158G218B229A255,4959,-27991550.0,1260.614,-4001.692,154672.3,-257.5356,-72238.94,27991741.51747935
PART_001_R158G218B229A255,4960,-27993360.0,-2473.436,-5470.576,164994.7,-1310.907,-70944.8,27991116.830492213
PART_001_R158G218B229A255,4961,-27992870.0,1917.157,-8713.887,192004.6,-2132.825,-32816.23,27991506.726715107
PART_003_R247G182B210A255,4962,27674760.0,-1989.974,8351.849,191998.2,2105.085,-32814.94,27673637.30535951
PART_000_R31G119B180A255,4963,27675280.0,2545.682,5665.99,164998.9,1298.079,-70947.87,27672922.987705257
PART_000_R31G119B180A255,4964,27673430.0,-1336.102,3706.677,154670.0,253.2583,-72235.42,27673824.61799464
PART_000_R31G119B180A255,4965,27674130.0,1190.801,3492.689,147854.1,303.6688,-56331.12,27673145.31400647
PART_000_R31G119B180A255,4966,27673290.0,-870.8111,2844.649,144589.3,42.55614,-30400.04,27673486.568423655
PART_000_R31G119B180A255,4967,27673900.0,901.1024,3091.765,143391.6,-3.097198e-06,-0.001522543,27673018.159115028
PART_000_R31G119B180A255,4968,27673290.0,-870.8111,2844.649,144589.3,-42.55613,30400.03,27673486.5683907
PART_000_R31G119B180A255,4969,27674130.0,1190.801,3492.689,147854.1,-303.6688,56331.12,27673145.31400647
PART_000_R31G119B180A255,4970,27673430.0,-1336.102,3706.677,154670.0,-253.2583,72235.42,27673824.61799464
PART_000_R31G119B180A255,4971,27675280.0,2545.682,5665.99,164998.9,-1298.079,70947.87,27672922.987705257
PART_000_R31G119B180A255,4972,27674760.0,-1989.974,8351.849,191998.2,-2105.085,32814.94,27673637.30535951
PART_003_R247G182B210A255,4973,22135710.0,-2860.977,-4468.347,522771.0,-1368.739,-12171.82,22157893.198528714
PART_003_R247G182B210A255,4974,22139040.0,1762.936,1218.067,466109.3,1334.336,-33338.94,22152340.9926797
PART_000_R31G119B180A255,4975,22139130.0,674.6206,2387.425,435090.4,953.8421,-40753.78,22150534.68847455
PART_000_R31G119B180A255,4976,22138740.0,-68.20383,2132.653,417102.6,280.2948,-33725.59,22149569.86944072
PART_000_R31G119B180A255,4977,22139090.0,607.7029,2338.989,407187.3,233.8162,-18846.09,22148872.28621052
PART_000_R31G119B180A255,4978,22138700.0,-284.157,2201.148,404160.5,6.604004e-06,-0.001125893,22148806.75526107
PART_000_R31G119B180A255,4979,22139090.0,607.7029,2338.989,407187.3,-233.8162,18846.09,22148872.28621052
PART_000_R31G119B180A255,4980,22138740.0,-68.20384,2132.653,417102.6,-280.2947,33725.59,22149569.86944571
PART_000_R31G119B180A255,4981,22139130.0,674.6206,2387.425,435090.4,-953.8421,40753.78,22150534.68847455
PART_000_R31G119B180A255,4982,22139040.0,1762.936,1218.067,466109.3,-1334.336,33338.94,22152340.9926797
PART_002_R214G39B40A255,4983,22135710.0,-2860.977,-4468.347,522771.0,1368.739,12171.82,22157893.198528714
PART_003_R247G182B210A255,4984,16603830.0,-1648.419,2339.967,764227.0,145.6571,-6641.754,16656168.872173803
PART_003_R247G182B210A255,4985,16603040.0,-504.0586,-997.0156,701010.0,-1459.601,-16756.34,16648151.673940932
PART_003_R247G182B210A255,4986,16604090.0,1270.214,237.7413,657569.6,578.4818,-21366.73,16642395.61548979
PART_000_R31G119B180A255,4987,16604200.0,423.6831,1561.851,630705.3,155.0593,-19072.21,16639139.107475186
PART_000_R31G119B180A255,4988,16604020.0,220.706,1093.338,615894.5,125.8208,-10890.35,16637607.902050965
PART_000_R31G119B180A255,4989,16604290.0,462.881,1801.816,611097.2,-1.515235e-05,-0.0007893534,16636861.624376958
PART_000_R31G119B180A255,4990,16604020.0,220.706,1093.338,615894.5,-125.8207,10890.35,16637607.902050963
PART_000_R31G119B180A255,4991,16604200.0,423.683,1561.851,630705.3,-155.0593,19072.21,16639139.107525082
PART_000_R31G119B180A255,4992,16604090.0,1270.214,237.7412,657569.6,-578.4818,21366.73,16642395.615539677
PART_002_R214G39B40A255,4993,16603040.0,-504.0586,-997.0156,701010.0,1459.601,16756.34,16648151.673940932
PART_002_R214G39B40A255,4994,16603830.0,-1648.419,2339.967,764227.0,-145.6571,6641.754,16656168.872173803
PART_003_R247G182B210A255,4995,11068200.0,-1189.243,-1426.3,932915.3,-580.728,-3075.049,11186823.704514265
PART_003_R247G182B210A255,4996,11069280.0,-44.03515,825.9669,865938.6,46.73488,-8494.442,11170052.393231973
PART_003_R247G182B210A255,4997,11069040.0,-0.06423884,-79.07746,817671.1,-1107.258,-10883.67,11159329.714399641
PART_003_R247G182B210A255,4998,11069380.0,782.592,269.8786,785363.9,171.4304,-9833.141,11152138.960212529
PART_000_R31G119B180A255,4999,11069440.0,242.3983,922.1041,767155.7,-167.8323,-5811.475,11148331.588987892
PART_000_R31G119B180A255,5000,11069370.0,388.9837,635.2805,761252.1,1.548974e-05,-0.0004981523,11147113.026453601
PART_000_R31G119B180A255,5001,11069440.0,242.3983,922.1041,767155.7,167.8322,5811.475,11148331.588987889
PART_000_R31G119B180A255,5002,11069380.0,782.5921,269.8786,785363.9,-171.4304,9833.14,11152138.960160261
PART_002_R214G39B40A255,5003,11069040.0,-0.06426237,-79.07744,817671.1,1107.258,10883.67,11159329.71440139
PART_002_R214G39B40A255,5004,11069280.0,-44.03514,825.9669,865938.6,-46.73488,8494.441,11170052.393224737
PART_002_R214G39B40A255,5005,11068200.0,-1189.243,-1426.3,932915.3,580.728,3075.049,11186823.704514265
PART_003_R247G182B210A255,5006,5534547.0,-540.9871,580.7184,1032768.0,-76.92261,-1354.161,5816427.278751377
PART_003_R247G182B210A255,5007,5534317.0,-229.0415,-363.9191,964427.7,-1123.79,-3496.278,5781206.5536647085
PART_003_R247G182B210A255,5008,5534657.0,243.076,141.1618,913529.2,-78.17751,-4584.519,5756211.549053387
PART_003_R247G182B210A255,5009,5534629.0,107.773,238.3896,878890.2,-873.3212,-4176.762,5740000.078735999
PART_003_R247G182B210A255,5010,5534677.0,344.5865,104.7867,858768.6,15.03941,-2459.601,5730849.075578089
PART_000_R31G119B180A255,5011,5534732.0,145.0286,509.6386,852243.3,-8.068318e-06,-0.0002412707,5727878.406387491
PART_000_R31G119B180A255,5012,5534677.0,344.5865,104.7867,858768.6,-15.03939,2459.601,5730849.075578089
PART_002_R214G39B40A255,5013,5534629.0,107.773,238.3896,878890.2,873.3212,4176.762,5740000.078735999
PART_002_R214G39B40A255,5014,5534657.0,243.076,141.1618,913529.2,78.1775,4584.519,5756211.549053386
PART_002_R214G39B40A255,5015,5534317.0,-229.0415,-363.9191,964427.7,1123.79,3496.277,5781206.553662894
PART_002_R214G39B40A255,5016,5534547.0,-540.9871,580.7184,1032768.0,76.92261,1354.161,5816427.278751377
PART_003_R247G182B210A255,5017,0.006055774,-8.323216e-06,-1.167114e-05,1065913.0,-451.3335,-1.388287e-06,1846215.6379504493
PART_003_R247G182B210A255,5018,0.006053069,-2.033508e-07,-8.646575e-06,997061.1,-189.9935,-3.489152e-06,1726960.5148040357
PART_003_R247G182B210A255,5019,0.006057125,-7.051806e-06,-6.225905e-06,945571.6,-1201.523,-5.693488e-06,1637779.3756035147
PART_003_R247G182B210A255,5020,0.006051686,-2.102162e-05,-4.351088e-07,910067.1,-73.73614,-4.262359e-06,1576282.460670766
PART_003_R247G182B210A255,5021,0.006048054,-2.376927e-05,-1.469646e-05,889484.9,-499.1668,-2.726894e-06,1540633.2819611917
PART_003_R247G182B210A255,5022,0.00604695,-2.749243e-05,-2.796508e-06,882689.0,1.168699e-05,-4.078687e-07,1528862.1952821647
PART_002_R214G39B40A255,5023,0.006045353,-2.692676e-05,-1.494013e-05,889484.9,499.1667,2.847747e-06,1540633.2819610946
PART_002_R214G39B40A255,5024,0.006045142,-2.297733e-05,-3.497625e-06,910067.1,73.73615,4.192011e-06,1576282.4606707674
PART_002_R214G39B40A255,5025,0.006046533,-1.734125e-05,-8.415571e-06,945571.6,1201.523,5.453332e-06,1637779.3756035147
PART_002_R214G39B40A255,5026,0.006044103,-4.883226e-06,-1.091892e-05,997061.1,189.9935,3.244493e-06,1726960.5148040357
PART_002_R214G39B40A255,5027,0.006039862,-1.848288e-05,-1.550721e-05,1065913.0,451.3335,1.243979e-06,1846215.6379504493
PART_003_R247G182B210A255,5028,-5534547.0,540.9872,-580.7184,1032768.0,-76.92262,1354.161,5816427.2787989685
PART_003_R247G182B210A255,5029,-5534317.0,229.0415,363.9191,964427.7,-1123.79,3496.278,5781206.5536647085
PART_003_R247G182B210A255,5030,-5534657.0,-243.076,-141.1618,913529.2,-78.17751,4584.519,5756211.549053387
PART_003_R247G182B210A255,5031,-5534629.0,-107.7729,-238.3895,878890.2,-873.3212,4176.762,5740000.078832418
PART_003_R247G182B210A255,5032,-5534677.0,-344.5864,-104.7866,858768.6,15.03941,2459.601,5730849.075674661
PART_001_R158G218B229A255,5033,-5534731.0,-145.0285,-509.6386,852243.3,-8.554409e-06,0.0002417985,5727877.44021337
PART_001_R158G218B229A255,5034,-5534677.0,-344.5864,-104.7866,858768.6,-15.03939,-2459.601,5730849.075674661
PART_002_R214G39B40A255,5035,-5534629.0,-107.7729,-238.3895,878890.2,873.3212,-4176.762,5740000.078832418
PART_002_R214G39B40A255,5036,-5534657.0,-243.076,-141.1618,913529.2,78.1775,-4584.519,5756211.549053386
PART_002_R214G39B40A255,5037,-5534317.0,229.0415,363.9191,964427.7,1123.79,-3496.277,5781206.553662894
PART_002_R214G39B40A255,5038,-5534547.0,540.9872,-580.7184,1032768.0,76.92262,-1354.161,5816427.2787989685
PART_003_R247G182B210A255,5039,-11068200.0,1189.243,1426.3,932915.3,-580.728,3075.049,11186823.704514265
PART_003_R247G182B210A255,5040,-11069280.0,44.03513,-825.9669,865938.6,46.73488,8494.442,11170052.393222064
PART_003_R247G182B210A255,5041,-11069040.0,0.06421059,79.07743,817671.1,-1107.258,10883.67,11159329.714370752
PART_003_R247G182B210A255,5042,-11069380.0,-782.5921,-269.8786,785363.9,171.4304,9833.141,11152138.960162906
PART_001_R158G218B229A255,5043,-11069440.0,-242.3983,-922.1041,767155.7,-167.8323,5811.475,11148331.588987892
PART_001_R158G218B229A255,5044,-11069370.0,-388.9837,-635.2805,761252.1,1.307097e-05,0.0004983111,11147113.026453601
PART_001_R158G218B229A255,5045,-11069440.0,-242.3983,-922.1041,767155.7,167.8322,-5811.475,11148331.588987889
PART_001_R158G218B229A255,5046,-11069380.0,-782.5921,-269.8785,785363.9,-171.4304,-9833.14,11152138.960209891
PART_002_R214G39B40A255,5047,-11069040.0,0.06422458,79.07741,817671.1,1107.258,-10883.67,11159329.714367772
PART_002_R214G39B40A255,5048,-11069280.0,44.03511,-825.9669,865938.6,-46.73489,-8494.441,11170052.39320987
PART_002_R214G39B40A255,5049,-11068200.0,1189.243,1426.3,932915.3,580.728,-3075.049,11186823.704514265
PART_003_R247G182B210A255,5050,-16603830.0,1648.419,-2339.967,764227.0,145.6571,6641.754,16656168.872173803
PART_003_R247G182B210A255,5051,-16603040.0,504.0586,997.0156,701010.0,-1459.601,16756.34,16648151.673940932
PART_003_R247G182B210A255,5052,-16604090.0,-1270.214,-237.7413,657569.6,578.4818,21366.73,16642395.61548979
PART_001_R158G218B229A255,5053,-16604200.0,-423.683,-1561.851,630705.3,155.0593,19072.21,16639139.107525082
PART_001_R158G218B229A255,5054,-16604020.0,-220.706,-1093.338,615894.5,125.8208,10890.35,16637607.902050965
PART_001_R158G218B229A255,5055,-16604290.0,-462.8809,-1801.815,611097.2,-1.424255e-05,0.0007889617,16636861.62492579
PART_001_R158G218B229A255,5056,-16604020.0,-220.706,-1093.338,615894.5,-125.8207,-10890.35,16637607.902050963
PART_001_R158G218B229A255,5057,-16604200.0,-423.683,-1561.851,630705.3,-155.0593,-19072.21,16639139.107525082
PART_001_R158G218B229A255,5058,-16604090.0,-1270.214,-237.7413,657569.6,-578.4818,-21366.73,16642395.61548979
PART_002_R214G39B40A255,5059,-16603040.0,504.0586,997.0156,701010.0,1459.601,-16756.34,16648151.673940932
PART_002_R214G39B40A255,5060,-16603830.0,1648.419,-2339.967,764227.0,-145.6571,-6641.754,16656168.872173803
PART_003_R247G182B210A255,5061,-22135710.0,2860.977,4468.347,522771.0,-1368.739,12171.82,22157893.198528714
PART_003_R247G182B210A255,5062,-22139040.0,-1762.936,-1218.067,466109.3,1334.336,33338.94,22152340.9926797
PART_001_R158G218B229A255,5063,-22139130.0,-674.6207,-2387.425,435090.4,953.8421,40753.78,22150534.688424572
PART_001_R158G218B229A255,5064,-22138740.0,68.20381,-2132.653,417102.6,280.2948,33725.59,22149569.869430725
PART_001_R158G218B229A255,5065,-22139090.0,-607.703,-2338.989,407187.3,233.8162,18846.09,22148872.286160536
PART_001_R158G218B229A255,5066,-22138700.0,284.157,-2201.148,404160.5,4.686009e-06,0.001127331,22148806.75526107
PART_001_R158G218B229A255,5067,-22139090.0,-607.703,-2338.989,407187.3,-233.8162,-18846.09,22148872.286160536
PART_001_R158G218B229A255,5068,-22138740.0,68.20382,-2132.653,417102.6,-280.2947,-33725.59,22149569.86943572
PART_001_R158G218B229A255,5069,-22139130.0,-674.6206,-2387.425,435090.4,-953.8421,-40753.78,22150534.68847455
PART_001_R158G218B229A255,5070,-22139040.0,-1762.936,-1218.067,466109.3,-1334.336,-33338.94,22152340.9926797
PART_002_R214G39B40A255,5071,-22135710.0,2860.977,4468.347,522771.0,1368.739,-12171.82,22157893.198528714
PART_003_R247G182B210A255,5072,-27674760.0,1989.974,-8351.849,191998.2,2105.085,32814.94,27673637.30535951
PART_001_R158G218B229A255,5073,-27675280.0,-2545.682,-5665.99,164998.9,1298.079,70947.87,27672922.987705257
PART_001_R158G218B229A255,5074,-27673430.0,1336.102,-3706.677,154670.0,253.2583,72235.42,27673824.61799464
PART_001_R158G218B229A255,5075,-27674130.0,-1190.8,-3492.689,147854.1,303.6688,56331.12,27673145.31450651
PART_001_R158G218B229A255,5076,-27673290.0,870.8112,-2844.649,144589.3,42.55613,30400.04,27673486.568473667
PART_001_R158G218B229A255,5077,-27673900.0,-901.1024,-3091.765,143391.6,-5.974703e-07,0.001522829,27673018.159115028
PART_001_R158G218B229A255,5078,-27673290.0,870.8112,-2844.649,144589.3,-42.55613,-30400.03,27673486.568440713
PART_001_R158G218B229A255,5079,-27674130.0,-1190.8,-3492.689,147854.1,-303.6688,-56331.12,27673145.31450651
PART_001_R158G218B229A255,5080,-27673430.0,1336.102,-3706.677,154670.0,-253.2583,-72235.42,27673824.61799464
PART_001_R158G218B229A255,5081,-27675280.0,-2545.682,-5665.99,164998.9,-1298.079,-70947.87,27672922.987705257
PART_001_R158G218B229A255,5082,-27674760.0,1989.974,-8351.85,191998.2,-2105.085,-32814.94,27673637.304859824
PART_003_R247G182B210A255,5083,27356670.0,-1889.584,8470.535,192003.4,2083.74,-32815.99,27355461.822472237
PART_000_R31G119B180A255,5084,27357150.0,2434.936,5390.852,164995.5,1281.475,-70945.38,27355006.158700824
PART_000_R31G119B180A255,5085,27355370.0,-1247.088,3867.75,154671.9,251.4484,-72238.31,27355658.0161456
PART_000_R31G119B180A255,5086,27356000.0,1092.946,3247.552,147852.0,299.521,-56328.75,27355202.525726587
PART_000_R31G119B180A255,5087,27355250.0,-784.9317,3013.066,144590.4,42.37684,-30401.37,27355333.215627678
PART_000_R31G119B180A255,5088,27355770.0,805.4297,2852.3,143389.9,-2.455549e-06,-0.001522021,27355068.648383535
PART_000_R31G119B180A255,5089,27355250.0,-784.9317,3013.066,144590.4,-42.37684,30401.36,27355333.215594336
PART_000_R31G119B180A255,5090,27356000.0,1092.946,3247.553,147852.0,-299.521,56328.74,27355202.5251649
PART_000_R31G119B180A255,5091,27355370.0,-1247.088,3867.75,154671.9,-251.4484,72238.31,27355658.0161456
PART_000_R31G119B180A255,5092,27357150.0,2434.936,5390.852,164995.5,-1281.475,70945.38,27355006.158700824
PART_000_R31G119B180A255,5093,27356670.0,-1889.584,8470.535,192003.4,-2083.74,32815.99,27355461.822472237
PART_003_R247G182B210A255,5094,21881290.0,-2767.263,-4231.972,522766.9,-1353.73,-12173.09,21903523.09462081
PART_003_R247G182B210A255,5095,21884550.0,1680.651,1023.64,466111.4,1319.016,-33336.33,21898161.277300753
PART_000_R31G119B180A255,5096,21884690.0,738.9177,2540.698,435090.8,942.9305,-40756.53,21896136.32838602
PART_000_R31G119B180A255,5097,21884240.0,-132.9145,1931.304,417103.8,277.0125,-33723.39,21895340.754729044
PART_000_R31G119B180A255,5098,21884650.0,674.8535,2490.814,407188.1,231.1658,-18847.3,21894453.71194958
PART_000_R31G119B180A255,5099,21884190.0,-347.4185,1999.861,404161.5,6.329565e-06,-0.001126448,21894557.633339956
PART_000_R31G119B180A255,5100,21884650.0,674.8535,2490.814,407188.1,-231.1658,18847.3,21894453.71194958
PART_000_R31G119B180A255,5101,21884240.0,-132.9145,1931.304,417103.8,-277.0124,33723.39,21895340.75472904
PART_000_R31G119B180A255,5102,21884690.0,738.9177,2540.698,435090.8,-942.9305,40756.53,21896136.32838602
PART_000_R31G119B180A255,5103,21884550.0,1680.651,1023.64,466111.4,-1319.016,33336.33,21898161.277300753
PART_002_R214G39B40A255,5104,21881290.0,-2767.263,-4231.972,522766.9,1353.73,12173.09,21903523.09462081
PART_003_R247G182B210A255,5105,16412990.0,-1578.3,2458.595,764228.8,144.3739,-6642.359,16465845.689935507
PART_003_R247G182B210A255,5106,16412190.0,-552.3116,-1127.935,701009.4,-1442.64,-16754.63,16457905.365204737
PART_003_R247G182B210A255,5107,16413260.0,1304.883,373.2041,657567.6,571.7123,-21368.75,16451933.582392136
PART_000_R31G119B180A255,5108,16413320.0,362.2182,1404.773,630704.5,153.365,-19070.55,16448785.01450205
PART_000_R31G119B180A255,5109,16413200.0,269.2509,1217.321,615892.5,124.333,-10891.28,16447098.913962837
PART_000_R31G119B180A255,5110,16413410.0,400.0632,1642.656,611096.3,-1.520304e-05,-0.0007896244,16446483.457115678
PART_000_R31G119B180A255,5111,16413200.0,269.2509,1217.321,615892.5,-124.333,10891.28,16447098.913962837
PART_000_R31G119B180A255,5112,16413320.0,362.2182,1404.773,630704.5,-153.365,19070.55,16448785.01450205
PART_000_R31G119B180A255,5113,16413260.0,1304.883,373.2041,657567.6,-571.7123,21368.75,16451933.582392136
PART_002_R214G39B40A255,5114,16412190.0,-552.3116,-1127.935,701009.4,1442.64,16754.63,16457905.365204737
PART_002_R214G39B40A255,5115,16412990.0,-1578.3,2458.595,764228.8,-144.3739,6642.359,16465845.689935507
PART_003_R247G182B210A255,5116,10940990.0,-1143.222,-1312.848,932912.6,-574.3617,-3075.67,11060883.449059898
PART_003_R247G182B210A255,5117,10942040.0,-76.28082,721.848,865940.3,46.06688,-8493.174,11044045.92255541
PART_003_R247G182B210A255,5118,10941820.0,37.79411,16.5887,817672.4,-1094.51,-10885.02,11033084.490411619
PART_003_R247G182B210A255,5119,10942130.0,739.4166,174.1498,785365.9,169.4681,-9832.058,11025919.5493067
PART_000_R31G119B180A255,5120,10942230.0,278.4062,1005.127,767157.0,-165.9103,-5812.076,11021980.061521508
PART_000_R31G119B180A255,5121,10942120.0,349.8484,535.8407,761254.2,1.384845e-05,-0.0004982015,11020835.851744376
PART_000_R31G119B180A255,5122,10942230.0,278.4062,1005.127,767157.0,165.9102,5812.075,11021980.06151992
PART_000_R31G119B180A255,5123,10942130.0,739.4166,174.1498,785365.9,-169.4681,9832.057,11025919.549304025
PART_002_R214G39B40A255,5124,10941820.0,37.7941,16.58873,817672.4,1094.51,10885.02,11033084.490401702
PART_002_R214G39B40A255,5125,10942040.0,-76.28081,721.848,865940.3,-46.06689,8493.174,11044045.922550455
PART_002_R214G39B40A255,5126,10940990.0,-1143.222,-1312.848,932912.6,574.3617,3075.67,11060883.449059898
PART_003_R247G182B210A255,5127,5470933.0,-517.5519,623.3662,1032769.0,-75.79887,-1354.375,5755898.792449997
PART_003_R247G182B210A255,5128,5470700.0,-244.675,-408.0138,964427.3,-1110.674,-3495.679,5720360.975689348
PART_003_R247G182B210A255,5129,5471047.0,256.9454,186.3981,913526.6,-77.33824,-4585.218,5695049.202008094
PART_003_R247G182B210A255,5130,5471004.0,87.29777,188.4354,878888.9,-863.2496,-4176.192,5678711.817867404
PART_003_R247G182B210A255,5131,5471069.0,357.9362,149.9077,858766.3,14.85428,-2459.918,5669415.708781183
PART_000_R31G119B180A255,5132,5471105.0,123.8106,456.7844,852241.9,-9.853746e-06,-0.0002412686,5666459.420183881
PART_000_R31G119B180A255,5133,5471069.0,357.9362,149.9077,858766.3,-14.85426,2459.918,5669415.708781183
PART_002_R214G39B40A255,5134,5471004.0,87.29776,188.4354,878888.9,863.2496,4176.191,5678711.817870014
PART_002_R214G39B40A255,5135,5471047.0,256.9454,186.3981,913526.6,77.33823,4585.217,5695049.202005678
PART_002_R214G39B40A255,5136,5470700.0,-244.675,-408.0137,964427.3,1110.674,3495.679,5720360.975641525
PART_002_R214G39B40A255,5137,5470933.0,-517.5519,623.3662,1032769.0,75.79887,1354.375,5755898.792449997
PART_003_R247G182B210A255,5138,0.005988373,1.328971e-06,3.28856e-06,1065911.0,-446.3946,-8.807359e-07,1846212.1702468048
PART_003_R247G182B210A255,5139,0.0059873,9.459541e-06,-1.589216e-05,997062.8,-187.9386,-4.198252e-06,1726963.4586158076
PART_003_R247G182B210A255,5140,0.005994033,2.127208e-05,1.758517e-05,945573.2,-1187.721,-4.572551e-06,1637782.1166804335
PART_003_R247G182B210A255,5141,0.005990825,2.089989e-05,4.946696e-06,910069.5,-72.8566,-4.645953e-06,1576286.6174699962
PART_003_R247G182B210A255,5142,0.005993557,3.656795e-05,2.025611e-05,889486.3,-493.4478,-3.207875e-06,1540635.7013049074
PART_003_R247G182B210A255,5143,0.005987041,2.35184e-05,7.834234e-06,882691.4,9.653127e-06,1.255782e-07,1528866.352204103
PART_002_R214G39B40A255,5144,0.005988694,3.168246e-05,1.767369e-05,889486.3,493.4477,2.405373e-06,1540635.7013048115
PART_002_R214G39B40A255,5145,0.005985004,2.162947e-05,4.883454e-06,910069.5,72.85662,4.542415e-06,1576286.617469999
PART_002_R214G39B40A255,5146,0.005986894,2.730896e-05,1.799569e-05,945573.2,1187.721,4.794519e-06,1637782.1166804335
PART_002_R214G39B40A255,5147,0.005977721,1.585883e-05,-1.047212e-05,997062.8,187.9386,3.462582e-06,1726963.4586158076
PART_002_R214G39B40A255,5148,0.00597416,7.6585e-06,2.828807e-06,1065911.0,446.3946,1.581366e-06,1846212.1702468048
PART_003_R247G182B210A255,5149,-5470933.0,517.5519,-623.3662,1032769.0,-75.79887,1354.375,5755898.792449997
PART_003_R247G182B210A255,5150,-5470700.0,244.675,408.0137,964427.3,-1110.674,3495.679,5720360.975641525
PART_003_R247G182B210A255,5151,-5471047.0,-256.9454,-186.3981,913526.6,-77.33824,4585.218,5695049.202008094
PART_003_R247G182B210A255,5152,-5471004.0,-87.29782,-188.4354,878888.9,-863.2496,4176.192,5678711.817843319
PART_003_R247G182B210A255,5153,-5471069.0,-357.9363,-149.9077,858766.3,14.85428,2459.918,5669415.7087329365
PART_001_R158G218B229A255,5154,-5471105.0,-123.8107,-456.7844,852241.9,-9.772375e-06,0.0002399022,5666459.420135604
PART_001_R158G218B229A255,5155,-5471069.0,-357.9363,-149.9077,858766.3,-14.85426,-2459.918,5669415.7087329365
PART_002_R214G39B40A255,5156,-5471004.0,-87.29781,-188.4354,878888.9,863.2496,-4176.191,5678711.817845929
PART_002_R214G39B40A255,5157,-5471047.0,-256.9454,-186.3981,913526.6,77.33823,-4585.217,5695049.202005678
PART_002_R214G39B40A255,5158,-5470700.0,244.675,408.0137,964427.3,1110.674,-3495.679,5720360.975641525
PART_002_R214G39B40A255,5159,-5470933.0,517.5519,-623.3662,1032769.0,75.79888,-1354.375,5755898.792449998
PART_003_R247G182B210A255,5160,-10940990.0,1143.222,1312.848,932912.6,-574.3617,3075.67,11060883.449059898
PART_003_R247G182B210A255,5161,-10942040.0,76.28082,-721.848,865940.3,46.06688,8493.174,11044045.92255541
PART_003_R247G182B210A255,5162,-10941820.0,-37.79406,-16.58865,817672.4,-1094.51,10885.02,11033084.490461206
PART_003_R247G182B210A255,5163,-10942130.0,-739.4166,-174.1499,785365.9,169.4681,9832.058,11025919.549257077
PART_001_R158G218B229A255,5164,-10942230.0,-278.4061,-1005.127,767157.0,-165.9103,5812.076,11021980.061571147
PART_001_R158G218B229A255,5165,-10942120.0,-349.8484,-535.8407,761254.2,1.378475e-05,0.0004975392,11020835.851744376
PART_001_R158G218B229A255,5166,-10942230.0,-278.4061,-1005.127,767157.0,165.9102,-5812.075,11021980.06156956
PART_001_R158G218B229A255,5167,-10942130.0,-739.4166,-174.1498,785365.9,-169.4681,-9832.057,11025919.549304025
PART_002_R214G39B40A255,5168,-10941820.0,-37.79404,-16.58867,817672.4,1094.51,-10885.02,11033084.490461206
PART_002_R214G39B40A255,5169,-10942040.0,76.28081,-721.848,865940.3,-46.06689,-8493.174,11044045.922550455
PART_002_R214G39B40A255,5170,-10940990.0,1143.222,1312.848,932912.6,574.3617,-3075.67,11060883.449059898
PART_003_R247G182B210A255,5171,-16412990.0,1578.3,-2458.595,764228.8,144.3739,6642.359,16465845.689935507
PART_003_R247G182B210A255,5172,-16412190.0,552.3116,1127.935,701009.4,-1442.64,16754.63,16457905.365204737
PART_003_R247G182B210A255,5173,-16413260.0,-1304.883,-373.2041,657567.6,571.7123,21368.75,16451933.582392136
PART_001_R158G218B229A255,5174,-16413320.0,-362.2183,-1404.773,630704.5,153.365,19070.55,16448785.014452156
PART_001_R158G218B229A255,5175,-16413200.0,-269.2509,-1217.321,615892.5,124.333,10891.28,16447098.913962837
PART_001_R158G218B229A255,5176,-16413410.0,-400.0633,-1642.656,611096.3,-1.323431e-05,0.0007897436,16446483.457065776
PART_001_R158G218B229A255,5177,-16413200.0,-269.2509,-1217.321,615892.5,-124.333,-10891.28,16447098.913962837
PART_001_R158G218B229A255,5178,-16413320.0,-362.2183,-1404.773,630704.5,-153.365,-19070.55,16448785.014452156
PART_001_R158G218B229A255,5179,-16413260.0,-1304.883,-373.204,657567.6,-571.7123,-21368.75,16451933.582442021
PART_002_R214G39B40A255,5180,-16412190.0,552.3116,1127.935,701009.4,1442.64,-16754.63,16457905.365204737
PART_002_R214G39B40A255,5181,-16412990.0,1578.3,-2458.595,764228.8,-144.3739,-6642.359,16465845.689935507
PART_003_R247G182B210A255,5182,-21881290.0,2767.263,4231.972,522766.9,-1353.73,12173.09,21903523.09462081
PART_003_R247G182B210A255,5183,-21884550.0,-1680.651,-1023.64,466111.4,1319.016,33336.33,21898161.277300753
PART_001_R158G218B229A255,5184,-21884690.0,-738.9176,-2540.698,435090.8,942.9305,40756.53,21896136.328436
PART_001_R158G218B229A255,5185,-21884240.0,132.9145,-1931.304,417103.8,277.0125,33723.39,21895340.754729044
PART_001_R158G218B229A255,5186,-21884650.0,-674.8534,-2490.814,407188.1,231.1658,18847.3,21894453.71199956
PART_001_R158G218B229A255,5187,-21884190.0,347.4185,-1999.861,404161.5,3.880704e-06,0.001125199,21894557.633339956
PART_001_R158G218B229A255,5188,-21884650.0,-674.8535,-2490.814,407188.1,-231.1658,-18847.3,21894453.71194958
PART_001_R158G218B229A255,5189,-21884240.0,132.9145,-1931.304,417103.8,-277.0124,-33723.39,21895340.75472904
PART_001_R158G218B229A255,5190,-21884690.0,-738.9176,-2540.698,435090.8,-942.9305,-40756.53,21896136.328436
PART_001_R158G218B229A255,5191,-21884550.0,-1680.651,-1023.64,466111.4,-1319.016,-33336.33,21898161.277300753
PART_002_R214G39B40A255,5192,-21881290.0,2767.263,4231.972,522766.9,1353.73,-12173.09,21903523.09462081
PART_003_R247G182B210A255,5193,-27356670.0,1889.584,-8470.535,192003.4,2083.74,32815.99,27355461.822472237
PART_001_R158G218B229A255,5194,-27357150.0,-2434.936,-5390.852,164995.5,1281.475,70945.38,27355006.158700824
PART_001_R158G218B229A255,5195,-27355370.0,1247.088,-3867.75,154671.9,251.4484,72238.31,27355658.0161456
PART_001_R158G218B229A255,5196,-27356000.0,-1092.946,-3247.553,147852.0,299.521,56328.75,27355202.52522667
PART_001_R158G218B229A255,5197,-27355250.0,784.9317,-3013.066,144590.4,42.37684,30401.37,27355333.215627678
PART_001_R158G218B229A255,5198,-27355770.0,-805.4298,-2852.3,143389.9,-2.367145e-06,0.001522063,27355068.64833353
PART_001_R158G218B229A255,5199,-27355250.0,784.9317,-3013.066,144590.4,-42.37684,-30401.36,27355333.215594336
PART_001_R158G218B229A255,5200,-27356000.0,-1092.946,-3247.553,147852.0,-299.521,-56328.74,27355202.5251649
PART_001_R158G218B229A255,5201,-27355370.0,1247.088,-3867.75,154671.9,-251.4484,-72238.31,27355658.0161456
PART_001_R158G218B229A255,5202,-27357150.0,-2434.936,-5390.852,164995.5,-1281.475,-70945.38,27355006.158700824
PART_001_R158G218B229A255,5203,-27356670.0,1889.584,-8470.535,192003.4,-2083.74,-32815.99,27355461.822472237
PART_003_R247G182B210A255,5204,27038560.0,-1931.13,8196.796,191999.2,2057.189,-32815.14,27037533.787460104
PART_000_R31G119B180A255,5205,27039060.0,2472.791,5499.387,164998.3,1267.947,-70947.41,27036863.852682322
PART_000_R31G119B180A255,5206,27037260.0,-1292.99,3656.488,154670.4,247.6292,-72235.96,27037695.328019638
PART_000_R31G119B180A255,5207,27037930.0,1148.581,3376.889,147853.7,296.5747,-56330.69,27037056.23845537
PART_000_R31G119B180A255,5208,27037130.0,-838.0188,2813.816,144589.5,41.63234,-30400.29,27037353.432568867
PART_000_R31G119B180A255,5209,27037710.0,865.3397,2985.353,143391.3,-1.070917e-06,-0.001522823,27036925.461378302
PART_000_R31G119B180A255,5210,27037130.0,-838.0188,2813.816,144589.5,-41.63234,30400.28,27037353.432535134
PART_000_R31G119B180A255,5211,27037930.0,1148.581,3376.889,147853.7,-296.5747,56330.69,27037056.23845537
PART_000_R31G119B180A255,5212,27037260.0,-1292.99,3656.487,154670.4,-247.6292,72235.96,27037695.328519475
PART_000_R31G119B180A255,5213,27039060.0,2472.791,5499.387,164998.3,-1267.947,70947.41,27036863.852682322
PART_000_R31G119B180A255,5214,27038560.0,-1931.13,8196.796,191999.2,-2057.189,32815.14,27037533.787460104
PART_003_R247G182B210A255,5215,21626850.0,-2784.567,-4333.8,522770.2,-1337.399,-12172.05,21649363.019129902
PART_003_R247G182B210A255,5216,21630090.0,1711.994,1159.177,466109.7,1303.667,-33338.46,21643793.71149536
PART_000_R31G119B180A255,5217,21630190.0,671.7162,2363.632,435090.5,931.9271,-40754.29,21641912.237590794
PART_000_R31G119B180A255,5218,21629800.0,-77.63653,2053.342,417102.9,273.8436,-33725.19,21640953.19493432
PART_000_R31G119B180A255,5219,21630150.0,606.6989,2315.953,407187.4,228.449,-18846.31,21640209.01916305
PART_000_R31G119B180A255,5220,21629760.0,-288.7989,2120.401,404160.7,4.445808e-06,-0.001126205,21640169.670081373
PART_000_R31G119B180A255,5221,21630150.0,606.6989,2315.953,407187.4,-228.449,18846.31,21640209.01916305
PART_000_R31G119B180A255,5222,21629800.0,-77.63654,2053.342,417102.9,-273.8435,33725.19,21640953.194939315
PART_000_R31G119B180A255,5223,21630190.0,671.7162,2363.632,435090.5,-931.9271,40754.28,21641912.2375343
PART_000_R31G119B180A255,5224,21630090.0,1711.994,1159.177,466109.7,-1303.667,33338.46,21643793.71149536
PART_002_R214G39B40A255,5225,21626850.0,-2784.567,-4333.8,522770.2,1337.399,12172.05,21649363.019129902
PART_003_R247G182B210A255,5226,16222130.0,-1601.93,2310.956,764227.4,142.3804,-6641.864,16275695.819050645
PART_003_R247G182B210A255,5227,16221360.0,-501.8592,-998.4621,701009.8,-1426.009,-16756.03,16267512.128854923
PART_003_R247G182B210A255,5228,16222390.0,1249.246,255.7852,657569.2,565.1676,-21367.1,16261613.874121193
PART_000_R31G119B180A255,5229,16222490.0,404.1123,1502.122,630705.1,151.5137,-19071.92,16258312.267841537
PART_000_R31G119B180A255,5230,16222320.0,224.1715,1091.42,615894.1,122.9231,-10890.52,16256711.159263896
PART_000_R31G119B180A255,5231,16222580.0,442.2531,1736.678,611097.0,-1.504669e-05,-0.0007896405,16255985.822032752
PART_000_R31G119B180A255,5232,16222320.0,224.1715,1091.42,615894.1,-122.923,10890.52,16256711.159263892
PART_000_R31G119B180A255,5233,16222490.0,404.1123,1502.122,630705.1,-151.5137,19071.91,16258312.267806344
PART_000_R31G119B180A255,5234,16222390.0,1249.246,255.7851,657569.2,-565.1676,21367.1,16261613.874171074
PART_002_R214G39B40A255,5235,16221360.0,-501.8592,-998.4621,701009.8,1426.009,16756.03,16267512.128854923
PART_002_R214G39B40A255,5236,16222130.0,-1601.93,2310.956,764227.3,-142.3804,6641.864,16275695.804964108
PART_003_R247G182B210A255,5237,10813760.0,-1156.31,-1376.949,932914.8,-567.4301,-3075.161,10935072.950888747
PART_003_R247G182B210A255,5238,10814820.0,-48.49709,790.9045,865938.9,45.64272,-8494.21,10917970.062827276
PART_003_R247G182B210A255,5239,10814580.0,6.49431,-61.08513,817671.3,-1081.794,-10883.92,10906963.322202472
PART_003_R247G182B210A255,5240,10814910.0,758.8908,247.9332,785364.3,167.4952,-9832.946,10899636.298619077
PART_000_R31G119B180A255,5241,10814980.0,243.5438,916.8805,767156.0,-163.9729,-5811.586,10895729.87462298
PART_000_R31G119B180A255,5242,10814900.0,374.2503,605.0146,761252.5,1.055546e-05,-0.0004979031,10894493.459724542
PART_000_R31G119B180A255,5243,10814980.0,243.5438,916.8805,767156.0,163.9729,5811.585,10895729.87462138
PART_000_R31G119B180A255,5244,10814910.0,758.8908,247.9332,785364.3,-167.4952,9832.945,10899636.29861637
PART_002_R214G39B40A255,5245,10814580.0,6.49429,-61.08511,817671.3,1081.794,10883.92,10906963.322202472
PART_002_R214G39B40A255,5246,10814820.0,-48.49709,790.9045,865938.9,-45.64272,8494.21,10917970.062827276
PART_002_R214G39B40A255,5247,10813760.0,-1156.31,-1376.949,932914.8,567.4301,3075.161,10935072.950888747
PART_003_R247G182B210A255,5248,5407316.0,-525.6584,575.7529,1032769.0,-75.10843,-1354.2,5695492.717763924
PART_003_R247G182B210A255,5249,5407091.0,-226.9381,-363.7992,964427.6,-1097.913,-3496.169,5659525.5478412
PART_003_R247G182B210A255,5250,5407425.0,240.2725,145.8738,913528.7,-76.38396,-4584.647,5633988.30750191
PART_003_R247G182B210A255,5251,5407395.0,101.9646,224.8394,878889.9,-853.2345,-4176.659,5617432.727872036
PART_003_R247G182B210A255,5252,5407445.0,339.5596,110.2401,858768.1,14.69392,-2459.66,5608074.121306642
PART_000_R31G119B180A255,5253,5407495.0,138.3095,489.8873,852243.0,-1.185833e-05,-0.0002406864,5605047.706173427
PART_000_R31G119B180A255,5254,5407445.0,339.5597,110.2401,858768.1,-14.6939,2459.659,5608074.12125712
PART_002_R214G39B40A255,5255,5407395.0,101.9646,224.8395,878889.9,853.2345,4176.659,5617432.727823909
PART_002_R214G39B40A255,5256,5407425.0,240.2725,145.8738,913528.7,76.38395,4584.646,5633988.307499468
PART_002_R214G39B40A255,5257,5407091.0,-226.9381,-363.7992,964427.6,1097.913,3496.168,5659525.547839346
PART_002_R214G39B40A255,5258,5407316.0,-525.6584,575.7529,1032769.0,75.10843,1354.2,5695492.717763924
PART_003_R247G182B210A255,5259,0.005916356,-8.118475e-06,-1.587792e-05,1065913.0,-440.9992,-1.024375e-06,1846215.6304581226
PART_003_R247G182B210A255,5260,0.005914843,-3.485208e-06,-8.420646e-06,997061.4,-185.6426,-2.843267e-06,1726961.0329997041
PART_003_R247G182B210A255,5261,0.005914767,-2.043482e-05,-1.113484e-05,945571.9,-1173.896,-5.16485e-06,1637779.8351134644
PART_003_R247G182B210A255,5262,0.005909518,-2.97075e-05,-5.282368e-06,910067.6,-72.03062,-4.443847e-06,1576283.32645959
PART_003_R247G182B210A255,5263,0.005908534,-3.87372e-05,-1.988622e-05,889485.2,-487.6924,-3.159645e-06,1540633.7905513921
PART_003_R247G182B210A255,5264,0.005908195,-3.651414e-05,-4.715215e-06,882689.4,1.091863e-05,-2.070327e-07,1528862.888102488
PART_002_R214G39B40A255,5265,0.005905434,-3.50353e-05,-1.955122e-05,889485.2,487.6923,2.727468e-06,1540633.7905512971
PART_002_R214G39B40A255,5266,0.005906283,-2.89139e-05,-4.058124e-06,910067.6,72.03064,4.918364e-06,1576283.326459593
PART_002_R214G39B40A255,5267,0.005905134,-2.599375e-05,-1.540308e-05,945571.9,1173.896,4.795856e-06,1637779.8351134644
PART_002_R214G39B40A255,5268,0.005902063,-1.558143e-05,-1.095253e-05,997061.4,185.6426,3.709469e-06,1726961.0329997041
PART_002_R214G39B40A255,5269,0.005903245,-1.955777e-05,-1.756073e-05,1065913.0,440.9992,8.906329e-07,1846215.6304581226
PART_003_R247G182B210A255,5270,-5407316.0,525.6584,-575.753,1032769.0,-75.10844,1354.2,5695492.717716469
PART_003_R247G182B210A255,5271,-5407091.0,226.9382,363.7993,964427.6,-1097.913,3496.168,5659525.547934892
PART_003_R247G182B210A255,5272,-5407425.0,-240.2725,-145.8738,913528.7,-76.38395,4584.647,5633988.30750191
PART_003_R247G182B210A255,5273,-5407395.0,-101.9645,-224.8394,878889.9,-853.2345,4176.659,5617432.727920167
PART_003_R247G182B210A255,5274,-5407445.0,-339.5596,-110.2401,858768.1,14.69392,2459.66,5608074.121306642
PART_001_R158G218B229A255,5275,-5407495.0,-138.3095,-489.8872,852243.0,-1.034056e-05,0.0002406671,5605047.706221658
PART_001_R158G218B229A255,5276,-5407445.0,-339.5596,-110.2401,858768.1,-14.6939,-2459.659,5608074.121305326
PART_002_R214G39B40A255,5277,-5407395.0,-101.9645,-224.8394,878889.9,853.2345,-4176.659,5617432.727920167
PART_002_R214G39B40A255,5278,-5407425.0,-240.2725,-145.8738,913528.7,76.38395,-4584.646,5633988.307499468
PART_002_R214G39B40A255,5279,-5407091.0,226.9382,363.7992,964427.6,1097.913,-3496.168,5659525.547887117
PART_002_R214G39B40A255,5280,-5407316.0,525.6584,-575.753,1032769.0,75.10844,-1354.2,5695492.717716469
PART_003_R247G182B210A255,5281,-10813760.0,1156.31,1376.949,932914.8,-567.4301,3075.161,10935072.950888747
PART_003_R247G182B210A255,5282,-10814820.0,48.49707,-790.9045,865938.9,45.64272,8494.21,10917970.062817369
PART_003_R247G182B210A255,5283,-10814580.0,-6.494359,61.08509,817671.3,-1081.794,10883.92,10906963.32215835
PART_003_R247G182B210A255,5284,-10814910.0,-758.8908,-247.9332,785364.3,167.4952,9832.946,10899636.298619077
PART_001_R158G218B229A255,5285,-10814980.0,-243.5439,-916.8806,767156.0,-163.9729,5811.586,10895729.874523727
PART_001_R158G218B229A255,5286,-10814900.0,-374.2504,-605.0146,761252.5,1.404046e-05,0.0004976162,10894493.459674908
PART_001_R158G218B229A255,5287,-10814980.0,-243.5439,-916.8806,767156.0,163.9729,-5811.585,10895729.874522127
PART_001_R158G218B229A255,5288,-10814910.0,-758.8908,-247.9332,785364.3,-167.4952,-9832.945,10899636.29861637
PART_002_R214G39B40A255,5289,-10814580.0,-6.494353,61.08506,817671.3,1081.794,-10883.92,10906963.322146451
PART_002_R214G39B40A255,5290,-10814820.0,48.49705,-790.9044,865938.9,-45.64273,-8494.21,10917970.062856983
PART_002_R214G39B40A255,5291,-10813760.0,1156.31,1376.949,932914.8,567.4301,-3075.161,10935072.950888747
PART_003_R247G182B210A255,5292,-16222130.0,1601.93,-2310.956,764227.4,142.3804,6641.864,16275695.819050645
PART_003_R247G182B210A255,5293,-16221360.0,501.8593,998.4622,701009.8,-1426.009,16756.03,16267512.128954645
PART_003_R247G182B210A255,5294,-16222390.0,-1249.246,-255.7852,657569.2,565.1676,21367.1,16261613.874121193
PART_001_R158G218B229A255,5295,-16222490.0,-404.1122,-1502.122,630705.1,151.5137,19071.92,16258312.267891428
PART_001_R158G218B229A255,5296,-16222320.0,-224.1715,-1091.42,615894.1,122.9231,10890.52,16256711.159263896
PART_001_R158G218B229A255,5297,-16222580.0,-442.253,-1736.678,611097.0,-1.32825e-05,0.0007889539,16255985.822082652
PART_001_R158G218B229A255,5298,-16222320.0,-224.1714,-1091.42,615894.1,-122.923,-10890.52,16256711.159313789
PART_001_R158G218B229A255,5299,-16222490.0,-404.1122,-1502.122,630705.1,-151.5137,-19071.91,16258312.267856237
PART_001_R158G218B229A255,5300,-16222390.0,-1249.246,-255.7852,657569.2,-565.1676,-21367.1,16261613.874121193
PART_002_R214G39B40A255,5301,-16221360.0,501.8593,998.4622,701009.8,1426.009,-16756.03,16267512.128954645
PART_002_R214G39B40A255,5302,-16222130.0,1601.93,-2310.956,764227.4,-142.3805,-6641.864,16275695.81905065
PART_003_R247G182B210A255,5303,-21626850.0,2784.567,4333.799,522770.2,-1337.399,12172.05,21649363.018630285
PART_003_R247G182B210A255,5304,-21630090.0,-1711.994,-1159.177,466109.7,1303.667,33338.46,21643793.71149536
PART_001_R158G218B229A255,5305,-21630190.0,-671.7163,-2363.632,435090.5,931.9271,40754.29,21641912.23754082
PART_001_R158G218B229A255,5306,-21629800.0,77.6365,-2053.342,417102.9,273.8436,33725.19,21640953.19491933
PART_001_R158G218B229A255,5307,-21630150.0,-606.699,-2315.954,407187.4,228.449,18846.31,21640209.018613394
PART_001_R158G218B229A255,5308,-21629760.0,288.7988,-2120.401,404160.7,6.187442e-06,0.001126011,21640169.670031387
PART_001_R158G218B229A255,5309,-21630150.0,-606.699,-2315.954,407187.4,-228.449,-18846.31,21640209.018613394
PART_001_R158G218B229A255,5310,-21629800.0,77.63652,-2053.342,417102.9,-273.8435,-33725.19,21640953.194929317
PART_001_R158G218B229A255,5311,-21630190.0,-671.7163,-2363.632,435090.5,-931.9271,-40754.28,21641912.237484325
PART_001_R158G218B229A255,5312,-21630090.0,-1711.994,-1159.177,466109.7,-1303.667,-33338.46,21643793.71149536
PART_002_R214G39B40A255,5313,-21626850.0,2784.567,4333.799,522770.2,1337.399,-12172.05,21649363.018630285
PART_003_R247G182B210A255,5314,-27038560.0,1931.13,-8196.796,191999.2,2057.189,32815.14,27037533.787460104
PART_001_R158G218B229A255,5315,-27039060.0,-2472.791,-5499.387,164998.3,1267.947,70947.41,27036863.852682322
PART_001_R158G218B229A255,5316,-27037260.0,1292.99,-3656.488,154670.4,247.6292,72235.96,27037695.328019638
PART_001_R158G218B229A255,5317,-27037930.0,-1148.581,-3376.889,147853.7,296.5747,56330.69,27037056.23845537
PART_001_R158G218B229A255,5318,-27037130.0,838.0188,-2813.816,144589.5,41.63234,30400.29,27037353.432568867
PART_001_R158G218B229A255,5319,-27037710.0,-865.3396,-2985.353,143391.3,-1.527602e-06,0.001522116,27036925.461428303
PART_001_R158G218B229A255,5320,-27037130.0,838.0189,-2813.816,144589.5,-41.63234,-30400.28,27037353.432585143
PART_001_R158G218B229A255,5321,-27037930.0,-1148.581,-3376.889,147853.7,-296.5747,-56330.69,27037056.23845537
PART_001_R158G218B229A255,5322,-27037260.0,1292.99,-3656.487,154670.4,-247.6292,-72235.96,27037695.328519475
PART_001_R158G218B229A255,5323,-27039060.0,-2472.791,-5499.387,164998.3,-1267.947,-70947.41,27036863.852682322
PART_001_R158G218B229A255,5324,-27038560.0,1931.13,-8196.796,191999.2,-2057.189,-32815.14,27037533.787460104
PART_003_R247G182B210A255,5325,26720470.0,-1856.369,8243.413,192002.6,2034.878,-32815.82,26719408.244899847
PART_000_R31G119B180A255,5326,26720940.0,2389.958,5295.077,164996.0,1251.912,-70945.76,26718908.657796636
PART_000_R31G119B180A255,5327,26719200.0,-1228.253,3749.212,154671.6,245.4465,-72237.87,26719575.89155041
PART_000_R31G119B180A255,5328,26719810.0,1079.562,3200.907,147852.4,292.6494,-56329.11,26719075.231616452
PART_000_R31G119B180A255,5329,26719070.0,-777.1528,2914.753,144590.2,41.34817,-30401.17,26719226.972665835
PART_000_R31G119B180A255,5330,26719590.0,798.897,2814.691,143390.2,-2.257075e-06,-0.001521904,26718937.567552213
PART_000_R31G119B180A255,5331,26719070.0,-777.1528,2914.753,144590.2,-41.34817,30401.17,26719226.972665835
PART_000_R31G119B180A255,5332,26719810.0,1079.562,3200.907,147852.4,-292.6494,56329.1,26719075.231553204
PART_000_R31G119B180A255,5333,26719200.0,-1228.253,3749.212,154671.6,-245.4465,72237.87,26719575.89155041
PART_000_R31G119B180A255,5334,26720940.0,2389.958,5295.077,164996.0,-1251.912,70945.76,26718908.657796636
PART_000_R31G119B180A255,5335,26720470.0,-1856.369,8243.413,192002.6,-2034.878,32815.82,26719408.244899847
PART_003_R247G182B210A255,5336,21372420.0,-2711.56,-4159.518,522767.5,-1322.144,-12172.9,21395034.679955065
PART_003_R247G182B210A255,5337,21375610.0,1650.104,1025.052,466111.0,1288.342,-33336.72,21389591.843839064
PART_000_R31G119B180A255,5338,21375740.0,711.4865,2456.235,435090.7,920.9984,-40756.12,21387553.63356209
PART_000_R31G119B180A255,5339,21375310.0,-120.8043,1911.093,417103.6,270.5819,-33723.72,21386700.349628527
PART_000_R31G119B180A255,5340,21375700.0,648.618,2407.781,407187.9,225.7863,-18847.12,21385829.285551094
PART_000_R31G119B180A255,5341,21375260.0,-330.1772,1977.93,404161.3,2.805997e-06,-0.001125988,21385896.34938477
PART_000_R31G119B180A255,5342,21375700.0,648.6181,2407.781,407187.9,-225.7864,18847.12,21385829.28550112
PART_000_R31G119B180A255,5343,21375310.0,-120.8043,1911.093,417103.6,-270.5819,33723.72,21386700.349628527
PART_000_R31G119B180A255,5344,21375740.0,711.4865,2456.235,435090.7,-920.9984,40756.12,21387553.63356209
PART_000_R31G119B180A255,5345,21375610.0,1650.104,1025.052,466111.0,-1288.342,33336.72,21389591.843839064
PART_002_R214G39B40A255,5346,21372420.0,-2711.56,-4159.518,522767.5,1322.144,12172.9,21395034.679955065
PART_003_R247G182B210A255,5347,16031290.0,-1548.638,2381.157,764228.6,140.9624,-6642.267,16085434.185754417
PART_003_R247G182B210A255,5348,16030510.0,-531.8224,-1081.809,701009.5,-1409.112,-16754.88,16077257.54487629
PART_003_R247G182B210A255,5349,16031550.0,1267.779,345.2864,657567.9,558.439,-21368.45,16071194.54643885
PART_000_R31G119B180A255,5350,16031620.0,361.8,1391.538,630704.6,149.7902,-19070.8,16067955.332605451
PART_000_R31G119B180A255,5351,16031490.0,255.9817,1169.996,615892.9,121.4497,-10891.14,16066242.258089934
PART_000_R31G119B180A255,5352,16031710.0,398.8926,1623.791,611096.5,-1.488464e-05,-0.0007894975,16065603.548956202
PART_000_R31G119B180A255,5353,16031490.0,255.9817,1169.995,615892.9,-121.4497,10891.14,16066242.258588789
PART_000_R31G119B180A255,5354,16031620.0,361.8,1391.538,630704.6,-149.7903,19070.8,16067955.332605453
PART_000_R31G119B180A255,5355,16031550.0,1267.78,345.2863,657567.9,-558.439,21368.45,16071194.545990031
PART_002_R214G39B40A255,5356,16030510.0,-531.8224,-1081.809,701009.5,1409.112,16754.88,16077257.54487629
PART_002_R214G39B40A255,5357,16031290.0,-1548.638,2381.157,764228.6,-140.9624,6642.266,16085434.185753176
PART_003_R247G182B210A255,5358,10686540.0,-1121.199,-1295.851,932913.0,-560.957,-3075.577,10809208.01329885
PART_003_R247G182B210A255,5359,10687580.0,-70.01903,718.2049,865940.0,45.02095,-8493.361,10791997.58883833
PART_003_R247G182B210A255,5360,10687360.0,31.56938,2.979349,817672.2,-1069.053,-10884.82,10780789.251363179
PART_003_R247G182B210A255,5361,10687660.0,726.9036,182.9598,785365.6,165.5311,-9832.219,10773441.412593585
PART_000_R31G119B180A255,5362,10687750.0,266.4551,968.6806,767156.7,-162.0482,-5811.987,10769423.829322303
PART_000_R31G119B180A255,5363,10687650.0,346.4617,536.1677,761253.9,1.077776e-05,-0.0004978468,10768238.110802466
PART_000_R31G119B180A255,5364,10687750.0,266.4551,968.6806,767156.7,162.0482,5811.986,10769423.829320684
PART_000_R31G119B180A255,5365,10687660.0,726.9036,182.9598,785365.6,-165.5311,9832.218,10773441.412590846
PART_002_R214G39B40A255,5366,10687360.0,31.56937,2.979374,817672.2,1069.053,10884.82,10780789.251355743
PART_002_R214G39B40A255,5367,10687580.0,-70.01902,718.2049,865940.0,-45.02095,8493.36,10791997.588831017
PART_002_R214G39B40A255,5368,10686540.0,-1121.199,-1295.851,932913.0,560.957,3075.576,10809208.013297997
PART_003_R247G182B210A255,5369,5343702.0,-507.8839,602.0132,1032769.0,-74.06773,-1354.342,5635112.237858438
PART_003_R247G182B210A255,5370,5343475.0,-236.4076,-391.7908,964427.4,-1084.866,-3495.767,5598792.974955624
PART_003_R247G182B210A255,5371,5343813.0,248.686,175.5511,913527.0,-75.52403,-4585.113,5572946.097920476
PART_003_R247G182B210A255,5372,5343773.0,87.98223,190.6372,878889.1,-843.173,-4176.277,5556240.962272939
PART_003_R247G182B210A255,5373,5343834.0,347.2386,139.981,858766.6,14.51356,-2459.871,5546748.296417388
PART_000_R31G119B180A255,5374,5343871.0,123.6905,452.714,852242.1,-1.033904e-05,-0.0002411049,5543719.598666522
PART_000_R31G119B180A255,5375,5343834.0,347.2386,139.981,858766.6,-14.51354,2459.871,5546748.296417387
PART_002_R214G39B40A255,5376,5343773.0,87.98222,190.6372,878889.1,843.173,4176.276,5556240.962275493
PART_002_R214G39B40A255,5377,5343813.0,248.686,175.5511,913527.0,75.52402,4585.113,5572946.0979204755
PART_002_R214G39B40A255,5378,5343475.0,-236.4076,-391.7908,964427.4,1084.866,3495.766,5598792.97495375
PART_002_R214G39B40A255,5379,5343702.0,-507.8839,602.0132,1032769.0,74.06773,1354.342,5635112.237858438
PART_003_R247G182B210A255,5380,0.005845718,5.925237e-06,9.083943e-07,1065911.0,-435.974,-9.999001e-07,1846212.1627762574
PART_003_R247G182B210A255,5381,0.005848446,1.350933e-05,-1.342686e-05,997062.5,-183.5418,-4.091793e-06,1726962.9375819063
PART_003_R247G182B210A255,5382,0.005856007,3.292247e-05,2.091306e-05,945572.9,-1160.091,-4.933789e-06,1637781.5376528748
PART_003_R247G182B210A255,5383,0.005850803,2.543066e-05,4.150117e-06,910069.1,-71.16094,-4.704867e-06,1576285.9244172892
PART_003_R247G182B210A255,5384,0.005853324,4.281655e-05,2.487599e-05,889486.1,-481.9665,-3.227781e-06,1540635.3439911574
PART_003_R247G182B210A255,5385,0.005853018,4.049596e-05,1.152666e-05,882691.0,9.08736e-06,-5.932964e-07,1528865.6593837799
PART_002_R214G39B40A255,5386,0.005853379,3.966477e-05,2.483724e-05,889486.1,481.9665,2.423406e-06,1540635.3439911574
PART_002_R214G39B40A255,5387,0.005848007,3.144461e-05,5.30036e-06,910069.1,71.16095,3.76943e-06,1576285.9244172906
PART_002_R214G39B40A255,5388,0.005850728,3.62318e-05,2.518088e-05,945572.9,1160.09,4.771337e-06,1637781.5376507498
PART_002_R214G39B40A255,5389,0.005840145,1.90293e-05,-1.268504e-05,997062.5,183.5418,3.830684e-06,1726962.9375819063
PART_002_R214G39B40A255,5390,0.005835413,8.459436e-06,7.853674e-06,1065911.0,435.9739,1.091959e-06,1846212.1627761866
PART_003_R247G182B210A255,5391,-5343702.0,507.8839,-602.0132,1032769.0,-74.06774,1354.342,5635112.237858439
PART_003_R247G182B210A255,5392,-5343475.0,236.4076,391.7908,964427.4,-1084.866,3495.767,5598792.974955624
PART_003_R247G182B210A255,5393,-5343813.0,-248.686,-175.5511,913527.0,-75.52402,4585.113,5572946.0979204755
PART_003_R247G182B210A255,5394,-5343773.0,-87.98229,-190.6373,878889.1,-843.173,4176.277,5556240.962196001
PART_003_R247G182B210A255,5395,-5343834.0,-347.2387,-139.981,858766.6,14.51356,2459.871,5546748.296369222
PART_001_R158G218B229A255,5396,-5343871.0,-123.6906,-452.7141,852242.1,-1.255e-05,0.0002406056,5543719.598570131
PART_001_R158G218B229A255,5397,-5343834.0,-347.2387,-139.981,858766.6,-14.51354,-2459.871,5546748.296369222
PART_002_R214G39B40A255,5398,-5343773.0,-87.9823,-190.6373,878889.1,843.173,-4176.276,5556240.962188937
PART_002_R214G39B40A255,5399,-5343813.0,-248.686,-175.5511,913527.0,75.52402,-4585.113,5572946.0979204755
PART_002_R214G39B40A255,5400,-5343475.0,236.4076,391.7907,964427.4,1084.866,-3495.766,5598792.974906026
PART_002_R214G39B40A255,5401,-5343702.0,507.8838,-602.0132,1032769.0,74.06774,-1354.342,5635112.23781101
PART_003_R247G182B210A255,5402,-10686540.0,1121.199,1295.851,932913.0,-560.957,3075.577,10809208.01329885
PART_003_R247G182B210A255,5403,-10687580.0,70.01903,-718.2049,865940.0,45.02095,8493.361,10791997.58883833
PART_003_R247G182B210A255,5404,-10687360.0,-31.56931,-2.979276,817672.2,-1069.053,10884.82,10780789.25143406
PART_003_R247G182B210A255,5405,-10687660.0,-726.9036,-182.9598,785365.6,165.5311,9832.219,10773441.412593585
PART_001_R158G218B229A255,5406,-10687750.0,-266.455,-968.6805,767156.7,-162.0482,5811.987,10769423.829421539
PART_001_R158G218B229A255,5407,-10687650.0,-346.4616,-536.1677,761253.9,1.370508e-05,0.0004969122,10768238.11085209
PART_001_R158G218B229A255,5408,-10687750.0,-266.455,-968.6806,767156.7,162.0482,-5811.986,10769423.829370307
PART_001_R158G218B229A255,5409,-10687660.0,-726.9036,-182.9598,785365.6,-165.5311,-9832.218,10773441.412590846
PART_002_R214G39B40A255,5410,-10687360.0,-31.56929,-2.979294,817672.2,1069.053,-10884.82,10780789.25143505
PART_002_R214G39B40A255,5411,-10687580.0,70.01903,-718.2049,865940.0,-45.02096,-8493.36,10791997.588835968
PART_002_R214G39B40A255,5412,-10686540.0,1121.199,1295.851,932913.0,560.957,-3075.576,10809208.013297997
PART_003_R247G182B210A255,5413,-16031290.0,1548.638,-2381.156,764228.6,140.9624,6642.267,16085434.186252536
PART_003_R247G182B210A255,5414,-16030510.0,531.8223,1081.809,701009.5,-1409.112,16754.88,16077257.544826437
PART_003_R247G182B210A255,5415,-16031550.0,-1267.78,-345.2863,657567.9,558.439,21368.45,16071194.545990031
PART_001_R158G218B229A255,5416,-16031620.0,-361.8001,-1391.538,630704.6,149.7902,19070.8,16067955.332555562
PART_001_R158G218B229A255,5417,-16031490.0,-255.9817,-1169.995,615892.9,121.4497,10891.14,16066242.258588789
PART_001_R158G218B229A255,5418,-16031710.0,-398.8927,-1623.791,611096.5,-1.422266e-05,0.0007885472,16065603.548906306
PART_001_R158G218B229A255,5419,-16031490.0,-255.9817,-1169.995,615892.9,-121.4497,-10891.14,16066242.258588789
PART_001_R158G218B229A255,5420,-16031620.0,-361.8001,-1391.538,630704.6,-149.7903,-19070.8,16067955.332555564
PART_001_R158G218B229A255,5421,-16031550.0,-1267.78,-345.2863,657567.9,-558.439,-21368.45,16071194.545990031
PART_002_R214G39B40A255,5422,-16030510.0,531.8223,1081.809,701009.5,1409.112,-16754.88,16077257.544826437
PART_002_R214G39B40A255,5423,-16031290.0,1548.638,-2381.156,764228.6,-140.9624,-6642.266,16085434.186251296
PART_003_R247G182B210A255,5424,-21372420.0,2711.56,4159.518,522767.5,-1322.144,12172.9,21395034.679955065
PART_003_R247G182B210A255,5425,-21375610.0,-1650.104,-1025.052,466111.0,1288.342,33336.72,21389591.843839064
PART_001_R158G218B229A255,5426,-21375740.0,-711.4864,-2456.235,435090.7,920.9984,40756.12,21387553.633612063
PART_001_R158G218B229A255,5427,-21375310.0,120.8044,-1911.093,417103.6,270.5819,33723.72,21386700.349678505
PART_001_R158G218B229A255,5428,-21375700.0,-648.6179,-2407.781,407187.9,225.7863,18847.12,21385829.285601072
PART_001_R158G218B229A255,5429,-21375260.0,330.1773,-1977.93,404161.3,4.263696e-06,0.001125466,21385896.34943475
PART_001_R158G218B229A255,5430,-21375700.0,-648.6179,-2407.781,407187.9,-225.7864,-18847.12,21385829.285601076
PART_001_R158G218B229A255,5431,-21375310.0,120.8044,-1911.093,417103.6,-270.5819,-33723.72,21386700.349678505
PART_001_R158G218B229A255,5432,-21375740.0,-711.4864,-2456.235,435090.7,-920.9984,-40756.12,21387553.633612063
PART_001_R158G218B229A255,5433,-21375610.0,-1650.104,-1025.052,466111.0,-1288.342,-33336.72,21389591.843839064
PART_002_R214G39B40A255,5434,-21372420.0,2711.56,4159.518,522767.5,1322.144,-12172.9,21395034.679955065
PART_003_R247G182B210A255,5435,-26720470.0,1856.369,-8243.413,192002.6,2034.878,32815.82,26719408.244899847
PART_001_R158G218B229A255,5436,-26720940.0,-2389.958,-5295.077,164996.0,1251.912,70945.76,26718908.657796636
PART_001_R158G218B229A255,5437,-26719200.0,1228.253,-3749.212,154671.6,245.4465,72237.87,26719575.89155041
PART_001_R158G218B229A255,5438,-26719810.0,-1079.562,-3200.907,147852.4,292.6494,56329.11,26719075.231616452
PART_001_R158G218B229A255,5439,-26719070.0,777.1527,-2914.752,144590.2,41.34817,30401.17,26719226.973115698
PART_001_R158G218B229A255,5440,-26719590.0,-798.8972,-2814.691,143390.2,-1.685863e-06,0.001521553,26718937.567452203
PART_001_R158G218B229A255,5441,-26719070.0,777.1527,-2914.752,144590.2,-41.34817,-30401.17,26719226.973115698
PART_001_R158G218B229A255,5442,-26719810.0,-1079.562,-3200.907,147852.4,-292.6494,-56329.1,26719075.231553204
PART_001_R158G218B229A255,5443,-26719200.0,1228.253,-3749.212,154671.6,-245.4465,-72237.87,26719575.89155041
PART_001_R158G218B229A255,5444,-26720940.0,-2389.958,-5295.077,164996.0,-1251.912,-70945.76,26718908.657796636
PART_001_R158G218B229A255,5445,-26720470.0,1856.369,-8243.413,192002.6,-2034.878,-32815.82,26719408.244899847
PART_003_R247G182B210A255,5446,26402360.0,-1876.901,8028.507,191999.8,2009.113,-32815.27,26401441.515698448
PART_000_R31G119B180A255,5447,26402850.0,2405.165,5345.885,164997.8,1237.92,-70947.1,26400807.52003477
PART_000_R31G119B180A255,5448,26401100.0,-1254.228,3593.765,154670.6,241.93,-72236.31,26401586.26423601
PART_000_R31G119B180A255,5449,26401740.0,1111.802,3273.897,147853.4,289.5218,-56330.4,26400969.57943968
PART_000_R31G119B180A255,5450,26400970.0,-809.7092,2770.623,144589.6,40.68883,-30400.45,26401230.056840252
PART_000_R31G119B180A255,5451,26401530.0,835.0915,2891.691,143391.1,-4.551688e-08,-0.001522073,26400834.896798786
PART_000_R31G119B180A255,5452,26400970.0,-809.7092,2770.623,144589.6,-40.68883,30400.45,26401230.056840252
PART_000_R31G119B180A255,5453,26401740.0,1111.802,3273.897,147853.4,-289.5218,56330.39,26400969.579375673
PART_000_R31G119B180A255,5454,26401100.0,-1254.228,3593.765,154670.6,-241.93,72236.31,26401586.26423601
PART_000_R31G119B180A255,5455,26402850.0,2405.165,5345.885,164997.8,-1237.92,70947.1,26400807.52003477
PART_000_R31G119B180A255,5456,26402360.0,-1876.901,8028.507,191999.8,-2009.113,32815.27,26401441.515698448
PART_003_R247G182B210A255,5457,21117980.0,-2712.014,-4210.651,522769.7,-1306.014,-12172.2,21140851.44285264
PART_003_R247G182B210A255,5458,21121150.0,1664.708,1111.303,466109.9,1272.996,-33338.14,21135265.82295444
PART_000_R31G119B180A255,5459,21121250.0,664.2382,2328.705,435090.6,910.0078,-40754.62,21133312.281096004
PART_000_R31G119B180A255,5460,21120860.0,-83.20637,1984.838,417103.0,267.3954,-33724.92,21132342.610767093
PART_000_R31G119B180A255,5461,21121210.0,600.9907,2281.916,407187.5,223.0792,-18846.46,21131566.34705824
PART_000_R31G119B180A255,5462,21120820.0,-289.5169,2050.415,404160.8,5.36631e-06,-0.001125926,21131537.77175275
PART_000_R31G119B180A255,5463,21121210.0,600.9907,2281.916,407187.5,-223.0792,18846.46,21131566.34705824
PART_000_R31G119B180A255,5464,21120860.0,-83.20638,1984.838,417103.0,-267.3954,33724.92,21132342.61077209
PART_000_R31G119B180A255,5465,21121250.0,664.2381,2328.705,435090.6,-910.0078,40754.62,21133312.28114598
PART_000_R31G119B180A255,5466,21121150.0,1664.708,1111.303,466109.9,-1272.997,33338.14,21135265.82295462
PART_002_R214G39B40A255,5467,21117980.0,-2712.014,-4210.651,522769.7,1306.014,12172.2,21140851.44285264
PART_003_R247G182B210A255,5468,15840440.0,-1558.463,2273.145,764227.6,139.0772,-6641.937,15895297.843471868
PART_003_R247G182B210A255,5469,15839680.0,-496.2758,-991.2186,701009.8,-1392.432,-16755.82,15886916.534771131
PART_003_R247G182B210A255,5470,15840690.0,1225.397,265.4913,657568.9,551.8596,-21367.34,15880881.757683072
PART_000_R31G119B180A255,5471,15840780.0,388.0859,1450.896,630705.0,147.9619,-19071.71,15877519.939853827
PART_000_R31G119B180A255,5472,15840620.0,224.6483,1081.274,615893.8,120.0278,-10890.63,15875858.645173522
PART_000_R31G119B180A255,5473,15840870.0,425.2257,1680.01,611096.8,-1.536411e-05,-0.0007882337,15875142.008109242
PART_000_R31G119B180A255,5474,15840620.0,224.6483,1081.274,615893.8,-120.0278,10890.63,15875858.645173522
PART_000_R31G119B180A255,5475,15840780.0,388.0858,1450.896,630705.0,-147.962,19071.71,15877519.939903716
PART_000_R31G119B180A255,5476,15840690.0,1225.397,265.4913,657568.9,-551.8596,21367.34,15880881.757683072
PART_002_R214G39B40A255,5477,15839680.0,-496.2758,-991.2186,701009.8,1392.432,16755.82,15886916.534771131
PART_002_R214G39B40A255,5478,15840440.0,-1558.463,2273.145,764227.6,-139.0772,6641.937,15895297.843471868
PART_003_R247G182B210A255,5479,10559320.0,-1125.383,-1333.493,932914.5,-554.1132,-3075.235,10683455.53415141
PART_003_R247G182B210A255,5480,10560350.0,-51.03952,761.5422,865939.1,44.5577,-8494.053,10665986.01229325
PART_003_R247G182B210A255,5481,10560120.0,10.69497,-48.8495,817671.5,-1056.333,-10884.08,10654701.127515767
PART_003_R247G182B210A255,5482,10560440.0,737.1908,231.5731,785364.5,163.5589,-9832.812,10647222.415885445
PART_000_R31G119B180A255,5483,10560510.0,242.2743,905.975,767156.1,-160.1134,-5811.658,10643210.646707816
PART_000_R31G119B180A255,5484,10560430.0,361.5465,580.3075,761252.8,1.264732e-05,-0.0004969283,10641957.20419185
PART_000_R31G119B180A255,5485,10560510.0,242.2743,905.975,767156.1,160.1134,5811.657,10643210.646706177
PART_000_R31G119B180A255,5486,10560440.0,737.1908,231.573,785364.5,-163.5589,9832.811,10647222.415932268
PART_002_R214G39B40A255,5487,10560120.0,10.69495,-48.84948,817671.5,1056.333,10884.08,10654701.127515767
PART_002_R214G39B40A255,5488,10560350.0,-51.03953,761.5421,865939.1,-44.55771,8494.053,10665986.012347698
PART_002_R214G39B40A255,5489,10559320.0,-1125.383,-1333.493,932914.5,554.1132,3075.235,10683455.53415141
PART_003_R247G182B210A255,5490,5280085.0,-511.3496,567.8119,1032769.0,-73.31097,-1354.225,5574840.024225216
PART_003_R247G182B210A255,5491,5279865.0,-223.6991,-360.7411,964427.5,-1072.052,-3496.094,5538091.874213945
PART_003_R247G182B210A255,5492,5280192.0,236.4921,147.7654,913528.3,-74.58809,-4584.73,5511992.70563239
PART_003_R247G182B210A255,5493,5280161.0,97.35311,214.1674,878889.7,-833.1503,-4176.589,5495075.165124896
PART_003_R247G182B210A255,5494,5280212.0,333.5166,112.9086,858767.8,14.34919,-2459.698,5485503.275496389
PART_000_R31G119B180A255,5495,5280258.0,132.8069,473.0029,852242.8,-1.223315e-05,-0.0002408756,5482415.458858253
PART_000_R31G119B180A255,5496,5280212.0,333.5166,112.9086,858767.8,-14.34917,2459.698,5485503.275496389
PART_002_R214G39B40A255,5497,5280161.0,97.35311,214.1674,878889.7,833.1503,4176.588,5495075.165122616
PART_002_R214G39B40A255,5498,5280192.0,236.4921,147.7653,913528.3,74.58808,4584.73,5511992.705680286
PART_002_R214G39B40A255,5499,5279865.0,-223.6991,-360.7411,964427.5,1072.052,3496.094,5538091.874213945
PART_002_R214G39B40A255,5500,5280085.0,-511.3496,567.8119,1032769.0,73.31097,1354.225,5574840.024225216
PART_003_R247G182B210A255,5501,0.005776104,-1.067706e-05,-2.026441e-05,1065913.0,-430.65,-8.532742e-07,1846215.6231289094
PART_003_R247G182B210A255,5502,0.005771825,-1.326131e-05,-9.097561e-06,997061.7,-181.2848,-3.587942e-06,1726961.551226085
PART_003_R247G182B210A255,5503,0.005772379,-3.228551e-05,-1.946455e-05,945572.2,-1146.271,-5.04417e-06,1637780.2960257325
PART_003_R247G182B210A255,5504,0.005768276,-3.836839e-05,-7.300785e-06,910067.9,-70.32762,-4.286054e-06,1576283.8458441272
PART_003_R247G182B210A255,5505,0.005764434,-5.321758e-05,-2.858618e-05,889485.4,-476.2169,-3.711197e-06,1540634.126191903
PART_003_R247G182B210A255,5506,0.005765291,-5.058063e-05,-8.940942e-06,882689.7,4.920453e-06,3.77147e-07,1528863.40771773
PART_002_R214G39B40A255,5507,0.005762666,-4.927953e-05,-2.813139e-05,889485.4,476.2169,2.223172e-06,1540634.126191903
PART_002_R214G39B40A255,5508,0.005764387,-4.215466e-05,-6.789966e-06,910067.9,70.32763,3.886053e-06,1576283.8458441286
PART_002_R214G39B40A255,5509,0.005766766,-3.472601e-05,-1.903896e-05,945572.1,1146.271,4.892507e-06,1637780.122820779
PART_002_R214G39B40A255,5510,0.005763893,-1.756925e-05,-9.80481e-06,997061.7,181.2848,3.613621e-06,1726961.551226085
PART_002_R214G39B40A255,5511,0.005760082,-3.113222e-05,-2.648744e-05,1065912.0,430.65,5.822237e-07,1846213.8910782433
PART_003_R247G182B210A255,5512,-5280085.0,511.3496,-567.8119,1032769.0,-73.31097,1354.225,5574840.024225216
PART_003_R247G182B210A255,5513,-5279865.0,223.6992,360.7411,964427.5,-1072.052,3496.094,5538091.874261615
PART_003_R247G182B210A255,5514,-5280192.0,-236.492,-147.7654,913528.3,-74.58809,4584.73,5511992.705680285
PART_003_R247G182B210A255,5515,-5280161.0,-97.35301,-214.1673,878889.7,-833.1503,4176.589,5495075.165220982
PART_003_R247G182B210A255,5516,-5280212.0,-333.5165,-112.9086,858767.8,14.34919,2459.698,5485503.275544513
PART_001_R158G218B229A255,5517,-5280258.0,-132.8067,-473.0029,852242.8,-1.069945e-05,0.0002401252,5482415.458954571
PART_001_R158G218B229A255,5518,-5280212.0,-333.5165,-112.9086,858767.8,-14.34918,-2459.698,5485503.275544513
PART_002_R214G39B40A255,5519,-5280161.0,-97.353,-214.1673,878889.7,833.1503,-4176.588,5495075.165223506
PART_002_R214G39B40A255,5520,-5280192.0,-236.492,-147.7654,913528.3,74.58808,-4584.73,5511992.705680285
PART_002_R214G39B40A255,5521,-5279865.0,223.6992,360.7411,964427.5,1072.052,-3496.094,5538091.874261615
PART_002_R214G39B40A255,5522,-5280085.0,511.3497,-567.8119,1032769.0,73.31097,-1354.225,5574840.024272586
PART_003_R247G182B210A255,5523,-10559320.0,1125.383,1333.493,932914.5,-554.1133,3075.235,10683455.534151427
PART_003_R247G182B210A255,5524,-10560350.0,51.03949,-761.5421,865939.1,44.5577,8494.053,10665986.012327895
PART_003_R247G182B210A255,5525,-10560120.0,-10.69505,48.84942,817671.5,-1056.333,10884.08,10654701.127436478
PART_003_R247G182B210A255,5526,-10560440.0,-737.1909,-231.573,785364.5,163.5589,9832.812,10647222.41588545
PART_001_R158G218B229A255,5527,-10560510.0,-242.2744,-905.9751,767156.1,-160.1134,5811.658,10643210.646608599
PART_001_R158G218B229A255,5528,-10560430.0,-361.5466,-580.3075,761252.8,1.244853e-05,0.0004980161,10641957.204142233
PART_001_R158G218B229A255,5529,-10560510.0,-242.2744,-905.9751,767156.1,160.1134,-5811.657,10643210.646606961
PART_001_R158G218B229A255,5530,-10560440.0,-737.1909,-231.573,785364.5,-163.5589,-9832.811,10647222.41588268
PART_002_R214G39B40A255,5531,-10560120.0,-10.69505,48.8494,817671.5,1056.333,-10884.08,10654701.127426567
PART_002_R214G39B40A255,5532,-10560350.0,51.03948,-761.5421,865939.1,-44.55771,-8494.053,10665986.012322946
PART_002_R214G39B40A255,5533,-10559320.0,1125.383,1333.493,932914.5,554.1133,-3075.235,10683455.534151427
PART_003_R247G182B210A255,5534,-15840440.0,1558.463,-2273.145,764227.6,139.0772,6641.937,15895297.843471868
PART_003_R247G182B210A255,5535,-15839680.0,496.2759,991.2187,701009.8,-1392.432,16755.82,15886916.534870839
PART_003_R247G182B210A255,5536,-15840690.0,-1225.397,-265.4914,657568.9,551.8596,21367.34,15880881.757633196
PART_001_R158G218B229A255,5537,-15840780.0,-388.0857,-1450.896,630705.0,147.9619,19071.71,15877519.9399536
PART_001_R158G218B229A255,5538,-15840620.0,-224.6483,-1081.274,615893.8,120.0278,10890.63,15875858.645173522
PART_001_R158G218B229A255,5539,-15840870.0,-425.2255,-1680.009,611096.8,-1.54781e-05,0.0007878776,15875142.008707859
PART_001_R158G218B229A255,5540,-15840620.0,-224.6483,-1081.274,615893.8,-120.0278,-10890.63,15875858.645173522
PART_001_R158G218B229A255,5541,-15840780.0,-388.0857,-1450.896,630705.0,-147.962,-19071.71,15877519.939953601
PART_001_R158G218B229A255,5542,-15840690.0,-1225.397,-265.4913,657568.9,-551.8596,-21367.34,15880881.757683072
PART_002_R214G39B40A255,5543,-15839680.0,496.2759,991.2187,701009.8,1392.432,-16755.82,15886916.534870839
PART_002_R214G39B40A255,5544,-15840440.0,1558.463,-2273.145,764227.6,-139.0772,-6641.937,15895297.843471868
PART_003_R247G182B210A255,5545,-21117980.0,2712.014,4210.65,522769.7,-1306.014,12172.2,21140851.442353044
PART_003_R247G182B210A255,5546,-21121150.0,-1664.708,-1111.303,466109.9,1272.996,33338.14,21135265.82295444
PART_001_R158G218B229A255,5547,-21121250.0,-664.2383,-2328.705,435090.6,910.0078,40754.62,21133312.281046033
PART_001_R158G218B229A255,5548,-21120860.0,83.20632,-1984.838,417103.0,267.3954,33724.92,21132342.610742103
PART_001_R158G218B229A255,5549,-21121210.0,-600.9908,-2281.917,407187.5,223.0792,18846.46,21131566.3465086
PART_001_R158G218B229A255,5550,-21120820.0,289.5168,-2050.415,404160.8,3.995276e-06,0.001124779,21131537.771702766
PART_001_R158G218B229A255,5551,-21121210.0,-600.9909,-2281.917,407187.5,-223.0792,-18846.46,21131566.346458625
PART_001_R158G218B229A255,5552,-21120860.0,83.20633,-1984.838,417103.0,-267.3954,-33724.92,21132342.610747103
PART_001_R158G218B229A255,5553,-21121250.0,-664.2383,-2328.705,435090.6,-910.0078,-40754.62,21133312.281046033
PART_001_R158G218B229A255,5554,-21121150.0,-1664.708,-1111.303,466109.9,-1272.997,-33338.14,21135265.82295462
PART_002_R214G39B40A255,5555,-21117980.0,2712.014,4210.65,522769.7,1306.014,-12172.2,21140851.442353044
PART_003_R247G182B210A255,5556,-26402360.0,1876.901,-8028.507,191999.8,2009.113,32815.27,26401441.515698448
PART_001_R158G218B229A255,5557,-26402850.0,-2405.165,-5345.885,164997.8,1237.92,70947.1,26400807.52003477
PART_001_R158G218B229A255,5558,-26401100.0,1254.228,-3593.765,154670.6,241.93,72236.31,26401586.26423601
PART_001_R158G218B229A255,5559,-26401740.0,-1111.802,-3273.897,147853.4,289.5218,56330.4,26400969.57943968
PART_001_R158G218B229A255,5560,-26400970.0,809.7093,-2770.623,144589.6,40.68884,30400.45,26401230.056890264
PART_001_R158G218B229A255,5561,-26401530.0,-835.0913,-2891.691,143391.1,-3.087391e-06,0.001521502,26400834.896898795
PART_001_R158G218B229A255,5562,-26400970.0,809.7093,-2770.623,144589.6,-40.68883,-30400.45,26401230.056890264
PART_001_R158G218B229A255,5563,-26401740.0,-1111.802,-3273.897,147853.4,-289.5218,-56330.39,26400969.579375673
PART_001_R158G218B229A255,5564,-26401100.0,1254.228,-3593.765,154670.6,-241.93,-72236.31,26401586.26423601
PART_001_R158G218B229A255,5565,-26402850.0,-2405.165,-5345.885,164997.8,-1237.92,-70947.1,26400807.52003477
PART_001_R158G218B229A255,5566,-26402360.0,1876.901,-8028.507,191999.8,-2009.113,-32815.27,26401441.515698448
PART_003_R247G182B210A255,5567,26084260.0,-1819.37,8027.098,192002.1,1986.163,-32815.72,26083339.79714428
PART_000_R31G119B180A255,5568,26084730.0,2340.712,5188.637,164996.3,1222.262,-70946.01,26082820.672250155
PART_000_R31G119B180A255,5569,26083020.0,-1205.846,3640.927,154671.4,239.5004,-72237.58,26083478.714632653
PART_000_R31G119B180A255,5570,26083630.0,1061.767,3143.857,147852.6,285.7437,-56329.34,26082966.934615977
PART_000_R31G119B180A255,5571,26082900.0,-765.6923,2826.571,144590.1,40.33515,-30401.03,26083125.2157566
PART_000_R31G119B180A255,5572,26083420.0,787.8931,2766.735,143390.4,-2.417209e-06,-0.001521252,26082825.202705074
PART_000_R31G119B180A255,5573,26082900.0,-765.6923,2826.571,144590.1,-40.33515,30401.03,26083125.2157566
PART_000_R31G119B180A255,5574,26083630.0,1061.767,3143.857,147852.6,-285.7437,56329.34,26082966.934615977
PART_000_R31G119B180A255,5575,26083020.0,-1205.846,3640.927,154671.4,-239.5004,72237.58,26083478.714632653
PART_000_R31G119B180A255,5576,26084730.0,2340.712,5188.637,164996.3,-1222.262,70946.0,26082820.672168553
PART_000_R31G119B180A255,5577,26084260.0,-1819.37,8027.098,192002.1,-1986.163,32815.72,26083339.79714428
PART_003_R247G182B210A255,5578,20863550.0,-2652.711,-4077.756,522767.9,-1290.596,-12172.78,20886561.738198638
PART_003_R247G182B210A255,5579,20866670.0,1616.562,1017.466,466110.8,1257.668,-33336.98,20881045.762630977
PART_000_R31G119B180A255,5580,20866790.0,687.7828,2380.878,435090.6,899.0673,-40755.84,20878979.700617004
PART_000_R31G119B180A255,5581,20866380.0,-111.8592,1882.073,417103.5,264.1471,-33723.94,20878079.850088023
PART_000_R31G119B180A255,5582,20866750.0,626.2163,2333.763,407187.8,220.4081,-18847.0,20877211.650001794
PART_000_R31G119B180A255,5583,20866330.0,-316.1512,1947.238,404161.2,4.988846e-06,-0.001125406,20877254.038966376
PART_000_R31G119B180A255,5584,20866750.0,626.2163,2333.763,407187.8,-220.4082,18846.99,20877211.64997471
PART_000_R31G119B180A255,5585,20866380.0,-111.8592,1882.073,417103.5,-264.147,33723.94,20878079.850088023
PART_000_R31G119B180A255,5586,20866790.0,687.7828,2380.878,435090.6,-899.0673,40755.84,20878979.700617004
PART_000_R31G119B180A255,5587,20866670.0,1616.562,1017.466,466110.8,-1257.668,33336.97,20881045.76258308
PART_002_R214G39B40A255,5588,20863550.0,-2652.711,-4077.756,522767.9,1290.596,12172.77,20886561.738181155
PART_003_R247G182B210A255,5589,15649590.0,-1516.5,2310.92,764228.4,137.5705,-6642.204,15705079.226828001
PART_003_R247G182B210A255,5590,15648840.0,-514.0944,-1042.783,701009.6,-1375.576,-16755.05,15696676.359539898
PART_003_R247G182B210A255,5591,15649840.0,1233.041,324.2053,657568.1,545.1574,-21368.25,15690496.50942353
PART_000_R31G119B180A255,5592,15649920.0,358.4899,1371.37,630704.7,146.2184,-19070.96,15687172.523415234
PART_000_R31G119B180A255,5593,15649790.0,245.1652,1129.43,615893.1,118.5635,-10891.05,15685430.972583164
PART_000_R31G119B180A255,5594,15650000.0,394.784,1598.029,611096.6,-1.634421e-05,-0.0007878808,15684757.942627598
PART_000_R31G119B180A255,5595,15649790.0,245.1652,1129.43,615893.1,-118.5635,10891.04,15685430.972562334
PART_000_R31G119B180A255,5596,15649920.0,358.4899,1371.37,630704.7,-146.2184,19070.96,15687172.523415234
PART_000_R31G119B180A255,5597,15649840.0,1233.041,324.2053,657568.1,-545.1574,21368.25,15690496.50942353
PART_002_R214G39B40A255,5598,15648840.0,-514.0944,-1042.783,701009.6,1375.576,16755.05,15696676.359539898
PART_002_R214G39B40A255,5599,15649590.0,-1516.5,2310.92,764228.4,-137.5705,6642.204,15705079.226828001
PART_003_R247G182B210A255,5600,10432100.0,-1097.534,-1274.032,932913.3,-547.5701,-3075.514,10557673.190856136
PART_003_R247G182B210A255,5601,10433110.0,-65.3288,709.8994,865939.8,43.965,-8493.485,10540058.424224343
PART_003_R247G182B210A255,5602,10432890.0,27.27194,-5.914365,817672.0,-1043.597,-10884.68,10528584.526260953
PART_003_R247G182B210A255,5603,10433200.0,712.7515,187.2109,785365.4,161.5926,-9832.325,10521072.17438645
PART_000_R31G119B180A255,5604,10433280.0,256.478,936.8983,767156.6,-158.1873,-5811.926,10516965.845236646
PART_000_R31G119B180A255,5605,10433190.0,341.4125,531.9627,761253.6,1.054052e-05,-0.0004964846,10515743.570245715
PART_000_R31G119B180A255,5606,10433280.0,256.478,936.8983,767156.6,158.1873,5811.925,10516965.845234988
PART_000_R31G119B180A255,5607,10433200.0,712.7515,187.2108,785365.4,-161.5925,9832.324,10521072.174433224
PART_002_R214G39B40A255,5608,10432890.0,27.27193,-5.914342,817672.0,1043.597,10884.68,10528584.526254512
PART_002_R214G39B40A255,5609,10433110.0,-65.32877,709.8994,865939.8,-43.96501,8493.484,10540058.424207076
PART_002_R214G39B40A255,5610,10432100.0,-1097.534,-1274.032,932913.3,547.5701,3075.514,10557673.190856136
PART_003_R247G182B210A255,5611,5216471.0,-497.3819,583.0955,1032769.0,-72.32539,-1354.32,5514613.711681575
PART_003_R247G182B210A255,5612,5216250.0,-229.0683,-377.9686,964427.4,-1059.05,-3495.825,5477484.028660589
PART_003_R247G182B210A255,5613,5216578.0,241.227,167.0164,913527.3,-73.71568,-4585.042,5451074.74815832
PART_003_R247G182B210A255,5614,5216541.0,87.68873,190.4927,878889.2,-823.0968,-4176.333,5433989.5033470215
PART_003_R247G182B210A255,5615,5216599.0,337.3733,132.3422,858766.9,14.17123,-2459.839,5424289.337296907
PART_000_R31G119B180A255,5616,5216637.0,122.5763,446.309,852242.3,-1.300318e-05,-0.0002401157,5421188.513130852
PART_000_R31G119B180A255,5617,5216599.0,337.3733,132.3422,858766.9,-14.17122,2459.839,5424289.337296907
PART_002_R214G39B40A255,5618,5216541.0,87.68872,190.4927,878889.2,823.0968,4176.332,5433989.503349516
PART_002_R214G39B40A255,5619,5216578.0,241.227,167.0164,913527.3,73.71567,4585.042,5451074.74815832
PART_002_R214G39B40A255,5620,5216250.0,-229.0684,-377.9686,964427.4,1059.05,3495.825,5477484.028708205
PART_002_R214G39B40A255,5621,5216471.0,-497.3819,583.0955,1032769.0,72.32539,1354.32,5514613.711681575
PART_003_R247G182B210A255,5622,0.005709659,1.02479e-05,1.023685e-05,1065911.0,-425.5681,-1.620196e-06,1846212.1554923267
PART_003_R247G182B210A255,5623,0.005711196,2.143425e-05,-1.406972e-05,997062.3,-179.1553,-3.62276e-06,1726962.58978987
PART_003_R247G182B210A255,5624,0.005719391,4.492806e-05,3.052993e-05,945572.7,-1132.464,-5.134446e-06,1637781.1332348422
PART_003_R247G182B210A255,5625,0.005718476,5.137983e-05,1.051896e-05,910068.8,-69.46564,-5.130635e-06,1576285.4045751821
PART_003_R247G182B210A255,5626,0.00572329,7.061402e-05,3.970395e-05,889485.9,-470.4872,-2.248421e-06,1540634.9869359212
PART_003_R247G182B210A255,5627,0.00571799,6.084574e-05,1.613928e-05,882690.7,6.272524e-06,1.894679e-10,1528865.1397685376
PART_002_R214G39B40A255,5628,0.005721071,7.095653e-05,3.928178e-05,889485.9,470.4872,2.121394e-06,1540634.9869359212
PART_002_R214G39B40A255,5629,0.005711243,5.036086e-05,1.098462e-05,910068.8,69.46565,4.579016e-06,1576285.4045751835
PART_002_R214G39B40A255,5630,0.005714638,5.64611e-05,3.564201e-05,945572.7,1132.464,4.824076e-06,1637781.1332348422
PART_002_R214G39B40A255,5631,0.005706383,3.965211e-05,-6.303171e-06,997062.3,179.1553,3.86412e-06,1726962.58978987
PART_002_R214G39B40A255,5632,0.005698678,2.313094e-05,1.462869e-05,1065911.0,425.5681,1.685328e-06,1846212.1554923267
PART_003_R247G182B210A255,5633,-5216471.0,497.3819,-583.0955,1032769.0,-72.3254,1354.32,5514613.7116815755
PART_003_R247G182B210A255,5634,-5216250.0,229.0683,377.9686,964427.4,-1059.05,3495.825,5477484.028660589
PART_003_R247G182B210A255,5635,-5216578.0,-241.2271,-167.0164,913527.3,-73.71567,4585.042,5451074.748110474
PART_003_R247G182B210A255,5636,-5216541.0,-87.68885,-190.4928,878889.2,-823.0968,4176.333,5433989.503241426
PART_003_R247G182B210A255,5637,-5216599.0,-337.3734,-132.3423,858766.9,14.17123,2459.839,5424289.33720074
PART_001_R158G218B229A255,5638,-5216637.0,-122.5765,-446.309,852242.3,-1.166705e-05,0.0002408071,5421188.513034621
PART_001_R158G218B229A255,5639,-5216599.0,-337.3734,-132.3423,858766.9,-14.17122,-2459.839,5424289.33720074
PART_002_R214G39B40A255,5640,-5216541.0,-87.68884,-190.4928,878889.2,823.0968,-4176.332,5433989.50324392
PART_002_R214G39B40A255,5641,-5216578.0,-241.2271,-167.0164,913527.3,73.71567,-4585.042,5451074.748110474
PART_002_R214G39B40A255,5642,-5216250.0,229.0683,377.9686,964427.4,1059.05,-3495.825,5477484.028660589
PART_002_R214G39B40A255,5643,-5216471.0,497.3819,-583.0955,1032769.0,72.32539,-1354.32,5514613.711681575
PART_003_R247G182B210A255,5644,-10432100.0,1097.534,1274.032,932913.3,-547.5701,3075.514,10557673.190856136
PART_003_R247G182B210A255,5645,-10433110.0,65.3288,-709.8994,865939.8,43.96501,8493.485,10540058.424224343
PART_003_R247G182B210A255,5646,-10432890.0,-27.27183,5.91447,817672.0,-1043.597,10884.68,10528584.526367476
PART_003_R247G182B210A255,5647,-10433200.0,-712.7514,-187.2109,785365.4,161.5926,9832.325,10521072.174436025
PART_001_R158G218B229A255,5648,-10433280.0,-256.4778,-936.8981,767156.6,-158.1873,5811.926,10516965.845435042
PART_001_R158G218B229A255,5649,-10433190.0,-341.4124,-531.9627,761253.6,9.599157e-06,0.0004962351,10515743.57029532
PART_001_R158G218B229A255,5650,-10433280.0,-256.4778,-936.8982,767156.6,158.1873,-5811.925,10516965.845383791
PART_001_R158G218B229A255,5651,-10433200.0,-712.7514,-187.2109,785365.4,-161.5925,-9832.324,10521072.174433216
PART_002_R214G39B40A255,5652,-10432890.0,-27.27181,5.914453,817672.0,1043.597,-10884.68,10528584.526368963
PART_002_R214G39B40A255,5653,-10433110.0,65.32881,-709.8994,865939.8,-43.96501,-8493.484,10540058.424226876
PART_002_R214G39B40A255,5654,-10432100.0,1097.534,1274.032,932913.3,547.5701,-3075.514,10557673.190856136
PART_003_R247G182B210A255,5655,-15649590.0,1516.5,-2310.92,764228.4,137.5705,6642.204,15705079.226828001
PART_003_R247G182B210A255,5656,-15648840.0,514.0943,1042.783,701009.6,-1375.576,16755.05,15696676.359490052
PART_003_R247G182B210A255,5657,-15649840.0,-1233.041,-324.2052,657568.1,545.1574,21368.25,15690496.509473402
PART_001_R158G218B229A255,5658,-15649920.0,-358.4901,-1371.37,630704.7,146.2184,19070.96,15687172.523315467
PART_001_R158G218B229A255,5659,-15649790.0,-245.1653,-1129.43,615893.1,118.5635,10891.05,15685430.972533276
PART_001_R158G218B229A255,5660,-15650000.0,-394.7842,-1598.029,611096.6,-1.446389e-05,0.0007872005,15684757.942527816
PART_001_R158G218B229A255,5661,-15649790.0,-245.1653,-1129.43,615893.1,-118.5635,-10891.04,15685430.972512444
PART_001_R158G218B229A255,5662,-15649920.0,-358.4901,-1371.37,630704.7,-146.2184,-19070.96,15687172.523315467
PART_001_R158G218B229A255,5663,-15649840.0,-1233.041,-324.2052,657568.1,-545.1574,-21368.25,15690496.509473402
PART_002_R214G39B40A255,5664,-15648840.0,514.0943,1042.783,701009.6,1375.576,-16755.05,15696676.359490052
PART_002_R214G39B40A255,5665,-15649590.0,1516.5,-2310.92,764228.4,-137.5705,-6642.204,15705079.226828001
PART_003_R247G182B210A255,5666,-20863550.0,2652.711,4077.756,522767.9,-1290.596,12172.78,20886561.738198638
PART_003_R247G182B210A255,5667,-20866670.0,-1616.562,-1017.466,466110.8,1257.668,33336.98,20881045.762630977
PART_001_R158G218B229A255,5668,-20866790.0,-687.7827,-2380.878,435090.6,899.0673,40755.84,20878979.70066698
PART_001_R158G218B229A255,5669,-20866380.0,111.8593,-1882.073,417103.5,264.1471,33723.94,20878079.850138
PART_001_R158G218B229A255,5670,-20866750.0,-626.2161,-2333.762,407187.8,220.4081,18847.0,20877211.650601402
PART_001_R158G218B229A255,5671,-20866330.0,316.1512,-1947.238,404161.2,3.521963e-06,0.001123537,20877254.038966376
PART_001_R158G218B229A255,5672,-20866750.0,-626.2161,-2333.762,407187.8,-220.4082,-18846.99,20877211.650574323
PART_001_R158G218B229A255,5673,-20866380.0,111.8593,-1882.073,417103.5,-264.147,-33723.94,20878079.850137997
PART_001_R158G218B229A255,5674,-20866790.0,-687.7826,-2380.878,435090.6,-899.0673,-40755.84,20878979.70071695
PART_001_R158G218B229A255,5675,-20866670.0,-1616.562,-1017.466,466110.8,-1257.668,-33336.97,20881045.76258308
PART_002_R214G39B40A255,5676,-20863550.0,2652.711,4077.756,522767.9,1290.596,-12172.77,20886561.738181155
PART_003_R247G182B210A255,5677,-26084260.0,1819.37,-8027.098,192002.1,1986.163,32815.72,26083339.79714428
PART_001_R158G218B229A255,5678,-26084730.0,-2340.712,-5188.637,164996.3,1222.262,70946.01,26082820.672250155
PART_001_R158G218B229A255,5679,-26083020.0,1205.846,-3640.927,154671.4,239.5004,72237.58,26083478.714632653
PART_001_R158G218B229A255,5680,-26083630.0,-1061.768,-3143.857,147852.6,285.7437,56329.34,26082966.934115946
PART_001_R158G218B229A255,5681,-26082900.0,765.6922,-2826.571,144590.1,40.33515,30401.03,26083125.21570659
PART_001_R158G218B229A255,5682,-26083420.0,-787.8933,-2766.736,143390.4,-1.33858e-06,0.00151974,26082825.202105146
PART_001_R158G218B229A255,5683,-26082900.0,765.6922,-2826.571,144590.1,-40.33515,-30401.03,26083125.21570659
PART_001_R158G218B229A255,5684,-26083630.0,-1061.768,-3143.857,147852.6,-285.7437,-56329.34,26082966.934115946
PART_001_R158G218B229A255,5685,-26083020.0,1205.846,-3640.927,154671.4,-239.5004,-72237.58,26083478.714632653
PART_001_R158G218B229A255,5686,-26084730.0,-2340.712,-5188.637,164996.3,-1222.262,-70946.0,26082820.672168553
PART_001_R158G218B229A255,5687,-26084260.0,1819.37,-8027.098,192002.1,-1986.163,-32815.72,26083339.79714428
PART_003_R247G182B210A255,5688,25766160.0,-1825.778,7851.395,192000.2,1960.917,-32815.36,25765357.70673861
PART_000_R31G119B180A255,5689,25766630.0,2340.999,5201.075,164997.6,1207.963,-70946.89,25764737.248176984
PART_000_R31G119B180A255,5690,25764930.0,-1218.401,3522.678,154670.7,236.1846,-72236.55,25765474.770634886
PART_000_R31G119B180A255,5691,25765550.0,1078.597,3179.396,147853.3,282.4958,-56330.2,25764878.54468312
PART_000_R31G119B180A255,5692,25764800.0,-784.4254,2719.176,144589.7,39.73219,-30400.56,25765103.761694662
PART_000_R31G119B180A255,5693,25765340.0,808.4668,2806.481,143391.0,-8.501536e-07,-0.001520947,25764729.654201716
PART_000_R31G119B180A255,5694,25764800.0,-784.4254,2719.176,144589.7,-39.73219,30400.55,25765103.761659265
PART_000_R31G119B180A255,5695,25765550.0,1078.597,3179.396,147853.3,-282.4958,56330.2,25764878.54468312
PART_000_R31G119B180A255,5696,25764930.0,-1218.401,3522.678,154670.7,-236.1846,72236.54,25765474.770550776
PART_000_R31G119B180A255,5697,25766630.0,2340.999,5201.075,164997.6,-1207.963,70946.89,25764737.248176984
PART_000_R31G119B180A255,5698,25766160.0,-1825.778,7851.395,192000.2,-1960.917,32815.36,25765357.70673861
PART_003_R247G182B210A255,5699,20609110.0,-2642.024,-4095.1,522769.4,-1274.598,-12172.31,20632367.45888371
PART_003_R247G182B210A255,5700,20612200.0,1619.881,1070.79,466110.1,1242.324,-33337.93,20626741.0170892
PART_000_R31G119B180A255,5701,20612300.0,653.7257,2286.352,435090.6,888.0851,-40754.84,20624723.28091218
PART_000_R31G119B180A255,5702,20611920.0,-86.18012,1923.549,417103.1,260.9487,-33724.74,20623741.550114278
PART_000_R31G119B180A255,5703,20612270.0,592.1611,2240.539,407187.6,217.7073,-18846.56,20622942.592243273
PART_000_R31G119B180A255,5704,20611880.0,-287.5977,1987.611,404160.9,6.531516e-07,-0.001124031,20622914.424699306
PART_000_R31G119B180A255,5705,20612270.0,592.1612,2240.539,407187.6,-217.7073,18846.55,20622942.59216588
PART_000_R31G119B180A255,5706,20611920.0,-86.18014,1923.549,417103.1,-260.9487,33724.74,20623741.550124273
PART_000_R31G119B180A255,5707,20612300.0,653.7256,2286.352,435090.6,-888.0851,40754.84,20624723.28096215
PART_000_R31G119B180A255,5708,20612200.0,1619.881,1070.79,466110.1,-1242.324,33337.92,20626741.01704071
PART_002_R214G39B40A255,5709,20609110.0,-2642.024,-4095.1,522769.4,1274.598,12172.31,20632367.45888371
PART_003_R247G182B210A255,5710,15458740.0,-1517.026,2229.441,764227.7,135.7563,-6641.985,15514957.439154107
PART_003_R247G182B210A255,5711,15458000.0,-488.4389,-978.1683,701009.7,-1358.864,-16755.68,15506370.533692308
PART_003_R247G182B210A255,5712,15458990.0,1199.609,269.6074,657568.8,538.5546,-21367.51,15500200.681557812
PART_000_R31G119B180A255,5713,15459070.0,374.4189,1405.348,630704.9,144.405,-19071.57,15496767.100346128
PART_000_R31G119B180A255,5714,15458920.0,223.1121,1065.608,615893.7,117.1334,-10890.71,15495051.38119825
PART_000_R31G119B180A255,5715,15459160.0,410.5951,1628.993,611096.8,-1.709607e-05,-0.0007886631,15494335.017582674
PART_000_R31G119B180A255,5716,15458920.0,223.1121,1065.608,615893.7,-117.1334,10890.71,15495051.38119825
PART_000_R31G119B180A255,5717,15459070.0,374.4189,1405.348,630704.9,-144.405,19071.57,15496767.100346128
PART_000_R31G119B180A255,5718,15458990.0,1199.609,269.6074,657568.8,-538.5546,21367.5,15500200.681516457
PART_002_R214G39B40A255,5719,15458000.0,-488.4389,-978.1682,701009.7,1358.864,16755.68,15506370.53364246
PART_002_R214G39B40A255,5720,15458740.0,-1517.026,2229.441,764227.7,-135.7563,6641.985,15514957.439154107
PART_003_R247G182B210A255,5721,10304880.0,-1095.797,-1293.979,932914.3,-540.7839,-3075.285,10431979.493338259
PART_003_R247G182B210A255,5722,10305880.0,-52.29228,735.9986,865939.3,43.47618,-8493.948,10414119.551023418
PART_003_R247G182B210A255,5723,10305660.0,13.32328,-40.46556,817671.7,-1030.875,-10884.19,10402549.080340441
PART_003_R247G182B210A255,5724,10305970.0,716.8361,218.9522,785364.7,159.6205,-9832.722,10394905.343451437
PART_000_R31G119B180A255,5725,10306040.0,239.3939,891.2651,767156.3,-156.2545,-5811.706,10390789.010943033
PART_000_R31G119B180A255,5726,10305960.0,350.2069,559.3208,761253.0,1.127325e-05,-0.0004964465,10389511.855478993
PART_000_R31G119B180A255,5727,10306040.0,239.3939,891.2651,767156.3,156.2545,5811.705,10390789.010941355
PART_000_R31G119B180A255,5728,10305970.0,716.8361,218.9522,785364.7,-159.6205,9832.721,10394905.3434486
PART_002_R214G39B40A255,5729,10305660.0,13.32325,-40.46554,817671.6,1030.875,10884.19,10402549.05676449
PART_002_R214G39B40A255,5730,10305880.0,-52.2923,735.9986,865939.3,-43.47618,8493.948,10414119.551033314
PART_002_R214G39B40A255,5731,10304880.0,-1095.797,-1293.979,932914.3,540.7839,3075.284,10431979.493337374
PART_003_R247G182B210A255,5732,5152854.0,-497.7234,557.8781,1032769.0,-71.52499,-1354.242,5454487.707649517
PART_003_R247G182B210A255,5733,5152639.0,-219.7017,-355.7192,964427.5,-1046.202,-3496.044,5416923.0062831985
PART_003_R247G182B210A255,5734,5152959.0,232.0558,147.7663,913528.1,-72.79241,-4584.786,5390240.545144547
PART_003_R247G182B210A255,5735,5152928.0,93.54052,205.4171,878889.6,-813.0694,-4176.541,5372943.47620729
PART_003_R247G182B210A255,5736,5152979.0,326.7915,113.7091,858767.6,14.00391,-2459.723,5363150.780128442
PART_000_R31G119B180A255,5737,5153023.0,128.116,458.0323,852242.7,-1.136132e-05,-0.0002406829,5359998.00648224
PART_000_R31G119B180A255,5738,5152979.0,326.7915,113.7091,858767.6,-14.0039,2459.723,5363150.780128442
PART_002_R214G39B40A255,5739,5152928.0,93.54052,205.4171,878889.6,813.0693,4176.541,5372943.476207245
PART_002_R214G39B40A255,5740,5152959.0,232.0558,147.7663,913528.1,72.7924,4584.786,5390240.545144546
PART_002_R214G39B40A255,5741,5152639.0,-219.7017,-355.7192,964427.5,1046.202,3496.044,5416923.0062831985
PART_002_R214G39B40A255,5742,5152854.0,-497.7234,557.8781,1032769.0,71.52499,1354.242,5454487.707649517
PART_003_R247G182B210A255,5743,0.005639408,-1.459767e-05,-2.276779e-05,1065912.0,-420.2911,-2.634718e-08,1846213.88391644
PART_003_R247G182B210A255,5744,0.005633802,-1.755087e-05,-5.503834e-06,997061.8,-176.9237,-3.381846e-06,1726961.723074286
PART_003_R247G182B210A255,5745,0.0056312,-4.656688e-05,-2.827454e-05,945572.3,-1118.647,-4.263942e-06,1637780.4119280467
PART_003_R247G182B210A255,5746,0.005626462,-6.019502e-05,-1.258227e-05,910068.1,-68.62804,-4.358163e-06,1576284.1920295507
PART_003_R247G182B210A255,5747,0.005620206,-8.161359e-05,-4.326433e-05,889485.5,-464.7418,-3.38923e-06,1540634.2888841506
PART_003_R247G182B210A255,5748,0.00562368,-7.348238e-05,-1.473971e-05,882689.9,6.041396e-06,4.083981e-07,1528863.7541278917
PART_002_R214G39B40A255,5749,0.00561862,-8.076854e-05,-4.20615e-05,889485.5,464.7417,2.609307e-06,1540634.28888406
PART_002_R214G39B40A255,5750,0.005619556,-6.829401e-05,-1.476349e-05,910068.1,68.62804,4.164259e-06,1576284.1920295507
PART_002_R214G39B40A255,5751,0.005619568,-6.407093e-05,-3.509554e-05,945572.3,1118.647,5.470094e-06,1637780.4119280467
PART_002_R214G39B40A255,5752,0.005622348,-3.24227e-05,-1.188634e-05,997061.8,176.9238,3.115476e-06,1726961.7230743167
PART_002_R214G39B40A255,5753,0.005620026,-4.069064e-05,-3.314688e-05,1065912.0,420.2911,7.811427e-07,1846213.88391644
PART_003_R247G182B210A255,5754,-5152854.0,497.7234,-557.8782,1032769.0,-71.525,1354.242,5454487.707602297
PART_003_R247G182B210A255,5755,-5152639.0,219.7018,355.7193,964427.5,-1046.202,3496.044,5416923.006378325
PART_003_R247G182B210A255,5756,-5152959.0,-232.0557,-147.7663,913528.1,-72.7924,4584.786,5390240.545192342
PART_003_R247G182B210A255,5757,-5152928.0,-93.54037,-205.417,878889.6,-813.0694,4176.541,5372943.47632717
PART_003_R247G182B210A255,5758,-5152979.0,-326.7914,-113.709,858767.6,14.00391,2459.723,5363150.780224518
PART_001_R158G218B229A255,5759,-5153023.0,-128.1159,-458.0322,852242.7,-1.252543e-05,0.0002403857,5359998.006578374
PART_001_R158G218B229A255,5760,-5152979.0,-326.7914,-113.709,858767.6,-14.00389,-2459.723,5363150.780224518
PART_002_R214G39B40A255,5761,-5152928.0,-93.54035,-205.417,878889.6,813.0693,-4176.541,5372943.476336714
PART_002_R214G39B40A255,5762,-5152959.0,-232.0557,-147.7663,913528.1,72.7924,-4584.786,5390240.545192342
PART_002_R214G39B40A255,5763,-5152639.0,219.7018,355.7193,964427.5,1046.202,-3496.044,5416923.006378325
PART_002_R214G39B40A255,5764,-5152854.0,497.7235,-557.8782,1032769.0,71.525,-1354.242,5454487.707649547
PART_003_R247G182B210A255,5765,-10304880.0,1095.797,1293.979,932914.3,-540.7839,3075.285,10431979.493338259
PART_003_R247G182B210A255,5766,-10305880.0,52.29226,-735.9985,865939.3,43.47618,8493.948,10414119.551062994
PART_003_R247G182B210A255,5767,-10305660.0,-13.32339,40.46544,817671.7,-1030.875,10884.19,10402549.08022651
PART_003_R247G182B210A255,5768,-10305970.0,-716.8362,-218.9521,785364.7,159.6205,9832.722,10394905.343451444
PART_001_R158G218B229A255,5769,-10306040.0,-239.3941,-891.2652,767156.3,-156.2545,5811.706,10390789.010794261
PART_001_R158G218B229A255,5770,-10305960.0,-350.207,-559.3207,761253.0,9.222227e-06,0.0004957108,10389511.85547899
PART_001_R158G218B229A255,5771,-10306040.0,-239.3941,-891.2652,767156.3,156.2545,-5811.705,10390789.010792583
PART_001_R158G218B229A255,5772,-10305970.0,-716.8362,-218.9521,785364.7,-159.6205,-9832.721,10394905.343448607
PART_002_R214G39B40A255,5773,-10305660.0,-13.32339,40.46542,817671.7,1030.875,-10884.19,10402549.080216605
PART_002_R214G39B40A255,5774,-10305880.0,52.29223,-735.9985,865939.3,-43.47619,-8493.948,10414119.551048148
PART_002_R214G39B40A255,5775,-10304880.0,1095.797,1293.979,932914.3,540.7839,-3075.284,10431979.493337374
PART_003_R247G182B210A255,5776,-15458740.0,1517.026,-2229.441,764227.7,135.7564,6641.985,15514957.439154109
PART_003_R247G182B210A255,5777,-15458000.0,488.4391,978.1684,701009.7,-1358.864,16755.68,15506370.533841845
PART_003_R247G182B210A255,5778,-15458990.0,-1199.609,-269.6075,657568.8,538.5546,21367.51,15500200.681507945
PART_001_R158G218B229A255,5779,-15459070.0,-374.4187,-1405.348,630704.9,144.405,19071.57,15496767.100445889
PART_001_R158G218B229A255,5780,-15458920.0,-223.112,-1065.608,615893.7,117.1334,10890.71,15495051.381248135
PART_001_R158G218B229A255,5781,-15459160.0,-410.5949,-1628.992,611096.8,-1.786718e-05,0.0007867763,15494335.018181225
PART_001_R158G218B229A255,5782,-15458920.0,-223.112,-1065.608,615893.7,-117.1334,-10890.71,15495051.381248135
PART_001_R158G218B229A255,5783,-15459070.0,-374.4187,-1405.348,630704.9,-144.405,-19071.57,15496767.100445889
PART_001_R158G218B229A255,5784,-15458990.0,-1199.609,-269.6075,657568.8,-538.5546,-21367.5,15500200.681466589
PART_002_R214G39B40A255,5785,-15458000.0,488.4391,978.1684,701009.7,1358.864,-16755.68,15506370.533841845
PART_002_R214G39B40A255,5786,-15458740.0,1517.026,-2229.441,764227.7,-135.7564,-6641.985,15514957.439154109
PART_003_R247G182B210A255,5787,-20609110.0,2642.024,4095.1,522769.4,-1274.598,12172.31,20632367.45888371
PART_003_R247G182B210A255,5788,-20612200.0,-1619.881,-1070.79,466110.1,1242.324,33337.93,20626741.0170892
PART_001_R158G218B229A255,5789,-20612300.0,-653.7259,-2286.352,435090.6,888.0851,40754.84,20624723.28081223
PART_001_R158G218B229A255,5790,-20611920.0,86.18007,-1923.549,417103.1,260.9487,33724.74,20623741.550089292
PART_001_R158G218B229A255,5791,-20612270.0,-592.1614,-2240.539,407187.6,217.7073,18846.56,20622942.59209334
PART_001_R158G218B229A255,5792,-20611880.0,287.5977,-1987.611,404160.9,3.323534e-06,0.001122924,20622914.424699306
PART_001_R158G218B229A255,5793,-20612270.0,-592.1614,-2240.539,407187.6,-217.7073,-18846.55,20622942.592065927
PART_001_R158G218B229A255,5794,-20611920.0,86.18007,-1923.549,417103.1,-260.9487,-33724.74,20623741.550089292
PART_001_R158G218B229A255,5795,-20612300.0,-653.7258,-2286.352,435090.6,-888.0851,-40754.84,20624723.280862205
PART_001_R158G218B229A255,5796,-20612200.0,-1619.881,-1070.79,466110.1,-1242.324,-33337.92,20626741.01704071
PART_002_R214G39B40A255,5797,-20609110.0,2642.024,4095.1,522769.4,1274.598,-12172.31,20632367.45888371
PART_003_R247G182B210A255,5798,-25766160.0,1825.777,-7851.396,192000.2,1960.917,32815.36,25765357.705738697
PART_001_R158G218B229A255,5799,-25766630.0,-2340.999,-5201.074,164997.6,1207.963,70946.89,25764737.248676866
PART_001_R158G218B229A255,5800,-25764930.0,1218.401,-3522.678,154670.7,236.1846,72236.55,25765474.770634886
PART_001_R158G218B229A255,5801,-25765550.0,-1078.597,-3179.396,147853.3,282.4958,56330.2,25764878.54468312
PART_001_R158G218B229A255,5802,-25764800.0,784.4255,-2719.176,144589.7,39.73219,30400.56,25765103.76174467
PART_001_R158G218B229A255,5803,-25765340.0,-808.4665,-2806.48,143391.0,-2.606008e-06,0.001518639,25764729.654851645
PART_001_R158G218B229A255,5804,-25764800.0,784.4255,-2719.176,144589.7,-39.73219,-30400.55,25765103.761709273
PART_001_R158G218B229A255,5805,-25765550.0,-1078.597,-3179.396,147853.3,-282.4958,-56330.2,25764878.54468312
PART_001_R158G218B229A255,5806,-25764930.0,1218.401,-3522.678,154670.7,-236.1846,-72236.54,25765474.770550776
PART_001_R158G218B229A255,5807,-25766630.0,-2340.999,-5201.074,164997.6,-1207.963,-70946.89,25764737.248676866
PART_001_R158G218B229A255,5808,-25766160.0,1825.777,-7851.396,192000.2,-1960.917,-32815.36,25765357.705738697
PART_003_R247G182B210A255,5809,25448060.0,-1779.824,7817.983,192001.8,1937.544,-32815.65,25447279.077945422
PART_000_R31G119B180A255,5810,25448520.0,2288.658,5075.113,164996.6,1192.556,-70946.17,25446739.839792397
PART_000_R31G119B180A255,5811,25446850.0,-1181.029,3539.473,154671.3,233.5912,-72237.39,25447388.914642796
PART_000_R31G119B180A255,5812,25447450.0,1041.073,3079.893,147852.7,278.8154,-56329.5,25446865.25533274
PART_000_R31G119B180A255,5813,25446730.0,-751.7483,2745.137,144590.1,39.33241,-30400.95,25447020.339961194
PART_000_R31G119B180A255,5814,25447240.0,773.9493,2711.903,143390.5,-1.140552e-06,-0.00151903,25446709.15184374
PART_000_R31G119B180A255,5815,25446730.0,-751.7483,2745.137,144590.1,-39.33241,30400.94,25447020.33992535
PART_000_R31G119B180A255,5816,25447450.0,1041.073,3079.893,147852.7,-278.8154,56329.5,25446865.25533274
PART_000_R31G119B180A255,5817,25446850.0,-1181.029,3539.473,154671.3,-233.5912,72237.39,25447388.914642796
PART_000_R31G119B180A255,5818,25448520.0,2288.658,5075.113,164996.6,-1192.556,70946.17,25446739.839792397
PART_000_R31G119B180A255,5819,25448060.0,-1779.824,7817.983,192001.8,-1937.544,32815.65,25447279.077945422
PART_003_R247G182B210A255,5820,20354680.0,-2591.78,-3989.789,522768.2,-1259.073,-12172.69,20378107.9833264
PART_003_R247G182B210A255,5821,20357730.0,1581.0,1003.865,466110.7,1226.993,-33337.15,20372522.348902903
PART_000_R31G119B180A255,5822,20357840.0,666.5445,2311.586,435090.6,877.1367,-40755.66,20370417.822875306
PART_000_R31G119B180A255,5823,20357450.0,-105.0484,1847.16,417103.4,257.7092,-33724.08,20369478.320482764
PART_000_R31G119B180A255,5824,20357810.0,606.3505,2265.744,407187.8,215.0306,-18846.92,20368613.945005935
PART_000_R31G119B180A255,5825,20357400.0,-304.2932,1910.682,404161.1,1.511865e-06,-0.001123192,20368629.69788616
PART_000_R31G119B180A255,5826,20357810.0,606.3505,2265.744,407187.8,-215.0306,18846.91,20368613.944978178
PART_000_R31G119B180A255,5827,20357450.0,-105.0484,1847.16,417103.4,-257.7091,33724.08,20369478.32048276
PART_000_R31G119B180A255,5828,20357840.0,666.5445,2311.586,435090.6,-877.1367,40755.65,20370417.822815284
PART_000_R31G119B180A255,5829,20357730.0,1581.0,1003.865,466110.7,-1226.993,33337.15,20372522.348902903
PART_002_R214G39B40A255,5830,20354680.0,-2591.78,-3989.789,522768.2,1259.073,12172.69,20378107.9833264
PART_003_R247G182B210A255,5831,15267890.0,-1482.697,2245.508,764228.3,134.1916,-6642.163,15324786.98711139
PART_003_R247G182B210A255,5832,15267160.0,-498.203,-1008.503,701009.6,-1342.035,-16755.16,15316144.075361477
PART_003_R247G182B210A255,5833,15268140.0,1199.896,307.7032,657568.3,531.8699,-21368.11,15309854.37010087
PART_000_R31G119B180A255,5834,15268210.0,353.2566,1346.566,630704.8,142.648,-19071.07,15306428.114698565
PART_000_R31G119B180A255,5835,15268080.0,236.0022,1093.39,615893.2,115.6751,-10890.98,15304649.613597572
PART_000_R31G119B180A255,5836,15268300.0,388.7215,1567.654,611096.6,-1.699603e-05,-0.0007868567,15303967.901325809
PART_000_R31G119B180A255,5837,15268080.0,236.0022,1093.39,615893.2,-115.6751,10890.98,15304649.613597572
PART_000_R31G119B180A255,5838,15268210.0,353.2565,1346.566,630704.8,-142.6481,19071.07,15306428.114748444
PART_000_R31G119B180A255,5839,15268140.0,1199.896,307.7032,657568.3,-531.87,21368.11,15309854.370100882
PART_002_R214G39B40A255,5840,15267160.0,-498.203,-1008.503,701009.6,1342.035,16755.16,15316144.075361477
PART_002_R214G39B40A255,5841,15267890.0,-1482.697,2245.508,764228.3,-134.1916,6642.163,15324786.98711139
PART_003_R247G182B210A255,5842,10177660.0,-1072.773,-1248.989,932913.4,-534.1949,-3075.472,10306279.931097642
PART_003_R247G182B210A255,5843,10178650.0,-61.69699,698.4679,865939.7,42.90248,-8493.568,10288255.732083863
PART_003_R247G182B210A255,5844,10178430.0,24.25747,-11.65684,817671.9,-1018.143,-10884.59,10276498.895643856
PART_003_R247G182B210A255,5845,10178730.0,697.4949,188.4036,785365.2,157.6525,-9832.396,10268798.034656001
PART_000_R31G119B180A255,5846,10178810.0,247.815,908.2308,767156.5,-154.3276,-5811.886,10264603.99619767
PART_000_R31G119B180A255,5847,10178720.0,335.2433,524.7164,761253.5,8.514308e-06,-0.0004962576,10263338.074671265
PART_000_R31G119B180A255,5848,10178810.0,247.815,908.2308,767156.5,154.3276,5811.885,10264603.99619597
PART_000_R31G119B180A255,5849,10178730.0,697.4949,188.4036,785365.2,-157.6525,9832.395,10268798.034653129
PART_002_R214G39B40A255,5850,10178430.0,24.25746,-11.65682,817671.9,1018.143,10884.59,10276498.895638904
PART_002_R214G39B40A255,5851,10178650.0,-61.69697,698.4679,865939.7,-42.90248,8493.567,10288255.732071493
PART_002_R214G39B40A255,5852,10177660.0,-1072.773,-1248.989,932913.4,534.1949,3075.472,10306279.931097642
PART_003_R247G182B210A255,5853,5089240.0,-486.3207,565.8085,1032769.0,-70.57543,-1354.305,5394423.140278483
PART_003_R247G182B210A255,5854,5089024.0,-222.3477,-365.7514,964427.5,-1033.23,-3495.864,5356450.251711076
PART_003_R247G182B210A255,5855,5089344.0,234.3066,160.0303,913527.5,-71.91172,-4584.995,5329453.634194899
PART_003_R247G182B210A255,5856,5089309.0,86.74358,188.7787,878889.3,-803.0214,-4176.37,5311973.020633756
PART_003_R247G182B210A255,5857,5089364.0,328.0677,126.2349,858767.0,13.82745,-2459.818,5302053.784044717
PART_000_R31G119B180A255,5858,5089402.0,120.7998,438.3419,852242.4,-1.487988e-05,-0.0002391484,5298878.985179377
PART_000_R31G119B180A255,5859,5089364.0,328.0677,126.2349,858767.0,-13.82744,2459.817,5302053.784043325
PART_002_R214G39B40A255,5860,5089309.0,86.74357,188.7787,878889.3,803.0214,4176.37,5311973.020638546
PART_002_R214G39B40A255,5861,5089344.0,234.3066,160.0303,913527.5,71.9117,4584.995,5329453.634194898
PART_002_R214G39B40A255,5862,5089024.0,-222.3477,-365.7514,964427.5,1033.23,3495.864,5356450.251711076
PART_002_R214G39B40A255,5863,5089240.0,-486.3207,565.8085,1032769.0,70.57543,1354.305,5394423.140278483
PART_003_R247G182B210A255,5864,0.005569242,7.918082e-06,1.259611e-05,1065912.0,-415.1721,-1.296005e-06,1846213.8804417048
PART_003_R247G182B210A255,5865,0.005575155,3.004328e-05,-1.605645e-05,997062.2,-174.7757,-3.908076e-06,1726962.4152384312
PART_003_R247G182B210A255,5866,0.00558193,5.62476e-05,4.112151e-05,945572.6,-1104.84,-6.053655e-06,1637780.9034259
PART_003_R247G182B210A255,5867,0.005581094,7.254194e-05,1.185248e-05,910068.7,-67.77126,-4.506483e-06,1576285.2311488239
PART_003_R247G182B210A255,5868,0.00558898,9.678879e-05,5.462672e-05,889485.8,-459.0096,-2.1814e-06,1540634.803343855
PART_003_R247G182B210A255,5869,0.005579699,8.492812e-05,2.060728e-05,882690.5,6.166054e-06,5.742549e-08,1528864.793358376
PART_002_R214G39B40A255,5870,0.005584673,9.871819e-05,5.374185e-05,889485.8,459.0096,1.907563e-06,1540634.803343855
PART_002_R214G39B40A255,5871,0.005575369,6.656663e-05,1.345263e-05,910068.7,67.77126,4.789882e-06,1576285.2311488239
PART_002_R214G39B40A255,5872,0.005579808,7.523399e-05,4.705347e-05,945572.6,1104.84,5.090445e-06,1637780.9034259
PART_002_R214G39B40A255,5873,0.005567807,5.339476e-05,-7.860437e-06,997062.2,174.7757,3.902102e-06,1726962.4152384312
PART_002_R214G39B40A255,5874,0.005560551,3.506825e-05,2.48147e-05,1065912.0,415.1721,1.076802e-06,1846213.8804417048
PART_003_R247G182B210A255,5875,-5089240.0,486.3207,-565.8085,1032769.0,-70.57544,1354.305,5394423.140278483
PART_003_R247G182B210A255,5876,-5089024.0,222.3476,365.7514,964427.5,-1033.23,3495.864,5356450.251663572
PART_003_R247G182B210A255,5877,-5089344.0,-234.3067,-160.0303,913527.5,-71.91171,4584.995,5329453.634147154
PART_003_R247G182B210A255,5878,-5089309.0,-86.74376,-188.7788,878889.3,-803.0214,4176.37,5311973.020499626
PART_003_R247G182B210A255,5879,-5089364.0,-328.0679,-126.2349,858767.0,13.82745,2459.818,5302053.783948738
PART_001_R158G218B229A255,5880,-5089402.0,-120.8,-438.342,852242.4,-1.01331e-05,0.0002404395,5298878.98503531
PART_001_R158G218B229A255,5881,-5089364.0,-328.0679,-126.2349,858767.0,-13.82745,-2459.817,5302053.783947347
PART_002_R214G39B40A255,5882,-5089309.0,-86.74375,-188.7788,878889.3,803.0214,-4176.37,5311973.020504417
PART_002_R214G39B40A255,5883,-5089344.0,-234.3067,-160.0303,913527.5,71.9117,-4584.995,5329453.634147154
PART_002_R214G39B40A255,5884,-5089024.0,222.3476,365.7514,964427.5,1033.23,-3495.864,5356450.251663572
PART_002_R214G39B40A255,5885,-5089240.0,486.3207,-565.8085,1032769.0,70.57544,-1354.305,5394423.140278483
PART_003_R247G182B210A255,5886,-10177660.0,1072.774,1248.989,932913.4,-534.1949,3075.472,10306279.931591444
PART_003_R247G182B210A255,5887,-10178650.0,61.69701,-698.468,865939.7,42.90248,8493.568,10288255.732044298
PART_003_R247G182B210A255,5888,-10178430.0,-24.25731,11.65699,817671.9,-1018.143,10884.59,10276498.895797377
PART_003_R247G182B210A255,5889,-10178730.0,-697.4948,-188.4037,785365.2,157.6525,9832.396,10268798.034655994
PART_001_R158G218B229A255,5890,-10178810.0,-247.8148,-908.2306,767156.5,-154.3276,5811.886,10264603.996395987
PART_001_R158G218B229A255,5891,-10178720.0,-335.2431,-524.7164,761253.5,8.615105e-06,0.0004956416,10263338.07477044
PART_001_R158G218B229A255,5892,-10178810.0,-247.8148,-908.2306,767156.5,154.3276,-5811.885,10264603.996394288
PART_001_R158G218B229A255,5893,-10178730.0,-697.4948,-188.4037,785365.2,-157.6525,-9832.395,10268798.034653122
PART_002_R214G39B40A255,5894,-10178430.0,-24.25728,11.65698,817671.9,1018.143,-10884.59,10276498.895807281
PART_002_R214G39B40A255,5895,-10178650.0,61.69701,-698.468,865939.7,-42.90249,-8493.567,10288255.73204182
PART_002_R214G39B40A255,5896,-10177660.0,1072.774,1248.989,932913.4,534.1949,-3075.472,10306279.931591444
PART_003_R247G182B210A255,5897,-15267890.0,1482.698,-2245.508,764228.3,134.1916,6642.163,15324786.987609703
PART_003_R247G182B210A255,5898,-15267160.0,498.2029,1008.503,701009.6,-1342.035,16755.16,15316144.075311637
PART_003_R247G182B210A255,5899,-15268140.0,-1199.896,-307.7031,657568.3,531.8699,21368.11,15309854.370150736
PART_001_R158G218B229A255,5900,-15268210.0,-353.2568,-1346.566,630704.8,142.648,19071.07,15306428.11459881
PART_001_R158G218B229A255,5901,-15268080.0,-236.0023,-1093.39,615893.2,115.6751,10890.98,15304649.61354769
PART_001_R158G218B229A255,5902,-15268300.0,-388.7218,-1567.654,611096.6,-1.967243e-05,0.0007855789,15303967.901176153
PART_001_R158G218B229A255,5903,-15268080.0,-236.0023,-1093.39,615893.2,-115.6751,-10890.98,15304649.61354769
PART_001_R158G218B229A255,5904,-15268210.0,-353.2568,-1346.566,630704.8,-142.6481,-19071.07,15306428.114598813
PART_001_R158G218B229A255,5905,-15268140.0,-1199.896,-307.7031,657568.3,-531.87,-21368.11,15309854.370150747
PART_002_R214G39B40A255,5906,-15267160.0,498.2029,1008.503,701009.6,1342.035,-16755.16,15316144.075311637
PART_002_R214G39B40A255,5907,-15267890.0,1482.697,-2245.508,764228.3,-134.1916,-6642.163,15324786.98711139
PART_003_R247G182B210A255,5908,-20354680.0,2591.781,3989.789,522768.2,-1259.073,12172.69,20378107.98382585
PART_003_R247G182B210A255,5909,-20357730.0,-1581.0,-1003.865,466110.7,1226.993,33337.15,20372522.348902903
PART_001_R158G218B229A255,5910,-20357840.0,-666.5443,-2311.586,435090.6,877.1367,40755.66,20370417.822975248
PART_001_R158G218B229A255,5911,-20357450.0,105.0485,-1847.16,417103.4,257.7092,33724.08,20369478.32053274
PART_001_R158G218B229A255,5912,-20357810.0,-606.3502,-2265.743,407187.8,215.0306,18846.92,20368613.9456555
PART_001_R158G218B229A255,5913,-20357400.0,304.2933,-1910.682,404161.1,1.731826e-06,0.00112268,20368629.69793614
PART_001_R158G218B229A255,5914,-20357810.0,-606.3502,-2265.743,407187.8,-215.0306,-18846.91,20368613.94562774
PART_001_R158G218B229A255,5915,-20357450.0,105.0485,-1847.16,417103.4,-257.7091,-33724.08,20369478.32053274
PART_001_R158G218B229A255,5916,-20357840.0,-666.5443,-2311.586,435090.6,-877.1367,-40755.65,20370417.822915226
PART_001_R158G218B229A255,5917,-20357730.0,-1581.0,-1003.865,466110.7,-1226.993,-33337.15,20372522.348902903
PART_002_R214G39B40A255,5918,-20354680.0,2591.781,3989.789,522768.2,1259.073,-12172.69,20378107.98382585
PART_003_R247G182B210A255,5919,-25448060.0,1779.824,-7817.983,192001.8,1937.544,32815.65,25447279.077945422
PART_001_R158G218B229A255,5920,-25448520.0,-2288.658,-5075.114,164996.6,1192.556,70946.17,25446739.839292515
PART_001_R158G218B229A255,5921,-25446850.0,1181.029,-3539.473,154671.3,233.5912,72237.39,25447388.914642796
PART_001_R158G218B229A255,5922,-25447450.0,-1041.073,-3079.894,147852.7,278.8154,56329.5,25446865.25483283
PART_001_R158G218B229A255,5923,-25446730.0,751.7482,-2745.137,144590.1,39.33241,30400.95,25447020.339911185
PART_001_R158G218B229A255,5924,-25447240.0,-773.9497,-2711.903,143390.5,-5.259272e-06,0.001518662,25446709.151643727
PART_001_R158G218B229A255,5925,-25446730.0,751.7482,-2745.137,144590.1,-39.3324,-30400.94,25447020.339875344
PART_001_R158G218B229A255,5926,-25447450.0,-1041.073,-3079.894,147852.7,-278.8154,-56329.5,25446865.25483283
PART_001_R158G218B229A255,5927,-25446850.0,1181.029,-3539.473,154671.3,-233.5912,-72237.39,25447388.914642796
PART_001_R158G218B229A255,5928,-25448520.0,-2288.658,-5075.114,164996.6,-1192.556,-70946.17,25446739.839292515
PART_001_R158G218B229A255,5929,-25448060.0,1779.824,-7817.983,192001.8,-1937.544,-32815.65,25447279.077945422
PART_003_R247G182B210A255,5930,25129960.0,-1776.742,7668.407,192000.5,1912.643,-32815.41,25129280.570400067
PART_000_R31G119B180A255,5931,25130420.0,2279.111,5062.04,164997.4,1178.052,-70946.76,25128675.24100375
PART_000_R31G119B180A255,5932,25128760.0,-1184.553,3446.018,154670.8,230.4085,-72236.7,25129369.12135731
PART_000_R31G119B180A255,5933,25129360.0,1047.745,3090.536,147853.2,275.4876,-56330.07,25128785.29161225
PART_000_R31G119B180A255,5934,25128640.0,-761.1801,2662.226,144589.8,38.76687,-30400.63,25128992.786720388
PART_000_R31G119B180A255,5935,25129160.0,784.2271,2726.882,143390.9,-5.195878e-06,-0.001517999,25128631.873746328
PART_000_R31G119B180A255,5936,25128640.0,-761.1801,2662.226,144589.8,-38.76686,30400.63,25128992.786720388
PART_000_R31G119B180A255,5937,25129360.0,1047.745,3090.536,147853.2,-275.4876,56330.07,25128785.29161225
PART_000_R31G119B180A255,5938,25128760.0,-1184.553,3446.017,154670.8,-230.4085,72236.7,25129369.121857136
PART_000_R31G119B180A255,5939,25130420.0,2279.111,5062.04,164997.4,-1178.052,70946.75,25128675.24091905
PART_000_R31G119B180A255,5940,25129960.0,-1776.742,7668.407,192000.5,-1912.643,32815.41,25129280.570400067
PART_003_R247G182B210A255,5941,20100250.0,-2573.727,-3984.615,522769.2,-1243.163,-12172.37,20123921.055990666
PART_003_R247G182B210A255,5942,20103260.0,1576.714,1035.195,466110.2,1211.651,-33337.78,20118242.255474966
PART_000_R31G119B180A255,5943,20103360.0,641.2103,2239.051,435090.6,866.1603,-40754.99,20116164.66917949
PART_000_R31G119B180A255,5944,20102990.0,-87.39941,1867.081,417103.2,254.503,-33724.62,20115162.717670303
PART_000_R31G119B180A255,5945,20103320.0,581.2711,2194.268,407187.6,212.334,-18846.62,20114327.040550437
PART_000_R31G119B180A255,5946,20102940.0,-283.8965,1929.604,404160.9,-8.863085e-07,-0.001121655,20114302.26320349
PART_000_R31G119B180A255,5947,20103320.0,581.2711,2194.268,407187.6,-212.334,18846.62,20114327.040550437
PART_000_R31G119B180A255,5948,20102990.0,-87.39942,1867.081,417103.2,-254.503,33724.61,20115162.717625007
PART_000_R31G119B180A255,5949,20103360.0,641.2103,2239.051,435090.6,-866.1603,40754.99,20116164.66917949
PART_000_R31G119B180A255,5950,20103260.0,1576.714,1035.194,466110.2,-1211.651,33337.78,20118242.255974583
PART_002_R214G39B40A255,5951,20100250.0,-2573.727,-3984.615,522769.2,1243.163,12172.37,20123921.055990666
PART_003_R247G182B210A255,5952,15077040.0,-1476.956,2181.789,764227.8,132.4241,-6642.018,15134688.081456142
PART_003_R247G182B210A255,5953,15076320.0,-479.1062,-961.239,701009.7,-1325.302,-16755.58,15125879.53993668
PART_003_R247G182B210A255,5954,15077280.0,1172.509,269.9765,657568.7,525.2518,-21367.61,15119562.986718038
PART_000_R31G119B180A255,5955,15077370.0,362.3182,1363.591,630704.9,140.8447,-19071.48,15116068.360460604
PART_000_R31G119B180A255,5956,15077220.0,220.2163,1046.24,615893.6,114.2396,-10890.76,15114291.245226612
PART_000_R31G119B180A255,5957,15077450.0,397.5556,1581.748,611096.7,-1.697202e-05,-0.0007858531,15113569.241341809
PART_000_R31G119B180A255,5958,15077220.0,220.2163,1046.24,615893.6,-114.2396,10890.76,15114291.245226612
PART_000_R31G119B180A255,5959,15077370.0,362.3182,1363.591,630704.9,-140.8447,19071.48,15116068.360460604
PART_000_R31G119B180A255,5960,15077280.0,1172.51,269.9765,657568.7,-525.2518,21367.61,15119562.986219507
PART_002_R214G39B40A255,5961,15076320.0,-479.1062,-961.239,701009.7,1325.302,16755.58,15125879.53993668
PART_002_R214G39B40A255,5962,15077040.0,-1476.955,2181.789,764227.8,-132.4241,6642.018,15134688.080957877
PART_003_R247G182B210A255,5963,10050440.0,-1067.105,-1257.102,932914.2,-527.4463,-3075.318,10180654.242001636
PART_003_R247G182B210A255,5964,10051420.0,-52.6756,713.0146,865939.4,42.39712,-8493.878,10162390.309232946
PART_003_R247G182B210A255,5965,10051200.0,14.90564,-34.65734,817671.7,-1005.42,-10884.26,10150514.244663911
PART_003_R247G182B210A255,5966,10051500.0,697.3886,208.8367,785364.8,155.6807,-9832.662,10142693.302786639
PART_000_R31G119B180A255,5967,10051570.0,235.4418,874.0103,767156.3,-152.3962,-5811.738,10138471.093190636
PART_000_R31G119B180A255,5968,10051490.0,339.7872,540.8262,761253.1,6.502137e-06,-0.0004956357,10137165.225756032
PART_000_R31G119B180A255,5969,10051570.0,235.4418,874.0103,767156.3,152.3962,5811.737,10138471.093188915
PART_000_R31G119B180A255,5970,10051500.0,697.3886,208.8367,785364.8,-155.6807,9832.661,10142693.30278373
PART_002_R214G39B40A255,5971,10051200.0,14.90561,-34.65733,817671.7,1005.42,10884.26,10150514.244673815
PART_002_R214G39B40A255,5972,10051420.0,-52.67562,713.0146,865939.4,-42.39713,8493.878,10162390.309242839
PART_002_R214G39B40A255,5973,10050440.0,-1067.105,-1257.102,932914.2,527.4463,3075.318,10180654.242001636
PART_003_R247G182B210A255,5974,5025624.0,-484.5561,546.6097,1032769.0,-69.74653,-1354.254,5334456.529810963
PART_003_R247G182B210A255,5975,5025413.0,-215.1998,-349.3851,964427.5,-1020.359,-3496.011,5296037.592767192
PART_003_R247G182B210A255,5976,5025726.0,227.1772,146.4998,913528.0,-70.99678,-4584.824,5268748.159284017
PART_003_R247G182B210A255,5977,5025694.0,90.25922,197.9504,878889.5,-792.9907,-4176.51,5251051.916862287
PART_003_R247G182B210A255,5978,5025745.0,319.6067,113.2567,858767.5,13.65817,-2459.74,5241030.47419357
PART_000_R31G119B180A255,5979,5025787.0,123.9652,444.3395,852242.6,-1.67427e-05,-0.000239946,5237807.871283778
PART_000_R31G119B180A255,5980,5025745.0,319.6067,113.2567,858767.5,-13.65816,2459.74,5241030.47419357
PART_002_R214G39B40A255,5981,5025694.0,90.25922,197.9504,878889.5,792.9907,4176.509,5251051.916859901
PART_002_R214G39B40A255,5982,5025726.0,227.1773,146.4998,913528.0,70.99677,4584.823,5268748.159233715
PART_002_R214G39B40A255,5983,5025413.0,-215.1998,-349.385,964427.5,1020.359,3496.011,5296037.592719742
PART_002_R214G39B40A255,5984,5025624.0,-484.5561,546.6097,1032769.0,69.74653,1354.254,5334456.529810963
PART_003_R247G182B210A255,5985,0.005498652,-2.324099e-05,-3.257788e-05,1065912.0,-409.9256,-1.719789e-06,1846213.8769246084
PART_003_R247G182B210A255,5986,0.005494123,-2.682264e-05,-5.049082e-06,997061.9,-172.5606,-3.852128e-06,1726961.894954927
PART_003_R247G182B210A255,5987,0.005483979,-7.879996e-05,-4.57001e-05,945572.4,-1091.026,-5.051036e-06,1637780.5292341455
PART_003_R247G182B210A255,5988,0.00548231,-9.150482e-05,-1.850377e-05,910068.2,-66.93075,-3.87132e-06,1576284.3650156832
PART_003_R247G182B210A255,5989,0.005471624,-0.0001226419,-6.46398e-05,889485.6,-453.2669,-2.402737e-06,1540634.451832987
PART_003_R247G182B210A255,5990,0.00547692,-0.0001110803,-2.606954e-05,882690.1,3.24933e-06,-1.047613e-06,1528864.100538053
PART_002_R214G39B40A255,5991,0.005471712,-0.0001214018,-6.391311e-05,889485.6,453.2669,3.521517e-06,1540634.451832987
PART_002_R214G39B40A255,5992,0.005474884,-9.866229e-05,-1.952044e-05,910068.2,66.93075,3.382403e-06,1576284.3650156832
PART_002_R214G39B40A255,5993,0.005476196,-8.428904e-05,-4.86631e-05,945572.4,1091.026,3.968572e-06,1637780.5292341455
PART_002_R214G39B40A255,5994,0.00547573,-5.596687e-05,-1.756783e-05,997061.9,172.5606,3.021233e-06,1726961.894954927
PART_002_R214G39B40A255,5995,0.005476902,-5.774431e-05,-4.546911e-05,1065912.0,409.9256,1.726342e-06,1846213.8769246084
PART_003_R247G182B210A255,5996,-5025624.0,484.5561,-546.6098,1032769.0,-69.74653,1354.254,5334456.529763873
PART_003_R247G182B210A255,5997,-5025413.0,215.2,349.3852,964427.5,-1020.359,3496.011,5296037.5929095335
PART_003_R247G182B210A255,5998,-5025726.0,-227.1771,-146.4998,913528.0,-70.99678,4584.824,5268748.159331707
PART_003_R247G182B210A255,5999,-5025694.0,-90.259,-197.9503,878889.5,-792.9907,4176.51,5251051.917015418
PART_003_R247G182B210A255,6000,-5025745.0,-319.6065,-113.2567,858767.5,13.65817,2459.74,5241030.474289453
PART_001_R158G218B229A255,6001,-5025787.0,-123.9649,-444.3393,852242.6,-1.438521e-05,0.0002387419,5237807.87152365
PART_001_R158G218B229A255,6002,-5025745.0,-319.6065,-113.2567,858767.5,-13.65817,-2459.74,5241030.474289453
PART_002_R214G39B40A255,6003,-5025694.0,-90.25898,-197.9503,878889.5,792.9907,-4176.509,5251051.917022603
PART_002_R214G39B40A255,6004,-5025726.0,-227.1771,-146.4998,913528.0,70.99676,-4584.823,5268748.159329097
PART_002_R214G39B40A255,6005,-5025413.0,215.2,349.3852,964427.5,1020.359,-3496.011,5296037.5929095335
PART_002_R214G39B40A255,6006,-5025624.0,484.5561,-546.6098,1032769.0,69.74653,-1354.254,5334456.529763873
PART_003_R247G182B210A255,6007,-10050440.0,1067.105,1257.102,932914.2,-527.4463,3075.318,10180654.242001636
PART_003_R247G182B210A255,6008,-10051420.0,52.67556,-713.0145,865939.4,42.39712,8493.878,10162390.30926261
PART_003_R247G182B210A255,6009,-10051200.0,-14.90583,34.65717,817671.7,-1005.42,10884.26,10150514.244485673
PART_003_R247G182B210A255,6010,-10051500.0,-697.3888,-208.8367,785364.8,155.6807,9832.662,10142693.302687548
PART_001_R158G218B229A255,6011,-10051570.0,-235.4421,-874.0105,767156.3,-152.3962,5811.738,10138471.092942787
PART_001_R158G218B229A255,6012,-10051490.0,-339.7874,-540.8262,761253.1,7.69155e-06,0.0004951686,10137165.22565688
PART_001_R158G218B229A255,6013,-10051570.0,-235.442,-874.0105,767156.3,152.3962,-5811.737,10138471.09299064
PART_001_R158G218B229A255,6014,-10051500.0,-697.3888,-208.8367,785364.8,-155.6807,-9832.661,10142693.30268464
PART_002_R214G39B40A255,6015,-10051200.0,-14.90582,34.65715,817671.7,1005.42,-10884.26,10150514.244480722
PART_002_R214G39B40A255,6016,-10051420.0,52.67552,-713.0145,865939.4,-42.39713,-8493.878,10162390.309242826
PART_002_R214G39B40A255,6017,-10050440.0,1067.105,1257.102,932914.2,527.4463,-3075.318,10180654.242001636
PART_003_R247G182B210A255,6018,-15077040.0,1476.955,-2181.789,764227.8,132.4241,6642.018,15134688.080957877
PART_003_R247G182B210A255,6019,-15076320.0,479.1064,961.2393,701009.7,-1325.302,16755.58,15125879.540185876
PART_003_R247G182B210A255,6020,-15077280.0,-1172.509,-269.9767,657568.7,525.2518,21367.61,15119562.986618314
PART_001_R158G218B229A255,6021,-15077370.0,-362.3179,-1363.591,630704.9,140.8447,19071.48,15116068.360610224
PART_001_R158G218B229A255,6022,-15077220.0,-220.2161,-1046.24,615893.6,114.2396,10890.76,15114291.24532637
PART_001_R158G218B229A255,6023,-15077450.0,-397.5553,-1581.748,611096.7,-1.777133e-05,0.0007847046,15113569.24149146
PART_001_R158G218B229A255,6024,-15077220.0,-220.2162,-1046.24,615893.6,-114.2396,-10890.76,15114291.245276492
PART_001_R158G218B229A255,6025,-15077370.0,-362.3179,-1363.591,630704.9,-140.8447,-19071.48,15116068.360610224
PART_001_R158G218B229A255,6026,-15077280.0,-1172.509,-269.9766,657568.7,-525.2518,-21367.61,15119562.986668177
PART_002_R214G39B40A255,6027,-15076320.0,479.1064,961.2393,701009.7,1325.302,-16755.58,15125879.540185876
PART_002_R214G39B40A255,6028,-15077040.0,1476.955,-2181.789,764227.8,-132.4241,-6642.018,15134688.080957877
PART_003_R247G182B210A255,6029,-20100250.0,2573.727,3984.615,522769.2,-1243.163,12172.37,20123921.055990666
PART_003_R247G182B210A255,6030,-20103260.0,-1576.714,-1035.194,466110.2,1211.651,33337.78,20118242.255974583
PART_001_R158G218B229A255,6031,-20103360.0,-641.2106,-2239.052,435090.6,866.1603,40754.99,20116164.66852999
PART_001_R158G218B229A255,6032,-20102990.0,87.39933,-1867.081,417103.2,254.503,33724.62,20115162.717630327
PART_001_R158G218B229A255,6033,-20103320.0,-581.2714,-2194.268,407187.6,212.334,18846.62,20114327.040400513
PART_001_R158G218B229A255,6034,-20102940.0,283.8964,-1929.604,404160.9,-3.850879e-07,0.0011203,20114302.263153512
PART_001_R158G218B229A255,6035,-20103320.0,-581.2714,-2194.269,407187.6,-212.334,-18846.62,20114327.039900877
PART_001_R158G218B229A255,6036,-20102990.0,87.39933,-1867.081,417103.2,-254.503,-33724.61,20115162.717580028
PART_001_R158G218B229A255,6037,-20103360.0,-641.2105,-2239.052,435090.6,-866.1603,-40754.99,20116164.668579966
PART_001_R158G218B229A255,6038,-20103260.0,-1576.714,-1035.194,466110.2,-1211.651,-33337.78,20118242.255974583
PART_002_R214G39B40A255,6039,-20100250.0,2573.727,3984.615,522769.2,1243.163,-12172.37,20123921.055990666
PART_003_R247G182B210A255,6040,-25129960.0,1776.742,-7668.408,192000.5,1912.643,32815.41,25129280.569900393
PART_001_R158G218B229A255,6041,-25130420.0,-2279.111,-5062.04,164997.4,1178.052,70946.76,25128675.24100375
PART_001_R158G218B229A255,6042,-25128760.0,1184.553,-3446.018,154670.8,230.4085,72236.7,25129369.12135731
PART_001_R158G218B229A255,6043,-25129360.0,-1047.744,-3090.535,147853.2,275.4876,56330.07,25128785.292612195
PART_001_R158G218B229A255,6044,-25128640.0,761.1802,-2662.226,144589.8,38.76686,30400.63,25128992.786770392
PART_001_R158G218B229A255,6045,-25129160.0,-784.2267,-2726.882,143390.9,-2.258636e-06,0.001516282,25128631.873946343
PART_001_R158G218B229A255,6046,-25128640.0,761.1802,-2662.226,144589.8,-38.76686,-30400.63,25128992.786770392
PART_001_R158G218B229A255,6047,-25129360.0,-1047.744,-3090.535,147853.2,-275.4876,-56330.07,25128785.292612195
PART_001_R158G218B229A255,6048,-25128760.0,1184.553,-3446.018,154670.8,-230.4085,-72236.7,25129369.12135731
PART_001_R158G218B229A255,6049,-25130420.0,-2279.111,-5062.04,164997.4,-1178.052,-70946.75,25128675.24091905
PART_001_R158G218B229A255,6050,-25129960.0,1776.742,-7668.408,192000.5,-1912.643,-32815.41,25129280.569900393
PART_003_R247G182B210A255,6051,24811860.0,-1738.565,7613.666,192001.5,1888.988,-32815.6,24811217.900923714
PART_000_R31G119B180A255,6052,24812310.0,2234.758,4956.883,164996.7,1162.811,-70946.28,24810664.656775244
PART_000_R31G119B180A255,6053,24810680.0,-1154.585,3442.571,154671.2,227.7065,-72237.26,24811298.17430132
PART_000_R31G119B180A255,6054,24811260.0,1018.471,3011.335,147852.8,271.8722,-56329.6,24810758.6725256
PART_000_R31G119B180A255,6055,24810560.0,-736.1291,2668.199,144590.0,38.3365,-30400.89,24810913.98666684
PART_000_R31G119B180A255,6056,24811060.0,758.0724,2652.5,143390.6,-1.760848e-06,-0.001515676,24810597.868638664
PART_000_R31G119B180A255,6057,24810560.0,-736.1291,2668.199,144590.0,-38.3365,30400.88,24810913.98663008
PART_000_R31G119B180A255,6058,24811260.0,1018.471,3011.335,147852.8,-271.8722,56329.6,24810758.6725256
PART_000_R31G119B180A255,6059,24810680.0,-1154.585,3442.571,154671.2,-227.7065,72237.26,24811298.17430132
PART_000_R31G119B180A255,6060,24812310.0,2234.758,4956.883,164996.7,-1162.811,70946.28,24810664.656775244
PART_000_R31G119B180A255,6061,24811860.0,-1738.565,7613.666,192001.5,-1888.988,32815.6,24811217.900923714
PART_003_R247G182B210A255,6062,19845820.0,-2529.473,-3897.687,522768.3,-1227.567,-12172.63,19869686.575030696
PART_003_R247G182B210A255,6063,19848780.0,1544.074,986.2431,466110.6,1196.317,-33337.26,19864011.712176688
PART_000_R31G119B180A255,6064,19848890.0,646.9352,2246.333,435090.6,855.2066,-40755.53,19861870.677395917
PART_000_R31G119B180A255,6065,19848510.0,-99.67802,1808.307,417103.4,251.2694,-33724.18,19860885.600347638
PART_000_R31G119B180A255,6066,19848860.0,588.1604,2201.72,407187.7,209.6536,-18846.86,19860018.69248909
PART_000_R31G119B180A255,6067,19848470.0,-293.8984,1870.206,404161.1,5.231989e-07,-0.00112025,19860023.080670062
PART_000_R31G119B180A255,6068,19848860.0,588.1604,2201.72,407187.7,-209.6536,18846.86,19860018.69248909
PART_000_R31G119B180A255,6069,19848510.0,-99.67801,1808.307,417103.4,-251.2693,33724.18,19860885.60034264
PART_000_R31G119B180A255,6070,19848890.0,646.9352,2246.333,435090.6,-855.2066,40755.53,19861870.677395917
PART_000_R31G119B180A255,6071,19848780.0,1544.074,986.2431,466110.6,-1196.317,33337.26,19864011.712176688
PART_002_R214G39B40A255,6072,19845820.0,-2529.473,-3897.687,522768.3,1227.567,12172.63,19869686.575030696
PART_003_R247G182B210A255,6073,14886190.0,-1447.773,2183.326,764228.2,130.8212,-6642.136,14944563.552964224
PART_003_R247G182B210A255,6074,14885480.0,-483.5301,-977.3927,701009.6,-1308.491,-16755.24,14935673.831888033
PART_003_R247G182B210A255,6075,14886440.0,1167.828,294.2683,657568.3,518.5789,-21368.02,14929262.887450946
PART_000_R31G119B180A255,6076,14886510.0,346.7474,1318.664,630704.8,139.0789,-19071.15,14925744.40478765
PART_000_R31G119B180A255,6077,14886380.0,227.9565,1060.381,615893.3,112.7853,-10890.94,14923922.450357901
PART_000_R31G119B180A255,6078,14886590.0,381.3628,1534.197,611096.7,-1.718937e-05,-0.0007843548,14923215.642719297
PART_000_R31G119B180A255,6079,14886380.0,227.9565,1060.381,615893.3,-112.7853,10890.94,14923922.450357901
PART_000_R31G119B180A255,6080,14886510.0,346.7474,1318.664,630704.8,-139.0789,19071.14,14925744.404749317
PART_000_R31G119B180A255,6081,14886440.0,1167.828,294.2683,657568.3,-518.5789,21368.02,14929262.887450946
PART_002_R214G39B40A255,6082,14885480.0,-483.5302,-977.3927,701009.6,1308.491,16755.24,14935673.831937864
PART_002_R214G39B40A255,6083,14886190.0,-1447.773,2183.326,764228.2,-130.8212,6642.136,14944563.552964224
PART_003_R247G182B210A255,6084,9923219.0,-1047.285,-1221.789,932913.6,-520.8273,-3075.444,10055038.821120914
PART_003_R247G182B210A255,6085,9924181.0,-58.78016,684.9409,865939.6,41.83594,-8493.624,10036579.372666935
PART_003_R247G182B210A255,6086,9923971.0,22.09493,-15.29319,817671.9,-992.6889,-10884.53,10024532.572297474
PART_003_R247G182B210A255,6087,9924260.0,681.4922,187.5454,785365.1,153.7117,-9832.444,10016636.036461689
PART_000_R31G119B180A255,6088,9924339.0,240.0249,881.6444,767156.5,-150.4687,-5811.859,10012345.483019872
PART_000_R31G119B180A255,6089,9924252.0,328.3173,515.4301,761253.4,3.003623e-06,-0.0004948676,10011040.136716692
PART_000_R31G119B180A255,6090,9924339.0,240.0249,881.6445,767156.5,150.4687,5811.858,10012345.482968578
PART_000_R31G119B180A255,6091,9924260.0,681.4922,187.5453,785365.1,-153.7117,9832.443,10016636.036508285
PART_002_R214G39B40A255,6092,9923971.0,22.09493,-15.29316,817671.9,992.6889,10884.53,10024532.572282625
PART_002_R214G39B40A255,6093,9924181.0,-58.78013,684.9409,865939.6,-41.83595,8493.623,10036579.372649563
PART_002_R214G39B40A255,6094,9923219.0,-1047.285,-1221.789,932913.6,520.8273,3075.444,10055038.821120914
PART_003_R247G182B210A255,6095,4962009.0,-474.883,549.614,1032769.0,-68.82039,-1354.296,5274561.993893226
PART_003_R247G182B210A255,6096,4961799.0,-216.0382,-354.6071,964427.5,-1007.406,-3495.891,5235712.153673163
PART_003_R247G182B210A255,6097,4962110.0,227.7496,154.0818,913527.6,-70.11041,-4584.963,5208099.664128902
PART_003_R247G182B210A255,6098,4962076.0,85.36549,186.0155,878889.4,-782.9463,-4176.395,5190206.695385627
PART_003_R247G182B210A255,6099,4962130.0,319.1398,121.1534,858767.1,13.48277,-2459.803,5180058.915807035
PART_000_R31G119B180A255,6100,4962168.0,118.5832,429.3305,852242.4,-1.55053e-05,-0.0002389496,5176808.272762634
PART_000_R31G119B180A255,6101,4962130.0,319.1398,121.1534,858767.1,-13.48277,2459.803,5180058.915807035
PART_002_R214G39B40A255,6102,4962076.0,85.36547,186.0155,878889.4,782.9463,4176.395,5190206.6953951875
PART_002_R214G39B40A255,6103,4962110.0,227.7496,154.0818,913527.6,70.11039,4584.963,5208099.664128901
PART_002_R214G39B40A255,6104,4961799.0,-216.0383,-354.6071,964427.5,1007.406,3495.891,5235712.153720547
PART_002_R214G39B40A255,6105,4962009.0,-474.8831,549.614,1032769.0,68.82039,1354.296,5274561.993940277
PART_003_R247G182B210A255,6106,0.005431007,2.417101e-05,2.345549e-05,1065912.0,-404.7824,-1.096239e-07,1846213.8735201764
PART_003_R247G182B210A255,6107,0.005439412,4.683557e-05,-1.341299e-05,997062.2,-170.4003,-4.417009e-06,1726962.413926634
PART_003_R247G182B210A255,6108,0.005455508,9.927489e-05,6.316343e-05,945572.6,-1077.217,-5.350729e-06,1637780.8482216645
PART_003_R247G182B210A255,6109,0.005448039,0.0001027002,2.213571e-05,910068.6,-66.07734,-4.599523e-06,1576285.0577279874
PART_003_R247G182B210A255,6110,0.005460952,0.0001512549,7.982012e-05,889485.8,-447.5331,-3.013587e-06,1540634.7932143256
PART_003_R247G182B210A255,6111,0.005452562,0.0001361367,3.503833e-05,882690.4,1.553492e-06,-4.931738e-09,1528864.6201532953
PART_002_R214G39B40A255,6112,0.005458335,0.0001551253,8.239129e-05,889485.8,447.5331,2.623662e-06,1540634.7932143256
PART_002_R214G39B40A255,6113,0.005444546,0.0001170389,2.639524e-05,910068.6,66.07734,4.478508e-06,1576285.0577279874
PART_002_R214G39B40A255,6114,0.005447889,0.0001125129,6.821258e-05,945572.6,1077.217,4.818057e-06,1637780.8482216645
PART_002_R214G39B40A255,6115,0.005432141,6.821635e-05,-6.115072e-06,997062.2,170.4003,3.979049e-06,1726962.413926634
PART_002_R214G39B40A255,6116,0.005425887,5.368802e-05,4.001138e-05,1065912.0,404.7824,1.061823e-06,1846213.8735201764
PART_003_R247G182B210A255,6117,-4962008.0,474.883,-549.6139,1032769.0,-68.8204,1354.296,5274561.053204017
PART_003_R247G182B210A255,6118,-4961799.0,216.0381,354.607,964427.5,-1007.406,3495.891,5235712.153578388
PART_003_R247G182B210A255,6119,-4962110.0,-227.7497,-154.0818,913527.6,-70.11041,4584.963,5208099.664081267
PART_003_R247G182B210A255,6120,-4962076.0,-85.36575,-186.0157,878889.4,-782.9463,4176.395,5190206.695165741
PART_003_R247G182B210A255,6121,-4962130.0,-319.14,-121.1534,858767.1,13.48278,2459.803,5180058.915711252
PART_001_R158G218B229A255,6122,-4962168.0,-118.5836,-429.3307,852242.4,-1.675106e-05,0.0002386369,5176808.27247508
PART_001_R158G218B229A255,6123,-4962130.0,-319.1401,-121.1534,858767.1,-13.48277,-2459.803,5180058.91566336
PART_002_R214G39B40A255,6124,-4962076.0,-85.36575,-186.0157,878889.4,782.9463,-4176.395,5190206.695165741
PART_002_R214G39B40A255,6125,-4962110.0,-227.7497,-154.0818,913527.6,70.11039,-4584.963,5208099.664081266
PART_002_R214G39B40A255,6126,-4961799.0,216.0381,354.6069,964427.5,1007.406,-3495.891,5235712.153530999
PART_002_R214G39B40A255,6127,-4962008.0,474.883,-549.614,1032769.0,68.8204,-1354.296,5274561.053156994
PART_003_R247G182B210A255,6128,-9923219.0,1047.285,1221.789,932913.6,-520.8273,3075.444,10055038.821120914
PART_003_R247G182B210A255,6129,-9924181.0,58.78019,-684.941,865939.6,41.83594,8493.624,10036579.372632336
PART_003_R247G182B210A255,6130,-9923971.0,-22.09469,15.29342,817671.9,-992.6889,10884.53,10024532.572530117
PART_003_R247G182B210A255,6131,-9924260.0,-681.4921,-187.5454,785365.1,153.7117,9832.444,10016636.036511222
PART_001_R158G218B229A255,6132,-9924339.0,-240.0246,-881.6442,767156.5,-150.4687,5811.859,10012345.483267667
PART_001_R158G218B229A255,6133,-9924252.0,-328.317,-515.4301,761253.4,8.454994e-06,0.0004940344,10011040.136865389
PART_001_R158G218B229A255,6134,-9924339.0,-240.0246,-881.6442,767156.5,150.4686,-5811.858,10012345.483265921
PART_001_R158G218B229A255,6135,-9924260.0,-681.4921,-187.5454,785365.1,-153.7117,-9832.443,10016636.036508277
PART_002_R214G39B40A255,6136,-9923971.0,-22.09466,15.2934,817671.9,992.6889,-10884.53,10024532.572535066
PART_002_R214G39B40A255,6137,-9924181.0,58.78022,-684.941,865939.6,-41.83595,-8493.623,10036579.37264463
PART_002_R214G39B40A255,6138,-9923219.0,1047.285,1221.789,932913.6,520.8273,-3075.444,10055038.821120914
PART_003_R247G182B210A255,6139,-14886190.0,1447.773,-2183.325,764228.2,130.8212,6642.136,14944563.553462075
PART_003_R247G182B210A255,6140,-14885480.0,483.53,977.3924,701009.6,-1308.491,16755.24,14935673.831688689
PART_003_R247G182B210A255,6141,-14886440.0,-1167.828,-294.2681,657568.3,518.5789,21368.02,14929262.887550663
PART_001_R158G218B229A255,6142,-14886510.0,-346.7477,-1318.664,630704.8,139.0789,19071.15,14925744.404638039
PART_001_R158G218B229A255,6143,-14886380.0,-227.9567,-1060.381,615893.3,112.7853,10890.94,14923922.450258147
PART_001_R158G218B229A255,6144,-14886590.0,-381.3632,-1534.197,611096.7,-1.54493e-05,0.0007847221,14923215.642519778
PART_001_R158G218B229A255,6145,-14886380.0,-227.9567,-1060.381,615893.3,-112.7853,-10890.94,14923922.450258147
PART_001_R158G218B229A255,6146,-14886510.0,-346.7477,-1318.664,630704.8,-139.0789,-19071.14,14925744.404599706
PART_001_R158G218B229A255,6147,-14886440.0,-1167.828,-294.2681,657568.3,-518.5789,-21368.02,14929262.887550663
PART_002_R214G39B40A255,6148,-14885480.0,483.5299,977.3924,701009.6,1308.491,-16755.24,14935673.831638858
PART_002_R214G39B40A255,6149,-14886190.0,1447.773,-2183.325,764228.2,-130.8212,-6642.136,14944563.553462075
PART_003_R247G182B210A255,6150,-19845820.0,2529.473,3897.688,522768.3,-1227.567,12172.63,19869686.575530227
PART_003_R247G182B210A255,6151,-19848780.0,-1544.074,-986.2435,466110.6,1196.317,33337.26,19864011.711976845
PART_001_R158G218B229A255,6152,-19848890.0,-646.9349,-2246.332,435090.6,855.2066,40755.53,19861870.6780454
PART_001_R158G218B229A255,6153,-19848510.0,99.67812,-1808.308,417103.4,251.2694,33724.18,19860885.599898018
PART_001_R158G218B229A255,6154,-19848860.0,-588.16,-2201.719,407187.7,209.6535,18846.86,19860018.693188608
PART_001_R158G218B229A255,6155,-19848470.0,293.8985,-1870.207,404161.1,2.760703e-06,0.001118879,19860023.08022043
PART_001_R158G218B229A255,6156,-19848860.0,-588.16,-2201.719,407187.7,-209.6536,-18846.86,19860018.69318861
PART_001_R158G218B229A255,6157,-19848510.0,99.67814,-1808.308,417103.4,-251.2693,-33724.18,19860885.59990801
PART_001_R158G218B229A255,6158,-19848890.0,-646.9348,-2246.332,435090.6,-855.2066,-40755.53,19861870.678095374
PART_001_R158G218B229A255,6159,-19848780.0,-1544.074,-986.2434,466110.6,-1196.317,-33337.26,19864011.712026805
PART_002_R214G39B40A255,6160,-19845820.0,2529.473,3897.688,522768.3,1227.567,-12172.63,19869686.575530227
PART_003_R247G182B210A255,6161,-24811860.0,1738.565,-7613.666,192001.5,1888.988,32815.6,24811217.900923714
PART_001_R158G218B229A255,6162,-24812310.0,-2234.758,-4956.883,164996.7,1162.811,70946.28,24810664.656775244
PART_001_R158G218B229A255,6163,-24810680.0,1154.585,-3442.571,154671.2,227.7065,72237.26,24811298.17430132
PART_001_R158G218B229A255,6164,-24811260.0,-1018.472,-3011.335,147852.8,271.8722,56329.6,24810758.67202557
PART_001_R158G218B229A255,6165,-24810560.0,736.129,-2668.199,144590.0,38.3365,30400.89,24810913.98661683
PART_001_R158G218B229A255,6166,-24811060.0,-758.0729,-2652.5,143390.6,-4.902716e-06,0.001515598,24810597.868388645
PART_001_R158G218B229A255,6167,-24810560.0,736.129,-2668.199,144590.0,-38.3365,-30400.88,24810913.98658007
PART_001_R158G218B229A255,6168,-24811260.0,-1018.472,-3011.335,147852.8,-271.8722,-56329.6,24810758.67202557
PART_001_R158G218B229A255,6169,-24810680.0,1154.585,-3442.571,154671.2,-227.7065,-72237.26,24811298.17430132
PART_001_R158G218B229A255,6170,-24812310.0,-2234.758,-4956.883,164996.7,-1162.811,-70946.28,24810664.656775244
PART_001_R158G218B229A255,6171,-24811860.0,1738.565,-7613.666,192001.5,-1888.988,-32815.6,24811217.900923714
PART_003_R247G182B210A255,6172,24493760.0,-1729.113,7481.501,192000.7,1864.317,-32815.45,24493208.998011306
PART_000_R31G119B180A255,6173,24494200.0,2218.718,4926.841,164997.3,1148.172,-70946.67,24492603.041036986
PART_000_R31G119B180A255,6174,24492590.0,-1152.041,3365.638,154670.9,224.6122,-72236.8,24493268.230179477
PART_000_R31G119B180A255,6175,24493180.0,1018.438,3005.418,147853.1,268.4913,-56329.98,24492701.31132459
PART_000_R31G119B180A255,6176,24492470.0,-739.3114,2601.604,144589.8,37.79582,-30400.68,24492876.005742867
PART_000_R31G119B180A255,6177,24492970.0,761.5542,2651.008,143390.8,-1.470494e-06,-0.001513707,24492523.02215531
PART_000_R31G119B180A255,6178,24492470.0,-739.3114,2601.604,144589.8,-37.79582,30400.67,24492876.00570563
PART_000_R31G119B180A255,6179,24493180.0,1018.438,3005.418,147853.1,-268.4914,56329.98,24492701.311324593
PART_000_R31G119B180A255,6180,24492590.0,-1152.042,3365.638,154670.9,-224.6122,72236.8,24493268.23067958
PART_000_R31G119B180A255,6181,24494200.0,2218.718,4926.841,164997.3,-1148.172,70946.66,24492603.040950086
PART_000_R31G119B180A255,6182,24493760.0,-1729.113,7481.501,192000.7,-1864.317,32815.45,24493208.998011306
PART_003_R247G182B210A255,6183,19591380.0,-2506.55,-3877.505,522769.0,-1211.714,-12172.42,19615492.997648187
PART_003_R247G182B210A255,6184,19594310.0,1534.665,1002.885,466110.3,1180.977,-33337.69,19609752.152456794
PART_000_R31G119B180A255,6185,19594420.0,627.3686,2188.453,435090.6,844.2341,-40755.09,19607626.60589438
PART_000_R31G119B180A255,6186,19594050.0,-87.43787,1813.832,417103.2,248.0581,-33724.54,19606588.414677612
PART_000_R31G119B180A255,6187,19594380.0,569.0165,2144.736,407187.7,206.9598,-18846.67,19605739.67435231
PART_000_R31G119B180A255,6188,19594010.0,-278.9958,1874.801,404161.0,2.108978e-06,-0.001118368,19605713.506898828
PART_000_R31G119B180A255,6189,19594380.0,569.0165,2144.736,407187.7,-206.9598,18846.66,19605739.674323477
PART_000_R31G119B180A255,6190,19594050.0,-87.4379,1813.832,417103.2,-248.0581,33724.53,19606588.414641004
PART_000_R31G119B180A255,6191,19594420.0,627.3686,2188.453,435090.6,-844.2341,40755.09,19607626.60589438
PART_000_R31G119B180A255,6192,19594310.0,1534.665,1002.885,466110.3,-1180.977,33337.68,19609752.15240579
PART_002_R214G39B40A255,6193,19591380.0,-2506.55,-3877.505,522769.0,1211.714,12172.42,19615492.997648187
PART_003_R247G182B210A255,6194,14695340.0,-1437.807,2131.493,764227.9,129.0844,-6642.04,14754494.186135061
PART_003_R247G182B210A255,6195,14694640.0,-468.7819,-941.7184,701009.7,-1291.743,-16755.52,14745448.899083795
PART_003_R247G182B210A255,6196,14695580.0,1144.523,267.8354,657568.6,511.9505,-21367.69,14738991.725949055
PART_000_R31G119B180A255,6197,14695660.0,351.2555,1324.367,630704.8,137.2822,-19071.42,14735408.264352215
PART_000_R31G119B180A255,6198,14695520.0,216.4009,1024.391,615893.5,111.3462,-10890.79,14733580.866099251
PART_000_R31G119B180A255,6199,14695740.0,385.5707,1537.024,611096.7,-1.348958e-05,-0.000783551,14732848.999582268
PART_000_R31G119B180A255,6200,14695520.0,216.4009,1024.391,615893.5,-111.3462,10890.79,14733580.866099251
PART_000_R31G119B180A255,6201,14695660.0,351.2555,1324.367,630704.8,-137.2823,19071.42,14735408.26435222
PART_000_R31G119B180A255,6202,14695580.0,1144.523,267.8353,657568.6,-511.9505,21367.69,14738991.725998908
PART_002_R214G39B40A255,6203,14694640.0,-468.7819,-941.7184,701009.7,1291.743,16755.52,14745448.899083795
PART_002_R214G39B40A255,6204,14695340.0,-1437.807,2131.493,764227.9,-129.0844,6642.039,14754494.186133713
PART_003_R247G182B210A255,6205,9795998.0,-1039.007,-1221.988,932914.1,-514.1032,-3075.341,9929488.513596643
PART_003_R247G182B210A255,6206,9796949.0,-52.47075,691.7463,865939.4,41.31983,-8493.831,9910787.902595712
PART_003_R247G182B210A255,6207,9796738.0,15.79445,-30.57128,817671.8,-979.9647,-10884.31,9898602.932242185
PART_003_R247G182B210A255,6208,9797029.0,678.5549,200.4005,785364.9,151.7401,-9832.622,9890594.048327394
PART_000_R31G119B180A255,6209,9797101.0,230.7789,855.0538,767156.4,-148.5381,-5811.76,9886265.15933363
PART_000_R31G119B180A255,6210,9797021.0,329.9901,524.0018,761253.2,7.748011e-06,-0.0004935903,9884926.575951362
PART_000_R31G119B180A255,6211,9797101.0,230.7789,855.0538,767156.4,148.5381,5811.759,9886265.159331867
PART_000_R31G119B180A255,6212,9797029.0,678.5549,200.4005,785364.9,-151.7401,9832.621,9890594.048324412
PART_002_R214G39B40A255,6213,9796738.0,15.79441,-30.57127,817671.8,979.9647,10884.31,9898602.932257032
PART_002_R214G39B40A255,6214,9796949.0,-52.47077,691.7463,865939.4,-41.31984,8493.831,9910787.902605597
PART_002_R214G39B40A255,6215,9795998.0,-1039.007,-1221.988,932914.1,514.1032,3075.34,9929488.513595713
PART_003_R247G182B210A255,6216,4898393.0,-471.6981,534.4471,1032769.0,-67.9729,-1354.261,5214766.371701578
PART_003_R247G182B210A255,6217,4898187.0,-210.3631,-342.1739,964427.4,-994.5204,-3495.989,5175455.79331099
PART_003_R247G182B210A255,6218,4898492.0,221.9998,144.3839,913527.9,-69.20096,-4584.849,5147532.606369837
PART_003_R247G182B210A255,6219,4898461.0,87.33053,191.3414,878889.5,-772.9134,-4176.489,5129419.997764419
PART_003_R247G182B210A255,6220,4898511.0,312.1114,111.9645,858767.4,13.31224,-2459.752,5119159.622950219
PART_000_R31G119B180A255,6221,4898552.0,120.1727,431.5004,852242.5,-1.200763e-05,-0.0002383706,5115863.68881491
PART_000_R31G119B180A255,6222,4898511.0,312.1114,111.9645,858767.4,-13.31224,2459.751,5119159.622948778
PART_002_R214G39B40A255,6223,4898461.0,87.33054,191.3414,878889.5,772.9134,4176.488,5129419.997757201
PART_002_R214G39B40A255,6224,4898492.0,221.9998,144.3839,913527.9,69.20094,4584.848,5147532.606367164
PART_002_R214G39B40A255,6225,4898187.0,-210.3631,-342.1739,964427.4,994.5204,3495.989,5175455.79331099
PART_002_R214G39B40A255,6226,4898393.0,-471.698,534.4471,1032769.0,67.9729,1354.261,5214766.371654597
PART_003_R247G182B210A255,6227,0.005362026,-2.682362e-05,-4.001442e-05,1065912.0,-399.5557,-1.681895e-06,1846213.8701045099
PART_003_R247G182B210A255,6228,0.005351527,-4.128296e-05,-2.680909e-06,997062.0,-168.1957,-2.870193e-06,1726962.0668681117
PART_003_R247G182B210A255,6229,0.005339619,-0.000107378,-6.595086e-05,945572.4,-1063.404,-4.839946e-06,1637780.4747308113
PART_003_R247G182B210A255,6230,0.005332049,-0.0001402444,-2.844963e-05,910068.3,-65.23479,-4.683825e-06,1576284.538007464
PART_003_R247G182B210A255,6231,0.005321445,-0.0001777938,-9.630623e-05,889485.6,-441.7922,-2.513364e-06,1540634.441833339
PART_003_R247G182B210A255,6232,0.005324716,-0.0001746831,-4.305009e-05,882690.1,2.96729e-06,-9.726446e-07,1528864.100538053
PART_002_R214G39B40A255,6233,0.005318398,-0.0001831917,-9.489792e-05,889485.6,441.7921,1.916635e-06,1540634.441833253
PART_002_R214G39B40A255,6234,0.005326172,-0.0001495737,-3.465255e-05,910068.3,65.23479,4.5304e-06,1576284.538007464
PART_002_R214G39B40A255,6235,0.005326865,-0.0001358422,-7.468817e-05,945572.4,1063.404,4.839188e-06,1637780.4747308113
PART_002_R214G39B40A255,6236,0.00533193,-7.837567e-05,-1.894784e-05,997062.0,168.1957,3.106426e-06,1726962.0668681117
PART_002_R214G39B40A255,6237,0.005335924,-7.781099e-05,-5.949992e-05,1065912.0,399.5557,2.118474e-07,1846213.8701045099
PART_003_R247G182B210A255,6238,-4898393.0,471.6981,-534.4472,1032769.0,-67.97291,1354.261,5214766.371654626
PART_003_R247G182B210A255,6239,-4898187.0,210.3632,342.174,964427.4,-994.5205,3495.989,5175455.793405695
PART_003_R247G182B210A255,6240,-4898492.0,-221.9996,-144.3839,913527.9,-69.20096,4584.849,5147532.606464993
PART_003_R247G182B210A255,6241,-4898461.0,-87.33019,-191.3412,878889.5,-772.9134,4176.489,5129419.998022256
PART_003_R247G182B210A255,6242,-4898511.0,-312.1111,-111.9645,858767.4,13.31224,2459.752,5119159.623093738
PART_001_R158G218B229A255,6243,-4898552.0,-120.1723,-431.5001,852242.5,-1.5125e-05,0.0002392019,5115863.689150029
PART_001_R158G218B229A255,6244,-4898511.0,-312.1111,-111.9645,858767.4,-13.31224,-2459.751,5119159.623092297
PART_002_R214G39B40A255,6245,-4898461.0,-87.33018,-191.3412,878889.5,772.9134,-4176.488,5129419.998024589
PART_002_R214G39B40A255,6246,-4898492.0,-221.9996,-144.3839,913527.9,69.20094,-4584.848,5147532.60646232
PART_002_R214G39B40A255,6247,-4898187.0,210.3633,342.174,964427.4,994.5204,-3495.989,5175455.79345296
PART_002_R214G39B40A255,6248,-4898393.0,471.6981,-534.4472,1032769.0,67.97291,-1354.261,5214766.371654626
PART_003_R247G182B210A255,6249,-9795998.0,1039.007,1221.988,932914.1,-514.1032,3075.341,9929488.513596643
PART_003_R247G182B210A255,6250,-9796949.0,52.47069,-691.7461,865939.4,41.31983,8493.831,9910787.902664892
PART_003_R247G182B210A255,6251,-9796738.0,-15.79472,30.57101,817671.8,-979.9647,10884.31,9898602.931974964
PART_003_R247G182B210A255,6252,-9797029.0,-678.5552,-200.4004,785364.9,151.7401,9832.622,9890594.048228359
PART_001_R158G218B229A255,6253,-9797101.0,-230.7793,-855.0541,767156.4,-148.5381,5811.76,9886265.158986801
PART_001_R158G218B229A255,6254,-9797021.0,-329.9904,-524.0018,761253.2,7.833963e-06,0.0004930546,9884926.575802699
PART_001_R158G218B229A255,6255,-9797101.0,-230.7793,-855.0541,767156.4,148.5381,-5811.759,9886265.158985037
PART_001_R158G218B229A255,6256,-9797029.0,-678.5552,-200.4004,785364.9,-151.7401,-9832.621,9890594.048225377
PART_002_R214G39B40A255,6257,-9796738.0,-15.79473,30.57099,817671.8,979.9647,-10884.31,9898602.931960117
PART_002_R214G39B40A255,6258,-9796949.0,52.47064,-691.7461,865939.4,-41.31984,-8493.831,9910787.902640177
PART_002_R214G39B40A255,6259,-9795998.0,1039.007,1221.988,932914.1,514.1032,-3075.34,9929488.513595713
PART_003_R247G182B210A255,6260,-14695340.0,1437.807,-2131.493,764227.9,129.0844,6642.039,14754494.186133713
PART_003_R247G182B210A255,6261,-14694640.0,468.7821,941.7188,701009.7,-1291.743,16755.52,14745448.89938278
PART_003_R247G182B210A255,6262,-14695580.0,-1144.523,-267.8356,657568.6,511.9505,21367.69,14738991.725849345
PART_001_R158G218B229A255,6263,-14695660.0,-351.2551,-1324.366,630704.8,137.2822,19071.42,14735408.265050258
PART_001_R158G218B229A255,6264,-14695520.0,-216.4007,-1024.391,615893.5,111.3462,10890.79,14733580.866198998
PART_001_R158G218B229A255,6265,-14695740.0,-385.5702,-1537.024,611096.7,-1.874123e-05,0.0007819941,14732848.99983165
PART_001_R158G218B229A255,6266,-14695520.0,-216.4007,-1024.391,615893.5,-111.3462,-10890.79,14733580.866198998
PART_001_R158G218B229A255,6267,-14695660.0,-351.2551,-1324.366,630704.8,-137.2823,-19071.42,14735408.26505026
PART_001_R158G218B229A255,6268,-14695580.0,-1144.523,-267.8356,657568.6,-511.9505,-21367.69,14738991.725849345
PART_002_R214G39B40A255,6269,-14694640.0,468.7822,941.7188,701009.7,1291.743,-16755.52,14745448.899432609
PART_002_R214G39B40A255,6270,-14695340.0,1437.807,-2131.493,764227.9,-129.0844,-6642.039,14754494.186133713
PART_003_R247G182B210A255,6271,-19591380.0,2506.55,3877.505,522769.0,-1211.714,12172.42,19615492.997648187
PART_003_R247G182B210A255,6272,-19594310.0,-1534.664,-1002.885,466110.3,1180.977,33337.69,19609752.152956344
PART_001_R158G218B229A255,6273,-19594420.0,-627.369,-2188.453,435090.6,844.2341,40755.09,19607626.605694506
PART_001_R158G218B229A255,6274,-19594050.0,87.43775,-1813.832,417103.2,248.0581,33724.54,19606588.414617646
PART_001_R158G218B229A255,6275,-19594380.0,-569.017,-2144.737,407187.7,206.9598,18846.67,19605739.673602827
PART_001_R158G218B229A255,6276,-19594010.0,278.9956,-1874.801,404161.0,-1.978936e-07,0.001119589,19605713.50679888
PART_001_R158G218B229A255,6277,-19594380.0,-569.017,-2144.737,407187.7,-206.9598,-18846.66,19605739.67357399
PART_001_R158G218B229A255,6278,-19594050.0,87.43776,-1813.832,417103.2,-248.0581,-33724.53,19606588.41457104
PART_001_R158G218B229A255,6279,-19594420.0,-627.369,-2188.453,435090.6,-844.2341,-40755.09,19607626.605694506
PART_001_R158G218B229A255,6280,-19594310.0,-1534.665,-1002.885,466110.3,-1180.977,-33337.68,19609752.15240579
PART_002_R214G39B40A255,6281,-19591380.0,2506.55,3877.505,522769.0,1211.714,-12172.42,19615492.997648187
PART_003_R247G182B210A255,6282,-24493760.0,1729.113,-7481.502,192000.7,1864.317,32815.45,24493208.997511636
PART_001_R158G218B229A255,6283,-24494200.0,-2218.718,-4926.84,164997.3,1148.172,70946.67,24492603.041536864
PART_001_R158G218B229A255,6284,-24492590.0,1152.041,-3365.639,154670.9,224.6122,72236.8,24493268.22967966
PART_001_R158G218B229A255,6285,-24493180.0,-1018.438,-3005.418,147853.1,268.4913,56329.98,24492701.31132459
PART_001_R158G218B229A255,6286,-24492470.0,739.3115,-2601.604,144589.8,37.79582,30400.68,24492876.005792875
PART_001_R158G218B229A255,6287,-24492970.0,-761.5536,-2651.007,143390.8,-3.022838e-06,0.001512597,24492523.022955254
PART_001_R158G218B229A255,6288,-24492470.0,739.3115,-2601.604,144589.8,-37.79582,-30400.67,24492876.005755637
PART_001_R158G218B229A255,6289,-24493180.0,-1018.438,-3005.418,147853.1,-268.4914,-56329.98,24492701.311324593
PART_001_R158G218B229A255,6290,-24492590.0,1152.042,-3365.638,154670.9,-224.6122,-72236.8,24493268.23067958
PART_001_R158G218B229A255,6291,-24494200.0,-2218.718,-4926.84,164997.3,-1148.172,-70946.66,24492603.04144996
PART_001_R158G218B229A255,6292,-24493760.0,1729.113,-7481.502,192000.7,-1864.317,-32815.45,24493208.997511636
PART_003_R247G182B210A255,6293,24175660.0,-1696.155,7412.545,192001.4,1840.475,-32815.57,24175157.573217116
PART_000_R31G119B180A255,6294,24176100.0,2179.641,4835.522,164996.8,1133.041,-70946.35,24174594.212898653
PART_000_R31G119B180A255,6295,24174510.0,-1127.048,3348.702,154671.2,221.8379,-72237.17,24175207.69126098
PART_000_R31G119B180A255,6296,24175080.0,994.6125,2939.721,147852.8,264.919,-56329.67,24174666.23438135
PART_000_R31G119B180A255,6297,24174390.0,-719.3833,2594.256,144590.0,37.3451,-30400.85,24174807.311035942
PART_000_R31G119B180A255,6298,24174880.0,740.921,2590.057,143390.6,-3.499762e-06,-0.001509055,24174490.37625828
PART_000_R31G119B180A255,6299,24174390.0,-719.3833,2594.256,144590.0,-37.3451,30400.84,24174807.310998216
PART_000_R31G119B180A255,6300,24175080.0,994.6125,2939.721,147852.8,-264.919,56329.67,24174666.23438135
PART_000_R31G119B180A255,6301,24174510.0,-1127.048,3348.702,154671.2,-221.8379,72237.17,24175207.69126098
PART_000_R31G119B180A255,6302,24176100.0,2179.641,4835.522,164996.8,-1133.041,70946.35,24174594.212898653
PART_000_R31G119B180A255,6303,24175660.0,-1696.155,7412.545,192001.4,-1840.475,32815.57,24175157.573217116
PART_003_R247G182B210A255,6304,19336950.0,-2466.257,-3802.829,522768.5,-1196.071,-12172.59,19361280.458471287
PART_003_R247G182B210A255,6305,19339840.0,1506.228,965.9364,466110.5,1165.642,-33337.34,19355534.52927599
PART_000_R31G119B180A255,6306,19339950.0,628.402,2183.772,435090.6,833.277,-40755.45,19353350.59061356
PART_000_R31G119B180A255,6307,19339580.0,-95.27928,1766.824,417103.3,244.8284,-33724.24,19352322.045278627
PART_000_R31G119B180A255,6308,19339910.0,571.0777,2140.358,407187.7,204.2769,-18846.82,19351438.054387484
PART_000_R31G119B180A255,6309,19339530.0,-284.4906,1827.112,404161.0,-1.739048e-06,-0.001116157,19351424.478029735
PART_000_R31G119B180A255,6310,19339910.0,571.0777,2140.358,407187.7,-204.2769,18846.82,19351438.054387484
PART_000_R31G119B180A255,6311,19339580.0,-95.27927,1766.824,417103.3,-244.8284,33724.24,19352322.04527363
PART_000_R31G119B180A255,6312,19339950.0,628.402,2183.772,435090.6,-833.277,40755.45,19353350.59061356
PART_000_R31G119B180A255,6313,19339840.0,1506.228,965.9364,466110.5,-1165.642,33337.34,19355534.52927599
PART_002_R214G39B40A255,6314,19336950.0,-2466.256,-3802.829,522768.5,1196.071,12172.59,19361280.45797189
PART_003_R247G182B210A255,6315,14504500.0,-1412.091,2123.306,764228.2,127.4566,-6642.118,14564425.17093342
PART_003_R247G182B210A255,6316,14503800.0,-469.6634,-948.4007,701009.7,-1274.945,-16755.29,14555269.606808303
PART_003_R247G182B210A255,6317,14504730.0,1136.491,282.8874,657568.4,505.2856,-21367.96,14548716.948916774
PART_000_R31G119B180A255,6318,14504810.0,339.3942,1288.692,630704.8,135.5106,-19071.2,14545114.513642479
PART_000_R31G119B180A255,6319,14504680.0,220.6679,1029.401,615893.3,109.8947,-10890.91,14543243.808627414
PART_000_R31G119B180A255,6320,14504890.0,373.1466,1498.68,611096.7,-1.865728e-05,-0.0007806521,14542523.94288809
PART_000_R31G119B180A255,6321,14504680.0,220.6679,1029.401,615893.3,-109.8946,10890.91,14543243.808627412
PART_000_R31G119B180A255,6322,14504810.0,339.3941,1288.692,630704.8,-135.5106,19071.19,14545114.513653006
PART_000_R31G119B180A255,6323,14504730.0,1136.491,282.8873,657568.4,-505.2856,21367.96,14548716.948966626
PART_002_R214G39B40A255,6324,14503800.0,-469.6634,-948.4007,701009.7,1274.945,16755.29,14555269.606808303
PART_002_R214G39B40A255,6325,14504500.0,-1412.091,2123.306,764228.2,-127.4567,6642.118,14564425.170933424
PART_003_R247G182B210A255,6326,9668777.0,-1021.314,-1193.147,932913.6,-507.4643,-3075.426,9803962.135581087
PART_003_R247G182B210A255,6327,9669715.0,-56.34705,670.0091,865939.6,40.76694,-8493.661,9785051.11577335
PART_003_R247G182B210A255,6328,9669510.0,20.49733,-17.52158,817671.8,-967.2355,-10884.49,9772692.290647898
PART_003_R247G182B210A255,6329,9669793.0,664.9847,185.3121,785365.1,149.7704,-9832.476,9764597.275006294
PART_000_R31G119B180A255,6330,9669868.0,232.8137,856.4493,767156.4,-146.6101,-5811.841,9760199.942596724
PART_000_R31G119B180A255,6331,9669784.0,320.8792,504.7761,761253.3,9.889422e-06,-0.0004921876,9758855.396731699
PART_000_R31G119B180A255,6332,9669868.0,232.8137,856.4493,767156.4,146.6101,5811.84,9760199.942594938
PART_000_R31G119B180A255,6333,9669793.0,664.9847,185.3121,785365.1,-149.7704,9832.475,9764597.275003273
PART_002_R214G39B40A255,6334,9669510.0,20.49736,-17.52154,817671.8,967.2355,10884.49,9772692.290613266
PART_002_R214G39B40A255,6335,9669715.0,-56.34699,670.0091,865939.6,-40.76696,8493.661,9785051.1157437
PART_002_R214G39B40A255,6336,9668777.0,-1021.314,-1193.147,932913.6,507.4643,3075.425,9803962.135580147
PART_003_R247G182B210A255,6337,4834777.0,-463.1911,534.1513,1032769.0,-67.06178,-1354.289,5155052.594119171
PART_003_R247G182B210A255,6338,4834573.0,-210.0012,-344.1798,964427.5,-981.5801,-3495.908,5115288.474171935
PART_003_R247G182B210A255,6339,4834877.0,221.4387,148.8286,913527.6,-68.31061,-4584.942,5087033.17794063
PART_003_R247G182B210A255,6340,4834844.0,83.70053,182.5511,878889.4,-762.8713,-4176.412,5068710.195874074
PART_003_R247G182B210A255,6341,4834895.0,310.4675,116.7592,858767.2,13.13761,-2459.794,5058320.432932953
PART_000_R31G119B180A255,6342,4834933.0,116.0751,419.6211,852242.5,-1.348281e-05,-0.0002379622,5054991.497175849
PART_000_R31G119B180A255,6343,4834895.0,310.4675,116.7592,858767.2,-13.13761,2459.793,5058320.432931495
PART_002_R214G39B40A255,6344,4834844.0,83.70051,182.5511,878889.4,762.8713,4176.412,5068710.195883612
PART_002_R214G39B40A255,6345,4834877.0,221.4387,148.8286,913527.6,68.3106,4584.942,5087033.177940629
PART_002_R214G39B40A255,6346,4834573.0,-210.0012,-344.1798,964427.5,981.5801,3495.908,5115288.474171935
PART_002_R214G39B40A255,6347,4834777.0,-463.1911,534.1512,1032769.0,67.06179,1354.289,5155052.594166051
PART_003_R247G182B210A255,6348,0.005292026,2.5132e-05,3.582254e-05,1065912.0,-394.3965,-1.45333e-07,1846213.8667764894
PART_003_R247G182B210A255,6349,0.005302017,6.046469e-05,-1.870391e-05,997062.1,-166.0273,-4.532161e-06,1726962.2394437068
PART_003_R247G182B210A255,6350,0.005324348,0.0001438707,8.954387e-05,945572.5,-1049.595,-4.48816e-06,1637780.6212120543
PART_003_R247G182B210A255,6351,0.005321322,0.0001629564,3.707034e-05,910068.5,-64.38354,-4.59161e-06,1576284.8843126267
PART_003_R247G182B210A255,6352,0.005339768,0.0002326393,0.0001208651,889485.7,-436.0571,-2.497053e-06,1540634.6101366323
PART_003_R247G182B210A255,6353,0.005325235,0.0002073784,5.443438e-05,882690.4,3.913214e-06,9.340544e-07,1528864.6201532953
PART_002_R214G39B40A255,6354,0.005334207,0.0002225187,0.0001178363,889485.7,436.0571,2.058112e-06,1540634.6101366323
PART_002_R214G39B40A255,6355,0.005315444,0.0001701967,3.986709e-05,910068.5,64.38354,4.76378e-06,1576284.8843126267
PART_002_R214G39B40A255,6356,0.005319123,0.0001694935,9.881993e-05,945572.5,1049.595,4.858492e-06,1637780.6212120543
PART_002_R214G39B40A255,6357,0.00530027,0.0001036437,-9.186872e-07,997062.1,166.0273,3.991531e-06,1726962.2394437068
PART_002_R214G39B40A255,6358,0.005288352,8.247497e-05,5.577203e-05,1065912.0,394.3965,1.075732e-06,1846213.8667764894
PART_003_R247G182B210A255,6359,-4834777.0,463.1911,-534.1512,1032769.0,-67.06179,1354.289,5155052.594166051
PART_003_R247G182B210A255,6360,-4834573.0,210.001,344.1796,964427.5,-981.5801,3495.908,5115288.473982899
PART_003_R247G182B210A255,6361,-4834877.0,-221.4389,-148.8286,913527.6,-68.31061,4584.942,5087033.177845593
PART_003_R247G182B210A255,6362,-4834844.0,-83.70091,-182.5513,878889.4,-762.8713,4176.412,5068710.195597459
PART_003_R247G182B210A255,6363,-4834895.0,-310.4679,-116.7593,858767.2,13.13761,2459.794,5058320.432694016
PART_001_R158G218B229A255,6364,-4834933.0,-116.0756,-419.6214,852242.5,-1.528168e-05,0.000237274,5054991.496793275
PART_001_R158G218B229A255,6365,-4834895.0,-310.4679,-116.7593,858767.2,-13.13761,-2459.793,5058320.432692557
PART_002_R214G39B40A255,6366,-4834844.0,-83.70092,-182.5513,878889.4,762.8713,-4176.412,5068710.195592689
PART_002_R214G39B40A255,6367,-4834877.0,-221.439,-148.8286,913527.6,68.31059,-4584.942,5087033.177798073
PART_002_R214G39B40A255,6368,-4834573.0,210.0009,344.1796,964427.5,981.5801,-3495.908,5115288.473935643
PART_002_R214G39B40A255,6369,-4834777.0,463.191,-534.1512,1032769.0,67.06179,-1354.289,5155052.594119142
PART_003_R247G182B210A255,6370,-9668777.0,1021.314,1193.147,932913.6,-507.4643,3075.426,9803962.135581087
PART_003_R247G182B210A255,6371,-9669715.0,56.34708,-670.0093,865939.6,40.76695,8493.661,9785051.115689367
PART_003_R247G182B210A255,6372,-9669510.0,-20.49699,17.52191,817671.8,-967.2355,10884.49,9772692.29097936
PART_003_R247G182B210A255,6373,-9669793.0,-664.9844,-185.3122,785365.1,149.7704,9832.476,9764597.275105305
PART_001_R158G218B229A255,6374,-9669868.0,-232.8132,-856.4489,767156.4,-146.6101,5811.841,9760199.943042537
PART_001_R158G218B229A255,6375,-9669784.0,-320.8789,-504.7761,761253.3,5.715132e-06,0.0004914456,9758855.396880329
PART_001_R158G218B229A255,6376,-9669868.0,-232.8132,-856.4489,767156.4,146.6101,-5811.84,9760199.94304075
PART_001_R158G218B229A255,6377,-9669793.0,-664.9844,-185.3122,785365.1,-149.7704,-9832.475,9764597.275102284
PART_002_R214G39B40A255,6378,-9669510.0,-20.49696,17.5219,817671.8,967.2355,-10884.49,9772692.290989256
PART_002_R214G39B40A255,6379,-9669715.0,56.34712,-670.0093,865939.6,-40.76696,-8493.661,9785051.115709133
PART_002_R214G39B40A255,6380,-9668777.0,1021.314,1193.147,932913.6,507.4643,-3075.425,9803962.135580147
PART_003_R247G182B210A255,6381,-14504500.0,1412.091,-2123.306,764228.2,127.4567,6642.118,14564425.170933424
PART_003_R247G182B210A255,6382,-14503800.0,469.6631,948.4003,701009.7,-1274.945,16755.29,14555269.606459523
PART_003_R247G182B210A255,6383,-14504730.0,-1136.491,-282.8871,657568.4,505.2856,21367.96,14548716.949066326
PART_001_R158G218B229A255,6384,-14504810.0,-339.3947,-1288.693,630704.8,135.5106,19071.2,14545114.512894623
PART_001_R158G218B229A255,6385,-14504680.0,-220.6682,-1029.401,615893.3,109.8946,10890.91,14543243.808477804
PART_001_R158G218B229A255,6386,-14504890.0,-373.1472,-1498.68,611096.7,-1.812851e-05,0.0007803636,14542523.94258885
PART_001_R158G218B229A255,6387,-14504680.0,-220.6682,-1029.401,615893.3,-109.8946,-10890.91,14543243.808477804
PART_001_R158G218B229A255,6388,-14504810.0,-339.3947,-1288.693,630704.8,-135.5106,-19071.19,14545114.512855288
PART_001_R158G218B229A255,6389,-14504730.0,-1136.491,-282.8871,657568.4,-505.2856,-21367.96,14548716.949066326
PART_002_R214G39B40A255,6390,-14503800.0,469.6631,948.4002,701009.7,1274.945,-16755.29,14555269.606409695
PART_002_R214G39B40A255,6391,-14504500.0,1412.091,-2123.306,764228.2,-127.4567,-6642.118,14564425.170933424
PART_003_R247G182B210A255,6392,-19336950.0,2466.257,3802.83,522768.5,-1196.071,12172.59,19361280.458970793
PART_003_R247G182B210A255,6393,-19339840.0,-1506.228,-965.9369,466110.5,1165.642,33337.34,19355534.5290262
PART_001_R158G218B229A255,6394,-19339950.0,-628.4016,-2183.771,435090.6,833.277,40755.45,19353350.591312982
PART_001_R158G218B229A255,6395,-19339580.0,95.27943,-1766.824,417103.3,244.8284,33724.24,19352322.045353584
PART_001_R158G218B229A255,6396,-19339910.0,-571.077,-2140.357,407187.7,204.2769,18846.82,19351438.055236895
PART_001_R158G218B229A255,6397,-19339530.0,284.4908,-1827.113,404161.0,-3.549514e-07,0.001113444,19351424.477630094
PART_001_R158G218B229A255,6398,-19339910.0,-571.077,-2140.358,407187.7,-204.2769,-18846.82,19351438.054737292
PART_001_R158G218B229A255,6399,-19339580.0,95.27946,-1766.824,417103.3,-244.8284,-33724.24,19352322.04536858
PART_001_R158G218B229A255,6400,-19339950.0,-628.4015,-2183.771,435090.6,-833.277,-40755.45,19353350.591362953
PART_001_R158G218B229A255,6401,-19339840.0,-1506.228,-965.9369,466110.5,-1165.642,-33337.34,19355534.5290262
PART_002_R214G39B40A255,6402,-19336950.0,2466.257,3802.83,522768.5,1196.071,-12172.59,19361280.458970793
PART_003_R247G182B210A255,6403,-24175660.0,1696.155,-7412.545,192001.4,1840.475,32815.57,24175157.573217116
PART_001_R158G218B229A255,6404,-24176100.0,-2179.641,-4835.523,164996.8,1133.041,70946.35,24174594.212398775
PART_001_R158G218B229A255,6405,-24174510.0,1127.048,-3348.702,154671.2,221.8379,72237.17,24175207.69126098
PART_001_R158G218B229A255,6406,-24175080.0,-994.6131,-2939.722,147852.8,264.919,56329.67,24174666.233581427
PART_001_R158G218B229A255,6407,-24174390.0,719.3831,-2594.255,144590.0,37.3451,30400.85,24174807.3114358
PART_001_R158G218B229A255,6408,-24174880.0,-740.9217,-2590.058,143390.6,-3.459015e-06,0.001510467,24174490.375408337
PART_001_R158G218B229A255,6409,-24174390.0,719.3831,-2594.255,144590.0,-37.3451,-30400.84,24174807.311398074
PART_001_R158G218B229A255,6410,-24175080.0,-994.6132,-2939.722,147852.8,-264.919,-56329.67,24174666.233531423
PART_001_R158G218B229A255,6411,-24174510.0,1127.048,-3348.702,154671.2,-221.8379,-72237.17,24175207.69126098
PART_001_R158G218B229A255,6412,-24176100.0,-2179.641,-4835.523,164996.8,-1133.041,-70946.35,24174594.212398775
PART_001_R158G218B229A255,6413,-24175660.0,1696.155,-7412.545,192001.4,-1840.475,-32815.57,24175157.573217116
PART_003_R247G182B210A255,6414,23857560.0,-1682.425,7291.989,192000.8,1815.956,-32815.47,23857142.33297196
PART_000_R31G119B180A255,6415,23857990.0,2159.318,4794.198,164997.2,1118.312,-70946.61,23856541.73311794
PART_000_R31G119B180A255,6416,23856420.0,-1120.424,3282.788,154671.0,218.8026,-72236.87,23857171.43035388
PART_000_R31G119B180A255,6417,23856990.0,990.156,2922.797,147853.0,261.503,-56329.92,23856607.640699357
PART_000_R31G119B180A255,6418,23856300.0,-718.3635,2538.542,144589.8,36.82099,-30400.71,23856762.709845044
PART_000_R31G119B180A255,6419,23856790.0,739.9194,2577.616,143390.8,-4.862415e-06,-0.001509194,23856424.111917432
PART_000_R31G119B180A255,6420,23856300.0,-718.3635,2538.542,144589.8,-36.82099,30400.7,23856762.709806815
PART_000_R31G119B180A255,6421,23856990.0,990.156,2922.797,147853.0,-261.503,56329.92,23856607.640699357
PART_000_R31G119B180A255,6422,23856420.0,-1120.424,3282.787,154671.0,-218.8025,72236.87,23857171.430853702
PART_000_R31G119B180A255,6423,23857990.0,2159.318,4794.198,164997.2,-1118.312,70946.61,23856541.73311794
PART_000_R31G119B180A255,6424,23857560.0,-1682.425,7291.989,192000.8,-1815.956,32815.47,23857142.33297196
PART_003_R247G182B210A255,6425,19082510.0,-2440.109,-3772.647,522768.9,-1180.257,-12172.45,19107094.612027843
PART_003_R247G182B210A255,6426,19085370.0,1493.375,972.7696,466110.4,1150.303,-33337.62,19101293.08067264
PART_000_R31G119B180A255,6427,19085470.0,612.656,2135.657,435090.6,822.3072,-40755.15,19099099.77903383
PART_000_R31G119B180A255,6428,19085110.0,-86.67462,1762.734,417103.3,241.6137,-33724.48,19098030.707049146
PART_000_R31G119B180A255,6429,19085440.0,555.8656,2093.03,407187.7,201.5851,-18846.69,19097170.97808084
PART_000_R31G119B180A255,6430,19085070.0,-273.2808,1822.139,404161.0,5.12767e-07,-0.001112999,19097130.126600817
PART_000_R31G119B180A255,6431,19085440.0,555.8656,2093.03,407187.7,-201.5851,18846.69,19097170.97808084
PART_000_R31G119B180A255,6432,19085110.0,-86.67464,1762.734,417103.3,-241.6137,33724.48,19098030.70705914
PART_000_R31G119B180A255,6433,19085470.0,612.6559,2135.657,435090.6,-822.3072,40755.15,19099099.779083796
PART_000_R31G119B180A255,6434,19085370.0,1493.375,972.7696,466110.4,-1150.303,33337.62,19101293.08067264
PART_002_R214G39B40A255,6435,19082510.0,-2440.109,-3772.647,522768.9,1180.257,12172.45,19107094.612027843
PART_003_R247G182B210A255,6436,14313650.0,-1399.282,2079.428,764227.9,125.7401,-6642.054,14374390.957181983
PART_003_R247G182B210A255,6437,14312960.0,-457.8009,-920.4668,701009.6,-1258.188,-16755.48,14365084.129681502
PART_003_R247G182B210A255,6438,14313880.0,1115.938,264.0133,657568.5,498.6504,-21367.74,14358480.723981757
PART_000_R31G119B180A255,6439,14313960.0,340.8806,1286.833,630704.8,133.7185,-19071.38,14354811.389502713
PART_000_R31G119B180A255,6440,14313820.0,211.9639,1000.882,615893.5,108.4532,-10890.81,14352923.522529572
PART_000_R31G119B180A255,6441,14314030.0,374.2845,1493.983,611096.7,-2.080636e-05,-0.0007794144,14352178.641133515
PART_000_R31G119B180A255,6442,14313820.0,211.9639,1000.882,615893.5,-108.4532,10890.81,14352923.522529572
PART_000_R31G119B180A255,6443,14313960.0,340.8806,1286.833,630704.8,-133.7185,19071.38,14354811.389502713
PART_000_R31G119B180A255,6444,14313880.0,1115.938,264.0133,657568.5,-498.6505,21367.74,14358480.723981768
PART_002_R214G39B40A255,6445,14312960.0,-457.8009,-920.4668,701009.6,1258.188,16755.48,14365084.129681502
PART_002_R214G39B40A255,6446,14313650.0,-1399.281,2079.428,764227.9,-125.7401,6642.054,14374390.956683926
PART_003_R247G182B210A255,6447,9541556.0,-1011.301,-1188.055,932914.0,-500.7565,-3075.356,9678496.377650814
PART_003_R247G182B210A255,6448,9542483.0,-51.8673,671.628,865939.5,40.24394,-8493.8,9659339.435474347
PART_003_R247G182B210A255,6449,9542278.0,16.22383,-27.63664,817671.8,-954.5106,-10884.34,9646828.390323631
PART_003_R247G182B210A255,6450,9542560.0,660.1373,193.0897,785364.9,147.7991,-9832.595,9638619.91745297
PART_000_R31G119B180A255,6451,9542631.0,225.6453,834.9595,767156.4,-144.6801,-5811.775,9634177.402391555
PART_000_R31G119B180A255,6452,9542552.0,320.6148,508.2969,761253.2,3.090333e-06,-0.0004919225,9632803.758066814
PART_000_R31G119B180A255,6453,9542631.0,225.6453,834.9595,767156.4,144.68,5811.774,9634177.40238974
PART_000_R31G119B180A255,6454,9542560.0,660.1373,193.0897,785364.9,-147.7991,9832.594,9638619.91744991
PART_002_R214G39B40A255,6455,9542278.0,16.22378,-27.63664,817671.8,954.5106,10884.34,9646828.39034836
PART_002_R214G39B40A255,6456,9542483.0,-51.86735,671.6279,865939.5,-40.24395,8493.8,9659339.435548436
PART_002_R214G39B40A255,6457,9541556.0,-1011.301,-1188.055,932914.0,500.7565,3075.356,9678496.377650814
PART_003_R247G182B210A255,6458,4771162.0,-459.0489,521.6855,1032769.0,-66.20227,-1354.267,5095442.045650958
PART_003_R247G182B210A255,6459,4770961.0,-205.3043,-334.3765,964427.4,-968.6844,-3495.974,5055199.684982001
PART_003_R247G182B210A255,6460,4771259.0,216.6202,141.6987,913527.8,-67.40474,-4584.866,5026615.66561936
PART_003_R247G182B210A255,6461,4771228.0,84.63563,185.3057,878889.4,-752.8369,-4176.475,5008065.740741371
PART_003_R247G182B210A255,6462,4771277.0,304.4059,110.1095,858767.4,12.96628,-2459.759,4997556.3036207585
PART_000_R31G119B180A255,6463,4771316.0,116.6178,419.2318,852242.5,-2.062352e-05,-0.0002365547,4994181.778927335
PART_000_R31G119B180A255,6464,4771277.0,304.406,110.1095,858767.4,-12.96628,2459.759,4997556.303573027
PART_002_R214G39B40A255,6465,4771228.0,84.63563,185.3057,878889.4,752.8369,4176.474,5008065.74073887
PART_002_R214G39B40A255,6466,4771259.0,216.6202,141.6988,913527.8,67.40472,4584.865,5026615.665569164
PART_002_R214G39B40A255,6467,4770961.0,-205.3043,-334.3765,964427.4,968.6844,3495.974,5055199.684982001
PART_002_R214G39B40A255,6468,4771162.0,-459.0488,521.6856,1032769.0,66.20227,1354.267,5095442.045557323
PART_003_R247G182B210A255,6469,0.005219534,-4.031853e-05,-5.616687e-05,1065912.0,-389.183,-9.002177e-07,1846213.8634573792
PART_003_R247G182B210A255,6470,0.00521235,-5.355132e-05,7.029193e-07,997062.0,-163.8296,-2.700118e-06,1726962.0656089738
PART_003_R247G182B210A255,6471,0.005189089,-0.0001679193,-9.740727e-05,945572.5,-1035.784,-5.17234e-06,1637780.5948338239
PART_003_R247G182B210A255,6472,0.005180971,-0.0002062751,-4.655517e-05,910068.4,-63.53952,-4.412663e-06,1576284.711004802
PART_003_R247G182B210A255,6473,0.005164157,-0.0002658416,-0.0001395946,889485.7,-430.3174,-3.201712e-06,1540634.6052950595
PART_003_R247G182B210A255,6474,0.005168429,-0.0002596067,-6.756931e-05,882690.2,-2.738502e-06,5.993315e-08,1528864.2737431338
PART_002_R214G39B40A255,6475,0.005158569,-0.0002735411,-0.0001426193,889485.7,430.3174,2.62549e-06,1540634.6052950595
PART_002_R214G39B40A255,6476,0.005172889,-0.0002226715,-5.136199e-05,910068.4,63.53952,3.374312e-06,1576284.711004802
PART_002_R214G39B40A255,6477,0.005171672,-0.0002034198,-0.0001139731,945572.5,1035.784,3.929074e-06,1637780.5948338239
PART_002_R214G39B40A255,6478,0.005186886,-0.0001133394,-2.106681e-05,997062.0,163.8296,3.201785e-06,1726962.0656089738
PART_002_R214G39B40A255,6479,0.005190465,-0.0001143941,-8.377337e-05,1065912.0,389.183,1.06958e-06,1846213.8634573792
PART_003_R247G182B210A255,6480,-4771162.0,459.0489,-521.6857,1032769.0,-66.20228,1354.267,5095442.045557352
PART_003_R247G182B210A255,6481,-4770961.0,205.3045,334.3767,964427.4,-968.6844,3495.974,5055199.685170766
PART_003_R247G182B210A255,6482,-4771259.0,-216.6199,-141.6988,913527.8,-67.40474,4584.866,5026615.665714272
PART_003_R247G182B210A255,6483,-4771228.0,-84.63513,-185.3054,878889.4,-752.8369,4176.475,5008065.741122448
PART_003_R247G182B210A255,6484,-4771277.0,-304.4055,-110.1094,858767.4,12.96627,2459.759,4997556.303859419
PART_001_R158G218B229A255,6485,-4771316.0,-116.6172,-419.2314,852242.5,-1.902079e-05,0.000237571,4994181.779405004
PART_001_R158G218B229A255,6486,-4771277.0,-304.4055,-110.1094,858767.4,-12.96628,-2459.759,4997556.303859419
PART_002_R214G39B40A255,6487,-4771228.0,-84.63511,-185.3054,878889.4,752.8369,-4176.474,5008065.741129473
PART_002_R214G39B40A255,6488,-4771259.0,-216.6199,-141.6987,913527.8,67.40472,-4584.865,5026615.665758994
PART_002_R214G39B40A255,6489,-4770961.0,205.3046,334.3767,964427.4,968.6844,-3495.974,5055199.685217955
PART_002_R214G39B40A255,6490,-4771162.0,459.0489,-521.6857,1032769.0,66.20228,-1354.267,5095442.045557352
PART_003_R247G182B210A255,6491,-9541556.0,1011.301,1188.054,932914.0,-500.7565,3075.356,9678496.377157817
PART_003_R247G182B210A255,6492,-9542483.0,51.86723,-671.6277,865939.5,40.24394,8493.8,9659339.435587933
PART_003_R247G182B210A255,6493,-9542278.0,-16.22424,27.63625,817671.8,-954.5106,10884.34,9646828.389927968
PART_003_R247G182B210A255,6494,-9542560.0,-660.1376,-193.0896,785364.9,147.7991,9832.595,9638619.917353986
PART_001_R158G218B229A255,6495,-9542631.0,-225.6459,-834.96,767156.4,-144.6801,5811.775,9634177.401846806
PART_001_R158G218B229A255,6496,-9542552.0,-320.6152,-508.2969,761253.2,1.907607e-07,0.0004903585,9632803.75786869
PART_001_R158G218B229A255,6497,-9542631.0,-225.6459,-834.96,767156.4,144.68,-5811.774,9634177.401844991
PART_001_R158G218B229A255,6498,-9542560.0,-660.1376,-193.0896,785364.9,-147.7991,-9832.594,9638619.917350926
PART_002_R214G39B40A255,6499,-9542278.0,-16.22426,27.63622,817671.8,954.5106,-10884.34,9646828.389903238
PART_002_R214G39B40A255,6500,-9542483.0,51.86716,-671.6278,865939.5,-40.24396,-8493.8,9659339.435503965
PART_002_R214G39B40A255,6501,-9541556.0,1011.301,1188.054,932914.0,500.7565,-3075.356,9678496.377157817
PART_003_R247G182B210A255,6502,-14313650.0,1399.281,-2079.429,764227.9,125.7401,6642.054,14374390.956186231
PART_003_R247G182B210A255,6503,-14312960.0,457.8013,920.4674,701009.7,-1258.188,16755.48,14365084.144819582
PART_003_R247G182B210A255,6504,-14313880.0,-1115.938,-264.0137,657568.5,498.6504,21367.74,14358480.72378237
PART_001_R158G218B229A255,6505,-14313960.0,-340.88,-1286.833,630704.8,133.7185,19071.38,14354811.389801873
PART_001_R158G218B229A255,6506,-14313820.0,-211.9636,-1000.882,615893.5,108.4532,10890.81,14352923.52267917
PART_001_R158G218B229A255,6507,-14314030.0,-374.2838,-1493.982,611096.7,-2.057488e-05,0.000779144,14352178.64198118
PART_001_R158G218B229A255,6508,-14313820.0,-211.9636,-1000.882,615893.5,-108.4532,-10890.81,14352923.52267917
PART_001_R158G218B229A255,6509,-14313960.0,-340.88,-1286.833,630704.8,-133.7185,-19071.38,14354811.389801873
PART_001_R158G218B229A255,6510,-14313880.0,-1115.938,-264.0136,657568.5,-498.6505,-21367.74,14358480.723832227
PART_002_R214G39B40A255,6511,-14312960.0,457.8013,920.4674,701009.6,1258.188,-16755.48,14365084.130179716
PART_002_R214G39B40A255,6512,-14313650.0,1399.281,-2079.429,764227.9,-125.7401,-6642.054,14374390.956186231
PART_003_R247G182B210A255,6513,-19082510.0,2440.109,3772.646,522768.9,-1180.257,12172.45,19107094.611528352
PART_003_R247G182B210A255,6514,-19085370.0,-1493.375,-972.769,466110.4,1150.303,33337.62,19101293.080972385
PART_001_R158G218B229A255,6515,-19085470.0,-612.6565,-2135.657,435090.6,822.3072,40755.15,19099099.778783996
PART_001_R158G218B229A255,6516,-19085110.0,86.67442,-1762.734,417103.3,241.6137,33724.48,19098030.7069492
PART_001_R158G218B229A255,6517,-19085440.0,-555.8664,-2093.031,407187.7,201.5851,18846.69,19097170.97718147
PART_001_R158G218B229A255,6518,-19085070.0,273.2805,-1822.138,404161.0,-2.586883e-06,0.001112814,19097130.126950473
PART_001_R158G218B229A255,6519,-19085440.0,-555.8664,-2093.031,407187.7,-201.5851,-18846.69,19097170.97718147
PART_001_R158G218B229A255,6520,-19085110.0,86.67443,-1762.734,417103.3,-241.6137,-33724.48,19098030.706954204
PART_001_R158G218B229A255,6521,-19085470.0,-612.6565,-2135.657,435090.6,-822.3072,-40755.15,19099099.778783996
PART_001_R158G218B229A255,6522,-19085370.0,-1493.375,-972.769,466110.4,-1150.303,-33337.62,19101293.080972385
PART_002_R214G39B40A255,6523,-19082510.0,2440.109,3772.646,522768.9,1180.257,-12172.45,19107094.611528352
PART_003_R247G182B210A255,6524,-23857560.0,1682.425,-7291.99,192000.8,1815.956,32815.47,23857142.33247229
PART_001_R158G218B229A255,6525,-23857990.0,-2159.318,-4794.197,164997.2,1118.312,70946.61,23856541.733617816
PART_001_R158G218B229A255,6526,-23856420.0,1120.424,-3282.788,154671.0,218.8026,72236.87,23857171.43035388
PART_001_R158G218B229A255,6527,-23856990.0,-990.1552,-2922.796,147853.0,261.503,56329.92,23856607.641599286
PART_001_R158G218B229A255,6528,-23856300.0,718.3637,-2538.542,144589.8,36.82099,30400.71,23856762.709945057
PART_001_R158G218B229A255,6529,-23856790.0,-739.9185,-2577.615,143390.8,-5.700621e-06,0.001506529,23856424.112867374
PART_001_R158G218B229A255,6530,-23856300.0,718.3637,-2538.542,144589.8,-36.82099,-30400.7,23856762.709906828
PART_001_R158G218B229A255,6531,-23856990.0,-990.1552,-2922.796,147853.0,-261.503,-56329.92,23856607.641599286
PART_001_R158G218B229A255,6532,-23856420.0,1120.424,-3282.788,154671.0,-218.8026,-72236.87,23857171.43035388
PART_001_R158G218B229A255,6533,-23857990.0,-2159.318,-4794.198,164997.2,-1118.312,-70946.61,23856541.73311794
PART_001_R158G218B229A255,6534,-23857560.0,1682.425,-7291.99,192000.8,-1815.956,-32815.47,23857142.33247229
PART_003_R247G182B210A255,6535,23539460.0,-1652.971,7213.555,192001.3,1791.99,-32815.55,23539099.055628624
PART_000_R31G119B180A255,6536,23539880.0,2123.721,4712.08,164996.9,1103.255,-70946.4,23538517.985282425
PART_000_R31G119B180A255,6537,23538330.0,-1098.775,3256.855,154671.1,215.9802,-72237.12,23539108.33431549
PART_000_R31G119B180A255,6538,23538890.0,969.9252,2866.076,147852.9,257.9594,-56329.72,23538567.380979046
PART_000_R31G119B180A255,6539,23538220.0,-701.8789,2522.309,144589.9,36.35676,-30400.82,23538701.133671865
PART_000_R31G119B180A255,6540,23538700.0,722.9299,2525.594,143390.6,-3.262593e-06,-0.001503239,23538386.08164131
PART_000_R31G119B180A255,6541,23538220.0,-701.8789,2522.309,144589.9,-36.35676,30400.82,23538701.133671865
PART_000_R31G119B180A255,6542,23538890.0,969.9253,2866.076,147852.9,-257.9594,56329.72,23538567.380929045
PART_000_R31G119B180A255,6543,23538330.0,-1098.775,3256.855,154671.1,-215.9802,72237.12,23539108.33431549
PART_000_R31G119B180A255,6544,23539880.0,2123.721,4712.08,164996.9,-1103.255,70946.4,23538517.985282425
PART_000_R31G119B180A255,6545,23539460.0,-1652.971,7213.555,192001.3,-1791.99,32815.55,23539099.055628624
PART_003_R247G182B210A255,6546,18828080.0,-2402.439,-3706.135,522768.5,-1164.582,-12172.57,18852902.405376635
PART_003_R247G182B210A255,6547,18830900.0,1467.761,943.8364,466110.5,1134.967,-33337.39,18847081.973720513
PART_000_R31G119B180A255,6548,18831000.0,610.5801,2123.005,435090.6,811.3477,-40755.4,18844839.742381558
PART_000_R31G119B180A255,6549,18830640.0,-91.53558,1723.582,417103.3,238.3867,-33724.29,18843768.495452013
PART_000_R31G119B180A255,6550,18830970.0,554.7268,2080.771,407187.7,198.9006,-18846.8,18842883.98407612
PART_000_R31G119B180A255,6551,18830600.0,-275.7481,1782.269,404161.0,-1.435052e-06,-0.001110027,18842854.607338045
PART_000_R31G119B180A255,6552,18830970.0,554.7268,2080.771,407187.7,-198.9006,18846.8,18842883.98407612
PART_000_R31G119B180A255,6553,18830640.0,-91.53558,1723.582,417103.3,-238.3867,33724.29,18843768.495452013
PART_000_R31G119B180A255,6554,18831000.0,610.5801,2123.005,435090.6,-811.3478,40755.39,18844839.742316693
PART_000_R31G119B180A255,6555,18830900.0,1467.762,943.8364,466110.5,-1134.967,33337.39,18847081.973220997
PART_002_R214G39B40A255,6556,18828080.0,-2402.439,-3706.135,522768.5,1164.582,12172.57,18852902.405376635
PART_003_R247G182B210A255,6557,14122800.0,-1375.897,2064.735,764228.1,124.0956,-6642.106,14184358.52201938
PART_003_R247G182B210A255,6558,14122120.0,-456.3305,-920.8236,701009.7,-1241.397,-16755.32,14174936.081328167
PART_003_R247G182B210A255,6559,14123030.0,1105.648,272.8818,657568.4,491.9909,-21367.92,14168241.50876197
PART_000_R31G119B180A255,6560,14123100.0,331.4819,1257.338,630704.8,131.943,-19071.23,14164532.207014877
PART_000_R31G119B180A255,6561,14122970.0,213.8912,999.781,615893.4,107.0035,-10890.9,14162608.223990561
PART_000_R31G119B180A255,6562,14123180.0,364.3624,1461.787,611096.7,-2.012992e-05,-0.00077609,14161876.342594244
PART_000_R31G119B180A255,6563,14122970.0,213.8911,999.7809,615893.4,-107.0035,10890.89,14162608.224067207
PART_000_R31G119B180A255,6564,14123100.0,331.4819,1257.338,630704.8,-131.9431,19071.23,14164532.207014881
PART_000_R31G119B180A255,6565,14123030.0,1105.648,272.8818,657568.4,-491.991,21367.92,14168241.508761982
PART_002_R214G39B40A255,6566,14122120.0,-456.3306,-920.8236,701009.7,1241.397,16755.32,14174936.081377981
PART_002_R214G39B40A255,6567,14122800.0,-1375.897,2064.735,764228.1,-124.0956,6642.106,14184358.52201938
PART_003_R247G182B210A255,6568,9414336.0,-995.022,-1163.54,932913.7,-494.1047,-3075.413,9553065.369651975
PART_003_R247G182B210A255,6569,9415249.0,-54.24107,654.1359,865939.6,39.6965,-8493.686,9533679.07182202
PART_003_R247G182B210A255,6570,9415049.0,19.27442,-18.80868,817671.8,-941.7822,-10884.46,9520990.646006286
PART_003_R247G182B210A255,6571,9415325.0,648.1357,182.1572,785365.0,145.8291,-9832.498,9512686.915948039
PART_000_R31G119B180A255,6572,9415398.0,225.9864,832.1841,767156.4,-142.7517,-5811.828,9508177.805283392
PART_000_R31G119B180A255,6573,9415317.0,313.0949,493.2052,761253.3,4.407692e-06,-0.0004890439,9506793.49657879
PART_000_R31G119B180A255,6574,9415398.0,225.9864,832.1841,767156.4,142.7517,5811.828,9508177.805283392
PART_000_R31G119B180A255,6575,9415325.0,648.1358,182.1572,785365.0,-145.8291,9832.497,9512686.915895455
PART_002_R214G39B40A255,6576,9415049.0,19.27444,-18.80865,817671.8,941.7822,10884.46,9520990.645981565
PART_002_R214G39B40A255,6577,9415249.0,-54.24098,654.1359,865939.5,-39.69651,8493.686,9533679.044528715
PART_002_R214G39B40A255,6578,9414336.0,-995.0219,-1163.54,932913.7,494.1046,3075.413,9553065.369602682
PART_003_R247G182B210A255,6579,4707546.0,-451.3274,519.1789,1032769.0,-65.3011,-1354.285,5035922.117424046
PART_003_R247G182B210A255,6580,4707348.0,-204.1447,-334.2318,964427.5,-955.7524,-3495.92,4995203.7212535655
PART_003_R247G182B210A255,6581,4707643.0,215.2944,144.0413,913527.7,-66.51169,-4584.928,4966273.520589871
PART_003_R247G182B210A255,6582,4707611.0,81.84537,178.6178,878889.4,-742.7963,-4176.423,4947501.279139207
PART_003_R247G182B210A255,6583,4707661.0,301.9682,112.8257,858767.2,12.79219,-2459.788,4936859.418218129
PART_000_R31G119B180A255,6584,4707698.0,113.3737,409.445,852242.5,-1.87998e-05,-0.0002366031,4933448.201527295
PART_000_R31G119B180A255,6585,4707661.0,301.9682,112.8257,858767.2,-12.79219,2459.787,4936859.418216635
PART_002_R214G39B40A255,6586,4707611.0,81.84535,178.6178,878889.4,742.7962,4176.423,4947501.279148677
PART_002_R214G39B40A255,6587,4707643.0,215.2943,144.0413,913527.7,66.51167,4584.928,4966273.520637264
PART_002_R214G39B40A255,6588,4707348.0,-204.1448,-334.2318,964427.5,955.7524,3495.92,4995203.721300685
PART_002_R214G39B40A255,6589,4707546.0,-451.3275,519.1789,1032769.0,65.3011,1354.285,5035922.117470799
PART_003_R247G182B210A255,6590,0.005151188,3.678943e-05,5.007902e-05,1065912.0,-384.0134,-1.064141e-06,1846213.860209828
PART_003_R247G182B210A255,6591,0.005166707,8.483991e-05,-2.295252e-05,997062.1,-161.6558,-5.75122e-06,1726962.2381994987
PART_003_R247G182B210A255,6592,0.00520149,0.0002163,0.00013162,945572.5,-1021.974,-4.754106e-06,1637780.5688068594
PART_003_R247G182B210A255,6593,0.005199471,0.0002490326,5.914591e-05,910068.5,-62.68967,-5.607715e-06,1576284.884107798
PART_003_R247G182B210A255,6594,0.005221702,0.0003316937,0.0001711241,889485.7,-424.5815,-3.495716e-06,1540634.600520779
PART_003_R247G182B210A255,6595,0.005207682,0.0003109114,8.684232e-05,882690.3,-4.67127e-06,-2.210087e-07,1528864.4469482147
PART_002_R214G39B40A255,6596,0.005221303,0.0003428381,0.0001788005,889485.7,424.5815,4.368951e-06,1540634.600520779
PART_002_R214G39B40A255,6597,0.005197764,0.000270687,6.61254e-05,910068.5,62.68965,5.246188e-06,1576284.8841077955
PART_002_R214G39B40A255,6598,0.005199683,0.0002557672,0.0001441046,945572.5,1021.974,4.068255e-06,1637780.5688068594
PART_002_R214G39B40A255,6599,0.005167866,0.0001490026,6.941383e-06,997062.1,161.6558,4.042487e-06,1726962.2381994987
PART_002_R214G39B40A255,6600,0.005155434,0.0001265279,8.815322e-05,1065912.0,384.0134,1.051391e-06,1846213.860209828
PART_003_R247G182B210A255,6601,-4707546.0,451.3274,-519.1788,1032769.0,-65.30111,1354.285,5035922.117470771
PART_003_R247G182B210A255,6602,-4707348.0,204.1445,334.2316,964427.5,-955.7524,3495.92,4995203.72106508
PART_003_R247G182B210A255,6603,-4707643.0,-215.2947,-144.0413,913527.7,-66.51169,4584.928,4966273.520447691
PART_003_R247G182B210A255,6604,-4707611.0,-81.84596,-178.6182,878889.4,-742.7963,4176.423,4947501.278668219
PART_003_R247G182B210A255,6605,-4707661.0,-301.9688,-112.8258,858767.2,12.79219,2459.788,4936859.417884408
PART_001_R158G218B229A255,6606,-4707698.0,-113.3744,-409.4455,852242.5,-1.674078e-05,0.0002360351,4933448.200954773
PART_001_R158G218B229A255,6607,-4707661.0,-301.9688,-112.8258,858767.2,-12.79219,-2459.787,4936859.417882913
PART_002_R214G39B40A255,6608,-4707611.0,-81.84597,-178.6182,878889.4,742.7962,-4176.423,4947501.278663415
PART_002_R214G39B40A255,6609,-4707643.0,-215.2947,-144.0413,913527.7,66.51167,-4584.928,4966273.520447691
PART_002_R214G39B40A255,6610,-4707348.0,204.1444,334.2316,964427.5,955.7524,-3495.92,4995203.7210179595
PART_002_R214G39B40A255,6611,-4707546.0,451.3273,-519.1788,1032769.0,65.30111,-1354.285,5035922.117424018
PART_003_R247G182B210A255,6612,-9414336.0,995.0222,1163.541,932913.7,-494.1047,3075.413,9553065.37024334
PART_003_R247G182B210A255,6613,-9415249.0,54.24113,-654.1362,865939.6,39.6965,8493.686,9533679.071703535
PART_003_R247G182B210A255,6614,-9415049.0,-19.2739,18.80918,817671.8,-941.7822,10884.46,9520990.646510612
PART_003_R247G182B210A255,6615,-9415325.0,-648.1353,-182.1573,785365.0,145.8291,9832.498,9512686.916096479
PART_001_R158G218B229A255,6616,-9415398.0,-225.9857,-832.1835,767156.4,-142.7517,5811.828,9508177.805927018
PART_001_R158G218B229A255,6617,-9415317.0,-313.0944,-493.2053,761253.3,2.932138e-06,0.0004882231,9506793.496776866
PART_001_R158G218B229A255,6618,-9415398.0,-225.9856,-832.1835,767156.4,142.7517,-5811.828,9508177.805976532
PART_001_R158G218B229A255,6619,-9415325.0,-648.1353,-182.1573,785365.0,-145.8291,-9832.497,9512686.916093377
PART_002_R214G39B40A255,6620,-9415049.0,-19.27384,18.80917,817671.8,941.7822,-10884.46,9520990.646535333
PART_002_R214G39B40A255,6621,-9415249.0,54.24118,-654.1361,865939.6,-39.69652,-8493.686,9533679.071777597
PART_002_R214G39B40A255,6622,-9414336.0,995.0223,1163.541,932913.7,494.1047,-3075.413,9553065.370292619
PART_003_R247G182B210A255,6623,-14122800.0,1375.897,-2064.734,764228.1,124.0956,6642.106,14184358.522517016
PART_003_R247G182B210A255,6624,-14122120.0,456.3301,920.8229,701009.7,-1241.397,16755.32,14174936.080780182
PART_003_R247G182B210A255,6625,-14123030.0,-1105.648,-272.8814,657568.4,491.9909,21367.92,14168241.508961339
PART_001_R158G218B229A255,6626,-14123100.0,-331.4827,-1257.339,630704.8,131.943,19071.23,14164532.20611757
PART_001_R158G218B229A255,6627,-14122970.0,-213.8916,-999.7806,615893.4,107.0035,10890.9,14162608.223990526
PART_001_R158G218B229A255,6628,-14123180.0,-364.3633,-1461.788,611096.7,-2.108666e-05,0.0007753588,14161876.341646908
PART_001_R158G218B229A255,6629,-14122970.0,-213.8916,-999.7806,615893.4,-107.0035,-10890.89,14162608.223967457
PART_001_R158G218B229A255,6630,-14123100.0,-331.4827,-1257.339,630704.8,-131.9431,-19071.23,14164532.206117574
PART_001_R158G218B229A255,6631,-14123030.0,-1105.648,-272.8814,657568.4,-491.991,-21367.92,14168241.50896135
PART_002_R214G39B40A255,6632,-14122120.0,456.33,920.8228,701009.7,1241.397,-16755.32,14174936.080680551
PART_002_R214G39B40A255,6633,-14122800.0,1375.897,-2064.734,764228.1,-124.0956,-6642.106,14184358.522517016
PART_003_R247G182B210A255,6634,-18828080.0,2402.44,3706.136,522768.5,-1164.582,12172.57,18852902.406375483
PART_003_R247G182B210A255,6635,-18830900.0,-1467.762,-943.8372,466110.5,1134.967,33337.39,18847081.972821347
PART_001_R158G218B229A255,6636,-18831000.0,-610.5794,-2123.004,435090.6,811.3477,40755.4,18844839.743230853
PART_001_R158G218B229A255,6637,-18830640.0,91.53582,-1723.583,417103.3,238.3867,33724.29,18843768.49507238
PART_001_R158G218B229A255,6638,-18830970.0,-554.7258,-2080.77,407187.7,198.9006,18846.8,18842883.985075418
PART_001_R158G218B229A255,6639,-18830600.0,275.7485,-1782.27,404161.0,7.259964e-07,0.001107953,18842854.607038368
PART_001_R158G218B229A255,6640,-18830970.0,-554.7258,-2080.77,407187.7,-198.9006,-18846.8,18842883.985075418
PART_001_R158G218B229A255,6641,-18830640.0,91.53584,-1723.583,417103.3,-238.3867,-33724.29,18843768.495082375
PART_001_R158G218B229A255,6642,-18831000.0,-610.5794,-2123.004,435090.6,-811.3478,-40755.39,18844839.743165985
PART_001_R158G218B229A255,6643,-18830900.0,-1467.761,-943.8371,466110.5,-1134.967,-33337.39,18847081.97337082
PART_002_R214G39B40A255,6644,-18828080.0,2402.44,3706.136,522768.5,1164.582,-12172.57,18852902.406375483
PART_003_R247G182B210A255,6645,-23539460.0,1652.972,-7213.554,192001.3,1791.99,32815.55,23539099.05662852
PART_001_R158G218B229A255,6646,-23539880.0,-2123.722,-4712.081,164996.9,1103.255,70946.4,23538517.984282512
PART_001_R158G218B229A255,6647,-23538330.0,1098.775,-3256.854,154671.1,215.9802,72237.12,23539108.334815316
PART_001_R158G218B229A255,6648,-23538890.0,-969.9262,-2866.077,147852.9,257.9594,56329.72,23538567.379979115
PART_001_R158G218B229A255,6649,-23538220.0,701.8786,-2522.308,144589.9,36.35675,30400.82,23538701.134021714
PART_001_R158G218B229A255,6650,-23538700.0,-722.931,-2525.595,143390.6,-9.649934e-07,0.001502068,23538386.080591366
PART_001_R158G218B229A255,6651,-23538220.0,701.8786,-2522.308,144589.9,-36.35676,-30400.82,23538701.134021714
PART_001_R158G218B229A255,6652,-23538890.0,-969.9262,-2866.077,147852.9,-257.9594,-56329.72,23538567.379979115
PART_001_R158G218B229A255,6653,-23538330.0,1098.775,-3256.854,154671.1,-215.9802,-72237.12,23539108.334815316
PART_001_R158G218B229A255,6654,-23539880.0,-2123.722,-4712.081,164996.9,-1103.255,-70946.4,23538517.984282512
PART_001_R158G218B229A255,6655,-23539460.0,1652.972,-7213.554,192001.3,-1791.99,-32815.55,23539099.05662852
PART_003_R247G182B210A255,6656,23221350.0,-1636.374,7100.735,192000.9,1767.573,-32815.49,23221070.25267581
PART_000_R31G119B180A255,6657,23221780.0,2100.566,4663.249,164997.1,1088.465,-70946.57,23220482.140515372
PART_000_R31G119B180A255,6658,23220250.0,-1089.413,3198.283,154671.0,212.984,-72236.92,23221078.366058093
PART_000_R31G119B180A255,6659,23220800.0,962.543,2841.827,147853.0,254.5199,-56329.89,23220515.05210174
PART_000_R31G119B180A255,6660,23220140.0,-698.0411,2473.846,144589.9,35.84365,-30400.73,23220662.498080987
PART_000_R31G119B180A255,6661,23220610.0,718.9631,2505.868,143390.7,6.686656e-07,-0.001500259,23220325.87841967
PART_000_R31G119B180A255,6662,23220140.0,-698.0411,2473.846,144589.9,-35.84366,30400.72,23220662.49804171
PART_000_R31G119B180A255,6663,23220800.0,962.543,2841.827,147853.0,-254.5199,56329.88,23220515.05202896
PART_000_R31G119B180A255,6664,23220250.0,-1089.413,3198.283,154671.0,-212.984,72236.92,23221078.366058093
PART_000_R31G119B180A255,6665,23221780.0,2100.566,4663.249,164997.1,-1088.465,70946.57,23220482.140515372
PART_000_R31G119B180A255,6666,23221350.0,-1636.374,7100.735,192000.9,-1767.573,32815.49,23221070.25267581
PART_003_R247G182B210A255,6667,18573650.0,-2374.159,-3669.286,522768.9,-1148.794,-12172.47,18598737.69851677
PART_003_R247G182B210A255,6668,18576430.0,1452.593,944.1205,466110.4,1119.628,-33337.58,18592857.377301913
PART_000_R31G119B180A255,6669,18576520.0,597.363,2081.397,435090.6,800.3798,-40755.2,18590595.286026236
PART_000_R31G119B180A255,6670,18576170.0,-85.37568,1713.073,417103.3,235.1697,-33724.45,18589491.554236993
PART_000_R31G119B180A255,6671,18576490.0,542.1176,2039.877,407187.7,196.2101,-18846.71,18588611.85921079
PART_000_R31G119B180A255,6672,18576130.0,-267.0217,1770.906,404161.0,-1.343261e-06,-0.001107705,18588563.996411346
PART_000_R31G119B180A255,6673,18576490.0,542.1176,2039.877,407187.7,-196.2101,18846.71,18588611.85921079
PART_000_R31G119B180A255,6674,18576170.0,-85.3757,1713.073,417103.3,-235.1697,33724.44,18589491.55419256
PART_000_R31G119B180A255,6675,18576520.0,597.3629,2081.397,435090.6,-800.3798,40755.2,18590595.286076203
PART_000_R31G119B180A255,6676,18576430.0,1452.592,944.1205,466110.4,-1119.628,33337.58,18592857.377801415
PART_002_R214G39B40A255,6677,18573650.0,-2374.159,-3669.287,522768.9,1148.794,12172.47,18598737.699016232
PART_003_R247G182B210A255,6678,13931950.0,-1361.175,2026.178,764228.0,122.3925,-6642.064,13994364.595581537
PART_003_R247G182B210A255,6679,13931280.0,-446.3846,-898.0591,701009.6,-1224.633,-16755.45,13984791.130985372
PART_003_R247G182B210A255,6680,13932170.0,1086.947,259.0656,657568.5,485.3513,-21367.77,13978024.483008018
PART_000_R31G119B180A255,6681,13932250.0,330.9615,1250.429,630704.8,130.154,-19071.35,13974262.621984476
PART_000_R31G119B180A255,6682,13932120.0,207.1068,976.2599,615893.4,105.5605,-10890.83,13972323.05616257
PART_000_R31G119B180A255,6683,13932330.0,363.4614,1452.065,611096.7,-2.090796e-05,-0.000775989,13971572.70886322
PART_000_R31G119B180A255,6684,13932120.0,207.1068,976.2599,615893.4,-105.5605,10890.83,13972323.05616257
PART_000_R31G119B180A255,6685,13932250.0,330.9615,1250.429,630704.8,-130.154,19071.35,13974262.621984476
PART_000_R31G119B180A255,6686,13932170.0,1086.947,259.0656,657568.5,-485.3513,21367.77,13978024.483008018
PART_002_R214G39B40A255,6687,13931280.0,-446.3845,-898.0591,701009.6,1224.633,16755.45,13984791.130935563
PART_002_R214G39B40A255,6688,13931950.0,-1361.175,2026.179,764228.0,-122.3926,6642.063,13994364.595082538
PART_003_R247G182B210A255,6689,9287115.0,-983.8565,-1154.909,932914.0,-487.4073,-3075.366,9427692.391588673
PART_003_R247G182B210A255,6690,9288017.0,-50.99494,652.2804,865939.5,39.16889,-8493.78,9408052.167931857
PART_003_R247G182B210A255,6691,9287817.0,16.34809,-25.47165,817671.8,-929.0567,-10884.36,9395198.182031062
PART_003_R247G182B210A255,6692,9288092.0,642.0003,186.5334,785365.0,143.8579,-9832.577,9386780.197752027
PART_000_R31G119B180A255,6693,9288161.0,220.1989,814.1048,767156.4,-140.822,-5811.784,9382218.113580437
PART_000_R31G119B180A255,6694,9288084.0,311.5242,493.3424,761253.2,-1.473392e-07,-0.0004888622,9380807.43927425
PART_000_R31G119B180A255,6695,9288161.0,220.1989,814.1048,767156.4,140.822,5811.783,9382218.11357858
PART_000_R31G119B180A255,6696,9288092.0,642.0003,186.5333,785365.0,-143.8579,9832.577,9386780.197801502
PART_002_R214G39B40A255,6697,9287817.0,16.34803,-25.47165,817671.8,929.0567,10884.36,9395198.182060719
PART_002_R214G39B40A255,6698,9288017.0,-50.99501,652.2803,865939.5,-39.16891,8493.779,9408052.168013059
PART_002_R214G39B40A255,6699,9287115.0,-983.8566,-1154.909,932914.0,487.4073,3075.366,9427692.39163793
PART_003_R247G182B210A255,6700,4643931.0,-446.5405,508.5225,1032769.0,-64.43357,-1354.27,4976509.712075217
PART_003_R247G182B210A255,6701,4643735.0,-200.0982,-326.1873,964427.4,-942.85,-3495.965,4935293.175041761
PART_003_R247G182B210A255,6702,4644026.0,211.1038,138.632,913527.8,-65.60819,-4584.877,4906018.298107816
PART_003_R247G182B210A255,6703,4643996.0,82.09586,179.653,878889.4,-732.7607,-4176.465,4887011.048004171
PART_003_R247G182B210A255,6704,4644044.0,296.5586,107.8772,858767.3,12.62034,-2459.764,4876241.22683863
PART_000_R31G119B180A255,6705,4644081.0,113.2205,407.3445,852242.5,-1.368215e-05,-0.0002366005,4872783.881682283
PART_000_R31G119B180A255,6706,4644044.0,296.5586,107.8772,858767.3,-12.62034,2459.764,4876241.22683863
PART_002_R214G39B40A255,6707,4643996.0,82.09587,179.6531,878889.4,732.7607,4176.465,4887011.047951908
PART_002_R214G39B40A255,6708,4644026.0,211.1039,138.6321,913527.8,65.60816,4584.877,4906018.298013159
PART_002_R214G39B40A255,6709,4643735.0,-200.0981,-326.1872,964427.4,942.85,3495.964,4935293.174945538
PART_002_R214G39B40A255,6710,4643931.0,-446.5404,508.5226,1032769.0,64.43356,1354.27,4976509.7119819
PART_003_R247G182B210A255,6711,0.005081543,-5.191422e-05,-7.695296e-05,1065912.0,-378.8082,-1.407368e-06,1846213.8569837885
PART_003_R247G182B210A255,6712,0.005066413,-8.884876e-05,4.353128e-06,997062.0,-159.4626,-1.655949e-06,1726962.0643827016
PART_003_R247G182B210A255,6713,0.005030502,-0.0002565304,-0.0001469907,945572.5,-1008.163,-4.869682e-06,1637780.5431273915
PART_003_R247G182B210A255,6714,0.005024596,-0.000301827,-7.228321e-05,910068.4,-61.84464,-3.53799e-06,1576284.7108025756
PART_003_R247G182B210A255,6715,0.004994215,-0.0004030803,-0.0002074295,889485.7,-418.8425,-2.744944e-06,1540634.5958080355
PART_003_R247G182B210A255,6716,0.005006115,-0.000387671,-0.0001019841,882690.2,3.453164e-06,-8.444696e-08,1528864.2737431338
PART_002_R214G39B40A255,6717,0.004991726,-0.0004128111,-0.0002079333,889485.7,418.8425,2.204492e-06,1540634.5958080355
PART_002_R214G39B40A255,6718,0.00501692,-0.0003164469,-7.947279e-05,910068.4,61.84464,2.502135e-06,1576284.7108025756
PART_002_R214G39B40A255,6719,0.005011295,-0.0003012101,-0.0001660324,945572.5,1008.163,4.352991e-06,1637780.5431273915
PART_002_R214G39B40A255,6720,0.005032771,-0.0001820474,-3.394544e-05,997062.0,159.4626,2.722899e-06,1726962.0643827016
PART_002_R214G39B40A255,6721,0.005042449,-0.0001699956,-0.0001204381,1065912.0,378.8082,4.493733e-08,1846213.8569837885
PART_003_R247G182B210A255,6722,-4643931.0,446.5405,-508.5227,1032769.0,-64.43357,1354.27,4976509.711981929
PART_003_R247G182B210A255,6723,-4643735.0,200.0985,326.1876,964427.4,-942.8501,3495.965,4935293.175324111
PART_003_R247G182B210A255,6724,-4644026.0,-211.1034,-138.6321,913527.8,-65.60819,4584.877,4906018.298249795
PART_003_R247G182B210A255,6725,-4643996.0,-82.09513,-179.6526,878889.4,-732.7607,4176.465,4887011.048541064
PART_003_R247G182B210A255,6726,-4644044.0,-296.5579,-107.8771,858767.3,12.62033,2459.764,4876241.227219548
PART_001_R158G218B229A255,6727,-4644081.0,-113.2196,-407.344,852242.5,-1.813598e-05,0.0002365816,4872783.88234941
PART_001_R158G218B229A255,6728,-4644044.0,-296.5579,-107.8771,858767.3,-12.62033,-2459.764,4876241.227219548
PART_002_R214G39B40A255,6729,-4643996.0,-82.0951,-179.6526,878889.4,732.7607,-4176.465,4887011.048555319
PART_002_R214G39B40A255,6730,-4644026.0,-211.1034,-138.632,913527.8,65.60816,-4584.877,4906018.298297123
PART_002_R214G39B40A255,6731,-4643735.0,200.0986,326.1876,964427.4,942.85,-3495.964,4935293.175368977
PART_002_R214G39B40A255,6732,-4643931.0,446.5406,-508.5227,1032769.0,64.43357,-1354.27,4976509.712028602
PART_003_R247G182B210A255,6733,-9287115.0,983.8563,1154.909,932914.0,-487.4074,3075.366,9427692.39149017
PART_003_R247G182B210A255,6734,-9288017.0,50.99484,-652.28,865939.5,39.1689,8493.78,9408052.168079909
PART_003_R247G182B210A255,6735,-9287817.0,-16.34872,25.47106,817671.8,-929.0567,10884.36,9395198.181428034
PART_003_R247G182B210A255,6736,-9288092.0,-642.0008,-186.5332,785365.0,143.8579,9832.577,9386780.197603635
PART_001_R158G218B229A255,6737,-9288161.0,-220.1998,-814.1055,767156.4,-140.822,5811.784,9382218.112788493
PART_001_R158G218B229A255,6738,-9288084.0,-311.5248,-493.3424,761253.2,5.4976e-06,0.0004894097,9380807.438977217
PART_001_R158G218B229A255,6739,-9288161.0,-220.1998,-814.1055,767156.4,140.822,-5811.783,9382218.112786636
PART_001_R158G218B229A255,6740,-9288092.0,-642.0009,-186.5332,785365.0,-143.8579,-9832.577,9386780.197554167
PART_002_R214G39B40A255,6741,-9287817.0,-16.34875,25.47103,817671.8,929.0567,-10884.36,9395198.181398375
PART_002_R214G39B40A255,6742,-9288017.0,50.99475,-652.2801,865939.5,-39.16891,-8493.779,9408052.167983418
PART_002_R214G39B40A255,6743,-9287115.0,983.8562,1154.909,932914.0,487.4074,-3075.366,9427692.391440911
PART_003_R247G182B210A255,6744,-13931950.0,1361.175,-2026.179,764228.0,122.3926,6642.064,13994364.595083961
PART_003_R247G182B210A255,6745,-13931280.0,446.385,898.0599,701009.6,-1224.633,16755.45,13984791.131583113
PART_003_R247G182B210A255,6746,-13932170.0,-1086.947,-259.0661,657568.5,485.3513,21367.77,13978024.482758828
PART_001_R158G218B229A255,6747,-13932250.0,-330.9605,-1250.428,630704.8,130.154,19071.35,13974262.622981414
PART_001_R158G218B229A255,6748,-13932120.0,-207.1063,-976.2603,615893.4,105.5605,10890.83,13972323.056212462
PART_001_R158G218B229A255,6749,-13932330.0,-363.4603,-1452.064,611096.7,-1.985436e-05,0.0007750384,13971572.709910206
PART_001_R158G218B229A255,6750,-13932120.0,-207.1063,-976.2603,615893.4,-105.5605,-10890.83,13972323.056212462
PART_001_R158G218B229A255,6751,-13932250.0,-330.9605,-1250.428,630704.8,-130.154,-19071.35,13974262.622981414
PART_001_R158G218B229A255,6752,-13932170.0,-1086.947,-259.0661,657568.5,-485.3513,-21367.77,13978024.482758828
PART_002_R214G39B40A255,6753,-13931280.0,446.3851,898.0599,701009.6,1224.633,-16755.45,13984791.131632922
PART_002_R214G39B40A255,6754,-13931950.0,1361.175,-2026.179,764228.0,-122.3926,-6642.063,13994364.595082538
PART_003_R247G182B210A255,6755,-18573650.0,2374.158,3669.285,522768.9,-1148.794,12172.47,18598737.697517958
PART_003_R247G182B210A255,6756,-18576430.0,-1452.592,-944.1196,466110.4,1119.628,33337.58,18592857.37825101
PART_001_R158G218B229A255,6757,-18576520.0,-597.3639,-2081.398,435090.6,800.3798,40755.2,18590595.285077035
PART_001_R158G218B229A255,6758,-18576170.0,85.3754,-1713.072,417103.3,235.1697,33724.45,18589491.554596625
PART_001_R158G218B229A255,6759,-18576490.0,-542.1188,-2039.879,407187.7,196.2101,18846.71,18588611.85761199
PART_001_R158G218B229A255,6760,-18576130.0,267.0212,-1770.905,404161.0,1.291057e-06,0.001107454,18588563.99666105
PART_001_R158G218B229A255,6761,-18576490.0,-542.1188,-2039.879,407187.7,-196.2101,-18846.71,18588611.85761199
PART_001_R158G218B229A255,6762,-18576170.0,85.37539,-1713.072,417103.3,-235.1697,-33724.44,18589491.554537203
PART_001_R158G218B229A255,6763,-18576520.0,-597.3639,-2081.398,435090.6,-800.3798,-40755.2,18590595.285077035
PART_001_R158G218B229A255,6764,-18576430.0,-1452.593,-944.1196,466110.4,-1119.628,-33337.58,18592857.377751503
PART_002_R214G39B40A255,6765,-18573650.0,2374.158,3669.285,522768.9,1148.794,-12172.47,18598737.697517958
PART_003_R247G182B210A255,6766,-23221350.0,1636.374,-7100.736,192000.9,1767.573,32815.49,23221070.252176143
PART_001_R158G218B229A255,6767,-23221780.0,-2100.565,-4663.248,164997.1,1088.465,70946.57,23220482.141515285
PART_001_R158G218B229A255,6768,-23220250.0,1089.413,-3198.284,154671.0,212.984,72236.92,23221078.36555827
PART_001_R158G218B229A255,6769,-23220800.0,-962.5418,-2841.826,147853.0,254.5199,56329.89,23220515.053201675
PART_001_R158G218B229A255,6770,-23220140.0,698.0415,-2473.846,144589.9,35.84365,30400.73,23220662.498281017
PART_001_R158G218B229A255,6771,-23220610.0,-718.9617,-2505.866,143390.7,-4.212117e-06,0.001499683,23220325.88011954
PART_001_R158G218B229A255,6772,-23220140.0,698.0415,-2473.846,144589.9,-35.84365,-30400.72,23220662.49824174
PART_001_R158G218B229A255,6773,-23220800.0,-962.5418,-2841.826,147853.0,-254.5199,-56329.88,23220515.0531289
PART_001_R158G218B229A255,6774,-23220250.0,1089.413,-3198.284,154671.0,-212.984,-72236.92,23221078.36555827
PART_001_R158G218B229A255,6775,-23221780.0,-2100.565,-4663.248,164997.1,-1088.465,-70946.57,23220482.141515285
PART_001_R158G218B229A255,6776,-23221350.0,1636.374,-7100.736,192000.9,-1767.573,-32815.49,23221070.252176143
PART_003_R247G182B210A255,6777,22903250.0,-1609.266,7015.986,192001.2,1743.524,-32815.54,22903033.102366004
PART_000_R31G119B180A255,6778,22903670.0,2067.275,4587.256,164996.9,1073.457,-70946.43,22902455.713220865
PART_000_R31G119B180A255,6779,22902160.0,-1070.004,3166.356,154671.1,210.1297,-72237.08,22903020.77025173
PART_000_R31G119B180A255,6780,22902710.0,944.6935,2791.082,147852.9,250.9954,-56329.75,22902481.80347236
PART_000_R31G119B180A255,6781,22902050.0,-683.8625,2451.693,144589.9,35.37043,-30400.8,22902596.07036517
PART_000_R31G119B180A255,6782,22902520.0,704.387,2459.789,143390.7,-2.708276e-07,-0.001493689,22902284.651075654
PART_000_R31G119B180A255,6783,22902050.0,-683.8626,2451.693,144589.9,-35.37044,30400.8,22902596.070415173
PART_000_R31G119B180A255,6784,22902710.0,944.6935,2791.082,147852.9,-250.9955,56329.75,22902481.80347236
PART_000_R31G119B180A255,6785,22902160.0,-1070.004,3166.356,154671.1,-210.1297,72237.08,22903020.77025173
PART_000_R31G119B180A255,6786,22903670.0,2067.275,4587.256,164996.9,-1073.457,70946.43,22902455.713220865
PART_000_R31G119B180A255,6787,22903250.0,-1609.266,7015.986,192001.2,-1743.524,32815.54,22903033.102366004
PART_003_R247G182B210A255,6788,18319210.0,-2338.225,-3608.217,522768.6,-1133.099,-12172.55,18344555.284488425
PART_003_R247G182B210A255,6789,18321950.0,1428.877,920.5375,466110.5,1104.292,-33337.43,18338645.596853
PART_000_R31G119B180A255,6790,18322050.0,593.2279,2063.432,435090.6,789.4188,-40755.36,18336350.250004556
PART_000_R31G119B180A255,6791,18321700.0,-88.23369,1679.166,417103.3,231.9446,-33724.32,18335236.10211563
PART_000_R31G119B180A255,6792,18322020.0,538.8592,2022.364,407187.7,193.5244,-18846.78,18334338.400200296
PART_000_R31G119B180A255,6793,18321660.0,-267.4545,1736.256,404161.0,-1.925395e-06,-0.001103966,18334294.53690975
PART_000_R31G119B180A255,6794,18322020.0,538.8593,2022.364,407187.7,-193.5245,18846.78,18334338.40015033
PART_000_R31G119B180A255,6795,18321700.0,-88.23367,1679.166,417103.3,-231.9446,33724.31,18335236.102050457
PART_000_R31G119B180A255,6796,18322050.0,593.228,2063.432,435090.6,-789.4188,40755.36,18336350.249954592
PART_000_R31G119B180A255,6797,18321950.0,1428.877,920.5375,466110.5,-1104.292,33337.42,18338645.59679846
PART_002_R214G39B40A255,6798,18319210.0,-2338.225,-3608.217,522768.6,1133.099,12172.55,18344555.284488425
PART_003_R247G182B210A255,6799,13741100.0,-1339.359,2007.133,764228.1,120.7372,-6642.098,13804380.751560152
PART_003_R247G182B210A255,6800,13740440.0,-443.3528,-894.191,701009.7,-1207.848,-16755.34,13794678.714383189
PART_003_R247G182B210A255,6801,13741320.0,1075.136,263.7974,657568.5,478.6954,-21367.89,13787822.054848766
PART_000_R31G119B180A255,6802,13741400.0,323.1978,1225.061,630704.8,128.376,-19071.25,13784021.791451868
PART_000_R31G119B180A255,6803,13741270.0,207.4587,971.0707,615893.4,104.112,-10890.88,13782040.393700134
PART_000_R31G119B180A255,6804,13741470.0,355.2004,1423.976,611096.7,-1.652746e-05,-0.0007743774,13781286.893469183
PART_000_R31G119B180A255,6805,13741270.0,207.4587,971.0706,615893.4,-104.112,10890.88,13782040.39374998
PART_000_R31G119B180A255,6806,13741400.0,323.1977,1225.061,630704.8,-128.376,19071.25,13784021.791501714
PART_000_R31G119B180A255,6807,13741320.0,1075.136,263.7974,657568.4,-478.6954,21367.89,13787822.040541174
PART_002_R214G39B40A255,6808,13740440.0,-443.3529,-894.191,701009.7,1207.848,16755.34,13794678.714432992
PART_002_R214G39B40A255,6809,13741100.0,-1339.359,2007.133,764228.1,-120.7372,6642.098,13804380.751560152
PART_003_R247G182B210A255,6810,9159894.0,-968.5174,-1133.289,932913.7,-480.747,-3075.405,9302361.233712234
PART_003_R247G182B210A255,6811,9160783.0,-52.3561,637.6316,865939.5,38.62516,-8493.703,9282475.646096027
PART_003_R247G182B210A255,6812,9160588.0,18.30019,-19.46666,817671.8,-916.3288,-10884.44,9269439.176238693
PART_003_R247G182B210A255,6813,9160857.0,631.0561,178.3844,785365.0,141.8877,-9832.512,9260916.302840058
PART_000_R31G119B180A255,6814,9160927.0,219.414,808.5405,767156.4,-138.8935,-5811.82,9256287.334751582
PART_000_R31G119B180A255,6815,9160849.0,305.0766,481.0198,761253.3,5.48251e-06,-0.0004877715,9254862.129084783
PART_000_R31G119B180A255,6816,9160927.0,219.4141,808.5405,767156.4,138.8934,5811.819,9256287.334700208
PART_000_R31G119B180A255,6817,9160857.0,631.0561,178.3844,785365.0,-141.8877,9832.511,9260916.302836873
PART_002_R214G39B40A255,6818,9160588.0,18.30024,-19.46662,817671.8,916.3288,10884.44,9269439.17619422
PART_002_R214G39B40A255,6819,9160783.0,-52.35598,637.6316,865939.5,-38.62517,8493.703,9282475.646036807
PART_002_R214G39B40A255,6820,9159894.0,-968.5173,-1133.289,932913.7,480.747,3075.404,9302361.233662002
PART_003_R247G182B210A255,6821,4580315.0,-439.3482,504.5351,1032769.0,-63.53886,-1354.282,4917197.22284677
PART_003_R247G182B210A255,6822,4580122.0,-198.4085,-324.6043,964427.5,-929.9235,-3495.928,4875480.852667236
PART_003_R247G182B210A255,6823,4580409.0,209.2622,139.5663,913527.7,-64.71328,-4584.919,4845844.664984178
PART_003_R247G182B210A255,6824,4580379.0,79.86365,174.3713,878889.4,-722.721,-4176.431,4826603.458030738
PART_003_R247G182B210A255,6825,4580427.0,293.5854,109.2009,858767.3,12.44664,-2459.783,4815696.067429145
PART_000_R31G119B180A255,6826,4580463.0,110.5436,398.9571,852242.5,-1.385502e-05,-0.0002352668,4812199.030481535
PART_000_R31G119B180A255,6827,4580427.0,293.5854,109.2009,858767.3,-12.44664,2459.783,4815696.067429145
PART_002_R214G39B40A255,6828,4580379.0,79.86362,174.3713,878889.4,722.721,4176.431,4826603.458044973
PART_002_R214G39B40A255,6829,4580409.0,209.2621,139.5663,913527.7,64.71326,4584.919,4845844.665031435
PART_002_R214G39B40A255,6830,4580122.0,-198.4086,-324.6043,964427.5,929.9235,3495.928,4875480.852714207
PART_002_R214G39B40A255,6831,4580315.0,-439.3483,504.5351,1032769.0,63.53885,1354.282,4917197.222893358
PART_003_R247G182B210A255,6832,0.005013937,6.265998e-05,7.437988e-05,1065912.0,-373.6319,-8.666484e-08,1846213.8538193211
PART_003_R247G182B210A255,6833,0.005036436,0.000127836,-2.144263e-05,997062.1,-157.2852,-5.186962e-06,1726962.236988734
PART_003_R247G182B210A255,6834,0.005083554,0.0003168082,0.0001890981,945572.5,-994.353,-6.329298e-06,1637780.5177991388
PART_003_R247G182B210A255,6835,0.005085664,0.0003791938,9.343358e-05,910068.5,-60.99568,-6.007871e-06,1576284.8839084161
PART_003_R247G182B210A255,6836,0.005115052,0.0004950949,0.0002548259,889485.7,-413.1061,-2.761829e-06,1540634.5911615186
PART_003_R247G182B210A255,6837,0.005098218,0.0004656501,0.000130917,882690.3,-1.402636e-06,1.937967e-06,1528864.4469482147
PART_002_R214G39B40A255,6838,0.005117637,0.0005083451,0.0002600114,889485.7,413.1061,1.76165e-06,1540634.5911615186
PART_002_R214G39B40A255,6839,0.005082974,0.000399945,0.0001030746,910068.5,60.99567,6.064243e-06,1576284.883908415
PART_002_R214G39B40A255,6840,0.005082857,0.0003660749,0.0002036755,945572.5,994.353,5.024733e-06,1637780.5177991388
PART_002_R214G39B40A255,6841,0.005045565,0.0002235184,1.945787e-05,997062.1,157.2852,5.042521e-06,1726962.236988734
PART_002_R214G39B40A255,6842,0.005022795,0.0001829624,0.0001253943,1065912.0,373.6318,2.106749e-06,1846213.8538192606
PART_003_R247G182B210A255,6843,-4580315.0,439.3482,-504.5349,1032769.0,-63.53887,1354.282,4917197.22293989
PART_003_R247G182B210A255,6844,-4580122.0,198.4081,324.6039,964427.5,-929.9235,3495.928,4875480.852291446
PART_003_R247G182B210A255,6845,-4580409.0,-209.2627,-139.5663,913527.7,-64.71328,4584.919,4845844.664747886
PART_003_R247G182B210A255,6846,-4580379.0,-79.86454,-174.3718,878889.4,-722.721,4176.431,4826603.457371206
PART_003_R247G182B210A255,6847,-4580427.0,-293.5862,-109.2011,858767.3,12.44664,2459.783,4815696.066953611
PART_001_R158G218B229A255,6848,-4580463.0,-110.5447,-398.9577,852242.5,-1.742616e-05,0.0002354931,4812199.0296724895
PART_001_R158G218B229A255,6849,-4580427.0,-293.5863,-109.2011,858767.3,-12.44663,-2459.783,4815696.066906058
PART_002_R214G39B40A255,6850,-4580379.0,-79.86455,-174.3718,878889.4,722.721,-4176.431,4826603.457366461
PART_002_R214G39B40A255,6851,-4580409.0,-209.2627,-139.5664,913527.7,64.71326,-4584.919,4845844.6647006245
PART_002_R214G39B40A255,6852,-4580122.0,198.408,324.6039,964427.5,929.9235,-3495.928,4875480.852244475
PART_002_R214G39B40A255,6853,-4580315.0,439.3481,-504.535,1032769.0,63.53886,-1354.282,4917197.222846741
PART_003_R247G182B210A255,6854,-9159894.0,968.5177,1133.289,932913.7,-480.747,3075.405,9302361.233859949
PART_003_R247G182B210A255,6855,-9160783.0,52.35619,-637.6319,865939.5,38.62517,8493.703,9282475.645992428
PART_003_R247G182B210A255,6856,-9160588.0,-18.29942,19.46739,817671.8,-916.3288,10884.44,9269439.176979885
PART_003_R247G182B210A255,6857,-9160857.0,-631.0554,-178.3846,785365.0,141.8877,9832.512,9260916.303087313
PART_001_R158G218B229A255,6858,-9160927.0,-219.4129,-808.5396,767156.4,-138.8935,5811.82,9256287.335741233
PART_001_R158G218B229A255,6859,-9160849.0,-305.0758,-481.0199,761253.3,4.710373e-06,0.0004850751,9254862.129431227
PART_001_R158G218B229A255,6860,-9160927.0,-219.4129,-808.5396,767156.4,138.8934,-5811.819,9256287.335739346
PART_001_R158G218B229A255,6861,-9160857.0,-631.0554,-178.3846,785365.0,-141.8877,-9832.511,9260916.303084128
PART_002_R214G39B40A255,6862,-9160588.0,-18.29935,19.46739,817671.8,916.3288,-10884.44,9269439.177014474
PART_002_R214G39B40A255,6863,-9160783.0,52.35629,-637.6319,865939.5,-38.62517,-8493.703,9282475.646041775
PART_002_R214G39B40A255,6864,-9159894.0,968.5178,1133.289,932913.7,480.747,-3075.404,9302361.233908195
PART_003_R247G182B210A255,6865,-13741100.0,1339.36,-2007.132,764228.1,120.7372,6642.098,13804380.752555544
PART_003_R247G182B210A255,6866,-13740440.0,443.3522,894.19,701009.7,-1207.848,16755.34,13794678.713586286
PART_003_R247G182B210A255,6867,-13741320.0,-1075.137,-263.7968,657568.5,478.6954,21367.89,13787822.05464952
PART_001_R158G218B229A255,6868,-13741400.0,-323.1989,-1225.062,630704.8,128.376,19071.25,13784021.79040517
PART_001_R158G218B229A255,6869,-13741270.0,-207.4593,-971.0702,615893.4,104.112,10890.88,13782040.393650237
PART_001_R158G218B229A255,6870,-13741470.0,-355.2017,-1423.977,611096.7,-2.043405e-05,0.0007724096,13781286.892322563
PART_001_R158G218B229A255,6871,-13741270.0,-207.4593,-971.0701,615893.4,-104.112,-10890.88,13782040.393700084
PART_001_R158G218B229A255,6872,-13741400.0,-323.1989,-1225.062,630704.8,-128.376,-19071.25,13784021.79040517
PART_001_R158G218B229A255,6873,-13741320.0,-1075.137,-263.7968,657568.5,-478.6954,-21367.89,13787822.05464952
PART_002_R214G39B40A255,6874,-13740440.0,443.3521,894.1899,701009.7,1207.848,-16755.34,13794678.713486675
PART_002_R214G39B40A255,6875,-13741100.0,1339.359,-2007.132,764228.1,-120.7372,-6642.098,13804380.752057666
PART_003_R247G182B210A255,6876,-18319210.0,2338.226,3608.218,522768.6,-1133.099,12172.55,18344555.2854872
PART_003_R247G182B210A255,6877,-18321950.0,-1428.877,-920.5386,466110.5,1104.292,33337.43,18338645.59630351
PART_001_R158G218B229A255,6878,-18322050.0,-593.2269,-2063.431,435090.6,789.4188,40755.36,18336350.2510037
PART_001_R158G218B229A255,6879,-18321700.0,88.23404,-1679.167,417103.3,231.9446,33724.32,18335236.101790983
PART_001_R158G218B229A255,6880,-18322020.0,-538.8578,-2022.362,407187.7,193.5244,18846.78,18334338.401899
PART_001_R158G218B229A255,6881,-18321660.0,267.455,-1736.257,404161.0,-2.593749e-06,0.001103968,18334294.536660057
PART_001_R158G218B229A255,6882,-18322020.0,-538.8578,-2022.362,407187.7,-193.5245,-18846.78,18334338.401899002
PART_001_R158G218B229A255,6883,-18321700.0,88.23408,-1679.167,417103.3,-231.9446,-33724.31,18335236.101755794
PART_001_R158G218B229A255,6884,-18322050.0,-593.2268,-2063.431,435090.6,-789.4188,-40755.36,18336350.251053665
PART_001_R158G218B229A255,6885,-18321950.0,-1428.877,-920.5386,466110.5,-1104.292,-33337.42,18338645.596248977
PART_002_R214G39B40A255,6886,-18319210.0,2338.226,3608.218,522768.6,1133.099,-12172.55,18344555.2854872
PART_003_R247G182B210A255,6887,-22903250.0,1609.266,-7015.984,192001.2,1743.524,32815.54,22903033.10336533
PART_001_R158G218B229A255,6888,-22903670.0,-2067.276,-4587.257,164996.9,1073.457,70946.43,22902455.712220956
PART_001_R158G218B229A255,6889,-22902160.0,1070.004,-3166.355,154671.1,210.1297,72237.08,22903020.770751547
PART_001_R158G218B229A255,6890,-22902710.0,-944.6949,-2791.084,147852.9,250.9954,56329.75,22902481.801772516
PART_001_R158G218B229A255,6891,-22902050.0,683.8621,-2451.692,144589.9,35.37043,30400.8,22902596.070665006
PART_001_R158G218B229A255,6892,-22902520.0,-704.3886,-2459.791,143390.7,-5.423507e-06,0.001491354,22902284.649275783
PART_001_R158G218B229A255,6893,-22902050.0,683.8621,-2451.692,144589.9,-35.37043,-30400.8,22902596.070665006
PART_001_R158G218B229A255,6894,-22902710.0,-944.695,-2791.084,147852.9,-250.9955,-56329.75,22902481.801722515
PART_001_R158G218B229A255,6895,-22902160.0,1070.004,-3166.355,154671.1,-210.1297,-72237.08,22903020.770751547
PART_001_R158G218B229A255,6896,-22903670.0,-2067.276,-4587.257,164996.9,-1073.457,-70946.43,22902455.712220956
PART_001_R158G218B229A255,6897,-22903250.0,1609.266,-7015.984,192001.2,-1743.524,-32815.54,22903033.10336533
PART_003_R247G182B210A255,6898,22585150.0,-1590.75,6908.321,192000.9,1719.174,-32815.5,22585012.643415246
PART_000_R31G119B180A255,6899,22585560.0,2042.242,4533.428,164997.1,1058.628,-70946.54,22584414.903077707
PART_000_R31G119B180A255,6900,22584080.0,-1058.809,3112.677,154671.0,207.1596,-72236.95,22584988.883040164
PART_000_R31G119B180A255,6901,22584620.0,935.3733,2761.958,147853.0,247.5403,-56329.86,22584434.119850937
PART_000_R31G119B180A255,6902,22583970.0,-678.1375,2408.063,144589.9,34.86466,-30400.74,22584555.15619273
PART_000_R31G119B180A255,6903,22584430.0,698.456,2435.214,143390.7,-2.078173e-06,-0.00149318,22584228.8703843
PART_000_R31G119B180A255,6904,22583970.0,-678.1375,2408.063,144589.9,-34.86466,30400.74,22584555.15619273
PART_000_R31G119B180A255,6905,22584620.0,935.3733,2761.958,147853.0,-247.5403,56329.86,22584434.119850937
PART_000_R31G119B180A255,6906,22584080.0,-1058.809,3112.677,154671.0,-207.1596,72236.95,22584988.883040164
PART_000_R31G119B180A255,6907,22585560.0,2042.243,4533.428,164997.1,-1058.628,70946.54,22584414.902577672
PART_000_R31G119B180A255,6908,22585150.0,-1590.75,6908.321,192000.9,-1719.174,32815.5,22585012.643415246
PART_003_R247G182B210A255,6909,18064780.0,-2308.53,-3566.925,522768.8,-1117.327,-12172.49,18090404.500089098
PART_003_R247G182B210A255,6910,18067480.0,1412.154,916.4511,466110.4,1088.954,-33337.55,18084437.439781375
PART_000_R31G119B180A255,6911,18067580.0,581.6889,2026.162,435090.6,778.4521,-40755.23,18082124.572119277
PART_000_R31G119B180A255,6912,18067240.0,-83.71339,1664.372,417103.3,228.7261,-33724.42,18080982.92822268
PART_000_R31G119B180A255,6913,18067550.0,527.9774,1985.76,407187.7,190.8348,-18846.73,18080083.525137484
PART_000_R31G119B180A255,6914,18067200.0,-260.3935,1720.629,404161.0,-1.397961e-06,-0.001104881,18080026.971532617
PART_000_R31G119B180A255,6915,18067550.0,527.9774,1985.76,407187.7,-190.8348,18846.72,18080083.52510621
PART_000_R31G119B180A255,6916,18067240.0,-83.71342,1664.372,417103.3,-228.7261,33724.42,18080982.928237665
PART_000_R31G119B180A255,6917,18067580.0,581.6888,2026.162,435090.6,-778.4521,40755.23,18082124.57216924
PART_000_R31G119B180A255,6918,18067480.0,1412.154,916.451,466110.4,-1088.954,33337.55,18084437.439831324
PART_002_R214G39B40A255,6919,18064780.0,-2308.53,-3566.925,522768.8,1117.327,12172.49,18090404.500089098
PART_003_R247G182B210A255,6920,13550250.0,-1323.352,1972.135,764228.0,119.043,-6642.07,13614431.969157118
PART_003_R247G182B210A255,6921,13549600.0,-434.6795,-874.8797,701009.6,-1191.08,-16755.43,13604576.237597385
PART_003_R247G182B210A255,6922,13550470.0,1057.683,253.3639,657568.5,472.0528,-21367.79,13597648.040986633
PART_000_R31G119B180A255,6923,13550540.0,321.3446,1214.779,630704.8,126.589,-19071.33,13593777.142688794
PART_000_R31G119B180A255,6924,13550420.0,201.9665,950.8928,615893.4,102.6681,-10890.84,13591783.95593911
PART_000_R31G119B180A255,6925,13550620.0,352.9453,1410.897,611096.7,-1.71581e-05,-0.0007739623,13591016.164184954
PART_000_R31G119B180A255,6926,13550420.0,201.9665,950.8928,615893.4,-102.668,10890.84,13591783.955939109
PART_000_R31G119B180A255,6927,13550540.0,321.3446,1214.779,630704.8,-126.589,19071.33,13593777.142688794
PART_000_R31G119B180A255,6928,13550470.0,1057.683,253.3639,657568.5,-472.0528,21367.79,13597648.040986633
PART_002_R214G39B40A255,6929,13549600.0,-434.6794,-874.8796,701009.6,1191.08,16755.43,13604576.237497784
PART_002_R214G39B40A255,6930,13550250.0,-1323.352,1972.135,764228.0,-119.043,6642.07,13614431.969157118
PART_003_R247G182B210A255,6931,9032673.0,-956.5859,-1122.291,932913.9,-474.0565,-3075.373,9177089.654328624
PART_003_R247G182B210A255,6932,9033550.0,-49.94153,633.4494,865939.5,38.09455,-8493.766,9156938.624883626
PART_003_R247G182B210A255,6933,9033357.0,16.26913,-23.82112,817671.8,-903.6029,-10884.38,9143726.061443152
PART_003_R247G182B210A255,6934,9033623.0,624.0524,180.4827,785365.0,139.9167,-9832.566,9135084.104440285
PART_000_R31G119B180A255,6935,9033691.0,214.5442,792.7417,767156.4,-136.964,-5811.791,9130397.70719252
PART_000_R31G119B180A255,6936,9033616.0,302.6252,478.8909,761253.2,9.133735e-06,-0.0004882501,9128947.233861938
PART_000_R31G119B180A255,6937,9033691.0,214.5442,792.7417,767156.4,136.964,5811.79,9130397.707190609
PART_000_R31G119B180A255,6938,9033623.0,624.0523,180.4826,785365.0,-139.9167,9832.565,9135084.104535941
PART_002_R214G39B40A255,6939,9033357.0,16.26905,-23.82112,817671.8,903.6029,10884.38,9143726.061482668
PART_002_R214G39B40A255,6940,9033550.0,-49.94165,633.4493,865939.5,-38.09456,8493.765,9156938.624989359
PART_002_R214G39B40A255,6941,9032673.0,-956.586,-1122.291,932913.9,474.0565,3075.373,9177089.654377842
PART_003_R247G182B210A255,6942,4516700.0,-434.1272,495.0906,1032769.0,-62.66612,-1354.272,4857998.056931139
PART_003_R247G182B210A255,6943,4516510.0,-194.7943,-317.7361,964427.5,-917.0167,-3495.958,4815763.480693318
PART_003_R247G182B210A255,6944,4516792.0,205.4951,135.3097,913527.8,-63.81132,-4584.885,4785763.56075463
PART_003_R247G182B210A255,6945,4516763.0,79.65908,174.2565,878889.4,-712.6848,-4176.459,4766276.820431982
PART_003_R247G182B210A255,6946,4516810.0,288.6154,105.3921,858767.3,12.27445,-2459.768,4755234.480185828
PART_000_R31G119B180A255,6947,4516846.0,109.928,395.7122,852242.5,-9.039692e-06,-0.0002350446,4751690.841205097
PART_000_R31G119B180A255,6948,4516810.0,288.6154,105.3921,858767.3,-12.27444,2459.767,4755234.480184277
PART_002_R214G39B40A255,6949,4516763.0,79.65911,174.2565,878889.4,712.6847,4176.459,4766276.820417723
PART_002_R214G39B40A255,6950,4516792.0,205.4952,135.3097,913527.8,63.8113,4584.884,4785763.5607045675
PART_002_R214G39B40A255,6951,4516510.0,-194.7942,-317.736,964427.5,917.0167,3495.958,4815763.480599526
PART_002_R214G39B40A255,6952,4516700.0,-434.1271,495.0906,1032769.0,62.66612,1354.272,4857998.056884638
PART_003_R247G182B210A255,6953,0.004945025,-7.527589e-05,-0.0001024847,1065912.0,-368.4321,-9.226864e-07,1846213.8506843233
PART_003_R247G182B210A255,6954,0.004920417,-0.0001337512,3.977732e-06,997062.0,-155.095,-1.725183e-06,1726962.0631893964
PART_003_R247G182B210A255,6955,0.00486545,-0.0003785451,-0.0002133231,945572.5,-980.542,-3.507095e-06,1637780.4928184336
PART_003_R247G182B210A255,6956,0.004851427,-0.0004660827,-0.0001172003,910068.4,-60.14996,-4.399333e-06,1576284.710605839
PART_003_R247G182B210A255,6957,0.004814295,-0.0006084225,-0.0003053366,889485.7,-407.3676,-2.118541e-06,1540634.5865774124
PART_003_R247G182B210A255,6958,0.004826781,-0.000582692,-0.0001618416,882690.2,7.788975e-06,-1.669658e-07,1528864.2737431338
PART_002_R214G39B40A255,6959,0.004803958,-0.0006175777,-0.0003124399,889485.7,407.3676,1.935582e-06,1540634.5865774124
PART_002_R214G39B40A255,6960,0.004840855,-0.0004957992,-0.0001274999,910068.4,60.14996,3.432423e-06,1576284.710605839
PART_002_R214G39B40A255,6961,0.004847808,-0.0004371871,-0.0002394422,945572.5,980.542,4.332841e-06,1637780.4928184336
PART_002_R214G39B40A255,6962,0.004877459,-0.0002704815,-4.799907e-05,997062.0,155.095,2.295638e-06,1726962.0631893964
PART_002_R214G39B40A255,6963,0.00489415,-0.0002419554,-0.0001666489,1065912.0,368.4321,3.17459e-07,1846213.8506843233
PART_003_R247G182B210A255,6964,-4516700.0,434.1272,-495.0909,1032769.0,-62.66613,1354.272,4857998.056791722
PART_003_R247G182B210A255,6965,-4516510.0,194.7948,317.7365,964427.5,-917.0167,3495.958,4815763.481115377
PART_003_R247G182B210A255,6966,-4516792.0,-205.4946,-135.3097,913527.8,-63.81131,4584.885,4785763.5609905645
PART_003_R247G182B210A255,6967,-4516763.0,-79.65799,-174.2559,878889.4,-712.6848,4176.459,4766276.821232731
PART_003_R247G182B210A255,6968,-4516810.0,-288.6143,-105.3919,858767.3,12.27445,2459.768,4755234.480803185
PART_001_R158G218B229A255,6969,-4516846.0,-109.9267,-395.7114,852242.5,-7.260075e-06,0.0002366468,4751690.842203169
PART_001_R158G218B229A255,6970,-4516810.0,-288.6143,-105.3919,858767.3,-12.27445,-2459.767,4755234.480801633
PART_002_R214G39B40A255,6971,-4516763.0,-79.65795,-174.2559,878889.4,712.6847,-4176.459,4766276.821251639
PART_002_R214G39B40A255,6972,-4516792.0,-205.4945,-135.3096,913527.8,63.8113,-4584.884,4785763.561082066
PART_002_R214G39B40A255,6973,-4516510.0,194.7949,317.7365,964427.5,917.0167,-3495.958,4815763.4811622705
PART_002_R214G39B40A255,6974,-4516700.0,434.1274,-495.0908,1032769.0,62.66613,-1354.272,4857998.056931197
PART_003_R247G182B210A255,6975,-9032673.0,956.5856,1122.291,932913.9,-474.0565,3075.373,9177089.654180972
PART_003_R247G182B210A255,6976,-9033550.0,49.94137,-633.4489,865939.5,38.09455,8493.766,9156938.625051292
PART_003_R247G182B210A255,6977,-9033357.0,-16.27006,23.82025,817671.8,-903.6029,10884.38,9143726.060554016
PART_003_R247G182B210A255,6978,-9033623.0,-624.0531,-180.4825,785365.0,139.9167,9832.566,9135084.104193104
PART_001_R158G218B229A255,6979,-9033691.0,-214.5456,-792.7427,767156.4,-136.964,5811.791,9130397.706005275
PART_001_R158G218B229A255,6980,-9033616.0,-302.6262,-478.8908,761253.2,7.894771e-06,0.0004891335,9128947.233416641
PART_001_R158G218B229A255,6981,-9033691.0,-214.5456,-792.7427,767156.4,136.964,-5811.79,9130397.706003366
PART_001_R158G218B229A255,6982,-9033623.0,-624.0532,-180.4824,785365.0,-139.9167,-9832.565,9135084.104189882
PART_002_R214G39B40A255,6983,-9033357.0,-16.27011,23.8202,817671.8,903.6029,-10884.38,9143726.060504619
PART_002_R214G39B40A255,6984,-9033550.0,49.94125,-633.449,865939.5,-38.09456,-8493.765,9156938.624939995
PART_002_R214G39B40A255,6985,-9032673.0,956.5854,1122.291,932913.9,474.0565,-3075.373,9177089.654082537
PART_003_R247G182B210A255,6986,-13550250.0,1323.352,-1972.136,764228.0,119.043,6642.07,13614431.96865967
PART_003_R247G182B210A255,6987,-13549600.0,434.6803,874.8809,701009.6,-1191.08,16755.43,13604576.238593401
PART_003_R247G182B210A255,6988,-13550470.0,-1057.683,-253.3647,657568.5,472.0528,21367.79,13597648.040588005
PART_001_R158G218B229A255,6989,-13550540.0,-321.3432,-1214.777,630704.8,126.589,19071.33,13593777.144383261
PART_001_R158G218B229A255,6990,-13550420.0,-201.9657,-950.8934,615893.4,102.6681,10890.84,13591783.956038859
PART_001_R158G218B229A255,6991,-13550620.0,-352.9437,-1410.896,611096.7,-1.798532e-05,0.0007735566,13591016.16548104
PART_001_R158G218B229A255,6992,-13550420.0,-201.9657,-950.8934,615893.4,-102.668,-10890.84,13591783.956038855
PART_001_R158G218B229A255,6993,-13550540.0,-321.3432,-1214.777,630704.8,-126.589,-19071.33,13593777.144383261
PART_001_R158G218B229A255,6994,-13550470.0,-1057.682,-253.3647,657568.5,-472.0528,-21367.79,13597648.0410862
PART_002_R214G39B40A255,6995,-13549600.0,434.6804,874.8809,701009.6,1191.08,-16755.43,13604576.2386432
PART_002_R214G39B40A255,6996,-13550250.0,1323.352,-1972.136,764228.0,-119.043,-6642.07,13614431.96865967
PART_003_R247G182B210A255,6997,-18064780.0,2308.529,3566.923,522768.8,-1117.327,12172.49,18090404.498590928
PART_003_R247G182B210A255,6998,-18067480.0,-1412.154,-916.4497,466110.4,1088.954,33337.55,18084437.4404807
PART_001_R158G218B229A255,6999,-18067580.0,-581.6902,-2026.164,435090.6,778.4521,40755.23,18082124.570470765
PART_001_R158G218B229A255,7000,-18067240.0,83.71296,-1664.371,417103.3,228.7261,33724.42,18080982.928507347
PART_001_R158G218B229A255,7001,-18067550.0,-527.9792,-1985.762,407187.7,190.8348,18846.73,18080083.523238942
PART_001_R158G218B229A255,7002,-18067200.0,260.3928,-1720.628,404161.0,-1.731335e-06,0.001103819,18080026.971682366
PART_001_R158G218B229A255,7003,-18067550.0,-527.9792,-1985.762,407187.7,-190.8348,-18846.72,18080083.523207672
PART_001_R158G218B229A255,7004,-18067240.0,83.71295,-1664.371,417103.3,-228.7261,-33724.42,18080982.928502347
PART_001_R158G218B229A255,7005,-18067580.0,-581.6903,-2026.164,435090.6,-778.4521,-40755.23,18082124.570420805
PART_001_R158G218B229A255,7006,-18067480.0,-1412.154,-916.4497,466110.4,-1088.954,-33337.55,18084437.4404807
PART_002_R214G39B40A255,7007,-18064780.0,2308.529,3566.923,522768.8,1117.327,-12172.49,18090404.498590928
PART_003_R247G182B210A255,7008,-22585150.0,1590.749,-6908.322,192000.9,1719.174,32815.5,22585012.64241536
PART_001_R158G218B229A255,7009,-22585560.0,-2042.241,-4533.426,164997.1,1058.628,70946.54,22584414.904577482
PART_001_R158G218B229A255,7010,-22584080.0,1058.809,-3112.679,154671.0,207.1596,72236.95,22584988.882040527
PART_001_R158G218B229A255,7011,-22584620.0,-935.3715,-2761.956,147853.0,247.5403,56329.86,22584434.121750787
PART_001_R158G218B229A255,7012,-22583970.0,678.1381,-2408.064,144589.9,34.86466,30400.74,22584555.15599291
PART_001_R158G218B229A255,7013,-22584430.0,-698.454,-2435.212,143390.7,-6.385425e-06,0.001490226,22584228.872384176
PART_001_R158G218B229A255,7014,-22583970.0,678.1381,-2408.064,144589.9,-34.86466,-30400.74,22584555.15599291
PART_001_R158G218B229A255,7015,-22584620.0,-935.3715,-2761.956,147853.0,-247.5403,-56329.86,22584434.121750787
PART_001_R158G218B229A255,7016,-22584080.0,1058.81,-3112.679,154671.0,-207.1596,-72236.95,22584988.88254062
PART_001_R158G218B229A255,7017,-22585560.0,-2042.241,-4533.426,164997.1,-1058.628,-70946.54,22584414.904577482
PART_001_R158G218B229A255,7018,-22585150.0,1590.749,-6908.322,192000.9,-1719.174,-32815.5,22585012.64241536
PART_003_R247G182B210A255,7019,22267050.0,-1565.21,6819.364,192001.2,1695.07,-32815.53,22266980.338591885
PART_000_R31G119B180A255,7020,22267460.0,2010.481,4461.513,164997.0,1043.653,-70946.45,22266397.338936407
PART_000_R31G119B180A255,7021,22265990.0,-1040.899,3076.757,154671.1,204.2841,-72237.06,22266935.536574453
PART_000_R31G119B180A255,7022,22266520.0,919.1025,2715.191,147852.9,244.0286,-56329.77,22266389.386487857
PART_000_R31G119B180A255,7023,22265890.0,-665.502,2381.966,144589.9,34.38547,-30400.79,22266502.597860675
PART_000_R31G119B180A255,7024,22266340.0,685.4799,2393.092,143390.7,-3.715354e-07,-0.001485319,22266185.92623926
PART_000_R31G119B180A255,7025,22265890.0,-665.502,2381.966,144589.9,-34.38547,30400.79,22266502.597860675
PART_000_R31G119B180A255,7026,22266520.0,919.1025,2715.191,147852.9,-244.0286,56329.77,22266389.386487857
PART_000_R31G119B180A255,7027,22265990.0,-1040.899,3076.756,154671.1,-204.284,72237.05,22266935.53697694
PART_000_R31G119B180A255,7028,22267460.0,2010.481,4461.513,164997.0,-1043.653,70946.45,22266397.338936407
PART_000_R31G119B180A255,7029,22267050.0,-1565.21,6819.364,192001.2,-1695.07,32815.53,22266980.338591885
PART_003_R247G182B210A255,7030,17810350.0,-2273.749,-3509.484,522768.6,-1101.618,-12172.54,17836252.0506244
PART_003_R247G182B210A255,7031,17813010.0,1389.71,896.4379,466110.5,1073.617,-33337.45,17830247.283285514
PART_000_R31G119B180A255,7032,17813110.0,576.1866,2004.655,435090.6,767.4901,-40755.34,17827894.281247232
PART_000_R31G119B180A255,7033,17812770.0,-85.22899,1633.964,417103.3,225.5022,-33724.34,17826736.332352903
PART_000_R31G119B180A255,7034,17813080.0,523.3117,1964.744,407187.7,188.1484,-18846.77,17825823.21898721
PART_000_R31G119B180A255,7035,17812730.0,-259.4627,1689.462,404161.0,5.207692e-06,-0.001102324,17825765.609453835
PART_000_R31G119B180A255,7036,17813080.0,523.3117,1964.744,407187.7,-188.1485,18846.77,17825823.218987215
PART_000_R31G119B180A255,7037,17812770.0,-85.22896,1633.964,417103.3,-225.5022,33724.33,17826736.33228116
PART_000_R31G119B180A255,7038,17813110.0,576.1867,2004.655,435090.6,-767.4901,40755.33,17827894.281128686
PART_000_R31G119B180A255,7039,17813010.0,1389.71,896.4379,466110.5,-1073.617,33337.45,17830247.283285514
PART_002_R214G39B40A255,7040,17810350.0,-2273.749,-3509.484,522768.6,1101.618,12172.54,17836252.0506244
PART_003_R247G182B210A255,7041,13359400.0,-1302.59,1950.18,764228.1,117.3804,-6642.093,13424499.660933485
PART_003_R247G182B210A255,7042,13358760.0,-430.6108,-868.1891,701009.7,-1174.298,-16755.36,13414503.71131017
PART_003_R247G182B210A255,7043,13359620.0,1044.849,255.3296,657568.5,465.3993,-21367.87,13407484.363088584
PART_000_R31G119B180A255,7044,13359690.0,314.6668,1192.168,630704.8,124.8093,-19071.27,13403568.331471074
PART_000_R31G119B180A255,7045,13359570.0,201.2582,942.9696,615893.4,101.2204,-10890.87,13401535.540295433
PART_000_R31G119B180A255,7046,13359760.0,345.7875,1385.552,611096.7,-1.142086e-05,-0.0007746132,13400760.279471867
PART_000_R31G119B180A255,7047,13359570.0,201.2581,942.9695,615893.4,-101.2204,10890.87,13401535.540395116
PART_000_R31G119B180A255,7048,13359690.0,314.6667,1192.168,630704.8,-124.8093,19071.26,13403568.331478227
PART_000_R31G119B180A255,7049,13359620.0,1044.849,255.3295,657568.5,-465.3993,21367.87,13407484.363138407
PART_002_R214G39B40A255,7050,13358760.0,-430.611,-868.1891,701009.7,1174.298,16755.36,13414503.711409753
PART_002_R214G39B40A255,7051,13359400.0,-1302.59,1950.18,764228.1,-117.3804,6642.093,13424499.660933485
PART_003_R247G182B210A255,7052,8905453.0,-941.8716,-1102.606,932913.8,-467.3906,-3075.399,9051868.022846138
PART_003_R247G182B210A255,7053,8906317.0,-50.62033,620.7043,865939.5,37.55326,-8493.715,9031454.792113343
PART_003_R247G182B210A255,7054,8906127.0,17.49109,-19.70401,817671.8,-890.8753,-10884.43,9018050.629747305
PART_003_R247G182B210A255,7055,8906389.0,613.8206,174.1977,785365.0,137.9463,-9832.522,9009296.951717472
PART_000_R31G119B180A255,7056,8906457.0,213.0109,785.3123,767156.4,-135.0352,-5811.815,9004541.824961014
PART_000_R31G119B180A255,7057,8906381.0,296.9004,468.4225,761253.3,1.534447e-05,-0.0004899794,9003073.152463159
PART_000_R31G119B180A255,7058,8906457.0,213.011,785.3124,767156.4,135.0352,5811.814,9004541.824860174
PART_000_R31G119B180A255,7059,8906389.0,613.8207,174.1977,785365.0,-137.9463,9832.521,9009296.951664774
PART_002_R214G39B40A255,7060,8906127.0,17.49117,-19.70396,817671.8,890.8753,10884.43,9018050.629683113
PART_002_R214G39B40A255,7061,8906317.0,-50.62016,620.7044,865939.5,-37.55327,8493.714,9031454.791977393
PART_002_R214G39B40A255,7062,8905453.0,-941.8714,-1102.606,932913.8,467.3906,3075.399,9051868.022747748
PART_003_R247G182B210A255,7063,4453084.0,-427.2912,490.1115,1032769.0,-61.77564,-1354.281,4798908.098198313
PART_003_R247G182B210A255,7064,4452897.0,-192.7521,-315.1909,964427.5,-904.0938,-3495.934,4756149.063192193
PART_003_R247G182B210A255,7065,4453176.0,203.3057,135.3006,913527.7,-62.91514,-4584.913,4725772.98416015
PART_003_R247G182B210A255,7066,4453146.0,77.7978,169.9152,878889.4,-702.6457,-4176.436,4706038.648178375
PART_003_R247G182B210A255,7067,4453193.0,285.2811,105.783,858767.3,12.10102,-2459.781,4694853.40052154
PART_000_R31G119B180A255,7068,4453228.0,107.628,388.2607,852242.5,4.489776e-06,-0.0002370431,4691266.702235278
PART_000_R31G119B180A255,7069,4453193.0,285.2811,105.783,858767.3,-12.101,2459.78,4694853.400519968
PART_002_R214G39B40A255,7070,4453146.0,77.79776,169.9152,878889.4,702.6457,4176.436,4706038.648197301
PART_002_R214G39B40A255,7071,4453176.0,203.3056,135.3006,913527.7,62.91514,4584.912,4725772.984204353
PART_002_R214G39B40A255,7072,4452897.0,-192.7523,-315.191,964427.5,904.0938,3495.934,4756149.063332636
PART_002_R214G39B40A255,7073,4453084.0,-427.2914,490.1114,1032769.0,61.77564,1354.28,4798908.098336671
PART_003_R247G182B210A255,7074,0.004877135,7.302406e-05,0.0001086466,1065912.0,-363.2514,-2.134612e-06,1846213.8476045344
PART_003_R247G182B210A255,7075,0.004915963,0.000187649,-1.703948e-05,997062.1,-152.9152,-6.7299e-06,1726962.2358113118
PART_003_R247G182B210A255,7076,0.004975003,0.0004556946,0.0002637043,945572.5,-966.732,-7.495082e-06,1637780.4681888928
PART_003_R247G182B210A255,7077,0.004986457,0.000563985,0.0001506122,910068.4,-59.30158,-7.766958e-06,1576284.710509403
PART_003_R247G182B210A255,7078,0.005033654,0.0007451661,0.0003772066,889485.7,-401.6307,-2.33693e-06,1540634.5820586812
PART_003_R247G182B210A255,7079,0.00500579,0.0006998299,0.0002043964,882690.3,1.97426e-05,-1.264308e-06,1528864.4469482147
PART_002_R214G39B40A255,7080,0.005030981,0.0007523767,0.0003796514,889485.7,401.6307,3.421389e-06,1540634.5820586812
PART_002_R214G39B40A255,7081,0.004983216,0.000601481,0.0001600302,910068.4,59.3016,6.223196e-06,1576284.7105094052
PART_002_R214G39B40A255,7082,0.00498417,0.0005549933,0.0003052215,945572.5,966.732,6.237239e-06,1637780.4681888928
PART_002_R214G39B40A255,7083,0.004930521,0.0003369506,4.108486e-05,997062.1,152.9152,6.176787e-06,1726962.2358113118
PART_002_R214G39B40A255,7084,0.004898142,0.0002703624,0.0001851929,1065912.0,363.2514,1.575615e-06,1846213.8476045344
PART_003_R247G182B210A255,7085,-4453084.0,427.2912,-490.1112,1032769.0,-61.77565,1354.28,4798908.098336613
PART_003_R247G182B210A255,7086,-4452897.0,192.7516,315.1905,964427.5,-904.0938,3495.934,4756149.062770864
PART_003_R247G182B210A255,7087,-4453176.0,-203.3065,-135.3006,913527.7,-62.91514,4584.913,4725772.983783247
PART_003_R247G182B210A255,7088,-4453146.0,-77.79915,-169.916,878889.4,-702.6457,4176.436,4706038.647161163
PART_003_R247G182B210A255,7089,-4453193.0,-285.2824,-105.7833,858767.3,12.10103,2459.781,4694853.39976278
PART_001_R158G218B229A255,7090,-4453228.0,-107.6296,-388.2616,852242.5,3.293532e-06,0.000237506,4691266.701048739
PART_001_R158G218B229A255,7091,-4453193.0,-285.2824,-105.7833,858767.3,-12.10099,-2459.78,4694853.399761208
PART_002_R214G39B40A255,7092,-4453146.0,-77.79916,-169.916,878889.4,702.6457,-4176.436,4706038.647156432
PART_002_R214G39B40A255,7093,-4453176.0,-203.3065,-135.3007,913527.7,62.91514,-4584.912,4725772.983733221
PART_002_R214G39B40A255,7094,-4452897.0,192.7514,315.1904,964427.5,904.0938,-3495.934,4756149.0626304215
PART_002_R214G39B40A255,7095,-4453084.0,427.291,-490.1113,1032769.0,61.77565,-1354.28,4798908.09819741
PART_003_R247G182B210A255,7096,-8905453.0,941.8719,1102.607,932913.8,-467.3906,3075.399,9051868.023485707
PART_003_R247G182B210A255,7097,-8906317.0,50.62048,-620.7049,865939.5,37.55327,8493.715,9031454.791891508
PART_003_R247G182B210A255,7098,-8906127.0,-17.48995,19.70508,817671.8,-890.8753,10884.43,9018050.630838592
PART_003_R247G182B210A255,7099,-8906389.0,-613.8197,-174.1979,785365.0,137.9463,9832.522,9009296.952063417
PART_001_R158G218B229A255,7100,-8906457.0,-213.0092,-785.3111,767156.4,-135.0352,5811.815,9004541.826395163
PART_001_R158G218B229A255,7101,-8906381.0,-296.8992,-468.4227,761253.3,1.956151e-05,0.000490132,9003073.152957788
PART_001_R158G218B229A255,7102,-8906457.0,-213.0092,-785.3111,767156.4,135.0352,-5811.814,9004541.826393228
PART_001_R158G218B229A255,7103,-8906389.0,-613.8197,-174.1979,785365.0,-137.9463,-9832.521,9009296.952060143
PART_002_R214G39B40A255,7104,-8906127.0,-17.48986,19.70509,817671.8,890.8753,-10884.43,9018050.63088797
PART_002_R214G39B40A255,7105,-8906317.0,50.62062,-620.7048,865939.5,-37.55327,-8493.714,9031454.792007022
PART_002_R214G39B40A255,7106,-8905453.0,941.8721,1102.607,932913.8,467.3906,-3075.399,9051868.023584098
PART_003_R247G182B210A255,7107,-13359400.0,1302.59,-1950.179,764228.1,117.3804,6642.093,13424499.661430867
PART_003_R247G182B210A255,7108,-13358760.0,430.6099,868.1876,701009.7,-1174.298,16755.36,13414503.710115084
PART_003_R247G182B210A255,7109,-13359620.0,-1044.849,-255.3286,657568.5,465.3993,21367.87,13407484.363586819
PART_001_R158G218B229A255,7110,-13359690.0,-314.6685,-1192.17,630704.8,124.8093,19071.27,13403568.32962725
PART_001_R158G218B229A255,7111,-13359570.0,-201.2591,-942.9688,615893.4,101.2204,10890.87,13401535.54024552
PART_001_R158G218B229A255,7112,-13359760.0,-345.7896,-1385.553,611096.7,-5.573076e-06,0.0007727452,13400760.277926646
PART_001_R158G218B229A255,7113,-13359570.0,-201.2591,-942.9688,615893.4,-101.2204,-10890.87,13401535.54024552
PART_001_R158G218B229A255,7114,-13359690.0,-314.6685,-1192.17,630704.8,-124.8093,-19071.26,13403568.329584563
PART_001_R158G218B229A255,7115,-13359620.0,-1044.849,-255.3286,657568.5,-465.3993,-21367.87,13407484.363586819
PART_002_R214G39B40A255,7116,-13358760.0,430.6097,868.1875,701009.7,1174.298,-16755.36,13414503.709965702
PART_002_R214G39B40A255,7117,-13359400.0,1302.59,-1950.179,764228.1,-117.3804,-6642.093,13424499.661430867
PART_003_R247G182B210A255,7118,-17810350.0,2273.75,3509.486,522768.6,-1101.618,12172.54,17836252.052122515
PART_003_R247G182B210A255,7119,-17813010.0,-1389.71,-896.4396,466110.5,1073.617,33337.45,17830247.28243636
PART_001_R158G218B229A255,7120,-17813110.0,-576.185,-2004.653,435090.6,767.4901,40755.34,17827894.283045586
PART_001_R158G218B229A255,7121,-17812770.0,85.22951,-1633.965,417103.3,225.5022,33724.34,17826736.33211321
PART_001_R158G218B229A255,7122,-17813080.0,-523.3095,-1964.741,407187.7,188.1485,18846.77,17825823.22158513
PART_001_R158G218B229A255,7123,-17812730.0,259.4634,-1689.463,404161.0,4.242521e-06,0.001100069,17825765.60930409
PART_001_R158G218B229A255,7124,-17813080.0,-523.3095,-1964.741,407187.7,-188.1485,-18846.77,17825823.22158513
PART_001_R158G218B229A255,7125,-17812770.0,85.22955,-1633.965,417103.3,-225.5022,-33724.33,17826736.332076445
PART_001_R158G218B229A255,7126,-17813110.0,-576.1849,-2004.653,435090.6,-767.4901,-40755.33,17827894.283026963
PART_001_R158G218B229A255,7127,-17813010.0,-1389.71,-896.4395,466110.5,-1073.617,-33337.45,17830247.28248631
PART_002_R214G39B40A255,7128,-17810350.0,2273.75,3509.486,522768.6,1101.618,-12172.54,17836252.052122515
PART_003_R247G182B210A255,7129,-22267050.0,1565.211,-6819.362,192001.2,1695.069,32815.53,22266980.3400912
PART_001_R158G218B229A255,7130,-22267460.0,-2010.482,-4461.515,164997.0,1043.653,70946.45,22266397.337436635
PART_001_R158G218B229A255,7131,-22265990.0,1040.899,-3076.755,154671.1,204.284,72237.06,22266935.537574086
PART_001_R158G218B229A255,7132,-22266520.0,-919.1046,-2715.194,147852.9,244.0286,56329.77,22266389.383938104
PART_001_R158G218B229A255,7133,-22265890.0,665.5014,-2381.965,144589.9,34.38547,30400.79,22266502.598060496
PART_001_R158G218B229A255,7134,-22266340.0,-685.4824,-2393.095,143390.7,-1.475754e-06,0.00148415,22266185.92348946
PART_001_R158G218B229A255,7135,-22265890.0,665.5014,-2381.965,144589.9,-34.38547,-30400.79,22266502.598060496
PART_001_R158G218B229A255,7136,-22266520.0,-919.1047,-2715.194,147852.9,-244.0286,-56329.77,22266389.383888103
PART_001_R158G218B229A255,7137,-22265990.0,1040.899,-3076.754,154671.1,-204.284,-72237.05,22266935.537976578
PART_001_R158G218B229A255,7138,-22267460.0,-2010.482,-4461.515,164997.0,-1043.653,-70946.45,22266397.337436635
PART_001_R158G218B229A255,7139,-22267050.0,1565.211,-6819.362,192001.2,-1695.069,-32815.53,22266980.3400912
PART_003_R247G182B210A255,7140,21948950.0,-1545.413,6715.132,192001.0,1670.765,-32815.5,21948959.56885194
PART_000_R31G119B180A255,7141,21949350.0,1984.201,4404.354,164997.1,1028.796,-70946.53,21948360.55207133
PART_000_R31G119B180A255,7142,21947900.0,-1028.481,3026.336,154671.0,201.3313,-72236.97,21948892.979671836
PART_000_R31G119B180A255,7143,21948430.0,908.4945,2682.819,147853.0,240.563,-56329.84,21948345.3183276
PART_000_R31G119B180A255,7144,21947800.0,-658.5169,2341.552,144589.9,33.88457,-30400.75,21948450.622275963
PART_000_R31G119B180A255,7145,21948250.0,678.2439,2365.286,143390.7,1.440179e-06,-0.001489121,21948133.520558503
PART_000_R31G119B180A255,7146,21947800.0,-658.5169,2341.552,144589.9,-33.88457,30400.75,21948450.622275963
PART_000_R31G119B180A255,7147,21948430.0,908.4945,2682.819,147853.0,-240.5631,56329.84,21948345.3183276
PART_000_R31G119B180A255,7148,21947900.0,-1028.48,3026.336,154671.0,-201.3313,72236.97,21948892.97917174
PART_000_R31G119B180A255,7149,21949350.0,1984.201,4404.354,164997.1,-1028.796,70946.52,21948360.551974356
PART_000_R31G119B180A255,7150,21948950.0,-1545.413,6715.132,192001.0,-1670.765,32815.5,21948959.56885194
PART_003_R247G182B210A255,7151,17555910.0,-2243.116,-3465.228,522768.8,-1085.858,-12172.5,17582107.668575205
PART_003_R247G182B210A255,7152,17558540.0,1371.945,889.4354,466110.4,1058.279,-33337.53,17576055.760437567
PART_000_R31G119B180A255,7153,17558630.0,565.7595,1970.277,435090.6,756.5242,-40755.25,17573669.43516697
PART_000_R31G119B180A255,7154,17558300.0,-81.80984,1616.311,417103.3,222.2828,-33724.41,17572486.905785356
PART_000_R31G119B180A255,7155,17558600.0,513.5743,1931.0,407187.7,185.4594,-18846.74,17571567.512023762
PART_000_R31G119B180A255,7156,17558260.0,-253.5202,1670.989,404161.0,1.167046e-05,-0.001107752,17571501.00485832
PART_000_R31G119B180A255,7157,17558600.0,513.5743,1931.0,407187.7,-185.4594,18846.73,17571567.511991583
PART_000_R31G119B180A255,7158,17558300.0,-81.80989,1616.311,417103.3,-222.2827,33724.4,17572486.90575276
PART_000_R31G119B180A255,7159,17558630.0,565.7594,1970.277,435090.6,-756.5242,40755.25,17573669.43521693
PART_000_R31G119B180A255,7160,17558540.0,1371.944,889.4352,466110.4,-1058.279,33337.53,17576055.761036918
PART_002_R214G39B40A255,7161,17555910.0,-2243.116,-3465.228,522768.8,1085.858,12172.5,17582107.668575205
PART_003_R247G182B210A255,7162,13168560.0,-1285.719,1917.562,764228.0,115.692,-6642.074,13234610.89364754
PART_003_R247G182B210A255,7163,13167930.0,-422.783,-851.1845,701009.6,-1157.527,-16755.42,13224456.365875209
PART_003_R247G182B210A255,7164,13168770.0,1028.234,247.1581,657568.5,458.7547,-21367.81,13217347.24556135
PART_000_R31G119B180A255,7165,13168840.0,311.9283,1179.632,630704.8,123.0237,-19071.32,13213370.606052889
PART_000_R31G119B180A255,7166,13168720.0,196.635,925.0274,615893.4,99.77575,-10890.84,13211311.297305508
PART_000_R31G119B180A255,7167,13168910.0,342.6331,1370.231,611096.7,4.765764e-06,-0.0007820938,13210524.330647193
PART_000_R31G119B180A255,7168,13168720.0,196.6351,925.0274,615893.4,-99.7757,10890.84,13211311.297255665
PART_000_R31G119B180A255,7169,13168840.0,311.9283,1179.632,630704.8,-123.0236,19071.32,13213370.606052887
PART_000_R31G119B180A255,7170,13168770.0,1028.234,247.1581,657568.5,-458.7547,21367.8,13217347.24551285
PART_002_R214G39B40A255,7171,13167930.0,-422.7828,-851.1844,701009.6,1157.527,16755.42,13224456.365725845
PART_002_R214G39B40A255,7172,13168560.0,-1285.719,1917.562,764228.0,-115.692,6642.074,13234610.89364754
PART_003_R247G182B210A255,7173,8778232.0,-929.4302,-1090.026,932913.9,-460.7047,-3075.378,8926707.08519055
PART_003_R247G182B210A255,7174,8779084.0,-48.76554,614.9643,865939.5,37.02064,-8493.756,8906015.701305203
PART_003_R247G182B210A255,7175,8778896.0,16.05565,-22.51465,817671.8,-878.1491,-10884.39,8892423.231248708
PART_003_R247G182B210A255,7176,8779155.0,606.2323,174.7707,785365.0,135.9754,-9832.558,8883546.07701658
PART_000_R31G119B180A255,7177,8779221.0,208.7516,771.0386,767156.4,-133.1059,-5811.795,8878727.851414388
PART_000_R31G119B180A255,7178,8779148.0,293.856,464.7763,761253.2,3.389527e-05,-0.0004976324,8877234.869596867
PART_000_R31G119B180A255,7179,8779221.0,208.7515,771.0386,767156.4,133.1059,5811.794,8878727.851461867
PART_000_R31G119B180A255,7180,8779155.0,606.2323,174.7707,785365.0,-135.9754,9832.557,8883546.07701326
PART_002_R214G39B40A255,7181,8778896.0,16.05554,-22.51467,817671.8,878.1491,10884.39,8892423.231312877
PART_002_R214G39B40A255,7182,8779084.0,-48.76573,614.9643,865939.5,-37.02063,8493.756,8906015.701398855
PART_002_R214G39B40A255,7183,8778232.0,-929.4305,-1090.026,932913.9,460.7047,3075.378,8926707.08533807
PART_003_R247G182B210A255,7184,4389469.0,-421.778,481.4784,1032769.0,-60.89952,-1354.274,4739938.564695168
PART_003_R247G182B210A255,7185,4389284.0,-189.4254,-309.1096,964427.5,-891.184,-3495.954,4696637.368715098
PART_003_R247G182B210A255,7186,4389559.0,199.8241,131.816,913527.8,-62.01424,-4584.89,4665879.841033752
PART_003_R247G182B210A255,7187,4389530.0,77.29075,169.0313,878889.4,-692.6089,-4176.455,4645889.14031536
PART_003_R247G182B210A255,7188,4389576.0,280.6075,102.7377,858767.3,11.92863,-2459.77,4634561.120088191
PART_000_R31G119B180A255,7189,4389611.0,106.705,384.2503,852242.5,1.893293e-05,-0.0002423829,4630926.644094806
PART_000_R31G119B180A255,7190,4389576.0,280.6075,102.7377,858767.3,-11.92856,2459.77,4634561.120088191
PART_002_R214G39B40A255,7191,4389530.0,77.29079,169.0314,878889.4,692.6089,4176.454,4645889.140246528
PART_002_R214G39B40A255,7192,4389559.0,199.8243,131.816,913527.8,62.01427,4584.889,4665879.840936733
PART_002_R214G39B40A255,7193,4389284.0,-189.4253,-309.1095,964427.5,891.184,3495.953,4696637.368619405
PART_002_R214G39B40A255,7194,4389469.0,-421.7777,481.4785,1032769.0,60.89953,1354.274,4739938.56450993
PART_003_R247G182B210A255,7195,0.004816067,-0.0001026333,-0.0001329654,1065912.0,-358.0552,-1.403355e-06,1846213.84455934
PART_003_R247G182B210A255,7196,0.004764102,-0.0002295958,-2.091846e-06,997062.1,-150.7269,-1.490154e-06,1726962.235234177
PART_003_R247G182B210A255,7197,0.004687351,-0.0005751777,-0.0003205128,945572.5,-952.9212,-4.64232e-06,1637780.443907299
PART_003_R247G182B210A255,7198,0.004667958,-0.0007132227,-0.0001851429,910068.4,-58.45537,-3.586694e-06,1576284.7104145782
PART_003_R247G182B210A255,7199,0.004609219,-0.0009153333,-0.0004518422,889485.7,-395.8925,-3.89872e-06,1540634.5776030358
PART_003_R247G182B210A255,7200,0.004634129,-0.0008716836,-0.0002488078,882690.3,3.380955e-05,-1.441962e-07,1528864.4469482147
PART_002_R214G39B40A255,7201,0.004605475,-0.0009234543,-0.0004550444,889485.7,395.8926,1.598262e-06,1540634.577603113
PART_002_R214G39B40A255,7202,0.004654386,-0.0007469553,-0.0002001964,910068.4,58.45542,4.476658e-06,1576284.7104145838
PART_002_R214G39B40A255,7203,0.004657863,-0.0006796077,-0.0003602017,945572.5,952.9212,5.806143e-06,1637780.443907299
PART_002_R214G39B40A255,7204,0.004711642,-0.0004110081,-7.546209e-05,997062.0,150.7269,3.056541e-06,1726962.0620290982
PART_002_R214G39B40A255,7205,0.004741736,-0.0003533694,-0.0002385179,1065912.0,358.0552,-3.438062e-07,1846213.84455934
PART_003_R247G182B210A255,7206,-4389469.0,421.778,-481.4788,1032769.0,-60.89953,1354.274,4739938.564510016
PART_003_R247G182B210A255,7207,-4389284.0,189.4261,309.1102,964427.5,-891.184,3495.954,4696637.369322594
PART_003_R247G182B210A255,7208,-4389558.0,-199.8232,-131.8159,913527.8,-62.01424,4584.89,4665878.90076126
PART_003_R247G182B210A255,7209,-4389530.0,-77.28912,-169.0303,878889.4,-692.6089,4176.455,4645889.141557773
PART_003_R247G182B210A255,7210,-4389576.0,-280.6059,-102.7374,858767.3,11.92863,2459.77,4634561.120987897
PART_001_R158G218B229A255,7211,-4389611.0,-106.703,-384.2492,852242.5,2.060459e-05,0.0002406841,4630926.6455639945
PART_001_R158G218B229A255,7212,-4389576.0,-280.6059,-102.7374,858767.3,-11.92856,-2459.77,4634561.120987896
PART_002_R214G39B40A255,7213,-4389530.0,-77.28907,-169.0303,878889.4,692.6089,-4176.454,4645889.141578697
PART_002_R214G39B40A255,7214,-4389558.0,-199.8231,-131.8159,913527.8,62.01426,-4584.889,4665878.900805349
PART_002_R214G39B40A255,7215,-4389284.0,189.4263,309.1103,964427.5,891.184,-3495.953,4696637.369460551
PART_002_R214G39B40A255,7216,-4389469.0,421.7782,-481.4787,1032769.0,60.89954,-1354.274,4739938.564648938
PART_003_R247G182B210A255,7217,-8778232.0,929.4298,1090.025,932913.9,-460.7047,3075.378,8926707.084502105
PART_003_R247G182B210A255,7218,-8779084.0,48.76531,-614.9637,865939.5,37.02064,8493.756,8906015.701487515
PART_003_R247G182B210A255,7219,-8778896.0,-16.05705,22.51335,817671.8,-878.1491,10884.39,8892423.229915943
PART_003_R247G182B210A255,7220,-8779155.0,-606.2335,-174.7704,785365.0,135.9754,9832.558,8883546.076571943
PART_001_R158G218B229A255,7221,-8779221.0,-208.7537,-771.0402,767156.4,-133.1059,5811.795,8878727.849585202
PART_001_R158G218B229A255,7222,-8779148.0,-293.8575,-464.7761,761253.2,3.48347e-05,0.0004971375,8877234.868954051
PART_001_R158G218B229A255,7223,-8779221.0,-208.7537,-771.0402,767156.4,133.1059,-5811.794,8878727.849583238
PART_001_R158G218B229A255,7224,-8779155.0,-606.2335,-174.7704,785365.0,-135.9754,-9832.557,8883546.076568624
PART_002_R214G39B40A255,7225,-8778896.0,-16.05714,22.51329,817671.8,878.1491,-10884.39,8892423.2298419
PART_002_R214G39B40A255,7226,-8779084.0,48.76513,-614.9637,865939.5,-37.02064,-8493.756,8906015.70139879
PART_002_R214G39B40A255,7227,-8778232.0,929.4296,1090.025,932913.9,460.7047,-3075.378,8926707.08440376
PART_003_R247G182B210A255,7228,-13168560.0,1285.718,-1917.563,764228.0,115.692,6642.074,13234610.892652554
PART_003_R247G182B210A255,7229,-13167930.0,422.7841,851.1863,701009.7,-1157.527,16755.42,13224456.383221671
PART_003_R247G182B210A255,7230,-13168770.0,-1028.234,-247.1592,657568.5,458.7547,21367.81,13217347.245013349
PART_001_R158G218B229A255,7231,-13168840.0,-311.9262,-1179.63,630704.8,123.0236,19071.32,13213370.608095866
PART_001_R158G218B229A255,7232,-13168720.0,-196.6339,-925.0283,615893.4,99.77575,10890.84,13211311.297405263
PART_001_R158G218B229A255,7233,-13168910.0,-342.6306,-1370.229,611096.7,5.414145e-06,0.0007841181,13210524.332889989
PART_001_R158G218B229A255,7234,-13168720.0,-196.6339,-925.0283,615893.4,-99.7757,-10890.84,13211311.297405262
PART_001_R158G218B229A255,7235,-13168840.0,-311.9261,-1179.63,630704.8,-123.0237,-19071.32,13213370.608145703
PART_001_R158G218B229A255,7236,-13168770.0,-1028.234,-247.1592,657568.5,-458.7547,-21367.8,13217347.24496485
PART_002_R214G39B40A255,7237,-13167930.0,422.7843,851.1864,701009.6,1157.527,-16755.42,13224456.367468461
PART_002_R214G39B40A255,7238,-13168560.0,1285.719,-1917.563,764228.0,-115.692,-6642.074,13234610.893150229
PART_003_R247G182B210A255,7239,-17555910.0,2243.115,3465.226,522768.8,-1085.858,12172.5,17582107.667077143
PART_003_R247G182B210A255,7240,-17558540.0,-1371.944,-889.4333,466110.4,1058.279,33337.53,17576055.761985946
PART_001_R158G218B229A255,7241,-17558630.0,-565.7615,-1970.28,435090.6,756.5242,40755.25,17573669.43266935
PART_001_R158G218B229A255,7242,-17558300.0,81.8092,-1616.31,417103.3,222.2828,33724.41,17572486.905965082
PART_001_R158G218B229A255,7243,-17558600.0,-513.577,-1931.003,407187.7,185.4594,18846.74,17571567.509176083
PART_001_R158G218B229A255,7244,-17558260.0,253.5192,-1670.988,404161.0,1.639383e-05,0.001109523,17571501.004858155
PART_001_R158G218B229A255,7245,-17558600.0,-513.577,-1931.003,407187.7,-185.4594,-18846.73,17571567.509143904
PART_001_R158G218B229A255,7246,-17558300.0,81.80917,-1616.31,417103.3,-222.2827,-33724.4,17572486.905892517
PART_001_R158G218B229A255,7247,-17558630.0,-565.7616,-1970.28,435090.6,-756.5242,-40755.25,17573669.43261939
PART_001_R158G218B229A255,7248,-17558540.0,-1371.945,-889.4333,466110.4,-1058.279,-33337.53,17576055.7614865
PART_002_R214G39B40A255,7249,-17555910.0,2243.115,3465.226,522768.8,1085.858,-12172.5,17582107.667077143
PART_003_R247G182B210A255,7250,-21948950.0,1545.413,-6715.135,192001.0,1670.765,32815.5,21948959.56735296
PART_001_R158G218B229A255,7251,-21949350.0,-1984.199,-4404.351,164997.1,1028.796,70946.53,21948360.554570995
PART_001_R158G218B229A255,7252,-21947900.0,1028.481,-3026.338,154671.0,201.3313,72236.97,21948892.978672203
PART_001_R158G218B229A255,7253,-21948430.0,-908.4919,-2682.816,147853.0,240.563,56329.84,21948345.32112735
PART_001_R158G218B229A255,7254,-21947800.0,658.5177,-2341.554,144589.9,33.88458,30400.75,21948450.621676292
PART_001_R158G218B229A255,7255,-21948250.0,-678.2409,-2365.283,143390.7,3.436858e-06,0.001486383,21948133.52355831
PART_001_R158G218B229A255,7256,-21947800.0,658.5177,-2341.554,144589.9,-33.88457,-30400.75,21948450.621676292
PART_001_R158G218B229A255,7257,-21948430.0,-908.4919,-2682.816,147853.0,-240.5631,-56329.84,21948345.321127355
PART_001_R158G218B229A255,7258,-21947900.0,1028.481,-3026.338,154671.0,-201.3313,-72236.97,21948892.978672203
PART_001_R158G218B229A255,7259,-21949350.0,-1984.199,-4404.351,164997.1,-1028.796,-70946.52,21948360.554474022
PART_001_R158G218B229A255,7260,-21948950.0,1545.413,-6715.135,192001.0,-1670.765,-32815.5,21948959.56735296
PART_003_R247G182B210A255,7261,21630850.0,-1520.922,6623.372,192001.1,1646.624,-32815.53,21630931.316662095
PART_000_R31G119B180A255,7262,21631240.0,1953.454,4335.156,164997.0,1013.843,-70946.46,21630332.93688924
PART_000_R31G119B180A255,7263,21629820.0,-1011.572,2987.755,154671.1,198.4415,-72237.04,21630853.100550998
PART_000_R31G119B180A255,7264,21630330.0,893.2716,2638.702,147852.9,237.0598,-56329.78,21630300.14352638
PART_000_R31G119B180A255,7265,21629720.0,-646.9129,2312.83,144589.9,33.40138,-30400.78,21630401.118911993
PART_000_R31G119B180A255,7266,21630160.0,666.3297,2325.8,143390.7,5.912112e-06,-0.001488052,21630089.883391123
PART_000_R31G119B180A255,7267,21629720.0,-646.913,2312.829,144589.9,-33.40137,30400.78,21630401.119461857
PART_000_R31G119B180A255,7268,21630330.0,893.2716,2638.702,147852.9,-237.0598,56329.78,21630300.14352638
PART_000_R31G119B180A255,7269,21629820.0,-1011.573,2987.755,154671.1,-198.4415,72237.04,21630853.10105109
PART_000_R31G119B180A255,7270,21631240.0,1953.454,4335.156,164997.0,-1013.843,70946.46,21630332.93688924
PART_000_R31G119B180A255,7271,21630850.0,-1520.922,6623.372,192001.1,-1646.624,32815.53,21630931.316662095
PART_003_R247G182B210A255,7272,17301480.0,-2209.099,-3410.207,522768.7,-1070.139,-12172.53,17327975.95696247
PART_003_R247G182B210A255,7273,17304070.0,1350.355,871.8048,466110.4,1042.942,-33337.46,17321879.27735591
PART_000_R31G119B180A255,7274,17304160.0,559.3515,1946.409,435090.6,745.5615,-40755.32,17319454.15953336
PART_000_R31G119B180A255,7275,17303830.0,-82.42357,1588.24,417103.3,219.0596,-33724.35,17318250.96727482
PART_000_R31G119B180A255,7276,17304130.0,507.9765,1907.649,407187.7,182.7726,-18846.77,17317320.487271413
PART_000_R31G119B180A255,7277,17303790.0,-251.6732,1642.147,404161.0,2.173304e-05,-0.001114091,17317249.475955985
PART_000_R31G119B180A255,7278,17304130.0,507.9765,1907.649,407187.7,-182.7726,18846.76,17317320.487238765
PART_000_R31G119B180A255,7279,17303830.0,-82.42351,1588.24,417103.3,-219.0596,33724.35,17318250.96724484
PART_000_R31G119B180A255,7280,17304160.0,559.3516,1946.409,435090.6,-745.5615,40755.32,17319454.159483403
PART_000_R31G119B180A255,7281,17304070.0,1350.355,871.8049,466110.4,-1042.942,33337.46,17321879.277305964
PART_002_R214G39B40A255,7282,17301480.0,-2209.099,-3410.207,522768.7,1070.139,12172.53,17327975.95696247
PART_003_R247G182B210A255,7283,12977710.0,-1265.664,1893.66,764228.1,114.0248,-6642.089,13044733.827727353
PART_003_R247G182B210A255,7284,12977090.0,-418.0241,-842.609,701009.7,-1140.747,-16755.37,13034428.053407783
PART_003_R247G182B210A255,7285,12977920.0,1014.714,247.2739,657568.5,452.1029,-21367.86,13027224.94449068
PART_000_R31G119B180A255,7286,12977980.0,305.973,1158.863,630704.8,121.2429,-19071.28,13023187.481165355
PART_000_R31G119B180A255,7287,12977870.0,195.215,915.2758,615893.4,98.32864,-10890.87,13021099.359557504
PART_000_R31G119B180A255,7288,12978060.0,336.2093,1346.717,611096.7,2.568409e-05,-0.0007926908,13020311.79539339
PART_000_R31G119B180A255,7289,12977870.0,195.215,915.2758,615893.4,-98.32855,10890.87,13021099.359557502
PART_000_R31G119B180A255,7290,12977980.0,305.9729,1158.863,630704.8,-121.2429,19071.27,13023187.48117125
PART_000_R31G119B180A255,7291,12977920.0,1014.713,247.2738,657568.5,-452.1029,21367.86,13027224.945038533
PART_002_R214G39B40A255,7292,12977090.0,-418.0244,-842.609,701009.7,1140.747,16755.37,13034428.053557124
PART_002_R214G39B40A255,7293,12977710.0,-1265.664,1893.66,764228.1,-114.0248,6642.089,13044733.827727353
PART_003_R247G182B210A255,7294,8651011.0,-915.132,-1071.636,932913.8,-454.035,-3075.395,8801601.748910435
PART_003_R247G182B210A255,7295,8651851.0,-48.9853,603.494,865939.5,36.48097,-8493.722,8780632.020682273
PART_003_R247G182B210A255,7296,8651666.0,16.79162,-19.65992,817671.8,-865.4218,-10884.42,8766839.143518876
PART_003_R247G182B210A255,7297,8651920.0,596.4801,169.7338,785365.0,134.005,-9832.528,8757840.794839626
PART_000_R31G119B180A255,7298,8651987.0,206.7203,762.3623,767156.4,-131.177,-5811.811,8752952.829399465
PART_000_R31G119B180A255,7299,8651913.0,288.6177,455.5496,761253.3,5.74174e-05,-0.0005056869,8751438.739342267
PART_000_R31G119B180A255,7300,8651987.0,206.7203,762.3623,767156.4,131.1771,5811.81,8752952.829397477
PART_000_R31G119B180A255,7301,8651920.0,596.4802,169.7338,785365.0,-134.0049,9832.527,8757840.794786865
PART_002_R214G39B40A255,7302,8651666.0,16.79175,-19.65985,817671.8,865.4219,10884.42,8766839.14342022
PART_002_R214G39B40A255,7303,8651851.0,-48.98505,603.4941,865939.5,-36.48095,8493.722,8780632.020509837
PART_002_R214G39B40A255,7304,8651011.0,-915.1317,-1071.635,932913.8,454.035,3075.395,8801601.748271473
PART_003_R247G182B210A255,7305,4325853.0,-415.1813,475.8352,1032769.0,-60.01162,-1354.279,4681087.836091977
PART_003_R247G182B210A255,7306,4325671.0,-187.1485,-305.921,964427.5,-878.2635,-3495.937,4637236.538615784
PART_003_R247G182B210A255,7307,4325942.0,197.4006,131.1751,913527.7,-61.11719,-4584.909,4606084.505260674
PART_003_R247G182B210A255,7308,4325913.0,75.67634,165.319,878889.4,-682.5702,-4176.439,4585834.083040159
PART_003_R247G182B210A255,7309,4325959.0,277.0301,102.5037,858767.3,11.7554,-2459.779,4574356.944913655
PART_000_R31G119B180A255,7310,4325993.0,104.6558,377.4248,852242.5,4.908876e-05,-0.0002462901,4570676.307623341
PART_000_R31G119B180A255,7311,4325959.0,277.03,102.5037,858767.3,-11.75528,2459.778,4574356.944959321
PART_002_R214G39B40A255,7312,4325913.0,75.67629,165.319,878889.4,682.5703,4176.439,4585834.083063787
PART_002_R214G39B40A255,7313,4325942.0,197.4005,131.175,913527.7,61.11724,4584.908,4606084.505351604
PART_002_R214G39B40A255,7314,4325671.0,-187.1487,-305.921,964427.5,878.2635,3495.937,4637236.538709067
PART_002_R214G39B40A255,7315,4325853.0,-415.1817,475.8351,1032769.0,60.01162,1354.279,4681087.836323046
PART_003_R247G182B210A255,7316,0.004733519,9.975263e-05,0.0001433856,1065912.0,-352.8715,-8.826975e-07,1846213.8415651873
PART_003_R247G182B210A255,7317,0.004794026,0.000276196,-1.388481e-05,997062.1,-148.5455,-8.810391e-06,1726962.2346671412
PART_003_R247G182B210A255,7318,0.004886684,0.0006890698,0.0003924563,945572.5,-939.111,-9.481063e-06,1637780.4199761215
PART_003_R247G182B210A255,7319,0.00490542,0.0008609689,0.0002352221,910068.4,-57.60737,-8.518231e-06,1576284.7103209205
PART_003_R247G182B210A255,7320,0.00497027,0.001105922,0.0005549865,889485.7,-390.1554,-5.3521e-06,1540634.573212343
PART_003_R247G182B210A255,7321,0.004938345,0.001066077,0.0003219229,882690.3,6.81711e-05,-4.279188e-07,1528864.4469482147
PART_002_R214G39B40A255,7322,0.004967998,0.001126384,0.0005603881,889485.7,390.1555,5.161351e-06,1540634.573212419
PART_002_R214G39B40A255,7323,0.004905874,0.0009036163,0.0002536101,910068.4,57.60748,8.267799e-06,1576284.7103209323
PART_002_R214G39B40A255,7324,0.004905087,0.0008259643,0.0004444642,945572.5,939.1111,8.329009e-06,1637780.4199762936
PART_002_R214G39B40A255,7325,0.004827467,0.0005028698,7.583252e-05,997062.1,148.5456,6.348423e-06,1726962.234667167
PART_002_R214G39B40A255,7326,0.004786542,0.0004115471,0.0002742279,1065912.0,352.8715,4.959735e-06,1846213.8415651873
PART_003_R247G182B210A255,7327,-4325853.0,415.1814,-475.8348,1032769.0,-60.01162,1354.279,4681087.8363229595
PART_003_R247G182B210A255,7328,-4325671.0,187.1477,305.9202,964427.5,-878.2635,3495.937,4637236.537869492
PART_003_R247G182B210A255,7329,-4325942.0,-197.4017,-131.1751,913527.7,-61.11718,4584.909,4606084.504744156
PART_003_R247G182B210A255,7330,-4325913.0,-75.67835,-165.3202,878889.4,-682.5702,4176.439,4585834.081526159
PART_003_R247G182B210A255,7331,-4325959.0,-277.032,-102.5041,858767.3,11.7554,2459.779,4574356.943826194
PART_001_R158G218B229A255,7332,-4325993.0,-104.6582,-377.4261,852242.5,5.272169e-05,0.000245639,4570676.305872425
PART_001_R158G218B229A255,7333,-4325959.0,-277.032,-102.5041,858767.3,-11.75528,-2459.778,4574356.94382458
PART_002_R214G39B40A255,7334,-4325913.0,-75.67838,-165.3202,878889.4,682.5703,-4176.439,4585834.081512054
PART_002_R214G39B40A255,7335,-4325942.0,-197.4018,-131.1752,913527.7,61.11723,-4584.908,4606084.504647257
PART_002_R214G39B40A255,7336,-4325671.0,187.1474,305.9201,964427.5,878.2635,-3495.937,4637236.537682923
PART_002_R214G39B40A255,7337,-4325853.0,415.1811,-475.8349,1032769.0,60.01163,-1354.279,4681087.836138111
PART_003_R247G182B210A255,7338,-8651011.0,915.1325,1071.637,932913.8,-454.035,3075.395,8801601.749647694
PART_003_R247G182B210A255,7339,-8651851.0,48.98554,-603.4949,865939.5,36.48098,8493.722,8780632.020357188
PART_003_R247G182B210A255,7340,-8651666.0,-16.78991,19.66151,817671.8,-865.4218,10884.42,8766839.145147199
PART_003_R247G182B210A255,7341,-8651920.0,-596.4787,-169.7342,785365.0,134.005,9832.528,8757840.795333492
PART_001_R158G218B229A255,7342,-8651987.0,-206.7177,-762.3604,767156.4,-131.177,5811.811,8752952.831623416
PART_001_R158G218B229A255,7343,-8651913.0,-288.6158,-455.5498,761253.3,6.039962e-05,0.0005026775,8751438.740182593
PART_001_R158G218B229A255,7344,-8651987.0,-206.7177,-762.3604,767156.4,131.1771,-5811.81,8752952.83162143
PART_001_R158G218B229A255,7345,-8651920.0,-596.4787,-169.7342,785365.0,-134.0049,-9832.527,8757840.79533012
PART_002_R214G39B40A255,7346,-8651666.0,-16.78979,19.66154,817671.8,865.4219,-10884.42,8766839.145221243
PART_002_R214G39B40A255,7347,-8651851.0,48.98574,-603.4948,865939.5,-36.48096,-8493.722,8780632.020504989
PART_002_R214G39B40A255,7348,-8651011.0,915.1328,1071.637,932913.8,454.035,-3075.395,8801601.74979514
PART_003_R247G182B210A255,7349,-12977710.0,1265.665,-1893.658,764228.1,114.0248,6642.089,13044733.829219429
PART_003_R247G182B210A255,7350,-12977090.0,418.0228,842.6068,701009.7,-1140.747,16755.37,13034428.051665375
PART_003_R247G182B210A255,7351,-12977920.0,-1014.714,-247.2725,657568.5,452.1029,21367.86,13027224.945188059
PART_001_R158G218B229A255,7352,-12977980.0,-305.9756,-1158.865,630704.8,121.2429,19071.28,13023187.47887344
PART_001_R158G218B229A255,7353,-12977870.0,-195.2164,-915.2747,615893.4,98.32864,10890.87,13021099.359407904
PART_001_R158G218B229A255,7354,-12978060.0,-336.2123,-1346.72,611096.7,2.512438e-05,0.0007879173,13020311.79240332
PART_001_R158G218B229A255,7355,-12977870.0,-195.2165,-915.2747,615893.4,-98.32855,-10890.87,13021099.359358067
PART_001_R158G218B229A255,7356,-12977980.0,-305.9756,-1158.865,630704.8,-121.2429,-19071.27,13023187.478829507
PART_001_R158G218B229A255,7357,-12977920.0,-1014.714,-247.2725,657568.5,-452.1029,-21367.86,13027224.945188059
PART_002_R214G39B40A255,7358,-12977090.0,418.0226,842.6066,701009.7,1140.747,-16755.37,13034428.051466245
PART_002_R214G39B40A255,7359,-12977710.0,1265.664,-1893.658,764228.1,-114.0248,-6642.089,13044733.828721829
PART_003_R247G182B210A255,7360,-17301480.0,2209.1,3410.21,522768.7,-1070.139,12172.53,17327975.958959844
PART_003_R247G182B210A255,7361,-17304070.0,-1350.355,-871.8074,466110.4,1042.942,33337.46,17321879.276057277
PART_001_R158G218B229A255,7362,-17304160.0,-559.3491,-1946.405,435090.6,745.5615,40755.32,17319454.162730206
PART_001_R158G218B229A255,7363,-17303830.0,82.42436,-1588.242,417103.3,219.0596,33724.35,17318250.96667055
PART_001_R158G218B229A255,7364,-17304130.0,-507.9732,-1907.645,407187.7,182.7726,18846.77,17317320.49091834
PART_001_R158G218B229A255,7365,-17303790.0,251.6744,-1642.149,404161.0,3.001537e-05,0.001110165,17317249.475556575
PART_001_R158G218B229A255,7366,-17304130.0,-507.9732,-1907.645,407187.7,-182.7726,-18846.76,17317320.490885686
PART_001_R158G218B229A255,7367,-17303830.0,82.42439,-1588.242,417103.3,-219.0596,-33724.35,17318250.96668554
PART_001_R158G218B229A255,7368,-17304160.0,-559.349,-1946.405,435090.6,-745.5615,-40755.32,17319454.162780166
PART_001_R158G218B229A255,7369,-17304070.0,-1350.355,-871.8073,466110.4,-1042.942,-33337.46,17321879.27610722
PART_002_R214G39B40A255,7370,-17301480.0,2209.1,3410.21,522768.7,1070.139,-12172.53,17327975.958959844
PART_003_R247G182B210A255,7371,-21630850.0,1520.923,-6623.369,192001.1,1646.624,32815.53,21630931.318661287
PART_001_R158G218B229A255,7372,-21631240.0,-1953.456,-4335.16,164997.0,1013.843,70946.46,21630332.93388971
PART_001_R158G218B229A255,7373,-21629820.0,1011.572,-2987.752,154671.1,198.4415,72237.04,21630853.102050442
PART_001_R158G218B229A255,7374,-21630330.0,-893.2748,-2638.706,147852.9,237.0598,56329.78,21630300.139926717
PART_001_R158G218B229A255,7375,-21629720.0,646.912,-2312.827,144589.9,33.40137,30400.78,21630401.119961515
PART_001_R158G218B229A255,7376,-21630160.0,-666.3334,-2325.804,143390.7,7.57243e-06,0.001487247,21630089.879541393
PART_001_R158G218B229A255,7377,-21629720.0,646.912,-2312.827,144589.9,-33.40136,-30400.78,21630401.119961515
PART_001_R158G218B229A255,7378,-21630330.0,-893.2749,-2638.706,147852.9,-237.0598,-56329.78,21630300.139876716
PART_001_R158G218B229A255,7379,-21629820.0,1011.572,-2987.752,154671.1,-198.4415,-72237.04,21630853.102050442
PART_001_R158G218B229A255,7380,-21631240.0,-1953.456,-4335.16,164997.0,-1013.843,-70946.46,21630332.93388971
PART_001_R158G218B229A255,7381,-21630850.0,1520.922,-6623.369,192001.1,-1646.624,-32815.53,21630931.318161067
PART_003_R247G182B210A255,7382,21312750.0,-1500.264,6521.432,192001.0,1622.349,-32815.51,21312911.200703822
PART_000_R31G119B180A255,7383,21313140.0,1926.352,4275.786,164997.0,998.9688,-70946.51,21312309.55636442
PART_000_R31G119B180A255,7384,21311730.0,-998.3302,2939.511,154671.0,195.5003,-72236.98,21312810.75449746
PART_000_R31G119B180A255,7385,21312240.0,881.8143,2604.172,147853.0,233.5874,-56329.83,21312259.048388314
PART_000_R31G119B180A255,7386,21311630.0,-639.08,2274.565,144589.9,32.90375,-30400.76,21312348.926874
PART_000_R31G119B180A255,7387,21312070.0,658.233,2295.848,143390.7,1.376424e-05,-0.001506423,21312040.188010335
PART_000_R31G119B180A255,7388,21311630.0,-639.08,2274.565,144589.9,-32.90373,30400.75,21312348.92683121
PART_000_R31G119B180A255,7389,21312240.0,881.8144,2604.172,147853.0,-233.5874,56329.83,21312259.048338313
PART_000_R31G119B180A255,7390,21311730.0,-998.33,2939.51,154671.0,-195.5003,72236.98,21312810.754897255
PART_000_R31G119B180A255,7391,21313140.0,1926.352,4275.786,164997.0,-998.9688,70946.51,21312309.55636442
PART_000_R31G119B180A255,7392,21312750.0,-1500.264,6521.432,192001.0,-1622.349,32815.51,21312911.200703822
PART_003_R247G182B210A255,7393,17047050.0,-2177.841,-3363.977,522768.8,-1054.387,-12172.5,17073860.242586836
PART_003_R247G182B210A255,7394,17049600.0,1331.893,862.8552,466110.4,1027.604,-33337.52,17067705.05967074
PART_000_R31G119B180A255,7395,17049690.0,549.6654,1913.958,435090.6,734.5962,-40755.26,17065251.948839106
PART_000_R31G119B180A255,7396,17049360.0,-79.73979,1568.678,417103.3,215.8395,-33724.4,17064015.68189838
PART_000_R31G119B180A255,7397,17049660.0,499.0016,1875.811,407187.7,180.084,-18846.74,17063085.605043817
PART_000_R31G119B180A255,7398,17049330.0,-246.4779,1621.775,404161.0,4.650135e-05,-0.001139448,17063008.145904236
PART_000_R31G119B180A255,7399,17049660.0,499.0016,1875.811,407187.7,-180.0839,18846.74,17063085.605043814
PART_000_R31G119B180A255,7400,17049360.0,-79.73986,1568.678,417103.3,-215.8394,33724.39,17064015.68187406
PART_000_R31G119B180A255,7401,17049690.0,549.6652,1913.958,435090.6,-734.5962,40755.26,17065251.948939018
PART_000_R31G119B180A255,7402,17049600.0,1331.893,862.855,466110.4,-1027.604,33337.52,17067705.059770633
PART_002_R214G39B40A255,7403,17047050.0,-2177.842,-3363.977,522768.8,1054.387,12172.5,17073860.243086085
PART_003_R247G182B210A255,7404,12786860.0,-1248.214,1862.634,764228.0,112.3403,-6642.077,12854890.322630603
PART_003_R247G182B210A255,7405,12786250.0,-410.7595,-827.1447,701009.7,-1123.975,-16755.41,12844419.315327022
PART_003_R247G182B210A255,7406,12787060.0,998.6615,240.6152,657568.5,445.457,-21367.82,12837118.714730151
PART_000_R31G119B180A255,7407,12787130.0,302.6452,1144.823,630704.8,119.4582,-19071.31,12833029.359828863
PART_000_R31G119B180A255,7408,12787020.0,191.1752,898.8291,615893.4,96.88356,-10890.85,12830910.846339585
PART_000_R31G119B180A255,7409,12787200.0,332.4562,1329.9,611096.7,5.520747e-05,-0.0008162367,12830103.114397781
PART_000_R31G119B180A255,7410,12787020.0,191.1752,898.8291,615893.4,-96.88341,10890.85,12830910.846339582
PART_000_R31G119B180A255,7411,12787130.0,302.6453,1144.823,630704.8,-119.4581,19071.31,12833029.359779036
PART_000_R31G119B180A255,7412,12787060.0,998.6617,240.6153,657568.5,-445.4569,21367.81,12837118.7145308
PART_002_R214G39B40A255,7413,12786250.0,-410.7592,-827.1446,701009.6,1123.975,16755.41,12844419.29875483
PART_002_R214G39B40A255,7414,12786860.0,-1248.213,1862.634,764228.0,-112.3403,6642.077,12854890.322133077
PART_003_R247G182B210A255,7415,8523790.0,-902.3505,-1057.996,932913.9,-447.3522,-3075.381,8676561.561679745
PART_003_R247G182B210A255,7416,8524618.0,-47.50627,596.7111,865939.5,35.94711,-8493.75,8655298.998846747
PART_003_R247G182B210A255,7417,8524435.0,15.75325,-21.4384,817671.8,-852.6954,-10884.4,8641305.436232787
PART_003_R247G182B210A255,7418,8524687.0,588.4991,169.2855,785365.0,132.0342,-9832.552,8632178.95354444
PART_000_R31G119B180A255,7419,8524751.0,202.8677,749.1082,767156.4,-129.2477,-5811.798,8627221.621827608
PART_000_R31G119B180A255,7420,8524680.0,285.1748,450.8873,761253.2,9.497488e-05,-0.000526288,8625683.385570701
PART_000_R31G119B180A255,7421,8524751.0,202.8677,749.1082,767156.4,129.2479,5811.797,8627221.621825596
PART_000_R31G119B180A255,7422,8524687.0,588.499,169.2854,785365.0,-132.0341,9832.551,8632178.953639768
PART_002_R214G39B40A255,7423,8524435.0,15.75308,-21.43844,817671.8,852.6955,10884.39,8641305.436298607
PART_002_R214G39B40A255,7424,8524618.0,-47.50656,596.7109,865939.5,-35.94706,8493.75,8655298.999088045
PART_002_R214G39B40A255,7425,8523790.0,-902.3509,-1057.996,932913.9,447.3522,3075.381,8676561.561876241
PART_003_R247G182B210A255,7426,4262238.0,-409.472,467.7457,1032769.0,-59.1334,-1354.275,4622365.8341809325
PART_003_R247G182B210A255,7427,4262058.0,-184.0135,-300.366,964427.5,-865.3517,-3495.951,4577947.469935183
PART_003_R247G182B210A255,7428,4262325.0,194.1111,128.2076,913527.8,-60.21696,-4584.893,4546394.484262231
PART_003_R247G182B210A255,7429,4262297.0,74.96791,163.9208,878889.4,-672.5331,-4176.452,4525875.709653521
PART_003_R247G182B210A255,7430,4262342.0,272.5561,99.96986,858767.3,11.58289,-2459.772,4514247.836288705
PART_000_R31G119B180A255,7431,4262376.0,103.5283,372.9026,852242.5,9.409814e-05,-0.0002577048,4510517.751359528
PART_000_R31G119B180A255,7432,4262342.0,272.5561,99.96986,858767.3,-11.58267,2459.771,4514247.836287067
PART_002_R214G39B40A255,7433,4262297.0,74.96796,163.9208,878889.4,672.5332,4176.452,4525875.709630022
PART_002_R214G39B40A255,7434,4262325.0,194.1113,128.2077,913527.8,60.21707,4584.893,4546394.484121614
PART_002_R214G39B40A255,7435,4262058.0,-184.0132,-300.3659,964427.5,865.3518,3495.95,4577947.469746742
PART_002_R214G39B40A255,7436,4262238.0,-409.4716,467.7459,1032769.0,59.13343,1354.275,4622365.833904279
PART_003_R247G182B210A255,7437,0.004686136,-0.0001326236,-0.0001822274,1065912.0,-347.6778,-3.019137e-06,1846213.8386090484
PART_003_R247G182B210A255,7438,0.004609925,-0.0003358511,-6.521094e-06,997062.1,-146.3585,-1.443701e-06,1726962.2341069481
PART_003_R247G182B210A255,7439,0.004496717,-0.0008478975,-0.0004602765,945572.5,-925.3003,-4.475945e-06,1637780.3963934497
PART_003_R247G182B210A255,7440,0.004460904,-0.001065657,-0.0002880498,910068.4,-56.7608,-4.384621e-06,1576284.7102287852
PART_003_R247G182B210A255,7441,0.004378814,-0.001358693,-0.0006612121,889485.7,-384.4174,-3.590394e-06,1540634.5688850686
PART_003_R247G182B210A255,7442,0.004405821,-0.00132421,-0.0003879663,882690.3,0.0001162301,-1.557465e-06,1528864.4469482147
PART_002_R214G39B40A255,7443,0.004373963,-0.001376977,-0.000669082,889485.7,384.4176,3.417265e-06,1540634.5688852186
PART_002_R214G39B40A255,7444,0.004445319,-0.001115337,-0.0003067308,910068.4,56.76099,4.022426e-06,1576284.7102288057
PART_002_R214G39B40A255,7445,0.004454986,-0.0009972446,-0.0005222748,945572.5,925.3004,6.273483e-06,1637780.3963936192
PART_002_R214G39B40A255,7446,0.004537352,-0.0006185826,-0.0001180579,997062.1,146.3585,3.88008e-06,1726962.2341069481
PART_002_R214G39B40A255,7447,0.004589702,-0.0005097627,-0.0003337328,1065912.0,347.6778,-9.530458e-07,1846213.8386090484
PART_003_R247G182B210A255,7448,-4262238.0,409.4719,-467.7463,1032769.0,-59.13341,1354.275,4622365.833858275
PART_003_R247G182B210A255,7449,-4262058.0,184.0144,300.3669,964427.5,-865.3517,3495.951,4577947.470773128
PART_003_R247G182B210A255,7450,-4262325.0,-194.1098,-128.2075,913527.8,-60.21696,4584.893,4546394.4849184565
PART_003_R247G182B210A255,7451,-4262297.0,-74.96547,-163.9193,878889.4,-672.5331,4176.452,4525875.711508754
PART_003_R247G182B210A255,7452,-4262341.0,-272.5537,-99.96937,858767.3,11.58288,2459.772,4514246.893496621
PART_001_R158G218B229A255,7453,-4262376.0,-103.5254,-372.901,852242.5,9.281913e-05,0.0002567032,4510517.753485686
PART_001_R158G218B229A255,7454,-4262341.0,-272.5537,-99.96936,858767.3,-11.58267,-2459.771,4514246.893499707
PART_002_R214G39B40A255,7455,-4262297.0,-74.96541,-163.9193,878889.4,672.5332,-4176.452,4525875.711537052
PART_002_R214G39B40A255,7456,-4262325.0,-194.1096,-128.2075,913527.8,60.21708,-4584.893,4546394.485012207
PART_002_R214G39B40A255,7457,-4262058.0,184.0147,300.367,964427.5,865.3518,-3495.95,4577947.4709571
PART_002_R214G39B40A255,7458,-4262238.0,409.4723,-467.7462,1032769.0,59.13344,-1354.275,4622365.83408884
PART_003_R247G182B210A255,7459,-8523790.0,902.3499,1057.995,932913.9,-447.3522,3075.381,8676561.560893735
PART_003_R247G182B210A255,7460,-8524618.0,47.50593,-596.71,865939.5,35.94712,8493.75,8655298.999220919
PART_003_R247G182B210A255,7461,-8524435.0,-15.75535,21.43648,817671.8,-852.6954,10884.4,8641305.43424997
PART_003_R247G182B210A255,7462,-8524687.0,-588.5008,-169.285,785365.0,132.0342,9832.552,8632178.952952016
PART_001_R158G218B229A255,7463,-8524751.0,-202.8709,-749.1105,767156.4,-129.2477,5811.798,8627221.619110381
PART_001_R158G218B229A255,7464,-8524680.0,-285.177,-450.887,761253.2,0.0001019469,0.0005266196,8625683.38463183
PART_001_R158G218B229A255,7465,-8524751.0,-202.8709,-749.1105,767156.4,129.2479,-5811.797,8627221.61910837
PART_001_R158G218B229A255,7466,-8524687.0,-588.5009,-169.285,785365.0,-132.0341,-9832.551,8632178.952899223
PART_002_R214G39B40A255,7467,-8524435.0,-15.75548,21.4364,817671.8,852.6955,-10884.39,8641305.434108632
PART_002_R214G39B40A255,7468,-8524618.0,47.50565,-596.7101,865939.5,-35.94706,-8493.75,8655298.999033783
PART_002_R214G39B40A255,7469,-8523790.0,902.3496,1057.995,932913.9,447.3522,-3075.381,8676561.560746362
PART_003_R247G182B210A255,7470,-12786860.0,1248.213,-1862.636,764228.0,112.3403,6642.077,12854890.321138758
PART_003_R247G182B210A255,7471,-12786250.0,410.7612,827.1474,701009.7,-1123.975,16755.41,12844419.31751719
PART_003_R247G182B210A255,7472,-12787060.0,-998.6608,-240.617,657568.5,445.457,21367.82,12837118.71418221
PART_001_R158G218B229A255,7473,-12787130.0,-302.642,-1144.82,630704.8,119.4582,19071.31,12833029.36291761
PART_001_R158G218B229A255,7474,-12787020.0,-191.1734,-898.8304,615893.4,96.88355,10890.85,12830910.846588848
PART_001_R158G218B229A255,7475,-12787200.0,-332.4525,-1329.897,611096.7,5.22688e-05,0.0008201715,12830103.117736403
PART_001_R158G218B229A255,7476,-12787020.0,-191.1734,-898.8304,615893.4,-96.88341,-10890.85,12830910.846588846
PART_001_R158G218B229A255,7477,-12787130.0,-302.642,-1144.82,630704.8,-119.4581,-19071.31,12833029.362917608
PART_001_R158G218B229A255,7478,-12787060.0,-998.6607,-240.6169,657568.5,-445.4569,-21367.81,12837118.71423187
PART_002_R214G39B40A255,7479,-12786250.0,410.7614,827.1475,701009.6,1123.975,-16755.41,12844419.30129342
PART_002_R214G39B40A255,7480,-12786860.0,1248.214,-1862.636,764228.0,-112.3403,-6642.077,12854890.32163628
PART_003_R247G182B210A255,7481,-17047050.0,2177.84,3363.973,522768.8,-1054.387,12172.5,17073860.240090203
PART_003_R247G182B210A255,7482,-17049600.0,-1331.893,-862.852,466110.4,1027.604,33337.52,17067705.061269008
PART_001_R158G218B229A255,7483,-17049690.0,-549.6684,-1913.962,435090.6,734.5962,40755.26,17065251.945342608
PART_001_R158G218B229A255,7484,-17049360.0,79.73882,-1568.675,417103.3,215.8395,33724.4,17064015.68291218
PART_001_R158G218B229A255,7485,-17049660.0,-499.0056,-1875.815,407187.7,180.084,18846.74,17063085.601047244
PART_001_R158G218B229A255,7486,-17049330.0,246.4764,-1621.772,404161.0,3.98887e-05,0.001143441,17063008.14665323
PART_001_R158G218B229A255,7487,-17049660.0,-499.0057,-1875.815,407187.7,-180.0839,-18846.74,17063085.600997277
PART_001_R158G218B229A255,7488,-17049360.0,79.73878,-1568.675,417103.3,-215.8394,-33724.39,17064015.6828329
PART_001_R158G218B229A255,7489,-17049690.0,-549.6685,-1913.962,435090.6,-734.5962,-40755.26,17065251.94529265
PART_001_R158G218B229A255,7490,-17049600.0,-1331.893,-862.852,466110.4,-1027.604,-33337.52,17067705.061269008
PART_002_R214G39B40A255,7491,-17047050.0,2177.84,3363.973,522768.8,1054.387,-12172.5,17073860.240090203
PART_003_R247G182B210A255,7492,-21312750.0,1500.263,-6521.436,192001.0,1622.349,32815.51,21312911.198204987
PART_001_R158G218B229A255,7493,-21313140.0,-1926.349,-4275.781,164997.0,998.9688,70946.51,21312309.56036383
PART_001_R158G218B229A255,7494,-21311730.0,998.3303,-2939.514,154671.0,195.5004,72236.98,21312810.753048033
PART_001_R158G218B229A255,7495,-21312240.0,-881.8104,-2604.168,147853.0,233.5874,56329.83,21312259.052337978
PART_001_R158G218B229A255,7496,-21311630.0,639.0811,-2274.568,144589.9,32.90376,30400.76,21312348.92592449
PART_001_R158G218B229A255,7497,-21312070.0,-658.2285,-2295.843,143390.7,8.744545e-06,0.001505623,21312040.192759983
PART_001_R158G218B229A255,7498,-21311630.0,639.0812,-2274.568,144589.9,-32.90373,-30400.75,21312348.925931703
PART_001_R158G218B229A255,7499,-21312240.0,-881.8104,-2604.168,147853.0,-233.5874,-56329.83,21312259.052337978
PART_001_R158G218B229A255,7500,-21311730.0,998.3305,-2939.514,154671.0,-195.5003,-72236.98,21312810.75314805
PART_001_R158G218B229A255,7501,-21313140.0,-1926.349,-4275.781,164997.0,-998.9687,-70946.51,21312309.560363818
PART_001_R158G218B229A255,7502,-21312750.0,1500.263,-6521.436,192001.0,-1622.349,-32815.51,21312911.198204987
PART_003_R247G182B210A255,7503,20994650.0,-1476.477,6427.801,192001.1,1598.184,-32815.52,20994886.563161813
PART_000_R31G119B180A255,7504,20995030.0,1896.274,4208.391,164997.0,984.03,-70946.47,20994282.687008407
PART_000_R31G119B180A255,7505,20993650.0,-982.0965,2899.152,154671.1,192.6011,-72237.03,20994773.889505602
PART_000_R31G119B180A255,7506,20994150.0,867.2819,2561.815,147852.9,230.0898,-56329.79,20994224.18370678
PART_000_R31G119B180A255,7507,20993550.0,-628.1708,2244.086,144589.9,32.41792,-30400.78,20994301.98861385
PART_000_R31G119B180A255,7508,20993980.0,647.0186,2258.111,143390.7,2.462958e-05,-0.001522068,20993996.588141054
PART_000_R31G119B180A255,7509,20993550.0,-628.1708,2244.086,144589.9,-32.41787,30400.78,20994301.98861385
PART_000_R31G119B180A255,7510,20994150.0,867.2819,2561.815,147852.9,-230.0898,56329.79,20994224.18370678
PART_000_R31G119B180A255,7511,20993650.0,-982.0969,2899.151,154671.1,-192.6011,72237.03,20994773.89020545
PART_000_R31G119B180A255,7512,20995030.0,1896.274,4208.391,164997.0,-984.03,70946.47,20994282.687008407
PART_000_R31G119B180A255,7513,20994650.0,-1476.478,6427.8,192001.1,-1598.184,32815.52,20994886.56416168
PART_003_R247G182B210A255,7514,16792610.0,-2144.333,-3310.567,522768.7,-1038.662,-12172.53,16819740.490520775
PART_003_R247G182B210A255,7515,16795130.0,1310.873,846.816,466110.4,1012.267,-33337.47,16813544.192846388
PART_000_R31G119B180A255,7516,16795210.0,542.6535,1888.517,435090.6,723.6331,-40755.31,16811042.37721757
PART_000_R31G119B180A255,7517,16794900.0,-79.75157,1542.167,417103.3,212.617,-33724.36,16809802.051729437
PART_000_R31G119B180A255,7518,16795190.0,492.7824,1850.904,407187.7,177.3968,-18846.76,16808852.381970905
PART_000_R31G119B180A255,7519,16794860.0,-244.0193,1594.486,404161.0,7.761122e-05,-0.001171051,16808768.034963723
PART_000_R31G119B180A255,7520,16795190.0,492.7825,1850.904,407187.7,-177.3967,18846.76,16808852.381920945
PART_000_R31G119B180A255,7521,16794900.0,-79.75149,1542.167,417103.3,-212.6168,33724.36,16809802.05168946
PART_000_R31G119B180A255,7522,16795210.0,542.6537,1888.517,435090.6,-723.633,40755.31,16811042.37711764
PART_000_R31G119B180A255,7523,16795130.0,1310.873,846.8161,466110.4,-1012.267,33337.47,16813544.192796443
PART_002_R214G39B40A255,7524,16792610.0,-2144.333,-3310.567,522768.7,1038.662,12172.53,16819740.490520775
PART_003_R247G182B210A255,7525,12596010.0,-1228.632,1837.431,764228.1,110.6698,-6642.087,12665072.94808108
PART_003_R247G182B210A255,7526,12595410.0,-405.5405,-817.3106,701009.7,-1107.196,-16755.38,12654439.757827634
PART_003_R247G182B210A255,7527,12596210.0,984.6805,239.4939,657568.5,438.8062,-21367.85,12647041.018620888
PART_000_R31G119B180A255,7528,12596280.0,297.1713,1125.282,630704.8,117.6767,-19071.28,12642895.635709811
PART_000_R31G119B180A255,7529,12596160.0,189.2779,887.8545,615893.4,95.43684,-10890.87,12640728.205707623
PART_000_R31G119B180A255,7530,12596350.0,326.5213,1307.609,611096.7,0.0001029219,-0.0008490161,12639927.537966486
PART_000_R31G119B180A255,7531,12596160.0,189.2779,887.8545,615893.4,-95.4366,10890.86,12640728.20568177
PART_000_R31G119B180A255,7532,12596280.0,297.1712,1125.282,630704.8,-117.6765,19071.28,12642895.635759624
PART_000_R31G119B180A255,7533,12596210.0,984.6803,239.4938,657568.5,-438.8061,21367.85,12647041.018770264
PART_002_R214G39B40A255,7534,12595410.0,-405.5409,-817.3107,701009.7,1107.196,16755.38,12654439.75807647
PART_002_R214G39B40A255,7535,12596010.0,-1228.633,1837.431,764228.1,-110.6697,6642.087,12665072.94857852
PART_003_R247G182B210A255,7536,8396570.0,-888.3301,-1040.472,932913.8,-440.68,-3075.392,8551584.500288486
PART_003_R247G182B210A255,7537,8397385.0,-47.41812,586.0942,865939.5,35.40847,-8493.727,8530024.726123272
PART_003_R247G182B210A255,7538,8397205.0,16.16512,-19.42757,817671.8,-839.9683,-10884.42,8515820.468658403
PART_003_R247G182B210A255,7539,8397452.0,579.0689,165.0844,785365.0,130.0637,-9832.533,8506564.289077306
PART_000_R31G119B180A255,7540,8397517.0,200.5045,739.5983,767156.4,-127.3187,-5811.809,8501534.32511707
PART_000_R31G119B180A255,7541,8397445.0,280.2632,442.4921,761253.3,0.0001644658,-0.0005501657,8499972.537647398
PART_000_R31G119B180A255,7542,8397517.0,200.5045,739.5983,767156.4,127.319,5811.808,8501534.325115032
PART_000_R31G119B180A255,7543,8397452.0,579.069,165.0845,785365.0,-130.0635,9832.532,8506564.288975116
PART_002_R214G39B40A255,7544,8397205.0,16.16533,-19.42747,817671.8,839.9684,10884.42,8515820.468505591
PART_002_R214G39B40A255,7545,8397385.0,-47.41773,586.0943,865939.5,-35.40837,8493.727,8530024.725882072
PART_002_R214G39B40A255,7546,8396570.0,-888.3296,-1040.471,932913.8,440.68,3075.392,8551584.499551993
PART_003_R247G182B210A255,7547,4198622.0,-403.0359,461.6577,1032769.0,-58.24736,-1354.278,4563772.78840689
PART_003_R247G182B210A255,7548,4198446.0,-181.5799,-296.7468,964427.5,-852.4328,-3495.94,4518778.28222034
PART_003_R247G182B210A255,7549,4198708.0,191.5301,127.1434,913527.7,-59.31931,-4584.906,4486810.953387149
PART_003_R247G182B210A255,7550,4198681.0,73.51786,160.629,878889.4,-662.4947,-4176.442,4466019.752328047
PART_003_R247G182B210A255,7551,4198725.0,268.8149,99.31713,858767.3,11.40982,-2459.777,4454234.836023113
PART_000_R31G119B180A255,7552,4198758.0,101.646,366.4956,852242.5,0.0001698857,-0.0002729775,4450455.602867277
PART_000_R31G119B180A255,7553,4198725.0,268.8149,99.31712,858767.3,-11.40948,2459.777,4454234.836027823
PART_002_R214G39B40A255,7554,4198681.0,73.51778,160.629,878889.4,662.4949,4176.441,4466019.752362935
PART_002_R214G39B40A255,7555,4198708.0,191.5299,127.1433,913527.7,59.31952,4584.905,4486810.953524453
PART_002_R214G39B40A255,7556,4198446.0,-181.5803,-296.747,964427.5,852.433,3495.94,4518778.2824992
PART_002_R214G39B40A255,7557,4198622.0,-403.0364,461.6575,1032769.0,58.2474,1354.278,4563772.788728929
PART_003_R247G182B210A255,7558,0.004601196,0.000121033,0.0002003648,1065912.0,-342.4922,-3.295359e-06,1846213.8357012495
PART_003_R247G182B210A255,7559,0.004689472,0.0004026854,-2.920664e-06,997062.1,-144.1761,-1.331607e-05,1726962.2335562157
PART_003_R247G182B210A255,7560,0.004825581,0.001030155,0.0005701647,945572.5,-911.49,-1.302799e-05,1637780.3731608249
PART_003_R247G182B210A255,7561,0.004854868,0.001296477,0.0003735252,910068.4,-55.91304,-1.306695e-05,1576284.7101378876
PART_003_R247G182B210A255,7562,0.004948375,0.001666278,0.0008177606,889485.7,-378.6801,-6.850217e-06,1540634.5646224234
PART_003_R247G182B210A255,7563,0.004906771,0.00160081,0.0004975985,882690.3,0.000192759,-1.195091e-06,1528864.4469482147
PART_002_R214G39B40A255,7564,0.004946338,0.001680014,0.0008246244,889485.7,378.6804,4.769799e-06,1540634.5646226446
PART_002_R214G39B40A255,7565,0.004861534,0.001363675,0.00039828,910068.4,55.91335,1.103381e-05,1576284.7101379207
PART_002_R214G39B40A255,7566,0.004852857,0.001215958,0.000645228,945572.5,911.4902,1.147106e-05,1637780.3731611585
PART_002_R214G39B40A255,7567,0.004745209,0.0007539981,0.0001345699,997062.1,144.1762,1.040415e-05,1726962.2335562406
PART_002_R214G39B40A255,7568,0.004681776,0.0006006281,0.0003852907,1065912.0,342.4922,5.605084e-06,1846213.8357012495
PART_003_R247G182B210A255,7569,-4198622.0,403.0359,-461.6571,1032769.0,-58.24737,1354.278,4563772.7886828
PART_003_R247G182B210A255,7570,-4198446.0,181.5787,296.7458,964427.5,-852.4329,3495.94,4518778.281198322
PART_003_R247G182B210A255,7571,-4198708.0,-191.5318,-127.1435,913527.7,-59.31931,4584.906,4486810.952544988
PART_003_R247G182B210A255,7572,-4198681.0,-73.52085,-160.6308,878889.4,-662.4947,4176.442,4466019.750076458
PART_003_R247G182B210A255,7573,-4198725.0,-268.8178,-99.31771,858767.3,11.40982,2459.777,4454234.834383063
PART_001_R158G218B229A255,7574,-4198758.0,-101.6496,-366.4975,852242.5,0.0001709795,0.0002701622,4450455.600272873
PART_001_R158G218B229A255,7575,-4198725.0,-268.8179,-99.31772,858767.3,-11.40948,-2459.777,4454234.834331221
PART_002_R214G39B40A255,7576,-4198681.0,-73.52092,-160.6308,878889.4,662.4949,-4176.441,4466019.750040836
PART_002_R214G39B40A255,7577,-4198708.0,-191.532,-127.1435,913527.7,59.31951,-4584.905,4486810.952448357
PART_002_R214G39B40A255,7578,-4198446.0,181.5784,296.7457,964427.5,852.433,-3495.94,4518778.281012549
PART_002_R214G39B40A255,7579,-4198622.0,403.0355,-461.6572,1032769.0,58.2474,-1354.278,4563772.788452764
PART_003_R247G182B210A255,7580,-8396570.0,888.3308,1040.473,932913.8,-440.68,3075.392,8551584.50112318
PART_003_R247G182B210A255,7581,-8397385.0,47.41847,-586.0954,865939.5,35.40848,8493.727,8530024.725704981
PART_003_R247G182B210A255,7582,-8397205.0,-16.16258,19.42993,817671.8,-839.9683,10884.42,8515820.471074276
PART_003_R247G182B210A255,7583,-8397452.0,-579.0668,-165.0849,785365.0,130.0637,9832.533,8506564.289866915
PART_001_R158G218B229A255,7584,-8397517.0,-200.5007,-739.5955,767156.4,-127.3187,5811.809,8501534.32837656
PART_001_R158G218B229A255,7585,-8397445.0,-280.2605,-442.4924,761253.3,0.0001607464,0.000547148,8499972.538832914
PART_001_R158G218B229A255,7586,-8397517.0,-200.5007,-739.5955,767156.4,127.319,-5811.808,8501534.328374522
PART_001_R158G218B229A255,7587,-8397452.0,-579.0668,-165.0849,785365.0,-130.0635,-9832.532,8506564.28986344
PART_002_R214G39B40A255,7588,-8397205.0,-16.16241,19.42998,817671.8,839.9685,-10884.42,8515820.471182803
PART_002_R214G39B40A255,7589,-8397385.0,47.41877,-586.0953,865939.5,-35.40838,-8493.727,8530024.725901874
PART_002_R214G39B40A255,7590,-8396570.0,888.3313,1040.474,932913.8,440.6801,-3075.392,8551584.501859691
PART_003_R247G182B210A255,7591,-12596010.0,1228.633,-1837.428,764228.1,110.6698,6642.087,12665072.950069763
PART_003_R247G182B210A255,7592,-12595410.0,405.5384,817.3073,701009.7,-1107.196,16755.38,12654439.755140068
PART_003_R247G182B210A255,7593,-12596210.0,-984.6814,-239.4917,657568.5,438.8062,21367.85,12647041.019268382
PART_001_R158G218B229A255,7594,-12596280.0,-297.1752,-1125.286,630704.8,117.6767,19071.28,12642895.631774602
PART_001_R158G218B229A255,7595,-12596160.0,-189.28,-887.8529,615893.4,95.43684,10890.87,12640728.205458362
PART_001_R158G218B229A255,7596,-12596350.0,-326.5259,-1307.613,611096.7,0.0001026309,0.0008426712,12639927.533681553
PART_001_R158G218B229A255,7597,-12596160.0,-189.2801,-887.8529,615893.4,-95.43661,-10890.86,12640728.205382682
PART_001_R158G218B229A255,7598,-12596280.0,-297.1752,-1125.286,630704.8,-117.6765,-19071.28,12642895.631774595
PART_001_R158G218B229A255,7599,-12596210.0,-984.6816,-239.4918,657568.5,-438.8061,-21367.85,12647041.019118985
PART_002_R214G39B40A255,7600,-12595410.0,405.5381,817.3071,701009.7,1107.196,-16755.38,12654439.754891226
PART_002_R214G39B40A255,7601,-12596010.0,1228.633,-1837.428,764228.1,-110.6698,-6642.087,12665072.950069763
PART_003_R247G182B210A255,7602,-16792610.0,2144.335,3310.572,522768.7,-1038.662,12172.53,16819740.49401585
PART_003_R247G182B210A255,7603,-16795130.0,-1310.874,-846.8199,466110.4,1012.267,33337.47,16813544.19039917
PART_001_R158G218B229A255,7604,-16795210.0,-542.6499,-1888.512,435090.6,723.6331,40755.31,16811042.381513122
PART_001_R158G218B229A255,7605,-16794900.0,79.75277,-1542.17,417103.3,212.617,33724.36,16809802.050830577
PART_001_R158G218B229A255,7606,-16795190.0,-492.7775,-1850.899,407187.7,177.3968,18846.76,16808852.386916533
PART_001_R158G218B229A255,7607,-16794860.0,244.0211,-1594.489,404161.0,7.358755e-05,0.001163755,16808768.034364637
PART_001_R158G218B229A255,7608,-16795190.0,-492.7775,-1850.899,407187.7,-177.3967,-18846.76,16808852.38691653
PART_001_R158G218B229A255,7609,-16794900.0,79.75281,-1542.17,417103.3,-212.6168,-33724.36,16809802.050850555
PART_001_R158G218B229A255,7610,-16795210.0,-542.6498,-1888.512,435090.6,-723.633,-40755.31,16811042.381563064
PART_001_R158G218B229A255,7611,-16795130.0,-1310.873,-846.8197,466110.4,-1012.267,-33337.47,16813544.190998457
PART_002_R214G39B40A255,7612,-16792610.0,2144.336,3310.572,522768.7,1038.662,-12172.53,16819740.494515073
PART_003_R247G182B210A255,7613,-20994650.0,1476.479,-6427.795,192001.1,1598.184,32815.52,20994886.567160163
PART_001_R158G218B229A255,7614,-20995030.0,-1896.277,-4208.396,164997.0,984.0301,70946.47,20994282.68300903
PART_001_R158G218B229A255,7615,-20993650.0,982.0964,-2899.147,154671.1,192.6011,72237.03,20994773.891954653
PART_001_R158G218B229A255,7616,-20994150.0,-867.2868,-2561.821,147852.9,230.0898,56329.79,20994224.178257313
PART_001_R158G218B229A255,7617,-20993550.0,628.1694,-2244.082,144589.9,32.41791,30400.78,20994301.9899132
PART_001_R158G218B229A255,7618,-20993980.0,-647.024,-2258.118,143390.7,2.267645e-05,0.001520314,20993996.58194158
PART_001_R158G218B229A255,7619,-20993550.0,628.1694,-2244.082,144589.9,-32.41787,-30400.78,20994301.9899132
PART_001_R158G218B229A255,7620,-20994150.0,-867.2869,-2561.821,147852.9,-230.0898,-56329.79,20994224.178207308
PART_001_R158G218B229A255,7621,-20993650.0,982.0964,-2899.147,154671.1,-192.6011,-72237.03,20994773.891954653
PART_001_R158G218B229A255,7622,-20995030.0,-1896.277,-4208.397,164997.0,-984.03,-70946.47,20994282.68250915
PART_001_R158G218B229A255,7623,-20994650.0,1476.479,-6427.796,192001.1,-1598.184,-32815.52,20994886.56666051
PART_003_R247G182B210A255,7624,20676550.0,-1455.246,6327.387,192001.0,1573.929,-32815.51,20676867.83228612
PART_000_R31G119B180A255,7625,20676930.0,1868.625,4147.547,164997.0,969.144,-70946.51,20676262.38639069
PART_000_R31G119B180A255,7626,20675560.0,-968.3043,2852.357,154671.0,189.6677,-72236.99,20676732.413882
PART_000_R31G119B180A255,7627,20676060.0,855.2606,2525.847,147853.0,226.6127,-56329.83,20676185.695704192
PART_000_R31G119B180A255,7628,20675460.0,-619.7712,2207.253,144589.9,31.92247,-30400.76,20676250.198197115
PART_000_R31G119B180A255,7629,20675890.0,638.3504,2226.73,143390.7,3.529649e-05,-0.001576836,20675949.21225702
PART_000_R31G119B180A255,7630,20675460.0,-619.7712,2207.253,144589.9,-31.92238,30400.76,20676250.198197115
PART_000_R31G119B180A255,7631,20676060.0,855.2607,2525.847,147853.0,-226.6127,56329.82,20676185.695572462
PART_000_R31G119B180A255,7632,20675560.0,-968.3041,2852.357,154671.0,-189.6676,72236.99,20676732.41378198
PART_000_R31G119B180A255,7633,20676930.0,1868.625,4147.547,164997.0,-969.144,70946.5,20676262.38628775
PART_000_R31G119B180A255,7634,20676550.0,-1455.245,6327.387,192001.0,-1573.929,32815.51,20676867.831785902
PART_003_R247G182B210A255,7635,16538180.0,-2112.662,-3263.021,522768.8,-1022.915,-12172.51,16565645.753977958
PART_003_R247G182B210A255,7636,16540650.0,1291.943,836.5664,466110.4,996.9297,-33337.51,16559378.329120534
PART_000_R31G119B180A255,7637,16540740.0,533.4578,1857.351,435090.6,712.6682,-40755.27,16556854.554376334
PART_000_R31G119B180A255,7638,16540430.0,-77.56236,1521.33,417103.3,209.3964,-33724.39,16555581.660254918
PART_000_R31G119B180A255,7639,16540710.0,484.312,1820.336,407187.7,174.7085,-18846.75,16554619.917626329
PART_000_R31G119B180A255,7640,16540390.0,-239.3265,1572.844,404161.0,0.0001198873,-0.001235642,16554530.66993685
PART_000_R31G119B180A255,7641,16540710.0,484.312,1820.336,407187.7,-174.7083,18846.74,16554619.917592168
PART_000_R31G119B180A255,7642,16540430.0,-77.56247,1521.33,417103.3,-209.3962,33724.39,16555581.660309866
PART_000_R31G119B180A255,7643,16540740.0,533.4575,1857.351,435090.6,-712.6681,40755.27,16556854.554526184
PART_000_R31G119B180A255,7644,16540650.0,1291.943,836.5662,466110.4,-996.9297,33337.51,16559378.32922042
PART_002_R214G39B40A255,7645,16538180.0,-2112.663,-3263.021,522768.8,1022.915,12172.51,16565645.754477158
PART_003_R247G182B210A255,7646,12405160.0,-1210.795,1807.468,764228.0,108.9879,-6642.079,12475290.193748321
PART_003_R247G182B210A255,7647,12404570.0,-398.6513,-802.8748,701009.7,-1090.423,-16755.4,12464483.598561743
PART_003_R247G182B210A255,7648,12405360.0,969.0055,233.8469,657568.5,432.1594,-21367.82,12456989.804429676
PART_000_R31G119B180A255,7649,12405430.0,293.4508,1110.238,630704.8,115.8926,-19071.31,12452780.329460932
PART_000_R31G119B180A255,7650,12405310.0,185.6291,872.4079,615893.4,93.9915,-10890.85,12450579.16129077
PART_000_R31G119B180A255,7651,12405500.0,322.3695,1289.793,611096.7,0.000175436,-0.0009122775,12449769.052077113
PART_000_R31G119B180A255,7652,12405310.0,185.6291,872.4079,615893.4,-93.99113,10890.85,12450579.161290763
PART_000_R31G119B180A255,7653,12405430.0,293.4509,1110.238,630704.8,-115.8923,19071.31,12452780.329411112
PART_000_R31G119B180A255,7654,12405360.0,969.0059,233.847,657568.5,-432.1592,21367.82,12456989.804180715
PART_002_R214G39B40A255,7655,12404570.0,-398.6508,-802.8746,701009.7,1090.423,16755.4,12464483.598213417
PART_002_R214G39B40A255,7656,12405160.0,-1210.794,1807.468,764228.0,-108.9879,6642.079,12475290.193250963
PART_003_R247G182B210A255,7657,8269349.0,-875.3217,-1026.125,932913.9,-433.9992,-3075.383,8426676.18367685
PART_003_R247G182B210A255,7658,8270152.0,-46.19143,578.6129,865939.5,34.87372,-8493.746,8404807.038122002
PART_003_R247G182B210A255,7659,8269975.0,15.39125,-20.51604,817671.8,-827.2417,-10884.4,8390390.209311249
PART_003_R247G182B210A255,7660,8270218.0,570.8237,163.9521,785365.0,128.093,-9832.549,8380997.190464097
PART_000_R31G119B180A255,7661,8270281.0,196.9227,727.0256,767156.4,-125.3894,-5811.8,8375893.691748694
PART_000_R31G119B180A255,7662,8270211.0,276.5522,437.1493,761253.2,0.0002553375,-0.0006009936,8374306.357707588
PART_000_R31G119B180A255,7663,8270281.0,196.9227,727.0256,767156.4,125.3899,5811.799,8375893.691746634
PART_000_R31G119B180A255,7664,8270218.0,570.8237,163.9521,785365.0,-128.0926,9832.548,8380997.190460559
PART_002_R214G39B40A255,7665,8269975.0,15.39102,-20.51609,817671.8,827.242,10884.4,8390390.209449327
PART_002_R214G39B40A255,7666,8270152.0,-46.19187,578.6127,865939.5,-34.87356,8493.746,8404807.038436877
PART_002_R214G39B40A255,7667,8269349.0,-875.3223,-1026.125,932913.9,433.9993,3075.383,8426676.183971291
PART_003_R247G182B210A255,7668,4135007.0,-397.195,453.9322,1032769.0,-57.36758,-1354.275,4505317.942119756
PART_003_R247G182B210A255,7669,4134833.0,-178.5727,-291.5439,964427.5,-839.5197,-3495.949,4459729.570721947
PART_003_R247G182B210A255,7670,4135091.0,188.3699,124.5224,913527.8,-58.41952,-4584.896,4427340.73297404
PART_003_R247G182B210A255,7671,4135064.0,72.6755,158.8869,878889.4,-652.4572,-4176.45,4406267.140713745
PART_003_R247G182B210A255,7672,4135107.0,264.4754,97.12612,858767.3,11.23726,-2459.773,4394323.23260841
PART_000_R31G119B180A255,7673,4135140.0,100.3826,361.6312,852242.5,0.0002789759,-0.0002979045,4390492.485909311
PART_000_R31G119B180A255,7674,4135107.0,264.4755,97.12612,858767.3,-11.23671,2459.772,4394323.23255968
PART_002_R214G39B40A255,7675,4135064.0,72.67559,158.887,878889.4,652.4577,4176.45,4406267.1406248165
PART_002_R214G39B40A255,7676,4135091.0,188.3701,124.5225,913527.8,58.41987,4584.895,4427340.732830855
PART_002_R214G39B40A255,7677,4134833.0,-178.5723,-291.5437,964427.5,839.52,3495.948,4459729.570441608
PART_002_R214G39B40A255,7678,4135007.0,-397.1944,453.9324,1032769.0,57.36766,1354.275,4505317.941752583
PART_003_R247G182B210A255,7679,0.004570596,-0.0001759893,-0.0002407841,1065912.0,-337.2999,-2.710505e-06,1846213.8328334743
PART_003_R247G182B210A255,7680,0.004449799,-0.0005066258,-2.241584e-05,997062.1,-141.9899,-4.31804e-06,1726962.23301282
PART_003_R247G182B210A255,7681,0.004273169,-0.001277455,-0.0006758934,945572.5,-897.6793,-7.086144e-06,1637780.3502769005
PART_003_R247G182B210A255,7682,0.004218616,-0.001608559,-0.0004515926,910068.4,-55.06622,-6.299596e-06,1576284.7100484562
PART_003_R247G182B210A255,7683,0.004105637,-0.002030314,-0.000971971,889485.7,-372.9421,-3.616658e-06,1540634.5604233665
PART_003_R247G182B210A255,7684,0.004140131,-0.001976339,-0.0005985706,882690.3,0.0003035587,1.034662e-07,1528864.4469482147
PART_002_R214G39B40A255,7685,0.004095748,-0.002059468,-0.0009827196,889485.7,372.9427,3.496006e-06,1540634.5604238021
PART_002_R214G39B40A255,7686,0.004193782,-0.001693716,-0.0004861028,910068.4,55.06671,5.952569e-06,1576284.7100485077
PART_002_R214G39B40A255,7687,0.004223073,-0.001489388,-0.0007616897,945572.5,897.6797,7.180922e-06,1637780.3502775582
PART_002_R214G39B40A255,7688,0.004350055,-0.0009301584,-0.000190502,997062.1,141.9901,3.430171e-06,1726962.233012869
PART_002_R214G39B40A255,7689,0.004428455,-0.0007554183,-0.0004738582,1065912.0,337.3,1.364392e-06,1846213.832833529
PART_003_R247G182B210A255,7690,-4135007.0,397.1948,-453.933,1032769.0,-57.36758,1354.275,4505317.941660942
PART_003_R247G182B210A255,7691,-4134833.0,178.5741,291.5452,964427.5,-839.5198,3495.949,4459729.571973723
PART_003_R247G182B210A255,7692,-4135091.0,-188.3678,-124.5223,913527.8,-58.41952,4584.895,4427340.733998261
PART_003_R247G182B210A255,7693,-4135064.0,-72.67186,-158.8848,878889.4,-652.4572,4176.45,4406267.143407045
PART_003_R247G182B210A255,7694,-4135107.0,-264.4718,-97.12535,858767.3,11.23726,2459.773,4394323.234664348
PART_001_R158G218B229A255,7695,-4135140.0,-100.3782,-361.6288,852242.5,0.0002752296,0.00029946,4390492.489111477
PART_001_R158G218B229A255,7696,-4135107.0,-264.4718,-97.12534,858767.3,-11.23671,-2459.772,4394323.23466737
PART_002_R214G39B40A255,7697,-4135064.0,-72.67178,-158.8848,878889.4,652.4577,-4176.45,4406267.143444805
PART_002_R214G39B40A255,7698,-4135091.0,-188.3676,-124.5222,913527.8,58.41987,-4584.895,4427340.734138368
PART_002_R214G39B40A255,7699,-4134833.0,178.5745,291.5454,964427.5,839.52,-3495.948,4459729.572249642
PART_002_R214G39B40A255,7700,-4135007.0,397.1954,-453.9327,1032769.0,57.36767,-1354.275,4505317.942073997
PART_003_R247G182B210A255,7701,-8269349.0,875.3208,1026.123,932913.9,-433.9992,3075.383,8426676.182253744
PART_003_R247G182B210A255,7702,-8270152.0,46.19094,-578.6114,865939.5,34.87373,8493.746,8404807.038618784
PART_003_R247G182B210A255,7703,-8269975.0,-15.39439,20.51319,817671.8,-827.2417,10884.4,8390390.20635923
PART_003_R247G182B210A255,7704,-8270218.0,-570.8264,-163.9515,785365.0,128.093,9832.549,8380997.189428142
PART_001_R158G218B229A255,7705,-8270281.0,-196.9274,-727.029,767156.4,-125.3894,5811.8,8375893.687749921
PART_001_R158G218B229A255,7706,-8270211.0,-276.5556,-437.149,761253.2,0.0002520973,0.000604359,8374306.356176868
PART_001_R158G218B229A255,7707,-8270281.0,-196.9274,-727.0291,767156.4,125.3899,-5811.799,8375893.687698501
PART_001_R158G218B229A255,7708,-8270218.0,-570.8265,-163.9515,785365.0,-128.0926,-9832.548,8380997.18937527
PART_002_R214G39B40A255,7709,-8269975.0,-15.39459,20.51307,817671.8,827.242,-10884.4,8390390.206201615
PART_002_R214G39B40A255,7710,-8270152.0,46.19055,-578.6115,865939.5,-34.87356,-8493.746,8404807.038377699
PART_002_R214G39B40A255,7711,-8269349.0,875.3203,1026.122,932913.9,433.9993,-3075.383,8426676.181517672
PART_003_R247G182B210A255,7712,-12405160.0,1210.794,-1807.472,764228.0,108.9879,6642.079,12475290.19126298
PART_003_R247G182B210A255,7713,-12404570.0,398.6538,802.8788,701009.7,-1090.423,16755.4,12464483.601796314
PART_003_R247G182B210A255,7714,-12405360.0,-969.0045,-233.8495,657568.5,432.1594,21367.82,12456989.80363287
PART_001_R158G218B229A255,7715,-12405430.0,-293.4461,-1110.233,630704.8,115.8926,19071.31,12452780.334292203
PART_001_R158G218B229A255,7716,-12405310.0,-185.6265,-872.4099,615893.4,93.9915,10890.85,12450579.161589859
PART_001_R158G218B229A255,7717,-12405500.0,-322.364,-1289.788,611096.7,0.000174156,0.0009215528,12449769.057308134
PART_001_R158G218B229A255,7718,-12405310.0,-185.6265,-872.4099,615893.4,-93.99112,-10890.85,12450579.16158985
PART_001_R158G218B229A255,7719,-12405430.0,-293.446,-1110.233,630704.8,-115.8923,-19071.31,12452780.334342007
PART_001_R158G218B229A255,7720,-12405360.0,-969.0043,-233.8495,657568.5,-432.1592,-21367.82,12456989.803732421
PART_002_R214G39B40A255,7721,-12404570.0,398.6542,802.8789,701009.7,1090.423,-16755.4,12464483.602045119
PART_002_R214G39B40A255,7722,-12405160.0,1210.794,-1807.471,764228.0,-108.9879,-6642.079,12475290.191759976
PART_003_R247G182B210A255,7723,-16538180.0,2112.66,3263.016,522768.8,-1022.915,12172.51,16565645.750483038
PART_003_R247G182B210A255,7724,-16540650.0,-1291.942,-836.5616,466110.4,996.9297,33337.51,16559378.332017148
PART_001_R158G218B229A255,7725,-16540740.0,-533.4622,-1857.357,435090.6,712.6682,40755.27,16556854.549181866
PART_001_R158G218B229A255,7726,-16540430.0,77.56089,-1521.326,417103.3,209.3964,33724.39,16555581.66151831
PART_001_R158G218B229A255,7727,-16540710.0,-484.318,-1820.343,407187.7,174.7085,18846.75,16554619.911132304
PART_001_R158G218B229A255,7728,-16540390.0,239.3243,-1572.841,404161.0,0.0001138554,0.001243817,16554530.670336066
PART_001_R158G218B229A255,7729,-16540710.0,-484.3181,-1820.343,407187.7,-174.7083,-18846.74,16554619.911048181
PART_001_R158G218B229A255,7730,-16540430.0,77.56084,-1521.326,417103.3,-209.3962,-33724.39,16555581.661493322
PART_001_R158G218B229A255,7731,-16540740.0,-533.4624,-1857.357,435090.6,-712.6681,-40755.27,16556854.549081946
PART_001_R158G218B229A255,7732,-16540650.0,-1291.943,-836.5617,466110.4,-996.9297,-33337.51,16559378.331467824
PART_002_R214G39B40A255,7733,-16538180.0,2112.66,3263.016,522768.8,1022.915,-12172.51,16565645.750483038
PART_003_R247G182B210A255,7734,-20676550.0,1455.244,-6327.393,192001.0,1573.929,32815.51,20676867.82828778
PART_001_R158G218B229A255,7735,-20676930.0,-1868.621,-4147.54,164997.0,969.1439,70946.51,20676262.391889807
PART_001_R158G218B229A255,7736,-20675560.0,968.3045,-2852.362,154671.0,189.6677,72236.99,20676732.411482964
PART_001_R158G218B229A255,7737,-20676060.0,-855.2547,-2525.84,147853.0,226.6127,56329.83,20676185.70215356
PART_001_R158G218B229A255,7738,-20675460.0,619.7729,-2207.258,144589.9,31.92247,30400.76,20676250.196547925
PART_001_R158G218B229A255,7739,-20675890.0,-638.3436,-2226.723,143390.7,3.511304e-05,0.001579368,20675949.219156507
PART_001_R158G218B229A255,7740,-20675460.0,619.7729,-2207.258,144589.9,-31.92239,-30400.76,20676250.196547925
PART_001_R158G218B229A255,7741,-20676060.0,-855.2546,-2525.84,147853.0,-226.6127,-56329.82,20676185.70212183
PART_001_R158G218B229A255,7742,-20675560.0,968.3048,-2852.362,154671.0,-189.6677,-72236.99,20676732.411632992
PART_001_R158G218B229A255,7743,-20676930.0,-1868.621,-4147.54,164997.0,-969.1439,-70946.5,20676262.391786866
PART_001_R158G218B229A255,7744,-20676550.0,1455.244,-6327.393,192001.0,-1573.929,-32815.51,20676867.82828778
PART_003_R247G182B210A255,7745,20358450.0,-1431.927,6232.51,192001.1,1549.747,-32815.52,20358846.59896106
PART_000_R31G119B180A255,7746,20358820.0,1838.994,4081.356,164997.0,954.2149,-70946.48,20358236.85776516
PART_000_R31G119B180A255,7747,20357480.0,-952.5197,2810.815,154671.1,186.7622,-72237.02,20358698.321348272
PART_000_R31G119B180A255,7748,20357960.0,841.1885,2484.664,147852.9,223.119,-56329.8,20358141.69586918
PART_000_R31G119B180A255,7749,20357380.0,-609.3246,2175.606,144589.9,31.43487,-30400.78,20358205.541052133
PART_000_R31G119B180A255,7750,20357790.0,627.6021,2190.161,143390.7,6.310922e-05,-0.001644857,20357896.17689706
PART_000_R31G119B180A255,7751,20357380.0,-609.3247,2175.606,144589.9,-31.43475,30400.77,20358205.54105734
PART_000_R31G119B180A255,7752,20357960.0,841.1884,2484.664,147852.9,-223.1189,56329.8,20358141.69591918
PART_000_R31G119B180A255,7753,20357480.0,-952.5201,2810.815,154671.1,-186.7621,72237.02,20358698.321548305
PART_000_R31G119B180A255,7754,20358820.0,1838.993,4081.356,164997.0,-954.2149,70946.48,20358236.858265184
PART_000_R31G119B180A255,7755,20358450.0,-1431.928,6232.509,192001.1,-1549.747,32815.52,20358846.599960923
PART_003_R247G182B210A255,7756,16283750.0,-2079.492,-3210.686,522768.7,-1007.186,-12172.52,16311559.546830667
PART_003_R247G182B210A255,7757,16286180.0,1271.306,821.5885,466110.4,981.5926,-33337.48,16305235.010598376
PART_000_R31G119B180A255,7758,16286270.0,526.0461,1830.861,435090.6,701.7047,-40755.3,16302671.67995453
PART_000_R31G119B180A255,7759,16285960.0,-77.16943,1495.86,417103.3,206.1743,-33724.36,16301371.977726905
PART_000_R31G119B180A255,7760,16286240.0,477.6818,1794.393,407187.7,172.0212,-18846.76,16300401.33039496
PART_000_R31G119B180A255,7761,16285920.0,-236.4566,1546.591,404161.0,0.0001914013,-0.001322027,16300303.514281334
PART_000_R31G119B180A255,7762,16286240.0,477.6818,1794.393,407187.7,-172.0209,18846.76,16300401.33039495
PART_000_R31G119B180A255,7763,16285960.0,-77.16929,1495.86,417103.3,-206.174,33724.36,16301371.977656953
PART_000_R31G119B180A255,7764,16286270.0,526.0464,1830.861,435090.6,-701.7045,40755.3,16302671.67980465
PART_000_R31G119B180A255,7765,16286180.0,1271.307,821.5887,466110.4,-981.5925,33337.48,16305235.009999115
PART_002_R214G39B40A255,7766,16283750.0,-2079.491,-3210.686,522768.7,1007.186,12172.52,16311559.546331491
PART_003_R247G182B210A255,7767,12214310.0,-1191.531,1781.396,764228.1,107.3153,-6642.086,12285537.71109739
PART_003_R247G182B210A255,7768,12213730.0,-393.1265,-792.2,701009.7,-1073.645,-16755.38,12274557.740559421
PART_003_R247G182B210A255,7769,12214510.0,954.715,231.8985,657568.5,425.5095,-21367.85,12266960.531292642
PART_000_R31G119B180A255,7770,12214570.0,288.2964,1091.518,630704.8,114.1107,-19071.29,12262680.140196493
PART_000_R31G119B180A255,7771,12214460.0,183.4106,860.6156,615893.4,92.54509,-10890.86,12260449.069690429
PART_000_R31G119B180A255,7772,12214640.0,316.759,1268.318,611096.7,0.00028455,-0.0009957267,12259624.301834907
PART_000_R31G119B180A255,7773,12214460.0,183.4106,860.6156,615893.4,-92.54452,10890.86,12260449.069690416
PART_000_R31G119B180A255,7774,12214570.0,288.2963,1091.518,630704.8,-114.1102,19071.29,12262680.140246287
PART_000_R31G119B180A255,7775,12214510.0,954.7147,231.8983,657568.5,-425.5091,21367.85,12266960.531541511
PART_002_R214G39B40A255,7776,12213730.0,-393.1271,-792.2001,701009.7,1073.646,16755.38,12274557.740907952
PART_002_R214G39B40A255,7777,12214310.0,-1191.532,1781.396,764228.1,-107.3152,6642.085,12285537.711593036
PART_003_R247G182B210A255,7778,8142128.0,-861.4866,-1009.179,932913.8,-427.3254,-3075.391,8301836.775976347
PART_003_R247G182B210A255,7779,8142918.0,-45.89643,568.5672,865939.5,34.33587,-8493.731,8279651.437584178
PART_003_R247G182B210A255,7780,8142744.0,15.58739,-19.06945,817671.8,-814.5146,-10884.42,8265012.227674383
PART_003_R247G182B210A255,7781,8142984.0,561.6104,160.3107,785365.0,126.1226,-9832.536,8255482.706483695
PART_000_R31G119B180A255,7782,8143046.0,194.3389,716.9586,767156.4,-123.4603,-5811.808,8250300.966411166
PART_000_R31G119B180A255,7783,8142977.0,271.8608,429.311,761253.3,0.0003917104,-0.0006652768,8248689.877700253
PART_000_R31G119B180A255,7784,8143046.0,194.3389,716.9586,767156.4,123.461,5811.806,8250300.966406971
PART_000_R31G119B180A255,7785,8142984.0,561.6105,160.3108,785365.0,-126.122,9832.535,8255482.706381462
PART_002_R214G39B40A255,7786,8142744.0,15.58772,-19.0693,817671.8,814.5151,10884.41,8265012.227398573
PART_002_R214G39B40A255,7787,8142918.0,-45.89586,568.5675,865939.5,-34.3356,8493.73,8279651.43715328
PART_002_R214G39B40A255,7788,8142128.0,-861.4859,-1009.179,932913.8,427.3255,3075.391,8301836.775633065
PART_003_R247G182B210A255,7789,4071391.0,-390.8668,447.5464,1032769.0,-56.48275,-1354.278,4447002.965136627
PART_003_R247G182B210A255,7790,4071220.0,-176.035,-287.6369,964427.5,-826.6019,-3495.941,4400809.014794114
PART_003_R247G182B210A255,7791,4071475.0,185.6825,123.1746,913527.7,-57.52143,-4584.904,4367987.276584544
PART_003_R247G182B210A255,7792,4071448.0,71.33428,155.8763,878889.4,-642.4189,-4176.443,4346625.939431729
PART_003_R247G182B210A255,7793,4071491.0,260.6234,96.19268,858767.3,11.06436,-2459.777,4334518.222392651
PART_000_R31G119B180A255,7794,4071523.0,98.61064,355.5039,852242.5,0.0004310149,-0.0003349866,4330635.350523537
PART_000_R31G119B180A255,7795,4071491.0,260.6234,96.19268,858767.3,-11.06351,2459.776,4334518.222390942
PART_002_R214G39B40A255,7796,4071448.0,71.33418,155.8763,878889.4,642.4196,4176.443,4346625.939478874
PART_002_R214G39B40A255,7797,4071475.0,185.6822,123.1745,913527.7,57.52198,4584.904,4367987.27677098
PART_002_R214G39B40A255,7798,4071220.0,-176.0356,-287.6371,964427.5,826.6022,3495.941,4400809.01516434
PART_002_R214G39B40A255,7799,4071391.0,-390.8676,447.5461,1032769.0,56.48286,1354.278,4447002.965640242
PART_003_R247G182B210A255,7800,0.004469308,0.0001637468,0.0002688718,1065912.0,-332.1131,-5.210724e-06,1846213.8300124754
PART_003_R247G182B210A255,7801,0.004610349,0.0006167419,2.71842e-05,997062.1,-139.8067,-2.028301e-05,1726962.2324784552
PART_003_R247G182B210A255,7802,0.004802617,0.001538295,0.0008318012,945572.5,-883.8689,-2.044608e-05,1637780.3277428409
PART_003_R247G182B210A255,7803,0.00485088,0.001948967,0.0005811342,910068.4,-54.21854,-2.047721e-05,1576284.709960301
PART_003_R247G182B210A255,7804,0.004978521,0.002482265,0.001199663,889485.7,-367.2046,-1.032095e-05,1540634.5562887795
PART_003_R247G182B210A255,7805,0.004922743,0.002400352,0.0007599422,882690.3,0.0004645182,-1.714384e-06,1528864.4469482147
PART_002_R214G39B40A255,7806,0.004973702,0.002498589,0.001203902,889485.7,367.2055,7.704589e-06,1540634.556289423
PART_002_R214G39B40A255,7807,0.004859455,0.002046938,0.0006177464,910068.4,54.21931,1.521062e-05,1576284.7099603806
PART_002_R214G39B40A255,7808,0.00484292,0.001814932,0.0009380029,945572.5,883.8695,1.790605e-05,1637780.3277438125
PART_002_R214G39B40A255,7809,0.004691087,0.001123091,0.0002267918,997062.1,139.8071,1.71057e-05,1726962.2324785525
PART_002_R214G39B40A255,7810,0.004602292,0.0008788279,0.0005556707,1065912.0,332.1132,7.522678e-06,1846213.8300125296
PART_003_R247G182B210A255,7811,-4071391.0,390.8669,-447.5454,1032769.0,-56.48276,1354.278,4447002.965640041
PART_003_R247G182B210A255,7812,-4071220.0,176.0332,287.6353,964427.5,-826.6019,3495.941,4400809.013221347
PART_003_R247G182B210A255,7813,-4071475.0,-185.6851,-123.1748,913527.7,-57.52143,4584.904,4367987.275279656
PART_003_R247G182B210A255,7814,-4071448.0,-71.33877,-155.8789,878889.4,-642.4189,4176.443,4346625.936111223
PART_003_R247G182B210A255,7815,-4071491.0,-260.6278,-96.19362,858767.3,11.06436,2459.777,4334518.219884881
PART_001_R158G218B229A255,7816,-4071523.0,-98.61604,-355.5068,852242.5,0.0004314971,0.0003322041,4330635.346621948
PART_001_R158G218B229A255,7817,-4071491.0,-260.6278,-96.19363,858767.3,-11.06351,-2459.776,4334518.219878474
PART_002_R214G39B40A255,7818,-4071448.0,-71.33887,-155.8789,878889.4,642.4196,-4176.443,4346625.936064699
PART_002_R214G39B40A255,7819,-4071475.0,-185.6853,-123.1749,913527.7,57.52198,-4584.904,4367987.275139866
PART_002_R214G39B40A255,7820,-4071220.0,176.0327,287.6351,964427.5,826.6022,-3495.941,4400809.012897716
PART_002_R214G39B40A255,7821,-4071391.0,390.8663,-447.5457,1032769.0,56.48287,-1354.278,4447002.965228014
PART_003_R247G182B210A255,7822,-8142128.0,861.4876,1009.181,932913.8,-427.3254,3075.391,8301836.777447673
PART_003_R247G182B210A255,7823,-8142918.0,45.89697,-568.569,865939.5,34.33588,8493.731,8279651.436964733
PART_003_R247G182B210A255,7824,-8142744.0,-15.58361,19.07293,817671.8,-814.5146,10884.42,8265012.231250682
PART_003_R247G182B210A255,7825,-8142984.0,-561.6072,-160.3114,785365.0,126.1226,9832.536,8255482.707716464
PART_001_R158G218B229A255,7826,-8143046.0,-194.3332,-716.9544,767156.4,-123.4603,5811.808,8250300.971296613
PART_001_R158G218B229A255,7827,-8142977.0,-271.8567,-429.3113,761253.3,0.0003955932,0.0006597249,8248689.879575886
PART_001_R158G218B229A255,7828,-8143046.0,-194.3331,-716.9544,767156.4,123.461,-5811.806,8250300.971341769
PART_001_R158G218B229A255,7829,-8142984.0,-561.6071,-160.3114,785365.0,-126.1219,-9832.535,8255482.7077621715
PART_002_R214G39B40A255,7830,-8142744.0,-15.58338,19.073,817671.8,814.5151,-10884.41,8265012.231359102
PART_002_R214G39B40A255,7831,-8142918.0,45.89743,-568.5689,865939.5,-34.3356,-8493.73,8279651.437237038
PART_002_R214G39B40A255,7832,-8142128.0,861.4883,1009.182,932913.8,427.3255,-3075.391,8301836.778281435
PART_003_R247G182B210A255,7833,-12214310.0,1191.532,-1781.392,764228.1,107.3153,6642.086,12285537.71358229
PART_003_R247G182B210A255,7834,-12213730.0,393.1235,792.1951,701009.7,-1073.645,16755.38,12274557.73662876
PART_003_R247G182B210A255,7835,-12214510.0,-954.7163,-231.8953,657568.5,425.5095,21367.85,12266960.532238731
PART_001_R158G218B229A255,7836,-12214570.0,-288.3022,-1091.524,630704.8,114.1107,19071.29,12262680.134319982
PART_001_R158G218B229A255,7837,-12214460.0,-183.4138,-860.6132,615893.4,92.54509,10890.86,12260449.069291713
PART_001_R158G218B229A255,7838,-12214640.0,-316.7658,-1268.325,611096.7,0.0002853086,0.0009826312,12259624.294960683
PART_001_R158G218B229A255,7839,-12214460.0,-183.4139,-860.6132,615893.4,-92.54452,-10890.86,12260449.069241885
PART_001_R158G218B229A255,7840,-12214570.0,-288.3023,-1091.524,630704.8,-114.1102,-19071.29,12262680.134270163
PART_001_R158G218B229A255,7841,-12214510.0,-954.7166,-231.8953,657568.5,-425.5091,-21367.85,12266960.53208935
PART_002_R214G39B40A255,7842,-12213730.0,393.123,792.1948,701009.7,1073.646,-16755.38,12274557.736230988
PART_002_R214G39B40A255,7843,-12214310.0,1191.532,-1781.392,764228.1,-107.3152,-6642.085,12285537.713580666
PART_003_R247G182B210A255,7844,-16283750.0,2079.494,3210.693,522768.7,-1007.186,12172.52,16311559.551323984
PART_003_R247G182B210A255,7845,-16286180.0,-1271.307,-821.5944,466110.4,981.5926,33337.48,16305235.00715253
PART_001_R158G218B229A255,7846,-16286270.0,-526.0407,-1830.853,435090.6,701.7047,40755.3,16302671.68664715
PART_001_R158G218B229A255,7847,-16285960.0,77.17122,-1495.864,417103.3,206.1743,33724.36,16301371.976623418
PART_001_R158G218B229A255,7848,-16286240.0,-477.6744,-1794.385,407187.7,172.0212,18846.76,16300401.338087697
PART_001_R158G218B229A255,7849,-16285920.0,236.4593,-1546.596,404161.0,0.0001949708,0.00131042,16300303.513133029
PART_001_R158G218B229A255,7850,-16286240.0,-477.6744,-1794.385,407187.7,-172.0209,-18846.76,16300401.338087687
PART_001_R158G218B229A255,7851,-16285960.0,77.17126,-1495.864,417103.3,-206.174,-33724.36,16301371.976643387
PART_001_R158G218B229A255,7852,-16286270.0,-526.0405,-1830.853,435090.6,-701.7045,-40755.3,16302671.68674703
PART_001_R158G218B229A255,7853,-16286180.0,-1271.306,-821.5942,466110.4,-981.5925,-33337.48,16305235.007751754
PART_002_R214G39B40A255,7854,-16283750.0,2079.495,3210.693,522768.7,1007.186,-12172.52,16311559.55182316
PART_003_R247G182B210A255,7855,-20358450.0,1431.93,-6232.502,192001.1,1549.747,32815.52,20358846.604458895
PART_001_R158G218B229A255,7856,-20358820.0,-1838.998,-4081.364,164997.0,954.215,70946.48,20358236.851766206
PART_001_R158G218B229A255,7857,-20357480.0,952.5195,-2810.809,154671.1,186.7621,72237.02,20358698.324247103
PART_001_R158G218B229A255,7858,-20357960.0,-841.1958,-2484.673,147852.9,223.119,56329.8,20358141.68772002
PART_001_R158G218B229A255,7859,-20357380.0,609.3226,-2175.6,144589.9,31.43485,30400.78,20358205.543051153
PART_001_R158G218B229A255,7860,-20357790.0,-627.6104,-2190.17,143390.7,6.537035e-05,0.001640509,20357896.168247744
PART_001_R158G218B229A255,7861,-20357380.0,609.3225,-2175.6,144589.9,-31.43474,-30400.77,20358205.54295635
PART_001_R158G218B229A255,7862,-20357960.0,-841.1959,-2484.673,147852.9,-223.1189,-56329.8,20358141.687670015
PART_001_R158G218B229A255,7863,-20357480.0,952.5194,-2810.809,154671.1,-186.7621,-72237.02,20358698.324197095
PART_001_R158G218B229A255,7864,-20358820.0,-1838.998,-4081.364,164997.0,-954.2149,-70946.48,20358236.85176619
PART_001_R158G218B229A255,7865,-20358450.0,1431.929,-6232.502,192001.1,-1549.747,-32815.52,20358846.60395868
PART_003_R247G182B210A255,7866,20040350.0,-1410.313,6133.113,192001.0,1525.506,-32815.51,20040829.836056817
PART_000_R31G119B180A255,7867,20040710.0,1810.98,4019.529,164997.0,939.3209,-70946.5,20040209.50029313
PART_000_R31G119B180A255,7868,20039390.0,-938.3604,2764.986,154671.0,183.8339,-72237.0,20040658.228664882
PART_000_R31G119B180A255,7869,20039870.0,828.7922,2447.738,147853.0,219.6388,-56329.82,20040105.634619467
PART_000_R31G119B180A255,7870,20039300.0,-600.5466,2139.727,144589.9,30.94089,-30400.76,20040164.61896827
PART_000_R31G119B180A255,7871,20039700.0,618.5542,2157.827,143390.7,9.219035e-05,-0.00177898,20039850.913275264
PART_000_R31G119B180A255,7872,20039300.0,-600.5465,2139.727,144589.9,-30.94069,30400.76,20040164.618918262
PART_000_R31G119B180A255,7873,20039870.0,828.7924,2447.738,147853.0,-219.6387,56329.82,20040105.63451946
PART_000_R31G119B180A255,7874,20039390.0,-938.3601,2764.986,154671.0,-183.8338,72236.99,20040658.22840672
PART_000_R31G119B180A255,7875,20040710.0,1810.981,4019.529,164997.0,-939.3208,70946.5,20040209.499793094
PART_000_R31G119B180A255,7876,20040350.0,-1410.312,6133.113,192001.0,-1525.506,32815.51,20040829.835556608
PART_003_R247G182B210A255,7877,16029310.0,-2047.544,-3162.262,522768.7,-991.4419,-12172.51,16057478.170277858
PART_003_R247G182B210A255,7878,16031710.0,1252.064,810.4724,466110.4,966.255,-33337.51,16051098.854379624
PART_000_R31G119B180A255,7879,16031800.0,517.1771,1800.551,435090.6,690.7401,-40755.28,16048500.003596382
PART_000_R31G119B180A255,7880,16031490.0,-75.31067,1474.173,417103.3,202.9535,-33724.38,16047167.528137982
PART_000_R31G119B180A255,7881,16031770.0,469.547,1764.671,407187.7,169.3331,-18846.75,16046192.835835172
PART_000_R31G119B180A255,7882,16031460.0,-232.0998,1524.104,404161.0,0.0002872511,-0.001474585,16046091.053282054
PART_000_R31G119B180A255,7883,16031770.0,469.547,1764.671,407187.7,-169.3326,18846.75,16046192.835835155
PART_000_R31G119B180A255,7884,16031490.0,-75.31082,1474.173,417103.3,-202.953,33724.38,16047167.5282129
PART_000_R31G119B180A255,7885,16031800.0,517.1767,1800.551,435090.6,-690.7399,40755.27,16048500.003719972
PART_000_R31G119B180A255,7886,16031710.0,1252.063,810.4721,466110.4,-966.2549,33337.51,16051098.855028763
PART_002_R214G39B40A255,7887,16029310.0,-2047.545,-3162.262,522768.7,991.4419,12172.51,16057478.170777012
PART_003_R247G182B210A255,7888,12023460.0,-1173.434,1752.143,764228.0,105.6352,-6642.08,12095821.77791869
PART_003_R247G182B210A255,7889,12022890.0,-386.4868,-778.4514,701009.7,-1056.871,-16755.4,12084658.857830102
PART_003_R247G182B210A255,7890,12023660.0,939.2938,226.9274,657568.5,418.8622,-21367.83,12076958.952667424
PART_000_R31G119B180A255,7891,12023720.0,284.3157,1075.803,630704.8,112.327,-19071.3,12072611.42834625
PART_000_R31G119B180A255,7892,12023610.0,180.0253,845.8373,615893.4,91.09963,-10890.85,12070343.547434391
PART_000_R31G119B180A255,7893,12023790.0,312.343,1249.834,611096.7,0.0004381467,-0.001140857,12069509.578911154
PART_000_R31G119B180A255,7894,12023610.0,180.0253,845.8374,615893.4,-91.09875,10890.85,12070343.54738457
PART_000_R31G119B180A255,7895,12023720.0,284.3159,1075.803,630704.8,-112.3263,19071.3,12072611.428246634
PART_000_R31G119B180A255,7896,12023660.0,939.2942,226.9276,657568.5,-418.8616,21367.83,12076958.952368712
PART_002_R214G39B40A255,7897,12022890.0,-386.486,-778.4511,701009.7,1056.871,16755.4,12084658.857282897
PART_002_R214G39B40A255,7898,12023460.0,-1173.433,1752.144,764228.0,-105.6351,6642.08,12095821.776924692
PART_003_R247G182B210A255,7899,8014907.0,-848.3273,-994.3582,932913.9,-420.6458,-3075.384,8177072.702113912
PART_003_R247G182B210A255,7900,8015685.0,-44.83984,560.6187,865939.5,33.80058,-8493.743,8154559.5912479665
PART_003_R247G182B210A255,7901,8015514.0,14.98884,-19.69653,817671.8,-801.7878,-10884.4,8139694.175845047
PART_003_R247G182B210A255,7902,8015750.0,553.1866,158.7205,785365.0,124.152,-9832.547,8130020.078045713
PART_000_R31G119B180A255,7903,8015811.0,190.9361,704.8414,767156.4,-121.531,-5811.802,8124760.562926207
PART_000_R31G119B180A255,7904,8015743.0,267.9684,423.5125,761253.2,0.0005912128,-0.0007769004,8123122.093756676
PART_000_R31G119B180A255,7905,8015811.0,190.9361,704.8414,767156.4,121.5321,5811.8,8124760.562921965
PART_000_R31G119B180A255,7906,8015750.0,553.1865,158.7204,785365.0,-124.1511,9832.545,8130020.078137005
PART_002_R214G39B40A255,7907,8015514.0,14.98851,-19.69661,817671.8,801.7886,10884.4,8139694.176047156
PART_002_R214G39B40A255,7908,8015685.0,-44.84053,560.6185,865939.5,-33.80016,8493.743,8154559.591685397
PART_002_R214G39B40A255,7909,8014907.0,-848.3284,-994.3585,932913.9,420.646,3075.384,8177072.70280013
PART_003_R247G182B210A255,7910,4007776.0,-384.9374,440.0644,1032769.0,-55.60196,-1354.276,4388836.85892827
PART_003_R247G182B210A255,7911,4007607.0,-173.1127,-282.6694,964427.5,-813.6879,-3495.947,4342020.311144202
PART_003_R247G182B210A255,7912,4007858.0,182.6098,120.7858,913527.8,-56.62186,-4584.897,4308755.273293945
PART_003_R247G182B210A255,7913,4007832.0,70.40356,153.9044,878889.4,-632.3812,-4176.449,4287098.276177681
PART_003_R247G182B210A255,7914,4007873.0,256.3754,94.23155,858767.3,10.89185,-2459.774,4274821.9641194325
PART_000_R31G119B180A255,7915,4007905.0,97.2577,350.411,852242.5,0.000655955,-0.0003928036,4270885.178740988
PART_000_R31G119B180A255,7916,4007873.0,256.3754,94.23156,858767.3,-10.89056,2459.773,4274821.964113008
PART_002_R214G39B40A255,7917,4007832.0,70.40371,153.9045,878889.4,632.3823,4176.448,4287098.27605839
PART_002_R214G39B40A255,7918,4007858.0,182.6102,120.7859,913527.7,56.62271,4584.897,4308755.2094564615
PART_002_R214G39B40A255,7919,4007607.0,-173.112,-282.6691,964427.5,813.6884,3495.947,4342020.310682974
PART_002_R214G39B40A255,7920,4007776.0,-384.9366,440.0648,1032769.0,55.60216,1354.276,4388836.85838032
PART_003_R247G182B210A255,7921,0.004469741,-0.0002216242,-0.0003223733,1065912.0,-326.9218,-5.075154e-06,1846213.8272328018
PART_003_R247G182B210A255,7922,0.004273427,-0.0007597931,-5.39011e-05,997062.1,-137.621,-5.034586e-06,1726962.2319517727
PART_003_R247G182B210A255,7923,0.004014459,-0.001896081,-0.0009891855,945572.5,-870.0581,-8.743431e-06,1637780.3055575073
PART_003_R247G182B210A255,7924,0.003919245,-0.002425272,-0.0007121839,910068.4,-53.37147,-7.105804e-06,1576284.7098735755
PART_003_R247G182B210A255,7925,0.003749672,-0.003060875,-0.001444248,889485.7,-361.4666,-7.036169e-06,1540634.552217942
PART_003_R247G182B210A255,7926,0.003803975,-0.002967364,-0.0009252216,882690.3,0.00069743,5.755589e-07,1528864.4469482147
PART_002_R214G39B40A255,7927,0.003750902,-0.003060478,-0.001445746,889485.7,361.4679,6.009587e-06,1540634.552218857
PART_002_R214G39B40A255,7928,0.003894852,-0.002532994,-0.0007536978,910068.4,53.37263,9.173835e-06,1576284.709873693
PART_002_R214G39B40A255,7929,0.003944824,-0.002220731,-0.00111441,945572.5,870.0591,9.586407e-06,1637780.305559101
PART_002_R214G39B40A255,7930,0.004129596,-0.001400794,-0.0003099588,997062.1,137.6216,7.477384e-06,1726962.2319519164
PART_002_R214G39B40A255,7931,0.004269756,-0.001088194,-0.0006715247,1065912.0,326.922,1.999889e-07,1846213.8272329082
PART_003_R247G182B210A255,7932,-4007776.0,384.9372,-440.0656,1032769.0,-55.60197,1354.276,4388836.858289192
PART_003_R247G182B210A255,7933,-4007607.0,173.1148,282.6713,964427.5,-813.6879,3495.947,4342020.312990268
PART_003_R247G182B210A255,7934,-4007858.0,-182.6067,-120.7855,913527.8,-56.62186,4584.897,4308755.274875137
PART_003_R247G182B210A255,7935,-4007832.0,-70.39809,-153.9013,878889.4,-632.3812,4176.449,4287098.280183474
PART_003_R247G182B210A255,7936,-4007873.0,-256.3699,-94.23032,858767.3,10.89184,2459.774,4274821.96727404
PART_001_R158G218B229A255,7937,-4007905.0,-97.25113,-350.4074,852242.5,0.0006595717,0.0003938979,4270885.183512744
PART_001_R158G218B229A255,7938,-4007873.0,-256.37,-94.23034,858767.3,-10.89056,-2459.773,4274821.967216055
PART_002_R214G39B40A255,7939,-4007832.0,-70.39801,-153.9013,878889.4,632.3823,-4176.448,4287098.280218433
PART_002_R214G39B40A255,7940,-4007858.0,-182.6064,-120.7854,913527.7,56.62271,-4584.897,4308755.211456207
PART_002_R214G39B40A255,7941,-4007607.0,173.1154,282.6715,964427.5,813.6884,-3495.947,4342020.313359755
PART_002_R214G39B40A255,7942,-4007776.0,384.9382,-440.0652,1032769.0,55.60216,-1354.276,4388836.858928503
PART_003_R247G182B210A255,7943,-8014907.0,848.3261,994.3553,932913.9,-420.6459,3075.384,8177072.700104329
PART_003_R247G182B210A255,7944,-8015685.0,44.83912,-560.6165,865939.5,33.80058,8493.743,8154559.591975179
PART_003_R247G182B210A255,7945,-8015514.0,-14.9935,19.69232,817671.8,-801.7878,10884.4,8139694.171477709
PART_003_R247G182B210A255,7946,-8015750.0,-553.1906,-158.7196,785365.0,124.152,9832.547,8130020.076517744
PART_001_R158G218B229A255,7947,-8015811.0,-190.9432,-704.8465,767156.4,-121.531,5811.802,8124760.556908246
PART_001_R158G218B229A255,7948,-8015743.0,-267.9734,-423.5121,761253.2,0.0005930468,0.0007807594,8123122.0914871
PART_001_R158G218B229A255,7949,-8015811.0,-190.9432,-704.8465,767156.4,121.5321,-5811.8,8124760.556904003
PART_001_R158G218B229A255,7950,-8015750.0,-553.1907,-158.7196,785365.0,-124.1511,-9832.545,8130020.076461155
PART_002_R214G39B40A255,7951,-8015514.0,-14.99383,19.69213,817671.8,801.7886,-10884.4,8139694.171221912
PART_002_R214G39B40A255,7952,-8015685.0,44.83853,-560.6168,865939.5,-33.80016,-8493.743,8154559.59153775
PART_002_R214G39B40A255,7953,-8014907.0,848.3254,994.3549,932913.9,420.646,-3075.384,8177072.699565195
PART_003_R247G182B210A255,7954,-12023460.0,1173.432,-1752.149,764228.0,105.6352,6642.08,12095821.77394344
PART_003_R247G182B210A255,7955,-12022890.0,386.4905,778.4574,701009.7,-1056.871,16755.4,12084658.8626556
PART_003_R247G182B210A255,7956,-12023660.0,-939.2921,-226.9313,657568.5,418.8621,21367.83,12076958.951572075
PART_001_R158G218B229A255,7957,-12023720.0,-284.3086,-1075.796,630704.8,112.327,19071.3,12072611.435367309
PART_001_R158G218B229A255,7958,-12023610.0,-180.0214,-845.8403,615893.4,91.09962,10890.85,12070343.547882915
PART_001_R158G218B229A255,7959,-12023790.0,-312.3348,-1249.827,611096.7,0.000441189,0.001155895,12069509.586481944
PART_001_R158G218B229A255,7960,-12023610.0,-180.0214,-845.8403,615893.4,-91.09875,-10890.85,12070343.547882894
PART_001_R158G218B229A255,7961,-12023720.0,-284.3085,-1075.796,630704.8,-112.3264,-19071.3,12072611.435417091
PART_001_R158G218B229A255,7962,-12023660.0,-939.292,-226.9313,657568.5,-418.8616,-21367.83,12076958.951621797
PART_002_R214G39B40A255,7963,-12022890.0,386.491,778.4577,701009.7,1056.871,-16755.4,12084658.863053571
PART_002_R214G39B40A255,7964,-12023460.0,1173.433,-1752.149,764228.0,-105.6351,-6642.08,12095821.774440616
PART_003_R247G182B210A255,7965,-16029310.0,2047.541,3162.254,522768.7,-991.4419,12172.51,16057478.164786354
PART_003_R247G182B210A255,7966,-16031710.0,-1252.063,-810.4653,466110.4,966.255,33337.51,16051098.858424596
PART_001_R158G218B229A255,7967,-16031800.0,-517.1837,-1800.56,435090.6,690.7401,40755.28,16048499.995805206
PART_001_R158G218B229A255,7968,-16031490.0,75.30848,-1474.167,417103.3,202.9535,33724.38,16047167.530040445
PART_001_R158G218B229A255,7969,-16031770.0,-469.5561,-1764.681,407187.7,169.3331,18846.75,16046192.826294472
PART_001_R158G218B229A255,7970,-16031460.0,232.0965,-1524.099,404161.0,0.0002907729,0.001490804,16046091.054130565
PART_001_R158G218B229A255,7971,-16031770.0,-469.5561,-1764.681,407187.7,-169.3326,-18846.75,16046192.826294458
PART_001_R158G218B229A255,7972,-16031490.0,75.3084,-1474.167,417103.3,-202.953,-33724.38,16047167.530000461
PART_001_R158G218B229A255,7973,-16031800.0,-517.184,-1800.561,435090.6,-690.7399,-40755.27,16048499.99507976
PART_001_R158G218B229A255,7974,-16031710.0,-1252.063,-810.4654,466110.4,-966.2549,-33337.51,16051098.85837464
PART_002_R214G39B40A255,7975,-16029310.0,2047.541,3162.254,522768.7,991.442,-12172.51,16057478.164786372
PART_003_R247G182B210A255,7976,-20040350.0,1410.31,-6133.122,192001.0,1525.506,32815.51,20040829.83005936
PART_001_R158G218B229A255,7977,-20040710.0,-1810.975,-4019.519,164997.0,939.3208,70946.5,20040209.507791795
PART_001_R158G218B229A255,7978,-20039390.0,938.3607,-2764.994,154671.0,183.8339,72237.0,20040658.224816453
PART_001_R158G218B229A255,7979,-20039870.0,-828.7833,-2447.727,147853.0,219.6388,56329.82,20040105.644568406
PART_001_R158G218B229A255,7980,-20039300.0,600.5491,-2139.734,144589.9,30.9409,30400.76,20040164.616719425
PART_001_R158G218B229A255,7981,-20039700.0,-618.5441,-2157.816,143390.7,9.494874e-05,0.001783982,20039850.923824407
PART_001_R158G218B229A255,7982,-20039300.0,600.5491,-2139.734,144589.9,-30.9407,-30400.76,20040164.616719425
PART_001_R158G218B229A255,7983,-20039870.0,-828.7832,-2447.727,147853.0,-219.6387,-56329.82,20040105.644618407
PART_001_R158G218B229A255,7984,-20039390.0,938.361,-2764.994,154671.0,-183.8338,-72236.99,20040658.22485834
PART_001_R158G218B229A255,7985,-20040710.0,-1810.974,-4019.519,164997.0,-939.3208,-70946.5,20040209.50829182
PART_001_R158G218B229A255,7986,-20040350.0,1410.31,-6133.122,192001.0,-1525.506,-32815.51,20040829.83005936
PART_003_R247G182B210A255,7987,19722250.0,-1387.306,6037.406,192001.1,1501.313,-32815.52,19722811.96945502
PART_000_R31G119B180A255,7988,19722610.0,1781.647,3954.141,164997.0,924.3984,-70946.48,19722195.797364563
PART_000_R31G119B180A255,7989,19721310.0,-922.875,2722.657,154671.1,180.9242,-72237.02,19722626.826603975
PART_000_R31G119B180A255,7990,19721780.0,815.0263,2407.337,147852.9,216.1476,-56329.8,19722072.93479041
PART_000_R31G119B180A255,7991,19721210.0,-590.4089,2107.302,144589.9,30.45214,-30400.77,19722112.11485675
PART_000_R31G119B180A255,7992,19721610.0,608.1159,2122.035,143390.7,0.0001514662,-0.001961389,19721808.849133056
PART_000_R31G119B180A255,7993,19721210.0,-590.409,2107.302,144589.9,-30.45187,30400.77,19722112.114906754
PART_000_R31G119B180A255,7994,19721780.0,815.0261,2407.337,147852.9,-216.1474,56329.8,19722072.934890404
PART_000_R31G119B180A255,7995,19721310.0,-922.8756,2722.656,154671.1,-180.9241,72237.01,19722626.827293947
PART_000_R31G119B180A255,7996,19722610.0,1781.646,3954.141,164997.0,-924.3983,70946.48,19722195.797864567
PART_000_R31G119B180A255,7997,19722250.0,-1387.307,6037.406,192001.1,-1501.313,32815.52,19722811.96995523
PART_003_R247G182B210A255,7998,15774880.0,-2014.599,-3110.645,522768.7,-975.7101,-12172.52,15803417.519617362
PART_003_R247G182B210A255,7999,15777240.0,1231.682,796.2018,466110.4,950.9179,-33337.49,15796975.101927686
PART_000_R31G119B180A255,8000,15777320.0,509.4989,1773.361,435090.6,679.7765,-40755.3,15794325.162300004
PART_000_R31G119B180A255,8001,15777020.0,-74.64724,1449.397,417103.3,199.7316,-33724.37,15792973.451764723
PART_000_R31G119B180A255,8002,15777300.0,462.6433,1738.036,407187.7,166.6457,-18846.76,15791989.99799237
PART_000_R31G119B180A255,8003,15776990.0,-228.9547,1498.542,404161.0,0.0004444706,-0.001684267,15791878.424585005
PART_000_R31G119B180A255,8004,15777300.0,462.6434,1738.036,407187.7,-166.6449,18846.75,15791989.997906586
PART_000_R31G119B180A255,8005,15777020.0,-74.64703,1449.397,417103.3,-199.7309,33724.36,15792973.45159573
PART_000_R31G119B180A255,8006,15777320.0,509.4994,1773.361,435090.6,-679.7761,40755.29,15794325.161972798
PART_000_R31G119B180A255,8007,15777240.0,1231.683,796.2022,466110.4,-950.9177,33337.48,15796975.101165272
PART_002_R214G39B40A255,8008,15774880.0,-2014.598,-3110.644,522768.7,975.7102,12172.52,15803417.518619023
PART_003_R247G182B210A255,8009,11832620.0,-1154.383,1725.491,764228.0,103.9611,-6642.085,11906150.10633198
PART_003_R247G182B210A255,8010,11832050.0,-380.7592,-767.2148,701009.7,-1040.094,-16755.39,11894792.129452692
PART_003_R247G182B210A255,8011,11832810.0,924.7944,224.4264,657568.5,412.2127,-21367.84,11886982.541540246
PART_000_R31G119B180A255,8012,11832870.0,279.3724,1057.631,630704.8,110.5449,-19071.29,11882569.148287505
PART_000_R31G119B180A255,8013,11832760.0,177.5899,833.4985,615893.4,89.65349,-10890.86,11880259.918308167
PART_000_R31G119B180A255,8014,11832930.0,306.9468,1228.905,611096.7,0.0006715407,-0.001331793,11879409.813434685
PART_000_R31G119B180A255,8015,11832760.0,177.5898,833.4985,615893.4,-89.65221,10890.86,11880259.918357939
PART_000_R31G119B180A255,8016,11832870.0,279.3723,1057.631,630704.8,-110.5438,19071.29,11882569.148337267
PART_000_R31G119B180A255,8017,11832810.0,924.794,224.4263,657568.5,-412.212,21367.84,11886982.54178901
PART_002_R214G39B40A255,8018,11832050.0,-380.76,-767.215,701009.7,1040.094,16755.38,11894792.129907805
PART_002_R214G39B40A255,8019,11832620.0,-1154.384,1725.49,764228.0,-103.961,6642.084,11906150.107324101
PART_003_R247G182B210A255,8020,7887687.0,-834.6153,-977.7999,932913.8,-413.9711,-3075.39,8052385.744190831
PART_003_R247G182B210A255,8021,7888452.0,-44.40524,550.9552,865939.5,33.26329,-8493.733,8029536.0686685145
PART_003_R247G182B210A255,8022,7888284.0,15.04231,-18.62719,817671.8,-789.0607,-10884.41,8014435.197853945
PART_003_R247G182B210A255,8023,7888516.0,544.1202,155.4537,785365.0,122.1817,-9832.538,8004614.353538244
PART_000_R31G119B180A255,8024,7888576.0,188.2068,694.402,767156.4,-119.6017,-5811.807,7999272.302434896
PART_000_R31G119B180A255,8025,7888509.0,263.4264,416.0471,761253.3,0.0008821368,-0.0009229326,7997608.023867794
PART_000_R31G119B180A255,8026,7888576.0,188.2069,694.4021,767156.4,119.6033,5811.805,7999272.302331998
PART_000_R31G119B180A255,8027,7888516.0,544.1204,155.4539,785365.0,-122.1802,9832.536,8004614.353333714
PART_002_R214G39B40A255,8028,7888284.0,15.04282,-18.62695,817671.8,789.0618,10884.41,8014435.197485174
PART_002_R214G39B40A255,8029,7888452.0,-44.40438,550.9556,865939.5,-33.26262,8493.732,8029536.068046396
PART_002_R214G39B40A255,8030,7887687.0,-834.6143,-977.7994,932913.8,413.9713,3075.389,8052385.743454979
PART_003_R247G182B210A255,8031,3944160.0,-378.6819,433.4794,1032769.0,-54.71794,-1354.278,4330822.485881803
PART_003_R247G182B210A255,8032,3943994.0,-170.506,-278.5698,964427.5,-800.7706,-3495.943,4283370.131134378
PART_003_R247G182B210A255,8033,3944241.0,179.8501,119.2478,913527.7,-55.72342,-4584.903,4249649.282743683
PART_003_R247G182B210A255,8034,3944215.0,69.13374,151.0815,878889.4,-622.3429,-4176.445,4227689.27777812
PART_003_R247G182B210A255,8035,3944256.0,252.4475,93.10977,858767.3,10.71916,-2459.776,4215240.735068494
PART_000_R31G119B180A255,8036,3944288.0,95.55798,344.4703,852242.5,0.0009947582,-0.0004734864,4211249.714748879
PART_000_R31G119B180A255,8037,3944256.0,252.4475,93.10977,858767.3,-10.71726,2459.775,4215240.73506673
PART_002_R214G39B40A255,8038,3944215.0,69.13361,151.0815,878889.4,622.3445,4176.444,4227689.277836504
PART_002_R214G39B40A255,8039,3944241.0,179.8497,119.2476,913527.7,55.72468,4584.902,4249649.283018923
PART_002_R214G39B40A255,8040,3943994.0,-170.5068,-278.5701,964427.5,800.7714,3495.942,4283370.131638821
PART_002_R214G39B40A255,8041,3944160.0,-378.6831,433.4789,1032769.0,54.71821,1354.277,4330822.486655079
PART_003_R247G182B210A255,8042,0.004340064,0.0002309375,0.0003618065,1065912.0,-321.7342,-4.272345e-06,1846213.8244988543
PART_003_R247G182B210A255,8043,0.004547599,0.0009215988,6.437655e-05,997062.1,-135.4373,-2.634812e-05,1726962.2314338598
PART_003_R247G182B210A255,8044,0.004830247,0.002308422,0.001211187,945572.5,-856.2476,-2.927047e-05,1637780.2837220284
PART_003_R247G182B210A255,8045,0.004916354,0.002963118,0.0009041228,910068.4,-52.52376,-2.391803e-05,1576284.709788151
PART_003_R247G182B210A255,8046,0.005093738,0.003721503,0.001763469,889485.7,-355.7289,-1.123831e-05,1540634.5482114246
PART_003_R247G182B210A255,8047,0.005029592,0.003630184,0.001171143,882690.3,0.001051927,-1.859209e-06,1528864.4469482147
PART_002_R214G39B40A255,8048,0.005095484,0.003745418,0.001770902,889485.7,355.7308,1.091823e-05,1540634.5482127408
PART_002_R214G39B40A255,8049,0.004938324,0.003109104,0.0009595061,910068.4,52.52551,2.121006e-05,1576284.7097883262
PART_002_R214G39B40A255,8050,0.004901353,0.002719876,0.001372782,945572.5,856.2489,2.527448e-05,1637780.2837240673
PART_002_R214G39B40A255,8051,0.004689408,0.001698442,0.0003764325,997062.1,135.4381,2.237843e-05,1726962.2314340482
PART_002_R214G39B40A255,8052,0.00454942,0.001307382,0.0007885567,1065912.0,321.7345,1.208208e-05,1846213.824499011
PART_003_R247G182B210A255,8053,-3944160.0,378.6821,-433.478,1032769.0,-54.71795,1354.278,4330822.486610204
PART_003_R247G182B210A255,8054,-3943994.0,170.5035,278.5676,964427.5,-800.7706,3495.943,4283370.1289704535
PART_003_R247G182B210A255,8055,-3944241.0,-179.854,-119.2482,913527.7,-55.72341,4584.903,4249649.28074831
PART_003_R247G182B210A255,8056,-3944215.0,-69.14044,-151.0853,878889.4,-622.3429,4176.444,4227689.272877272
PART_003_R247G182B210A255,8057,-3944256.0,-252.4542,-93.11126,858767.3,10.71916,2459.776,4215240.731237065
PART_001_R158G218B229A255,8058,-3944288.0,-95.56602,-344.4746,852242.5,0.0009902251,0.0004691247,4211249.708970168
PART_001_R158G218B229A255,8059,-3944256.0,-252.4542,-93.11128,858767.3,-10.71726,-2459.775,4215240.731225942
PART_002_R214G39B40A255,8060,-3944215.0,-69.14059,-151.0854,878889.4,622.3445,-4176.444,4227689.272761364
PART_002_R214G39B40A255,8061,-3944241.0,-179.8544,-119.2483,913527.7,55.72467,-4584.902,4249649.280513101
PART_002_R214G39B40A255,8062,-3943994.0,170.5027,278.5672,964427.5,800.7714,-3495.942,4283370.128415969
PART_002_R214G39B40A255,8063,-3944160.0,378.6812,-433.4784,1032769.0,54.71821,-1354.277,4330822.486017243
PART_003_R247G182B210A255,8064,-7887687.0,834.6167,977.8035,932913.8,-413.971,3075.39,8052385.746639993
PART_003_R247G182B210A255,8065,-7888452.0,44.40608,-550.9579,865939.5,33.26329,8493.733,8029536.067755081
PART_003_R247G182B210A255,8066,-7888284.0,-15.03663,18.63234,817671.8,-789.0607,10884.41,8014435.203183711
PART_003_R247G182B210A255,8067,-7888516.0,-544.1153,-155.4547,785365.0,122.1817,9832.538,8004614.355459661
PART_001_R158G218B229A255,8068,-7888576.0,-188.1982,-694.3958,767156.4,-119.6017,5811.807,7999272.309732199
PART_001_R158G218B229A255,8069,-7888509.0,-263.4202,-416.0475,761253.3,0.0008775008,0.0009114603,7997608.026728205
PART_001_R158G218B229A255,8070,-7888576.0,-188.1983,-694.3958,767156.4,119.6033,-5811.805,7999272.309678601
PART_001_R158G218B229A255,8071,-7888516.0,-544.1153,-155.4547,785365.0,-122.1802,-9832.536,8004614.355452223
PART_002_R214G39B40A255,8072,-7888284.0,-15.03632,18.63243,817671.8,789.0618,-10884.41,8014435.203380886
PART_002_R214G39B40A255,8073,-7888452.0,44.40676,-550.9577,865939.5,-33.26262,-8493.732,8029536.06818418
PART_002_R214G39B40A255,8074,-7887687.0,834.6179,977.8039,932913.8,413.9713,-3075.389,8052385.7474226095
PART_003_R247G182B210A255,8075,-11832620.0,1154.385,-1725.484,764228.0,103.9611,6642.085,11906150.110803172
PART_003_R247G182B210A255,8076,-11832050.0,380.7547,767.2075,701009.7,-1040.094,16755.39,11894792.12358346
PART_003_R247G182B210A255,8077,-11832810.0,-924.7965,-224.4217,657568.5,412.2127,21367.84,11886982.542834561
PART_001_R158G218B229A255,8078,-11832870.0,-279.3812,-1057.64,630704.8,110.5449,19071.29,11882569.139425239
PART_001_R158G218B229A255,8079,-11832760.0,-177.5947,-833.4949,615893.4,89.6535,10890.86,11880259.917710245
PART_001_R158G218B229A255,8080,-11832930.0,-306.9569,-1228.915,611096.7,0.0006665339,0.001309996,11879409.80342465
PART_001_R158G218B229A255,8081,-11832760.0,-177.5947,-833.4949,615893.4,-89.65221,-10890.86,11880259.917710215
PART_001_R158G218B229A255,8082,-11832870.0,-279.3813,-1057.64,630704.8,-110.5438,-19071.29,11882569.139375415
PART_001_R158G218B229A255,8083,-11832810.0,-924.7968,-224.4218,657568.5,-412.212,-21367.84,11886982.542635417
PART_002_R214G39B40A255,8084,-11832050.0,380.754,767.2071,701009.7,1040.094,-16755.38,11894792.122994084
PART_002_R214G39B40A255,8085,-11832620.0,1154.384,-1725.485,764228.0,-103.961,-6642.084,11906150.109807696
PART_003_R247G182B210A255,8086,-15774880.0,2014.603,3110.655,522768.7,-975.7101,12172.52,15803417.52660617
PART_003_R247G182B210A255,8087,-15777240.0,-1231.683,-796.2106,466110.4,950.9179,33337.49,15796975.097033963
PART_001_R158G218B229A255,8088,-15777320.0,-509.4908,-1773.35,435090.6,679.7765,40755.3,15794325.171838857
PART_001_R158G218B229A255,8089,-15777020.0,74.64992,-1449.404,417103.3,199.7316,33724.37,15792973.4496077
PART_001_R158G218B229A255,8090,-15777300.0,-462.6322,-1738.024,407187.7,166.6457,18846.76,15791990.009530768
PART_001_R158G218B229A255,8091,-15776990.0,228.9587,-1498.548,404161.0,0.0004394345,0.001662621,15791878.423586808
PART_001_R158G218B229A255,8092,-15777300.0,-462.6322,-1738.024,407187.7,-166.6449,-18846.75,15791990.00949494
PART_001_R158G218B229A255,8093,-15777020.0,74.64996,-1449.404,417103.3,-199.7309,-33724.36,15792973.449563593
PART_001_R158G218B229A255,8094,-15777320.0,-509.4905,-1773.349,435090.6,-679.7761,-40755.29,15794325.172410605
PART_001_R158G218B229A255,8095,-15777240.0,-1231.682,-796.2104,466110.4,-950.9177,-33337.48,15796975.09756981
PART_002_R214G39B40A255,8096,-15774880.0,2014.604,3110.655,522768.7,975.7102,-12172.52,15803417.527105313
PART_003_R247G182B210A255,8097,-19722250.0,1387.31,-6037.394,192001.1,1501.313,32815.52,19722811.97745159
PART_001_R158G218B229A255,8098,-19722610.0,-1781.653,-3954.153,164997.0,924.3985,70946.48,19722195.78836619
PART_001_R158G218B229A255,8099,-19721310.0,922.8748,-2722.647,154671.1,180.9242,72237.02,19722626.831502013
PART_001_R158G218B229A255,8100,-19721780.0,-815.0372,-2407.35,147852.9,216.1476,56329.8,19722072.92284169
PART_001_R158G218B229A255,8101,-19721210.0,590.4058,-2107.293,144589.9,30.45212,30400.77,19722112.11780526
PART_001_R158G218B229A255,8102,-19721610.0,-608.1283,-2122.049,143390.7,0.0001588537,0.001950706,19721808.835934192
PART_001_R158G218B229A255,8103,-19721210.0,590.4058,-2107.293,144589.9,-30.45186,-30400.77,19722112.117805257
PART_001_R158G218B229A255,8104,-19721780.0,-815.0373,-2407.35,147852.9,-216.1474,-56329.8,19722072.92279168
PART_001_R158G218B229A255,8105,-19721310.0,922.8746,-2722.647,154671.1,-180.924,-72237.01,19722626.831292108
PART_001_R158G218B229A255,8106,-19722610.0,-1781.654,-3954.154,164997.0,-924.3984,-70946.48,19722195.7873663
PART_001_R158G218B229A255,8107,-19722250.0,1387.309,-6037.395,192001.1,-1501.313,-32815.52,19722811.976451736
PART_003_R247G182B210A255,8108,19404150.0,-1365.439,5938.685,192001.0,1477.081,-32815.51,19404797.67435986
PART_000_R31G119B180A255,8109,19404500.0,1753.388,3891.657,164997.0,909.4991,-70946.5,19404171.38398999
PART_000_R31G119B180A255,8110,19403220.0,-908.4727,2677.468,154671.0,177.9994,-72237.0,19404588.544781376
PART_000_R31G119B180A255,8111,19403680.0,802.3789,2369.771,147853.0,212.6654,-56329.82,19404029.255012244
PART_000_R31G119B180A255,8112,19403130.0,-581.3796,2072.056,144589.9,29.95915,-30400.77,19404072.43816825
PART_000_R31G119B180A255,8113,19403520.0,598.8141,2089.064,143390.7,0.0002092673,-0.002259928,19403765.620215945
PART_000_R31G119B180A255,8114,19403130.0,-581.3795,2072.055,144589.9,-29.95872,30400.76,19404072.438571095
PART_000_R31G119B180A255,8115,19403680.0,802.3792,2369.771,147853.0,-212.6651,56329.81,19404029.25477514
PART_000_R31G119B180A255,8116,19403220.0,-908.4721,2677.468,154671.0,-177.9991,72237.0,19404588.544481322
PART_000_R31G119B180A255,8117,19404500.0,1753.389,3891.657,164997.0,-909.499,70946.5,19404171.38348996
PART_000_R31G119B180A255,8118,19404150.0,-1365.437,5938.686,192001.0,-1477.081,32815.51,19404797.672859807
PART_003_R247G182B210A255,8119,15520440.0,-1982.469,-3061.634,522768.7,-959.9682,-12172.51,15549362.055771675
PART_003_R247G182B210A255,8120,15522770.0,1212.229,784.5082,466110.4,935.5804,-33337.5,15542860.361663098
PART_000_R31G119B180A255,8121,15522850.0,500.8451,1743.623,435090.6,668.8121,-40755.28,15540171.485853476
PART_000_R31G119B180A255,8122,15522560.0,-73.01217,1427.143,417103.3,196.5107,-33724.38,15538796.257390447
PART_000_R31G119B180A255,8123,15522820.0,454.7289,1708.88,407187.7,163.9579,-18846.75,15537787.131395645
PART_000_R31G119B180A255,8124,15522520.0,-224.8256,1475.49,404161.0,0.0006315198,-0.002020625,15537672.109693456
PART_000_R31G119B180A255,8125,15522820.0,454.7289,1708.88,407187.7,-163.9567,18846.75,15537787.131395608
PART_000_R31G119B180A255,8126,15522560.0,-73.01237,1427.143,417103.3,-196.5097,33724.38,15538796.257490315
PART_000_R31G119B180A255,8127,15522850.0,500.8445,1743.623,435090.6,-668.8114,40755.28,15540171.486153066
PART_000_R31G119B180A255,8128,15522770.0,1212.228,784.5077,466110.4,-935.5801,33337.5,15542860.362412015
PART_002_R214G39B40A255,8129,15520440.0,-1982.471,-3061.634,522768.7,959.9683,12172.51,15549362.056769893
PART_003_R247G182B210A255,8130,11641770.0,-1136.111,1696.713,764228.0,102.2822,-6642.081,11716507.76134463
PART_003_R247G182B210A255,8131,11641210.0,-374.2847,-753.9254,701009.7,-1023.319,-16755.4,11704955.94145587
PART_003_R247G182B210A255,8132,11641950.0,909.5446,219.9072,657568.5,405.5651,-21367.83,11697025.720209166
PART_000_R31G119B180A255,8133,11642020.0,275.2201,1041.468,630704.8,108.7617,-19071.3,11692551.409258045
PART_000_R31G119B180A255,8134,11641910.0,174.383,819.1673,615893.4,88.20806,-10890.86,11690202.39687277
PART_000_R31G119B180A255,8135,11642080.0,302.3569,1209.976,611096.7,0.0009787007,-0.001644896,11689342.956114398
PART_000_R31G119B180A255,8136,11641910.0,174.3831,819.1674,615893.4,-88.20615,10890.85,11690202.396745196
PART_000_R31G119B180A255,8137,11642020.0,275.2204,1041.469,630704.8,-108.7601,19071.3,11692551.408610882
PART_000_R31G119B180A255,8138,11641950.0,909.5453,219.9075,657568.5,-405.5639,21367.83,11697025.719711438
PART_002_R214G39B40A255,8139,11641210.0,-374.2835,-753.9249,701009.7,1023.32,16755.4,11704955.94061074
PART_002_R214G39B40A255,8140,11641770.0,-1136.11,1696.713,764228.0,-102.2819,6642.081,11716507.760847643
PART_003_R247G182B210A255,8141,7760466.0,-821.3554,-962.6622,932913.8,-407.2922,-3075.385,7927779.7334481
PART_003_R247G182B210A255,8142,7761219.0,-43.46324,542.694,865939.5,32.72765,-8493.742,7904581.970847524
PART_003_R247G182B210A255,8143,7761053.0,14.55976,-18.94597,817671.8,-776.3337,-10884.4,7889239.281919513
PART_003_R247G182B210A255,8144,7761282.0,535.5752,153.5567,785365.0,120.2113,-9832.545,7879266.120302258
PART_000_R31G119B180A255,8145,7761341.0,184.922,682.589,767156.4,-117.6722,-5811.803,7873840.844363846
PART_000_R31G119B180A255,8146,7761275.0,259.4106,409.9432,761253.2,0.001275819,-0.001156777,7872147.992717445
PART_000_R31G119B180A255,8147,7761341.0,184.922,682.589,767156.4,117.6746,5811.801,7873840.8443595255
PART_000_R31G119B180A255,8148,7761282.0,535.5751,153.5567,785365.0,-120.2092,9832.543,7879266.12034392
PART_002_R214G39B40A255,8149,7761053.0,14.55928,-18.94606,817671.8,776.3353,10884.4,7889239.282200353
PART_002_R214G39B40A255,8150,7761219.0,-43.4643,542.6936,865939.5,-32.72669,8493.741,7904581.971561061
PART_002_R214G39B40A255,8151,7760466.0,-821.3571,-962.6628,932913.8,407.2926,3075.385,7927779.734574006
PART_003_R247G182B210A255,8152,3880545.0,-372.693,426.1604,1032769.0,-53.83647,-1354.276,4272968.924141805
PART_003_R247G182B210A255,8153,3880382.0,-167.6397,-273.7598,964427.5,-787.8559,-3495.947,4224864.146586123
PART_003_R247G182B210A255,8154,3880624.0,176.8372,117.0148,913527.7,-54.8239,-4584.898,4190675.8373097177
PART_003_R247G182B210A255,8155,3880599.0,68.14548,148.9564,878889.4,-612.3049,-4176.448,4168404.888605031
PART_003_R247G182B210A255,8156,3880639.0,248.2626,91.30306,858767.3,10.54682,-2459.774,4155779.510793029
PART_000_R31G119B180A255,8157,3880670.0,94.147,339.225,852242.5,0.001439679,-0.0005986245,4151730.9406559276
PART_000_R31G119B180A255,8158,3880639.0,248.2626,91.30309,858767.3,-10.54403,2459.773,4155779.510777225
PART_002_R214G39B40A255,8159,3880599.0,68.1457,148.9565,878889.4,612.3073,4176.447,4168404.8884541327
PART_002_R214G39B40A255,8160,3880624.0,176.8378,117.015,913527.7,54.8258,4584.898,4190675.8369394047
PART_002_R214G39B40A255,8161,3880382.0,-167.6388,-273.7594,964427.5,787.8571,3495.946,4224864.145987285
PART_002_R214G39B40A255,8162,3880545.0,-372.6918,426.1609,1032769.0,53.83691,1354.276,4272968.923369791
PART_003_R247G182B210A255,8163,0.004390833,-0.0002601374,-0.0004249346,1065912.0,-316.5435,-7.281407e-06,1846213.8218070415
PART_003_R247G182B210A255,8164,0.004077639,-0.001104231,-0.0001129339,997062.1,-133.2519,-4.942972e-06,1726962.230923837
PART_003_R247G182B210A255,8165,0.00368875,-0.002814979,-0.001450668,945572.5,-842.4367,-5.865146e-06,1637780.2622353006
PART_003_R247G182B210A255,8166,0.003533342,-0.003650696,-0.001123878,910068.4,-51.67639,-4.156614e-06,1576284.7097041283
PART_003_R247G182B210A255,8167,0.003301077,-0.004560536,-0.002137078,889485.7,-349.9907,-7.380755e-06,1540634.5442686724
PART_003_R247G182B210A255,8168,0.003368032,-0.004455662,-0.001446139,882690.3,0.001516542,1.994707e-07,1528864.4469482147
PART_002_R214G39B40A255,8169,0.003296979,-0.004576937,-0.002141466,889485.7,349.9936,4.203189e-06,1540634.5442706489
PART_002_R214G39B40A255,8170,0.00350377,-0.003799958,-0.001181588,910068.4,51.67893,8.662851e-06,1576284.7097043782
PART_002_R214G39B40A255,8171,0.003593292,-0.003290473,-0.001637726,945572.5,842.4387,1.020327e-05,1637780.262238387
PART_002_R214G39B40A255,8172,0.003874353,-0.002063782,-0.0004932686,997062.1,133.2531,7.363971e-06,1726962.2309241148
PART_002_R214G39B40A255,8173,0.004094407,-0.00158699,-0.0009523346,1065912.0,316.5439,-7.168128e-07,1846213.8218072471
PART_003_R247G182B210A255,8174,-3880545.0,372.6927,-426.1621,1032769.0,-53.83647,1354.276,4272968.923233846
PART_003_R247G182B210A255,8175,-3880382.0,167.6429,273.7624,964427.5,-787.8559,3495.947,4224864.149249805
PART_003_R247G182B210A255,8176,-3880624.0,-176.8324,-117.0142,913527.7,-54.8239,4584.898,4190675.8398098154
PART_003_R247G182B210A255,8177,-3880599.0,-68.13726,-148.9517,878889.4,-612.3049,4176.448,4168404.894618886
PART_003_R247G182B210A255,8178,-3880639.0,-248.2543,-91.30116,858767.3,10.54683,2459.774,4155779.515554985
PART_001_R158G218B229A255,8179,-3880670.0,-94.13716,-339.2198,852242.5,0.001431903,0.0005998225,4151730.94768477
PART_001_R158G218B229A255,8180,-3880639.0,-248.2544,-91.30119,858767.3,-10.54402,-2459.773,4155779.515492496
PART_002_R214G39B40A255,8181,-3880599.0,-68.13716,-148.9517,878889.4,612.3073,-4176.447,4168404.894663486
PART_002_R214G39B40A255,8182,-3880624.0,-176.8321,-117.0141,913527.7,54.8258,-4584.897,4190675.8399918014
PART_002_R214G39B40A255,8183,-3880382.0,167.6438,273.7628,964427.5,787.8571,-3495.946,4224864.149845021
PART_002_R214G39B40A255,8184,-3880545.0,372.6941,-426.1616,1032769.0,53.83692,-1354.276,4272968.924096736
PART_003_R247G182B210A255,8185,-7760466.0,821.3537,962.658,932913.9,-407.2923,3075.385,7927779.765862977
PART_003_R247G182B210A255,8186,-7761219.0,43.46222,-542.6908,865939.5,32.72765,8493.742,7904581.971917484
PART_003_R247G182B210A255,8187,-7761053.0,-14.56672,18.93971,817671.8,-776.3337,10884.4,7889239.275416914
PART_003_R247G182B210A255,8188,-7761282.0,-535.5812,-153.5556,785365.0,120.2113,9832.545,7879266.11788931
PART_001_R158G218B229A255,8189,-7761341.0,-184.9325,-682.5965,767156.4,-117.6722,5811.803,7873840.83549279
PART_001_R158G218B229A255,8190,-7761275.0,-259.4182,-409.9427,761253.2,0.00127447,0.001168579,7872147.989217479
PART_001_R158G218B229A255,8191,-7761341.0,-184.9325,-682.5966,767156.4,117.6746,-5811.801,7873840.835439191
PART_001_R158G218B229A255,8192,-7761282.0,-535.5814,-153.5556,785365.0,-120.2092,-9832.543,7879266.117783236
PART_002_R214G39B40A255,8193,-7761053.0,-14.56721,18.93941,817671.8,776.3353,-10884.4,7889239.275028805
PART_002_R214G39B40A255,8194,-7761219.0,43.46136,-542.6911,865939.5,-32.7267,-8493.741,7904581.971344755
PART_002_R214G39B40A255,8195,-7760466.0,821.3527,962.6574,932913.8,407.2926,-3075.385,7927779.729776855
PART_003_R247G182B210A255,8196,-11641770.0,1136.108,-1696.721,764228.0,102.2822,6642.081,11716507.75588075
PART_003_R247G182B210A255,8197,-11641210.0,374.2901,753.9343,701009.7,-1023.319,16755.4,11704955.948567363
PART_003_R247G182B210A255,8198,-11641950.0,-909.5421,-219.913,657568.5,405.5651,21367.83,11697025.718566649
PART_001_R158G218B229A255,8199,-11642020.0,-275.2094,-1041.458,630704.8,108.7617,19071.3,11692551.419562768
PART_001_R158G218B229A255,8200,-11641910.0,-174.3772,-819.1717,615893.4,88.20805,10890.86,11690202.39757027
PART_001_R158G218B229A255,8201,-11642080.0,-302.3445,-1209.965,611096.7,0.0009759186,0.001668336,11689342.967766415
PART_001_R158G218B229A255,8202,-11641910.0,-174.3772,-819.1718,615893.4,-88.20614,-10890.85,11690202.39749249
PART_001_R158G218B229A255,8203,-11642020.0,-275.2094,-1041.458,630704.8,-108.7601,-19071.3,11692551.419562723
PART_001_R158G218B229A255,8204,-11641950.0,-909.5419,-219.913,657568.5,-405.5639,-21367.83,11697025.718666038
PART_002_R214G39B40A255,8205,-11641210.0,374.291,753.9347,701009.7,1023.32,-16755.4,11704955.949214103
PART_002_R214G39B40A255,8206,-11641770.0,1136.11,-1696.721,764228.0,-102.282,-6642.08,11716507.756873004
PART_003_R247G182B210A255,8207,-15520440.0,1982.465,3061.622,522768.7,-959.9683,12172.51,15549362.04778486
PART_003_R247G182B210A255,8208,-15522770.0,-1212.227,-784.4974,466110.4,935.5804,33337.5,15542860.368054595
PART_001_R158G218B229A255,8209,-15522850.0,-500.8549,-1743.637,435090.6,668.8121,40755.28,15540171.473967852
PART_001_R158G218B229A255,8210,-15522560.0,73.00888,-1427.135,417103.3,196.5107,33724.38,15538796.259742068
PART_001_R158G218B229A255,8211,-15522820.0,-454.7426,-1708.894,407187.7,163.9579,18846.75,15537787.11755997
PART_001_R158G218B229A255,8212,-15522520.0,224.8207,-1475.482,404161.0,0.0006344852,0.002046162,15537672.111240823
PART_001_R158G218B229A255,8213,-15522820.0,-454.7426,-1708.894,407187.7,-163.9567,-18846.75,15537787.117559932
PART_001_R158G218B229A255,8214,-15522560.0,73.00878,-1427.134,417103.3,-196.5097,-33724.38,15538796.260191461
PART_001_R158G218B229A255,8215,-15522850.0,-500.8554,-1743.637,435090.6,-668.8115,-40755.28,15540171.47371804
PART_001_R158G218B229A255,8216,-15522770.0,-1212.228,-784.4976,466110.4,-935.5801,-33337.5,15542860.36745537
PART_002_R214G39B40A255,8217,-15520440.0,1982.464,3061.621,522768.7,959.9684,-12172.51,15549362.046786575
PART_003_R247G182B210A255,8218,-19404150.0,1365.434,-5938.699,192001.0,1477.081,32815.51,19404797.66486384
PART_001_R158G218B229A255,8219,-19404500.0,-1753.38,-3891.642,164997.0,909.499,70946.5,19404171.395487923
PART_001_R158G218B229A255,8220,-19403220.0,908.473,-2677.48,154671.0,177.9994,72237.0,19404588.53893376
PART_001_R158G218B229A255,8221,-19403680.0,-802.3655,-2369.754,147853.0,212.6654,56329.82,19404029.27021051
PART_001_R158G218B229A255,8222,-19403130.0,581.3834,-2072.066,144589.9,29.95917,30400.77,19404072.435069934
PART_001_R158G218B229A255,8223,-19403520.0,-598.799,-2089.047,143390.7,0.0002079621,0.002274291,19403765.636264525
PART_001_R158G218B229A255,8224,-19403130.0,581.3834,-2072.066,144589.9,-29.95873,-30400.76,19404072.435022928
PART_001_R158G218B229A255,8225,-19403680.0,-802.3654,-2369.754,147853.0,-212.6651,-56329.81,19404029.27017341
PART_001_R158G218B229A255,8226,-19403220.0,908.4734,-2677.48,154671.0,-177.9992,-72237.0,19404588.539133787
PART_001_R158G218B229A255,8227,-19404500.0,-1753.379,-3891.641,164997.0,-909.4989,-70946.5,19404171.39648778
PART_001_R158G218B229A255,8228,-19404150.0,1365.435,-5938.699,192001.0,-1477.081,-32815.51,19404797.665364046
PART_003_R247G182B210A255,8229,19086040.0,-1342.639,5842.426,192001.1,1452.881,-32815.52,19086773.266392317
PART_000_R31G119B180A255,8230,19086390.0,1724.254,3826.805,164997.0,894.5807,-70946.49,19086149.93178033
PART_000_R31G119B180A255,8231,19085130.0,-893.1872,2634.616,154671.1,175.0868,-72237.01,19086549.869224384
PART_000_R31G119B180A255,8232,19085590.0,788.8162,2329.892,147852.9,209.1759,-56329.81,19085998.22353285
PART_000_R31G119B180A255,8233,19085040.0,-571.4491,2039.113,144589.9,29.46964,-30400.77,19086022.067674246
PART_000_R31G119B180A255,8234,19085430.0,588.581,2053.792,143390.7,0.0003359616,-0.002697801,19085724.861638878
PART_000_R31G119B180A255,8235,19085040.0,-571.4492,2039.113,144589.9,-29.46905,30400.77,19086022.06772425
PART_000_R31G119B180A255,8236,19085590.0,788.8159,2329.891,147852.9,-209.1754,56329.8,19085998.224094182
PART_000_R31G119B180A255,8237,19085130.0,-893.1881,2634.615,154671.1,-175.0866,72237.01,19086549.870174255
PART_000_R31G119B180A255,8238,19086390.0,1724.253,3826.804,164997.0,-894.5806,70946.48,19086149.93266867
PART_000_R31G119B180A255,8239,19086040.0,-1342.641,5842.425,192001.1,-1452.881,32815.52,19086773.267892364
PART_003_R247G182B210A255,8240,15266010.0,-1949.673,-3010.496,522768.7,-944.2347,-12172.52,15295329.314240014
PART_003_R247G182B210A255,8241,15268300.0,1192.02,770.7098,466110.4,920.2432,-33337.49,15288758.349160472
PART_000_R31G119B180A255,8242,15268380.0,492.9923,1715.966,435090.6,657.8484,-40755.29,15286026.25672224
PART_000_R31G119B180A255,8243,15268090.0,-72.16458,1402.83,417103.3,193.2891,-33724.37,15284619.563573452
PART_000_R31G119B180A255,8244,15268350.0,447.6469,1681.783,407187.7,161.2705,-18846.76,15283601.416735163
PART_000_R31G119B180A255,8245,15268050.0,-221.4928,1450.389,404161.0,0.0009451671,-0.002477064,15283475.677004058
PART_000_R31G119B180A255,8246,15268350.0,447.647,1681.783,407187.7,-161.2688,18846.75,15283601.416648163
PART_000_R31G119B180A255,8247,15268090.0,-72.16423,1402.83,417103.3,-193.2876,33724.37,15284619.563398568
PART_000_R31G119B180A255,8248,15268380.0,492.9932,1715.967,435090.6,-657.8475,40755.29,15286026.255773295
PART_000_R31G119B180A255,8249,15268300.0,1192.021,770.7103,466110.4,-920.2427,33337.49,15288758.348411445
PART_002_R214G39B40A255,8250,15266010.0,-1949.671,-3010.495,522768.7,944.2348,12172.52,15295329.312742718
PART_003_R247G182B210A255,8251,11450920.0,-1117.202,1669.672,764228.0,100.6073,-6642.084,11526903.927251691
PART_003_R247G182B210A255,8252,11450370.0,-368.4218,-742.3138,701009.7,-1006.542,-16755.39,11515154.404128361
PART_003_R247G182B210A255,8253,11451100.0,894.905,217.0365,657568.5,398.9161,-21367.84,11507107.288026815
PART_000_R31G119B180A255,8254,11451160.0,270.4166,1023.662,630704.8,106.9795,-19071.29,11502552.07767226
PART_000_R31G119B180A255,8255,11451060.0,171.801,806.4626,615893.4,86.76223,-10890.86,11500169.712023182
PART_000_R31G119B180A255,8256,11451230.0,297.102,1189.411,611096.7,0.00143785,-0.002047779,11499302.795843033
PART_000_R31G119B180A255,8257,11451060.0,171.801,806.4626,615893.4,-86.7595,10890.86,11500169.71202312
PART_000_R31G119B180A255,8258,11451160.0,270.4165,1023.663,630704.8,-106.9772,19071.29,11502552.077224284
PART_000_R31G119B180A255,8259,11451100.0,894.9044,217.0363,657568.5,-398.9145,21367.84,11507107.288424663
PART_002_R214G39B40A255,8260,11450370.0,-368.4231,-742.3141,701009.7,1006.543,16755.39,11515154.404924138
PART_002_R214G39B40A255,8261,11450920.0,-1117.204,1669.671,764228.0,-100.6071,6642.084,11526903.928741943
PART_003_R247G182B210A255,8262,7633245.0,-807.7256,-946.3632,932913.8,-400.6166,-3075.389,7803257.828204456
PART_003_R247G182B210A255,8263,7633986.0,-42.93455,533.2864,865939.5,32.19082,-8493.735,7779702.3917926615
PART_003_R247G182B210A255,8264,7633823.0,14.51906,-18.12846,817671.8,-763.6065,-10884.41,7764109.725372634
PART_003_R247G182B210A255,8265,7634048.0,526.6089,150.5413,785365.0,118.2411,-9832.54,7753979.901832584
PART_000_R31G119B180A255,8266,7634106.0,182.0974,671.9013,767156.4,-115.7426,-5811.807,7748467.168580468
PART_000_R31G119B180A255,8267,7634041.0,254.9707,402.7281,761253.3,0.001857381,-0.001460081,7746746.476739441
PART_000_R31G119B180A255,8268,7634106.0,182.0975,671.9014,767156.4,115.7461,5811.804,7748467.168475356
PART_000_R31G119B180A255,8269,7634048.0,526.6093,150.5415,785365.0,-118.2381,9832.537,7753979.901525695
PART_002_R214G39B40A255,8270,7633823.0,14.51987,-18.12809,817671.8,763.6088,10884.41,7764109.724793214
PART_002_R214G39B40A255,8271,7633986.0,-42.93324,533.287,865939.5,-32.18934,8493.734,7779702.3908522455
PART_002_R214G39B40A255,8272,7633245.0,-807.7242,-946.3625,932913.8,400.6171,3075.389,7803257.827177301
PART_003_R247G182B210A255,8273,3816929.0,-366.486,419.442,1032769.0,-52.95278,-1354.277,4215280.092521213
PART_003_R247G182B210A255,8274,3816769.0,-164.9874,-269.5315,964427.5,-774.939,-3495.943,4166507.3848176114
PART_003_R247G182B210A255,8275,3817008.0,174.028,115.3491,913527.7,-53.92507,-4584.902,4131840.653943485
PART_003_R247G182B210A255,8276,3816982.0,66.92188,146.2584,878889.4,-602.2664,-4176.445,4109249.45064968
PART_003_R247G182B210A255,8277,3817022.0,244.2821,90.05447,858767.3,10.37448,-2459.776,4096442.701013946
PART_000_R31G119B180A255,8278,3817053.0,92.49372,333.4085,852242.5,0.0020961,-0.0007595187,4092336.721087271
PART_000_R31G119B180A255,8279,3817022.0,244.2821,90.05449,858767.3,-10.37048,2459.775,4096442.701002796
PART_002_R214G39B40A255,8280,3816982.0,66.92175,146.2584,878889.4,602.2699,4176.444,4109249.450708547
PART_002_R214G39B40A255,8281,3817008.0,174.0275,115.3489,913527.7,53.92777,4584.901,4131840.654263578
PART_002_R214G39B40A255,8282,3816769.0,-164.9886,-269.5319,964427.5,774.9408,3495.943,4166507.38555149
PART_002_R214G39B40A255,8283,3816929.0,-366.4879,419.4413,1032769.0,52.95335,1354.277,4215280.093698542
PART_003_R247G182B210A255,8284,0.004198928,0.0003415076,0.0004744473,1065912.0,-311.3551,-5.449364e-06,1846213.8191601739
PART_003_R247G182B210A255,8285,0.004517329,0.001417846,0.0001427292,997062.1,-131.0677,-3.090168e-05,1726962.230422384
PART_003_R247G182B210A255,8286,0.004926814,0.00345663,0.001750356,945572.5,-828.6259,-3.110811e-05,1637780.241098114
PART_003_R247G182B210A255,8287,0.005088298,0.004500524,0.001396284,910068.4,-50.82848,-2.236088e-05,1576284.7096214197
PART_003_R247G182B210A255,8288,0.005340584,0.005600137,0.002575952,889485.7,-344.2526,-9.169349e-06,1540634.540390104
PART_003_R247G182B210A255,8289,0.005258746,0.005487085,0.00178533,882690.3,0.002196907,-1.330616e-06,1528864.4469482147
PART_002_R214G39B40A255,8290,0.005334535,0.005611953,0.002582485,889485.7,344.2567,9.37963e-06,1540634.5403928526
PART_002_R214G39B40A255,8291,0.00510523,0.004677153,0.001462722,910068.4,50.83217,1.982222e-05,1576284.7096217766
PART_002_R214G39B40A255,8292,0.005032149,0.004064298,0.0019807,945572.5,828.6287,2.614198e-05,1637780.241102364
PART_002_R214G39B40A255,8293,0.004739571,0.002588622,0.000612835,997062.1,131.0696,2.628308e-05,1726962.2304228167
PART_002_R214G39B40A255,8294,0.004523411,0.00195816,0.001126334,1065912.0,311.3558,1.702737e-05,1846213.8191605278
PART_003_R247G182B210A255,8295,-3816929.0,366.4864,-419.44,1032769.0,-52.95279,1354.277,4215280.09360758
PART_003_R247G182B210A255,8296,-3816769.0,164.9837,269.5283,964427.5,-774.939,3495.943,4166507.3816570356
PART_003_R247G182B210A255,8297,-3817007.0,-174.0339,-115.3497,913527.7,-53.92506,4584.902,4131839.7271730374
PART_003_R247G182B210A255,8298,-3816982.0,-66.93187,-146.2641,878889.4,-602.2664,4176.445,4109249.4433627916
PART_003_R247G182B210A255,8299,-3817022.0,-244.2922,-90.05686,858767.3,10.37448,2459.776,4096442.6951953936
PART_001_R158G218B229A255,8300,-3817053.0,-92.5057,-333.4149,852242.5,0.002088815,0.0007555222,4092336.7125156964
PART_001_R158G218B229A255,8301,-3817022.0,-244.2922,-90.0569,858767.3,-10.37047,-2459.775,4096442.6951749255
PART_002_R214G39B40A255,8302,-3816982.0,-66.9321,-146.2642,878889.4,602.2699,-4176.444,4109249.4432080192
PART_002_R214G39B40A255,8303,-3817007.0,-174.0345,-115.35,913527.7,53.92777,-4584.901,4131839.7267541224
PART_002_R214G39B40A255,8304,-3816769.0,164.9826,269.5278,964427.5,774.9408,-3495.943,4166507.3809251618
PART_002_R214G39B40A255,8305,-3816929.0,366.4851,-419.4406,1032769.0,52.95336,-1354.277,4215280.092747286
PART_003_R247G182B210A255,8306,-7633245.0,807.7276,946.3685,932913.8,-400.6166,3075.389,7803257.831775386
PART_003_R247G182B210A255,8307,-7633986.0,42.93586,-533.2903,865939.5,32.19081,8493.735,7779702.390522246
PART_003_R247G182B210A255,8308,-7633823.0,-14.51052,18.13606,817671.8,-763.6065,10884.41,7764109.7333072135
PART_003_R247G182B210A255,8309,-7634048.0,-526.6015,-150.5427,785365.0,118.2411,9832.54,7753979.904785732
PART_001_R158G218B229A255,8310,-7634106.0,-182.0846,-671.8921,767156.4,-115.7426,5811.807,7748467.179417682
PART_001_R158G218B229A255,8311,-7634041.0,-254.9613,-402.7287,761253.3,0.001853041,0.001441798,7746746.481075383
PART_001_R158G218B229A255,8312,-7634106.0,-182.0846,-671.8922,767156.4,115.7461,-5811.804,7748467.179361833
PART_001_R158G218B229A255,8313,-7634048.0,-526.6015,-150.5428,785365.0,-118.2381,-9832.537,7753979.904724954
PART_002_R214G39B40A255,8314,-7633823.0,-14.51014,18.13618,817671.8,763.6088,-10884.41,7764109.7335536955
PART_002_R214G39B40A255,8315,-7633986.0,42.93687,-533.2901,865939.5,-32.18934,-8493.734,7779702.391112647
PART_002_R214G39B40A255,8316,-7633245.0,807.7296,946.3692,932913.8,400.6171,-3075.388,7803257.833095002
PART_003_R247G182B210A255,8317,-11450920.0,1117.205,-1669.662,764228.0,100.6073,6642.084,11526903.93370742
PART_003_R247G182B210A255,8318,-11450370.0,368.4152,742.3029,701009.7,-1006.542,16755.39,11515154.395427061
PART_003_R247G182B210A255,8319,-11451100.0,-894.908,-217.0295,657568.5,398.9161,21367.84,11507107.290017426
PART_001_R158G218B229A255,8320,-11451160.0,-270.4297,-1023.676,630704.8,106.9795,19071.29,11502552.064183604
PART_001_R158G218B229A255,8321,-11451060.0,-171.8082,-806.4573,615893.4,86.76224,10890.86,11500169.711076763
PART_001_R158G218B229A255,8322,-11451230.0,-297.1172,-1189.424,611096.7,0.001431377,0.002013767,11499302.781802762
PART_001_R158G218B229A255,8323,-11451060.0,-171.8082,-806.4573,615893.4,-86.7595,-10890.86,11500169.711076701
PART_001_R158G218B229A255,8324,-11451160.0,-270.43,-1023.676,630704.8,-106.9772,-19071.29,11502552.064034205
PART_001_R158G218B229A255,8325,-11451100.0,-894.9086,-217.0296,657568.5,-398.9145,-21367.84,11507107.289669
PART_002_R214G39B40A255,8326,-11450370.0,368.4141,742.3022,701009.7,1006.543,-16755.39,11515154.394532355
PART_002_R214G39B40A255,8327,-11450920.0,1117.204,-1669.663,764228.0,-100.6071,-6642.084,11526903.93271403
PART_003_R247G182B210A255,8328,-15266010.0,1949.678,3010.51,522768.7,-944.2346,12172.52,15295329.323723793
PART_003_R247G182B210A255,8329,-15268300.0,-1192.022,-770.723,466110.4,920.2432,33337.49,15288758.341570899
PART_001_R158G218B229A255,8330,-15268380.0,-492.9802,-1715.95,435090.6,657.8484,40755.29,15286026.270754771
PART_001_R158G218B229A255,8331,-15268090.0,72.16863,-1402.841,417103.3,193.2891,33724.37,15284619.56010345
PART_001_R158G218B229A255,8332,-15268350.0,-447.6302,-1681.765,407187.7,161.2705,18846.76,15283601.43406656
PART_001_R158G218B229A255,8333,-15268050.0,221.4988,-1450.399,404161.0,0.00094532,0.002439598,15283475.675007468
PART_001_R158G218B229A255,8334,-15268350.0,-447.6302,-1681.765,407187.7,-161.2688,-18846.75,15283601.434029514
PART_001_R158G218B229A255,8335,-15268090.0,72.16863,-1402.841,417103.3,-193.2877,-33724.37,15284619.560103398
PART_001_R158G218B229A255,8336,-15268380.0,-492.9798,-1715.949,435090.6,-657.8475,-40755.29,15286026.27145376
PART_001_R158G218B229A255,8337,-15268300.0,-1192.021,-770.7228,466110.4,-920.2427,-33337.49,15288758.342169952
PART_002_R214G39B40A255,8338,-15266010.0,1949.68,3010.511,522768.7,944.2348,-12172.52,15295329.325221146
PART_003_R247G182B210A255,8339,-19086040.0,1342.645,-5842.408,192001.1,1452.88,32815.52,19086773.278386828
PART_001_R158G218B229A255,8340,-19086390.0,-1724.264,-3826.823,164997.0,894.5809,70946.49,19086149.917782884
PART_001_R158G218B229A255,8341,-19085130.0,893.1869,-2634.601,154671.1,175.0868,72237.02,19086549.876684926
PART_001_R158G218B229A255,8342,-19085590.0,-788.8326,-2329.912,147852.9,209.1759,56329.81,19085998.205334943
PART_001_R158G218B229A255,8343,-19085040.0,571.4444,-2039.1,144589.9,29.46961,30400.77,19086022.07182206
PART_001_R158G218B229A255,8344,-19085430.0,-588.5996,-2053.813,143390.7,0.000338813,0.002675547,19085724.841840692
PART_001_R158G218B229A255,8345,-19085040.0,571.4445,-2039.1,144589.9,-29.46902,-30400.77,19086022.07187206
PART_001_R158G218B229A255,8346,-19085590.0,-788.8327,-2329.912,147852.9,-209.1754,-56329.8,19085998.205196388
PART_001_R158G218B229A255,8347,-19085130.0,893.1866,-2634.6,154671.1,-175.0865,-72237.01,19086549.87692115
PART_001_R158G218B229A255,8348,-19086390.0,-1724.265,-3826.823,164997.0,-894.5807,-70946.48,19086149.91717132
PART_001_R158G218B229A255,8349,-19086040.0,1342.643,-5842.409,192001.1,-1452.881,-32815.52,19086773.276887003
PART_003_R247G182B210A255,8350,18767940.0,-1320.599,5744.159,192001.1,1428.654,-32815.52,18768761.893780515
PART_000_R31G119B180A255,8351,18768290.0,1695.837,3763.887,164997.0,879.6781,-70946.5,18768138.561659016
PART_000_R31G119B180A255,8352,18767050.0,-878.6174,2589.859,154671.1,172.1644,-72237.0,18768523.7722528
PART_000_R31G119B180A255,8353,18767500.0,776.0079,2291.904,147853.0,205.6924,-56329.82,18767966.967455804
PART_000_R31G119B180A255,8354,18766960.0,-562.2455,2004.294,144589.9,28.97739,-30400.77,18767983.950755525
PART_000_R31G119B180A255,8355,18767340.0,579.117,2020.402,143390.7,0.0004519763,-0.003317001,18767683.675525375
PART_000_R31G119B180A255,8356,18766960.0,-562.2454,2004.294,144589.9,-28.97647,30400.76,18767983.95065692
PART_000_R31G119B180A255,8357,18767500.0,776.0083,2291.904,147853.0,-205.6918,56329.81,18767966.96716574
PART_000_R31G119B180A255,8358,18767050.0,-878.6163,2589.859,154671.1,-172.1639,72237.0,18768523.771702703
PART_000_R31G119B180A255,8359,18768290.0,1695.839,3763.887,164997.0,-879.6779,70946.49,18768138.560545553
PART_000_R31G119B180A255,8360,18767940.0,-1320.597,5744.16,192001.1,-1428.654,32815.51,18768761.892228022
PART_003_R247G182B210A255,8361,15011580.0,-1917.419,-2961.095,522768.7,-928.4947,-12172.51,15041312.559212275
PART_003_R247G182B210A255,8362,15013820.0,1172.428,758.6296,466110.4,904.9058,-33337.5,15034657.057615196
PART_000_R31G119B180A255,8363,15013900.0,484.4827,1686.609,435090.6,646.8843,-40755.28,15031882.60475422
PART_000_R31G119B180A255,8364,15013620.0,-70.67867,1380.197,417103.3,190.0682,-33724.38,15030451.240721606
PART_000_R31G119B180A255,8365,15013880.0,439.8793,1653.002,407187.7,158.5829,-18846.75,15029425.92812486
PART_000_R31G119B180A255,8366,15013590.0,-217.5159,1426.959,404161.0,0.001325373,-0.003164317,15029296.96762103
PART_000_R31G119B180A255,8367,15013880.0,439.8793,1653.002,407187.7,-158.5804,18846.75,15029425.92812478
PART_000_R31G119B180A255,8368,15013620.0,-70.67895,1380.197,417103.3,-190.0661,33724.38,15030451.240861384
PART_000_R31G119B180A255,8369,15013900.0,484.4818,1686.609,435090.6,-646.8828,40755.28,15031882.60520351
PART_000_R31G119B180A255,8370,15013820.0,1172.426,758.6289,466110.4,-904.9052,33337.5,15034657.058963103
PART_002_R214G39B40A255,8371,15011580.0,-1917.422,-2961.096,522768.7,928.4949,12172.51,15041312.56120858
PART_003_R247G182B210A255,8372,11260070.0,-1098.814,1641.212,764228.0,98.92915,-6642.082,11337342.737999972
PART_003_R247G182B210A255,8373,11259530.0,-362.0576,-729.3306,701009.7,-989.7672,-16755.4,11325387.132708346
PART_003_R247G182B210A255,8374,11260250.0,879.7707,212.82,657568.5,392.2685,-21367.83,11317220.818770107
PART_000_R31G119B180A255,8375,11260310.0,266.1513,1007.201,630704.8,105.1967,-19071.3,11312590.356879566
PART_000_R31G119B180A255,8376,11260210.0,168.7154,792.4312,615893.4,85.31701,-10890.86,11310165.204323156
PART_000_R31G119B180A255,8377,11260370.0,292.398,1170.185,611096.7,0.002034207,-0.002680174,11309278.577968037
PART_000_R31G119B180A255,8378,11260210.0,168.7156,792.4314,615893.4,-85.31305,10890.85,11310165.20409507
PART_000_R31G119B180A255,8379,11260310.0,266.1517,1007.202,630704.8,-105.1934,19071.3,11312590.356182778
PART_000_R31G119B180A255,8380,11260250.0,879.7718,212.8206,657568.5,-392.266,21367.83,11317220.817924192
PART_002_R214G39B40A255,8381,11259530.0,-362.0559,-729.3299,701009.7,989.7687,16755.39,11325387.1314713
PART_002_R214G39B40A255,8382,11260070.0,-1098.812,1641.213,764228.0,-98.92865,6642.081,11337342.736508282
PART_003_R247G182B210A255,8383,7506024.0,-794.398,-931.0138,932913.8,-393.9385,-3075.386,7678825.518493513
PART_003_R247G182B210A255,8384,7506753.0,-42.06933,524.8157,865939.5,31.65511,-8493.741,7654899.550707584
PART_003_R247G182B210A255,8385,7506592.0,14.11316,-18.24173,817671.8,-750.8793,-10884.41,7639049.225321954
PART_003_R247G182B210A255,8386,7506814.0,517.9814,148.4382,785365.0,116.2711,-9832.545,7628757.341999986
PART_000_R31G119B180A255,8387,7506871.0,178.8896,660.2907,767156.4,-113.8128,-5811.804,7623155.589287776
PART_000_R31G119B180A255,8388,7506807.0,250.8705,396.4188,761253.2,0.002617806,-0.00193185,7621404.836614149
PART_000_R31G119B180A255,8389,7506871.0,178.8897,660.2908,767156.4,113.8178,5811.801,7623155.589182669
PART_000_R31G119B180A255,8390,7506814.0,517.9813,148.4382,785365.0,-116.2668,9832.542,7628757.342037384
PART_002_R214G39B40A255,8391,7506592.0,14.11249,-18.24185,817671.8,750.8826,10884.4,7639049.225668333
PART_002_R214G39B40A255,8392,7506753.0,-42.07093,524.8152,865939.5,-31.65307,8493.739,7654899.551730609
PART_002_R214G39B40A255,8393,7506024.0,-794.4007,-931.0146,932913.8,393.9392,3075.386,7678825.52020441
PART_003_R247G182B210A255,8394,3753314.0,-360.4573,412.2322,1032769.0,-52.0709,-1354.277,4157765.3897269927
PART_003_R247G182B210A255,8395,3753156.0,-162.1582,-264.8266,964427.5,-762.0237,-3495.946,4108306.4843812524
PART_003_R247G182B210A255,8396,3753391.0,171.0565,113.2209,913527.7,-53.02539,-4584.899,4073148.495413828
PART_003_R247G182B210A255,8397,3753366.0,65.89694,144.0315,878889.4,-592.228,-4176.448,4050229.8107559155
PART_003_R247G182B210A255,8398,3753405.0,240.1415,88.35203,858767.3,10.20254,-2459.775,4037236.4492884683
PART_000_R31G119B180A255,8399,3753435.0,91.04615,328.0622,852242.5,0.002957216,-0.001009679,4033069.9381165556
PART_000_R31G119B180A255,8400,3753405.0,240.1416,88.3521,858767.3,-10.19679,2459.773,4037236.449205749
PART_002_R214G39B40A255,8401,3753366.0,65.8973,144.0317,878889.4,592.233,4176.446,4050229.8104924494
PART_002_R214G39B40A255,8402,3753391.0,171.0574,113.2212,913527.7,53.02932,4584.898,4073148.494857734
PART_002_R214G39B40A255,8403,3753156.0,-162.1567,-264.826,964427.5,762.0262,3495.945,4108306.4834208223
PART_002_R214G39B40A255,8404,3753314.0,-360.4555,412.2331,1032769.0,52.07184,1354.276,4157765.388507257
PART_003_R247G182B210A255,8405,0.004316374,-0.0002471361,-0.0005495227,1065912.0,-306.165,-6.022538e-06,1846213.8165562032
PART_003_R247G182B210A255,8406,0.003826296,-0.001625934,-0.0002296743,997062.1,-128.8824,8.557663e-06,1726962.2299289722
PART_003_R247G182B210A255,8407,0.003249413,-0.004184116,-0.002144336,945572.5,-814.8147,1.405651e-05,1637780.2203097143
PART_003_R247G182B210A255,8408,0.003011147,-0.005468142,-0.001777333,910068.4,-49.98067,8.285008e-06,1576284.709540089
PART_003_R247G182B210A255,8409,0.00270178,-0.006756137,-0.003171985,889485.7,-338.514,2.619483e-06,1540634.536575321
PART_003_R247G182B210A255,8410,0.002778331,-0.006661406,-0.002263798,882690.3,0.003088627,4.418336e-07,1528864.4469482147
PART_002_R214G39B40A255,8411,0.002697294,-0.006790114,-0.003180674,889485.7,338.52,-4.331548e-06,1540634.5365792762
PART_002_R214G39B40A255,8412,0.002969348,-0.005687042,-0.001863101,910068.4,49.98588,-8.787588e-06,1576284.7095405846
PART_002_R214G39B40A255,8413,0.003116532,-0.004861124,-0.002408593,945572.5,814.8189,-4.854257e-06,1637780.2203159828
PART_002_R214G39B40A255,8414,0.003521933,-0.003049628,-0.0008012067,997062.1,128.885,-5.73098e-06,1726962.2299295545
PART_002_R214G39B40A255,8415,0.003874871,-0.002252943,-0.001343715,1065912.0,306.1659,-6.259351e-06,1846213.816556651
PART_003_R247G182B210A255,8416,-3753314.0,360.4569,-412.2346,1032769.0,-52.07091,1354.276,4157765.3884624904
PART_003_R247G182B210A255,8417,-3753156.0,162.1629,264.8304,964427.5,-762.0237,3495.946,4108306.488264057
PART_003_R247G182B210A255,8418,-3753391.0,-171.0491,-113.22,913527.7,-53.02539,4584.899,4073148.4992378233
PART_003_R247G182B210A255,8419,-3753366.0,-65.88458,-144.0248,878889.4,-592.228,4176.448,4050229.819587244
PART_003_R247G182B210A255,8420,-3753405.0,-240.129,-88.34913,858767.3,10.20254,2459.775,4037236.4564465485
PART_001_R158G218B229A255,8421,-3753435.0,-91.03139,-328.0546,852242.5,0.002951938,0.0010133,4033069.948521119
PART_001_R158G218B229A255,8422,-3753405.0,-240.1291,-88.34919,858767.3,-10.19679,-2459.773,4037236.4563684775
PART_002_R214G39B40A255,8423,-3753366.0,-65.88449,-144.0248,878889.4,592.2329,-4176.446,4050229.819624908
PART_002_R214G39B40A255,8424,-3753391.0,-171.0486,-113.2198,913527.7,53.02934,-4584.898,4073148.4995571086
PART_002_R214G39B40A255,8425,-3753156.0,162.1642,264.8309,964427.5,762.0262,-3495.945,4108306.489085125
PART_002_R214G39B40A255,8426,-3753314.0,360.4592,-412.2339,1032769.0,52.07185,-1354.276,4157765.389816825
PART_003_R247G182B210A255,8427,-7506024.0,794.3957,931.0075,932913.8,-393.9385,3075.386,7678825.514289741
PART_003_R247G182B210A255,8428,-7506753.0,42.06788,-524.811,865939.5,31.65511,8493.741,7654899.552300742
PART_003_R247G182B210A255,8429,-7506592.0,-14.12348,18.23244,817671.8,-750.8793,10884.41,7639049.215686969
PART_003_R247G182B210A255,8430,-7506814.0,-517.9905,-148.4366,785365.0,116.2711,9832.545,7628757.338310481
PART_001_R158G218B229A255,8431,-7506871.0,-178.9052,-660.302,767156.4,-113.8128,5811.804,7623155.576043481
PART_001_R158G218B229A255,8432,-7506807.0,-250.8819,-396.4183,761253.2,0.00261851,0.001952055,7621404.831246158
PART_001_R158G218B229A255,8433,-7506871.0,-178.9053,-660.3021,767156.4,113.8178,-5811.801,7623155.575938375
PART_001_R158G218B229A255,8434,-7506814.0,-517.9908,-148.4368,785365.0,-116.2668,-9832.542,7628757.338052696
PART_002_R214G39B40A255,8435,-7506592.0,-14.12423,18.23196,817671.8,750.8826,-10884.4,7639049.215040862
PART_002_R214G39B40A255,8436,-7506753.0,42.06659,-524.8115,865939.5,-31.65307,-8493.739,7654899.5514163645
PART_002_R214G39B40A255,8437,-7506024.0,794.3943,931.0067,932913.8,393.9392,-3075.386,7678825.513214488
PART_003_R247G182B210A255,8438,-11260070.0,1098.81,-1641.224,764228.0,98.92919,6642.082,11337342.730056142
PART_003_R247G182B210A255,8439,-11259530.0,362.0658,729.3439,701009.7,-989.7672,16755.4,11325387.143396478
PART_003_R247G182B210A255,8440,-11260250.0,-879.7669,-212.8287,657568.5,392.2684,21367.83,11317220.816331998
PART_001_R158G218B229A255,8441,-11260310.0,-266.1352,-1007.185,630704.8,105.1967,19071.3,11312590.372854494
PART_001_R158G218B229A255,8442,-11260210.0,-168.7065,-792.4379,615893.4,85.31699,10890.86,11310165.205418894
PART_001_R158G218B229A255,8443,-11260370.0,-292.3795,-1170.168,611096.7,0.002042674,0.002722615,11309278.595640214
PART_001_R158G218B229A255,8444,-11260210.0,-168.7067,-792.438,615893.4,-85.31305,-10890.85,11310165.205240581
PART_001_R158G218B229A255,8445,-11260310.0,-266.1352,-1007.185,630704.8,-105.1934,-19071.3,11312590.3728544
PART_001_R158G218B229A255,8446,-11260250.0,-879.7667,-212.8288,657568.5,-392.266,-21367.83,11317220.81638148
PART_002_R214G39B40A255,8447,-11259530.0,362.067,729.3444,701009.7,989.7687,-16755.39,11325387.144197568
PART_002_R214G39B40A255,8448,-11260070.0,1098.812,-1641.223,764228.0,-98.92867,-6642.081,11337342.731544293
PART_003_R247G182B210A255,8449,-15011580.0,1917.413,2961.077,522768.7,-928.4948,12172.51,15041312.547233444
PART_003_R247G182B210A255,8450,-15013820.0,-1172.426,-758.6135,466110.4,904.9058,33337.5,15034657.066652361
PART_001_R158G218B229A255,8451,-15013900.0,-484.4975,-1686.63,435090.6,646.8843,40755.28,15031882.586877298
PART_001_R158G218B229A255,8452,-15013620.0,70.67372,-1380.184,417103.3,190.0682,33724.38,15030451.244740624
PART_001_R158G218B229A255,8453,-15013880.0,-439.8997,-1653.025,407187.7,158.5829,18846.75,15029425.906448971
PART_001_R158G218B229A255,8454,-15013590.0,217.5087,-1426.947,404161.0,0.001321969,0.003208562,15029296.97001685
PART_001_R158G218B229A255,8455,-15013880.0,-439.8998,-1653.025,407187.7,-158.5804,-18846.75,15029425.906398943
PART_001_R158G218B229A255,8456,-15013620.0,70.67359,-1380.184,417103.3,-190.0661,-33724.38,15030451.24467561
PART_001_R158G218B229A255,8457,-15013900.0,-484.4982,-1686.63,435090.6,-646.8828,-40755.28,15031882.586527506
PART_001_R158G218B229A255,8458,-15013820.0,-1172.427,-758.6137,466110.4,-904.9052,-33337.5,15034657.06605314
PART_002_R214G39B40A255,8459,-15011580.0,1917.412,2961.076,522768.7,928.4949,-12172.51,15041312.546235276
PART_003_R247G182B210A255,8460,-18767940.0,1320.592,-5744.181,192001.1,1428.655,32815.51,18768761.87923487
PART_001_R158G218B229A255,8461,-18768290.0,-1695.825,-3763.865,164997.0,879.6779,70946.5,18768138.578655824
PART_001_R158G218B229A255,8462,-18767050.0,878.6178,-2589.878,154671.1,172.1645,72237.0,18768523.76295665
PART_001_R158G218B229A255,8463,-18767500.0,-775.9878,-2291.879,147853.0,205.6924,56329.82,18767966.9900031
PART_001_R158G218B229A255,8464,-18766960.0,562.2512,-2004.31,144589.9,28.97742,30400.77,18767983.945608232
PART_001_R158G218B229A255,8465,-18767340.0,-579.0942,-2020.377,143390.7,0.0004486294,0.003346871,18767683.699423157
PART_001_R158G218B229A255,8466,-18766960.0,562.2512,-2004.31,144589.9,-28.9765,-30400.76,18767983.945559636
PART_001_R158G218B229A255,8467,-18767500.0,-775.9877,-2291.879,147853.0,-205.6917,-56329.81,18767966.989963036
PART_001_R158G218B229A255,8468,-18767050.0,878.6183,-2589.877,154671.1,-172.164,-72237.0,18768523.763706468
PART_001_R158G218B229A255,8469,-18768290.0,-1695.824,-3763.864,164997.0,-879.6777,-70946.49,18768138.579542253
PART_001_R158G218B229A255,8470,-18767940.0,1320.594,-5744.18,192001.1,-1428.655,-32815.51,18768761.88073491
PART_003_R247G182B210A255,8471,18449840.0,-1297.941,5647.529,192001.1,1404.449,-32815.52,18450751.136255167
PART_000_R31G119B180A255,8472,18450180.0,1666.831,3699.388,164997.0,864.7627,-70946.49,18450119.75869733
PART_000_R31G119B180A255,8473,18448960.0,-863.4708,2546.652,154671.1,169.25,-72237.01,18450487.951792765
PART_000_R31G119B180A255,8474,18449400.0,762.5739,2252.368,147852.9,202.2041,-56329.81,18449927.94384987
PART_000_R31G119B180A255,8475,18448880.0,-552.4602,1971.001,144589.9,28.48743,-30400.77,18449945.782706056
PART_000_R31G119B180A255,8476,18449250.0,569.0135,1985.47,143390.7,0.0006903932,-0.004270801,18449644.524283804
PART_000_R31G119B180A255,8477,18448880.0,-552.4602,1971.0,144589.9,-28.48622,30400.77,18449945.783205897
PART_000_R31G119B180A255,8478,18449400.0,762.5735,2252.367,147853.0,-202.2031,56329.8,18449927.94686225
PART_000_R31G119B180A255,8479,18448960.0,-863.4722,2546.651,154671.1,-169.2494,72237.01,18450487.952992644
PART_000_R31G119B180A255,8480,18450180.0,1666.828,3699.387,164997.0,-864.7624,70946.48,18450119.76058181
PART_000_R31G119B180A255,8481,18449840.0,-1297.944,5647.528,192001.1,-1404.45,32815.52,18450751.138255626
PART_003_R247G182B210A255,8482,14757140.0,-1884.724,-2910.275,522768.7,-912.7597,-12172.52,14787300.508854961
PART_003_R247G182B210A255,8483,14759350.0,1152.333,745.1477,466110.4,889.5687,-33337.49,14780579.187530812
PART_000_R31G119B180A255,8484,14759430.0,476.5132,1658.643,435090.6,635.9207,-40755.29,14777758.900084363
PART_000_R31G119B180A255,8485,14759150.0,-69.70774,1356.196,417103.3,186.847,-33724.37,14776293.878395395
PART_000_R31G119B180A255,8486,14759410.0,432.6791,1625.601,407187.7,155.8957,-18846.76,14775258.976333622
PART_000_R31G119B180A255,8487,14759120.0,-214.057,1402.169,404161.0,0.001917394,-0.004110999,14775118.55589064
PART_000_R31G119B180A255,8488,14759410.0,432.6793,1625.601,407187.7,-155.8922,18846.75,14775258.976195347
PART_000_R31G119B180A255,8489,14759150.0,-69.70717,1356.196,417103.3,-186.844,33724.37,14776293.878110586
PART_000_R31G119B180A255,8490,14759430.0,476.5145,1658.643,435090.6,-635.9187,40755.29,14777758.899434881
PART_000_R31G119B180A255,8491,14759350.0,1152.335,745.1486,466110.4,-889.5677,33337.49,14780579.186082829
PART_002_R214G39B40A255,8492,14757140.0,-1884.722,-2910.274,522768.7,912.76,12172.52,14787300.507357884
PART_003_R247G182B210A255,8493,11069220.0,-1080.0,1613.911,764228.0,97.25358,-6642.084,11147824.56950142
PART_003_R247G182B210A255,8494,11068690.0,-356.1044,-717.4691,701009.7,-972.9907,-16755.39,11135657.619662127
PART_003_R247G182B210A255,8495,11069400.0,865.0363,209.7013,657568.5,385.6199,-21367.84,11127366.241250327
PART_000_R31G119B180A255,8496,11069460.0,261.4393,989.6382,630704.8,103.4147,-19071.3,11122659.46336688
PART_000_R31G119B180A255,8497,11069360.0,166.0332,779.4805,615893.4,83.87162,-10890.86,11120188.621507086
PART_000_R31G119B180A255,8498,11069520.0,287.2354,1149.861,611096.7,0.002918185,-0.003491448,11119293.3079272
PART_000_R31G119B180A255,8499,11069360.0,166.0332,779.4806,615893.4,-83.86611,10890.86,11120188.621457197
PART_000_R31G119B180A255,8500,11069460.0,261.4392,989.6384,630704.8,-103.41,19071.29,11122659.463265566
PART_000_R31G119B180A255,8501,11069400.0,865.0354,209.701,657568.5,-385.6165,21367.84,11127366.241846792
PART_002_R214G39B40A255,8502,11068690.0,-356.1064,-717.4696,701009.7,972.9928,16755.39,11135657.620905183
PART_002_R214G39B40A255,8503,11069220.0,-1080.003,1613.91,764228.0,-97.25299,6642.083,11147824.57148583
PART_003_R247G182B210A255,8504,7378804.0,-780.8234,-914.8878,932913.8,-387.2623,-3075.389,7554487.0654466385
PART_003_R247G182B210A255,8505,7379520.0,-41.47748,515.5798,865939.5,31.11868,-8493.736,7530178.428053013
PART_003_R247G182B210A255,8506,7379362.0,14.01069,-17.59185,817671.8,-738.1518,-10884.41,7514062.05176437
PART_003_R247G182B210A255,8507,7379579.0,509.084,145.592,785365.0,114.3014,-9832.541,7503601.789519589
PART_000_R31G119B180A255,8508,7379636.0,176.0036,649.4382,767156.4,-111.8827,-5811.807,7497908.012636225
PART_000_R31G119B180A255,8509,7379573.0,246.5014,389.3724,761253.3,0.003713096,-0.002532503,7496127.3376243245
PART_000_R31G119B180A255,8510,7379636.0,176.0038,649.4384,767156.4,111.8897,5811.802,7497908.012428078
PART_000_R31G119B180A255,8511,7379579.0,509.0846,145.5923,785365.0,-114.2952,9832.537,7503601.789061049
PART_002_R214G39B40A255,8512,7379362.0,14.01195,-17.59126,817671.8,738.1564,10884.41,7514062.050857309
PART_002_R214G39B40A255,8513,7379520.0,-41.47548,515.5807,865939.5,-31.11565,8493.734,7530178.426625203
PART_002_R214G39B40A255,8514,7378804.0,-780.8216,-914.8868,932913.8,387.2633,3075.388,7554487.064077982
PART_003_R247G182B210A255,8515,3689698.0,-354.2825,405.4244,1032769.0,-51.18759,-1354.277,4100429.733418163
PART_003_R247G182B210A255,8516,3689543.0,-159.4757,-260.5125,964427.5,-749.1069,-3495.944,4050268.722165455
PART_003_R247G182B210A255,8517,3689774.0,168.2127,111.469,913527.7,-52.12609,-4584.902,4014606.0677124625
PART_003_R247G182B210A255,8518,3689750.0,64.70213,141.4162,878889.4,-582.189,-4176.446,3991351.6043640664
PART_003_R247G182B210A255,8519,3689788.0,236.1233,87.01743,858767.3,10.03075,-2459.776,3978166.0580447325
PART_000_R31G119B180A255,8520,3689818.0,89.42131,322.3275,852242.5,0.004196188,-0.001331088,3973938.790978086
PART_000_R31G119B180A255,8521,3689788.0,236.1234,87.01749,858767.3,-10.02274,2459.774,3978166.0579667655
PART_002_R214G39B40A255,8522,3689750.0,64.70197,141.4162,878889.4,582.1961,4176.444,3991351.60443485
PART_002_R214G39B40A255,8523,3689774.0,168.2119,111.4687,913527.7,52.13156,4584.9,4014606.0682112966
PART_002_R214G39B40A255,8524,3689543.0,-159.4776,-260.5132,964427.5,749.1105,3495.943,4050268.7233491275
PART_002_R214G39B40A255,8525,3689698.0,-354.2855,405.4234,1032769.0,51.18876,1354.277,4100429.735218136
PART_003_R247G182B210A255,8526,0.003990818,0.000502078,0.0006083454,1065912.0,-300.9762,1.021165e-06,1846213.8139966396
PART_003_R247G182B210A255,8527,0.004486721,0.002203551,0.0002757824,997062.1,-126.6977,-1.95801e-05,1726962.2294439885
PART_003_R247G182B210A255,8528,0.005118386,0.005274928,0.002539781,945572.5,-801.0035,-1.744074e-05,1637780.1998707186
PART_003_R247G182B210A255,8529,0.005391429,0.006858452,0.002131532,910068.4,-49.13229,-3.017644e-06,1576284.7094600727
PART_003_R247G182B210A255,8530,0.005752739,0.008403192,0.003731205,889485.7,-332.7753,2.612339e-06,1540634.532824599
PART_003_R247G182B210A255,8531,0.005669851,0.008305489,0.002690826,882690.3,0.004376865,-1.383389e-06,1528864.4469482147
PART_002_R214G39B40A255,8532,0.00575304,0.008448349,0.003744107,889485.7,332.7837,-3.382894e-06,1540634.5328300423
PART_002_R214G39B40A255,8533,0.005430209,0.007120435,0.002236066,910068.4,49.13971,-2.593414e-06,1576284.7094607665
PART_002_R214G39B40A255,8534,0.005267385,0.006126387,0.002867636,945572.5,801.0093,5.519846e-06,1637780.1998792286
PART_002_R214G39B40A255,8535,0.004825751,0.00395529,0.0009751105,997062.1,126.7015,1.40813e-05,1726962.2294448249
PART_002_R214G39B40A255,8536,0.004487992,0.002967536,0.001587261,1065912.0,300.9775,1.292911e-05,1846213.8139972754
PART_003_R247G182B210A255,8537,-3689698.0,354.2835,-405.4216,1032769.0,-51.18761,1354.277,4100429.735127582
PART_003_R247G182B210A255,8538,-3689543.0,159.4704,260.508,964427.5,-749.1069,3495.944,4050268.7177016204
PART_003_R247G182B210A255,8539,-3689774.0,-168.2214,-111.4702,913527.7,-52.12608,4584.902,4014606.063163231
PART_003_R247G182B210A255,8540,-3689750.0,-64.71697,-141.4246,878889.4,-582.189,4176.446,3991351.593622325
PART_003_R247G182B210A255,8541,-3689788.0,-236.1384,-87.02129,858767.3,10.03075,2459.776,3978166.0492526405
PART_001_R158G218B229A255,8542,-3689818.0,-89.43909,-322.3371,852242.5,0.004199476,0.001321871,3973938.7782672164
PART_001_R158G218B229A255,8543,-3689788.0,-236.1385,-87.02136,858767.3,-10.02274,-2459.774,3978166.049170036
PART_002_R214G39B40A255,8544,-3689750.0,-64.71731,-141.4248,878889.4,582.1961,-4176.444,3991351.5933695603
PART_002_R214G39B40A255,8545,-3689774.0,-168.2223,-111.4706,913527.7,52.13155,-4584.9,4014606.062559213
PART_002_R214G39B40A255,8546,-3689543.0,159.4688,260.5072,964427.5,749.1105,-3495.943,4050268.716607856
PART_002_R214G39B40A255,8547,-3689698.0,354.2816,-405.4226,1032769.0,51.18877,-1354.277,4100429.733822753
PART_003_R247G182B210A255,8548,-7378804.0,780.8265,914.8955,932913.8,-387.2622,3075.389,7554487.070721711
PART_003_R247G182B210A255,8549,-7379520.0,41.47958,-515.5855,865939.5,31.11867,8493.736,7530178.426289516
PART_003_R247G182B210A255,8550,-7379362.0,-13.9978,17.60305,817671.8,-738.1518,10884.41,7514062.0635934435
PART_003_R247G182B210A255,8551,-7379579.0,-509.0727,-145.594,785365.0,114.3014,9832.541,7503601.794092045
PART_001_R158G218B229A255,8552,-7379636.0,-175.9844,-649.4247,767156.4,-111.8827,5811.807,7497908.02872769
PART_001_R158G218B229A255,8553,-7379573.0,-246.4872,-389.3733,761253.3,0.003713478,0.002500565,7496127.34417086
PART_001_R158G218B229A255,8554,-7379636.0,-175.9845,-649.4248,767156.4,111.8897,-5811.802,7497908.0286179595
PART_001_R158G218B229A255,8555,-7379579.0,-509.0728,-145.5942,785365.0,-114.2952,-9832.537,7503601.79392852
PART_002_R214G39B40A255,8556,-7379362.0,-13.99735,17.60318,817671.8,738.1565,-10884.41,7514062.06387963
PART_002_R214G39B40A255,8557,-7379520.0,41.48104,-515.5851,865939.5,-31.11565,-8493.734,7530178.427194133
PART_002_R214G39B40A255,8558,-7378804.0,780.8296,914.8965,932913.8,387.2633,-3075.388,7554487.072723187
PART_003_R247G182B210A255,8559,-11069220.0,1080.005,-1613.897,764228.0,97.25355,6642.084,11147824.578932576
PART_003_R247G182B210A255,8560,-11068690.0,356.0946,717.4528,701009.7,-972.9907,16755.39,11135657.60668982
PART_003_R247G182B210A255,8561,-11069400.0,-865.0409,-209.6909,657568.5,385.6199,21367.84,11127366.244135743
PART_001_R158G218B229A255,8562,-11069460.0,-261.4589,-989.6579,630704.8,103.4147,19071.3,11122659.443811975
PART_001_R158G218B229A255,8563,-11069360.0,-166.044,-779.4728,615893.4,83.87163,10890.86,11120188.61996347
PART_001_R158G218B229A255,8564,-11069520.0,-287.258,-1149.882,611096.7,0.00291425,0.00343311,11119293.286226101
PART_001_R158G218B229A255,8565,-11069360.0,-166.0441,-779.4728,615893.4,-83.86612,-10890.86,11120188.619913572
PART_001_R158G218B229A255,8566,-11069460.0,-261.4593,-989.6584,630704.8,-103.41,-19071.29,11122659.443312587
PART_001_R158G218B229A255,8567,-11069400.0,-865.0417,-209.6911,657568.5,-385.6165,-21367.84,11127366.243638044
PART_002_R214G39B40A255,8568,-11068690.0,356.093,717.4518,701009.7,972.9928,-16755.39,11135657.60539814
PART_002_R214G39B40A255,8569,-11069220.0,1080.003,-1613.897,764228.0,-97.25299,-6642.083,11147824.577937488
PART_003_R247G182B210A255,8570,-14757140.0,1884.732,2910.297,522768.7,-912.7596,12172.52,14787300.523827508
PART_003_R247G182B210A255,8571,-14759350.0,-1152.336,-745.1676,466110.4,889.5687,33337.49,14780579.176097644
PART_001_R158G218B229A255,8572,-14759430.0,-476.4949,-1658.618,435090.6,635.9207,40755.29,14777758.921705544
PART_001_R158G218B229A255,8573,-14759150.0,69.71387,-1356.212,417103.3,186.847,33724.37,14776293.87346794
PART_001_R158G218B229A255,8574,-14759410.0,-432.6541,-1625.574,407187.7,155.8957,18846.76,14775259.002303801
PART_001_R158G218B229A255,8575,-14759120.0,214.0659,-1402.184,404161.0,0.001918547,0.004051733,14775118.552846028
PART_001_R158G218B229A255,8576,-14759410.0,-432.6542,-1625.574,407187.7,-155.8922,-18846.75,14775259.002215475
PART_001_R158G218B229A255,8577,-14759150.0,69.71378,-1356.212,417103.3,-186.844,-33724.37,14776293.873422876
PART_001_R158G218B229A255,8578,-14759430.0,-476.4944,-1658.617,435090.6,-635.9186,-40755.29,14777758.92245426
PART_001_R158G218B229A255,8579,-14759350.0,-1152.335,-745.1674,466110.4,-889.5676,-33337.49,14780579.176696528
PART_002_R214G39B40A255,8580,-14757140.0,1884.734,2910.298,522768.7,912.7599,-12172.52,14787300.525324697
PART_003_R247G182B210A255,8581,-18449840.0,1297.951,-5647.502,192001.1,1404.449,32815.52,18450751.154747274
PART_001_R158G218B229A255,8582,-18450180.0,-1666.845,-3699.416,164997.0,864.7629,70946.49,18450119.7377015
PART_001_R158G218B229A255,8583,-18448960.0,863.4703,-2546.63,154671.1,169.2499,72237.01,18450487.96253826
PART_001_R158G218B229A255,8584,-18449400.0,-762.5986,-2252.399,147852.9,202.2042,56329.81,18449927.916003328
PART_001_R158G218B229A255,8585,-18448880.0,552.4532,-1970.982,144589.9,28.48739,30400.77,18449945.78870281
PART_001_R158G218B229A255,8586,-18449250.0,-569.0414,-1985.502,143390.7,0.0006916852,0.004230222,18449644.494336754
PART_001_R158G218B229A255,8587,-18448880.0,552.4532,-1970.981,144589.9,-28.48619,-30400.77,18449945.789202657
PART_001_R158G218B229A255,8588,-18449400.0,-762.5988,-2252.398,147853.0,-202.2031,-56329.8,18449927.918715704
PART_001_R158G218B229A255,8589,-18448960.0,863.4699,-2546.629,154671.1,-169.2493,-72237.01,18450487.96283801
PART_001_R158G218B229A255,8590,-18450180.0,-1666.847,-3699.416,164997.0,-864.7626,-70946.48,18450119.73658608
PART_001_R158G218B229A255,8591,-18449840.0,1297.949,-5647.503,192001.1,-1404.449,-32815.52,18450751.153247245
PART_003_R247G182B210A255,8592,18131740.0,-1275.787,5549.563,192001.1,1380.227,-32815.52,18132743.132108666
PART_000_R31G119B180A255,8593,18132070.0,1638.309,3636.181,164997.0,849.8577,-70946.5,18132101.627392076
PART_000_R31G119B180A255,8594,18130880.0,-848.7877,2502.184,154671.1,166.3292,-72237.01,18132464.40054533
PART_000_R31G119B180A255,8595,18131310.0,749.6608,2214.099,147853.0,198.7198,-56329.82,18131899.24045362
PART_000_R31G119B180A255,8596,18130790.0,-543.1374,1936.467,144589.9,27.99576,-30400.77,18131899.5225194
PART_000_R31G119B180A255,8597,18131160.0,559.4443,1951.801,143390.7,0.0008961373,-0.005501263,18131605.468473747
PART_000_R31G119B180A255,8598,18130790.0,-543.1373,1936.467,144589.9,-27.99391,30400.76,18131899.52241908
PART_000_R31G119B180A255,8599,18131310.0,749.6615,2214.098,147853.0,-198.7184,56329.81,18131899.24051025
PART_000_R31G119B180A255,8600,18130880.0,-848.7861,2502.183,154671.1,-166.3281,72237.0,18132464.400125463
PART_000_R31G119B180A255,8601,18132070.0,1638.312,3636.181,164997.0,-849.8573,70946.49,18132101.62577461
PART_000_R31G119B180A255,8602,18131740.0,-1275.784,5549.564,192001.1,-1380.227,32815.51,18132743.130054157
PART_003_R247G182B210A255,8603,14502710.0,-1852.39,-2860.614,522768.7,-897.0205,-12172.51,14533315.631846188
PART_003_R247G182B210A255,8604,14504880.0,1132.646,732.8089,466110.4,874.2314,-33337.5,14526513.682895072
PART_000_R31G119B180A255,8605,14504960.0,468.0961,1629.538,435090.6,624.9568,-40755.29,14523647.484634826
PART_000_R31G119B180A255,8606,14504680.0,-68.32601,1333.308,417103.3,183.6262,-33724.38,14522146.301703999
PART_000_R31G119B180A255,8607,14504930.0,425.0043,1597.068,407187.7,153.2086,-18846.76,14521092.847331692
PART_000_R31G119B180A255,8608,14504650.0,-210.187,1378.485,404161.0,0.002625581,-0.005454924,14520949.226714361
PART_000_R31G119B180A255,8609,14504930.0,425.0044,1597.068,407187.7,-153.2035,18846.74,14521092.84720371
PART_000_R31G119B180A255,8610,14504680.0,-68.32639,1333.307,417103.3,-183.6221,33724.37,14522146.30232327
PART_000_R31G119B180A255,8611,14504960.0,468.0948,1629.537,435090.6,-624.9539,40755.28,14523647.485698726
PART_000_R31G119B180A255,8612,14504880.0,1132.643,732.8078,466110.4,-874.2301,33337.5,14526513.684941612
PART_002_R214G39B40A255,8613,14502710.0,-1852.394,-2860.615,522768.7,897.0209,12172.51,14533315.634341247
PART_003_R247G182B210A255,8614,10878370.0,-1061.534,1585.663,764228.0,95.57611,-6642.082,10958353.124408945
PART_003_R247G182B210A255,8615,10877850.0,-349.8135,-704.6898,701009.7,-956.215,-16755.4,10945966.40299431
PART_003_R247G182B210A255,8616,10878550.0,849.9806,205.688,657568.5,378.9724,-21367.84,10937546.604700299
PART_000_R31G119B180A255,8617,10878610.0,257.1008,972.9793,630704.8,101.6324,-19071.3,10932759.557482582
PART_000_R31G119B180A255,8618,10878510.0,163.0315,765.651,615893.4,82.42687,-10890.86,10930242.79325854
PART_000_R31G119B180A255,8619,10878670.0,282.4581,1130.439,611096.7,0.00403062,-0.004719614,10929337.084024405
PART_000_R31G119B180A255,8620,10878510.0,163.0318,765.6513,615893.4,-82.41907,10890.85,10930242.792929906
PART_000_R31G119B180A255,8621,10878610.0,257.1016,972.9797,630704.8,-101.6259,19071.29,10932759.556833055
PART_000_R31G119B180A255,8622,10878550.0,849.9823,205.689,657568.5,-378.9675,21367.83,10937546.603298558
PART_002_R214G39B40A255,8623,10877850.0,-349.8109,-704.6887,701009.7,956.2179,16755.39,10945966.40111061
PART_002_R214G39B40A255,8624,10878370.0,-1061.532,1585.665,764228.0,-95.57508,6642.081,10958353.122421745
PART_003_R247G182B210A255,8625,7251583.0,-767.4504,-899.3969,932913.8,-380.5844,-3075.387,7430246.111558219
PART_003_R247G182B210A255,8626,7252287.0,-40.66438,506.9684,865939.5,30.583,-8493.741,7405542.203361483
PART_003_R247G182B210A255,8627,7252132.0,13.65417,-17.56858,817671.8,-725.4241,-10884.41,7389151.875647586
PART_003_R247G182B210A255,8628,7252345.0,500.3985,143.3497,785365.0,112.3319,-9832.545,7378517.746712763
PART_000_R31G119B180A255,8629,7252400.0,172.8441,637.9615,767156.4,-109.9522,-5811.806,7372727.717323278
PART_000_R31G119B180A255,8630,7252339.0,242.3413,382.9243,761253.2,0.005127611,-0.003437177,7370916.208241511
PART_000_R31G119B180A255,8631,7252400.0,172.8442,637.9617,767156.4,109.9621,5811.8,7372727.7171619935
PART_000_R31G119B180A255,8632,7252345.0,500.3984,143.3498,785365.0,-112.3233,9832.539,7378517.746688376
PART_002_R214G39B40A255,8633,7252132.0,13.65328,-17.56868,817671.8,725.4307,10884.4,7389151.876091157
PART_002_R214G39B40A255,8634,7252287.0,-40.66675,506.9676,865939.5,-30.57891,8493.738,7405542.204903346
PART_002_R214G39B40A255,8635,7251583.0,-767.4547,-899.398,932913.8,380.5859,3075.386,7430246.114192546
PART_003_R247G182B210A255,8636,3626083.0,-348.2273,398.2877,1032769.0,-50.30516,-1354.277,4043283.041067863
PART_003_R247G182B210A255,8637,3625930.0,-156.6705,-255.8776,964427.5,-736.191,-3495.946,3992400.7544932626
PART_003_R247G182B210A255,8638,3626157.0,165.2706,109.4117,913527.7,-51.22596,-4584.9,3956220.4458934073
PART_003_R247G182B210A255,8639,3626133.0,63.65542,139.1223,878889.4,-572.15,-4176.448,3932619.774625513
PART_003_R247G182B210A255,8640,3626171.0,232.0156,85.38609,858767.3,9.859537,-2459.776,3919238.0877132104
PART_000_R31G119B180A255,8641,3626200.0,87.95259,316.9151,852242.5,0.005788979,-0.001806613,3914947.0271637915
PART_000_R31G119B180A255,8642,3626171.0,232.0158,85.38621,858767.3,-9.848276,2459.772,3919238.087557567
PART_002_R214G39B40A255,8643,3626133.0,63.65596,139.1226,878889.4,572.1597,4176.445,3932619.774232928
PART_002_R214G39B40A255,8644,3626157.0,165.272,109.4123,913527.7,51.23375,4584.898,3956220.4449702287
PART_002_R214G39B40A255,8645,3625930.0,-156.6682,-255.8766,964427.5,736.196,3495.945,3992400.7529947977
PART_002_R214G39B40A255,8646,3626083.0,-348.2248,398.289,1032769.0,50.30703,1354.276,4043283.039362822
PART_003_R247G182B210A255,8647,0.004178068,-0.0001158579,-0.0006948878,1065912.0,-295.7861,7.699797e-06,1846213.8114802008
PART_003_R247G182B210A255,8648,0.003436306,-0.002325818,-0.0004327254,997062.1,-124.5122,5.619341e-05,1726962.228967123
PART_003_R247G182B210A255,8649,0.002624113,-0.006140612,-0.003163148,945572.5,-787.1918,7.298332e-05,1637780.1797804064
PART_003_R247G182B210A255,8650,0.002265957,-0.008174105,-0.002827855,910068.4,-48.2838,6.243927e-05,1576284.7093814164
PART_003_R247G182B210A255,8651,0.001857891,-0.0100354,-0.004743903,889485.7,-327.036,3.205008e-05,1540634.529137623
PART_003_R247G182B210A255,8652,0.001959413,-0.009932773,-0.003560057,882690.3,0.006041542,6.893957e-07,1528864.4469482147
PART_002_R214G39B40A255,8653,0.001860973,-0.01005447,-0.00474737,889485.7,327.0477,-3.492456e-05,1540634.529145074
PART_002_R214G39B40A255,8654,0.002215009,-0.008450544,-0.002937532,910068.4,48.29403,-5.708135e-05,1576284.7093823566
PART_002_R214G39B40A255,8655,0.00243046,-0.007138269,-0.003546424,945572.5,787.2,-6.356044e-05,1637780.1797922303
PART_002_R214G39B40A255,8656,0.002981925,-0.004469545,-0.001297863,997062.1,124.5174,-4.7551e-05,1726962.2289682478
PART_002_R214G39B40A255,8657,0.003508152,-0.003176103,-0.001911043,1065912.0,295.788,-2.492136e-05,1846213.8114811142
PART_003_R247G182B210A255,8658,-3626083.0,348.2269,-398.2911,1032769.0,-50.30516,1354.277,4043283.0393643393
PART_003_R247G182B210A255,8659,-3625930.0,156.6776,255.883,964427.5,-736.191,3495.946,3992400.7601698535
PART_003_R247G182B210A255,8660,-3626157.0,-165.2593,-109.4102,913527.7,-51.22597,4584.9,3956220.451759136
PART_003_R247G182B210A255,8661,-3626133.0,-63.63675,-139.1125,878889.4,-572.15,4176.449,3932619.7877540616
PART_003_R247G182B210A255,8662,-3626171.0,-231.9967,-85.38168,858767.3,9.859531,2459.776,3919238.098495811
PART_001_R158G218B229A255,8663,-3626200.0,-87.93041,-316.904,852242.5,0.005793276,0.0018179,3914947.0425761333
PART_001_R158G218B229A255,8664,-3626171.0,-231.9968,-85.3818,858767.3,-9.848273,-2459.772,3919238.098386424
PART_002_R214G39B40A255,8665,-3626133.0,-63.63671,-139.1126,878889.4,572.1597,-4176.445,3932619.7877178923
PART_002_R214G39B40A255,8666,-3626157.0,-165.2586,-109.4101,913527.7,51.23376,-4584.898,3956220.452119094
PART_002_R214G39B40A255,8667,-3625930.0,156.6797,255.8838,964427.5,736.196,-3495.945,3992400.7614869447
PART_002_R214G39B40A255,8668,-3626083.0,348.2305,-398.29,1032769.0,50.30703,-1354.276,4043283.041471254
PART_003_R247G182B210A255,8669,-7251583.0,767.4475,899.3877,932913.8,-380.5845,3075.387,7430246.105652946
PART_003_R247G182B210A255,8670,-7252287.0,40.66233,-506.9616,865939.5,30.58299,8493.741,7405542.205686768
PART_003_R247G182B210A255,8671,-7252132.0,-13.66948,17.55475,817671.8,-725.424,10884.41,7389151.861347735
PART_003_R247G182B210A255,8672,-7252345.0,-500.4121,-143.3477,785365.0,112.3319,9832.546,7378517.74101676
PART_001_R158G218B229A255,8673,-7252400.0,-172.8673,-637.9784,767156.4,-109.9522,5811.806,7372727.697601312
PART_001_R158G218B229A255,8674,-7252339.0,-242.3584,-382.9238,761253.3,0.005123961,0.003475824,7370916.231058527
PART_001_R158G218B229A255,8675,-7252400.0,-172.8675,-637.9787,767156.4,109.9621,-5811.8,7372727.697341665
PART_001_R158G218B229A255,8676,-7252345.0,-500.4125,-143.348,785365.0,-112.3233,-9832.54,7378517.740648384
PART_002_R214G39B40A255,8677,-7252132.0,-13.67066,17.55397,817671.8,725.4307,-10884.4,7389151.86034369
PART_002_R214G39B40A255,8678,-7252287.0,40.66042,-506.9624,865939.5,-30.57891,-8493.738,7405542.204349416
PART_002_R214G39B40A255,8679,-7251583.0,767.4455,899.3863,932913.8,380.5859,-3075.386,7430246.103992616
PART_003_R247G182B210A255,8680,-10878370.0,1061.528,-1585.681,764228.0,95.57617,6642.082,10958353.112498995
PART_003_R247G182B210A255,8681,-10877850.0,349.8258,704.7096,701009.7,-956.215,16755.4,10945966.418945389
PART_003_R247G182B210A255,8682,-10878550.0,-849.9747,-205.701,657568.5,378.9724,21367.84,10937546.601168783
PART_001_R158G218B229A255,8683,-10878610.0,-257.0766,-972.9556,630704.8,101.6324,19071.3,10932759.581312636
PART_001_R158G218B229A255,8684,-10878510.0,-163.018,-765.661,615893.4,82.42686,10890.86,10930242.795001157
PART_001_R158G218B229A255,8685,-10878670.0,-282.4302,-1130.414,611096.7,0.004025943,0.004791551,10929337.110350244
PART_001_R158G218B229A255,8686,-10878510.0,-163.0183,-765.6613,615893.4,-82.41906,-10890.85,10930242.794672519
PART_001_R158G218B229A255,8687,-10878610.0,-257.0767,-972.9557,630704.8,-101.6259,-19071.29,10932759.581160624
PART_001_R158G218B229A255,8688,-10878550.0,-849.9745,-205.7013,657568.5,-378.9675,-21367.83,10937546.601059915
PART_002_R214G39B40A255,8689,-10877850.0,349.8276,704.7104,701009.7,956.2179,-16755.39,10945966.420192175
PART_002_R214G39B40A255,8690,-10878370.0,1061.532,-1585.681,764228.0,-95.57511,-6642.081,10958353.114483228
PART_003_R247G182B210A255,8691,-14502710.0,1852.38,2860.587,522768.7,-897.0206,12172.51,14533315.61338128
PART_003_R247G182B210A255,8692,-14504880.0,-1132.642,-732.7847,466110.4,874.2314,33337.5,14526513.696973583
PART_001_R158G218B229A255,8693,-14504960.0,-468.1184,-1629.568,435090.6,624.9569,40755.29,14523647.458520839
PART_001_R158G218B229A255,8694,-14504680.0,68.31858,-1333.288,417103.3,183.6262,33724.38,14522146.30797918
PART_001_R158G218B229A255,8695,-14504930.0,-425.035,-1597.102,407187.7,153.2086,18846.76,14521092.815020153
PART_001_R158G218B229A255,8696,-14504650.0,210.1762,-1378.467,404161.0,0.002618013,0.005531051,14520949.230307814
PART_001_R158G218B229A255,8697,-14504930.0,-425.0351,-1597.102,407187.7,-153.2035,-18846.74,14521092.81489217
PART_001_R158G218B229A255,8698,-14504680.0,68.3184,-1333.288,417103.3,-183.6221,-33724.37,14522146.307819454
PART_001_R158G218B229A255,8699,-14504960.0,-468.1193,-1629.569,435090.6,-624.9539,-40755.28,14523647.457487563
PART_001_R158G218B229A255,8700,-14504880.0,-1132.644,-732.7849,466110.4,-874.2301,-33337.5,14526513.695875095
PART_002_R214G39B40A255,8701,-14502710.0,1852.378,2860.585,522768.7,897.021,-12172.51,14533315.611385243
PART_003_R247G182B210A255,8702,-18131740.0,1275.776,-5549.596,192001.1,1380.228,32815.52,18132743.110118914
PART_001_R158G218B229A255,8703,-18132070.0,-1638.291,-3636.147,164997.0,849.8574,70946.5,18132101.653386887
PART_001_R158G218B229A255,8704,-18130880.0,848.7884,-2502.211,154671.1,166.3294,72237.01,18132464.387400925
PART_001_R158G218B229A255,8705,-18131310.0,-749.6305,-2214.062,147853.0,198.7197,56329.82,18131899.274099365
PART_001_R158G218B229A255,8706,-18130790.0,543.1459,-1936.492,144589.9,27.99581,30400.77,18131899.51427365
PART_001_R158G218B229A255,8707,-18131160.0,-559.4101,-1951.763,143390.7,0.000898076,0.005552408,18131605.50457014
PART_001_R158G218B229A255,8708,-18130790.0,543.1458,-1936.491,144589.9,-27.99396,-30400.76,18131899.51467319
PART_001_R158G218B229A255,8709,-18131310.0,-749.6305,-2214.061,147853.0,-198.7183,-56329.81,18131899.274506003
PART_001_R158G218B229A255,8710,-18130880.0,848.7889,-2502.21,154671.1,-166.3283,-72237.0,18132464.388031207
PART_001_R158G218B229A255,8711,-18132070.0,-1638.289,-3636.145,164997.0,-849.857,-70946.49,18132101.655269153
PART_001_R158G218B229A255,8712,-18131740.0,1275.779,-5549.595,192001.1,-1380.227,-32815.51,18132743.11206461
PART_003_R247G182B210A255,8713,17813640.0,-1253.222,5452.688,192001.1,1356.019,-32815.52,17814736.309261188
PART_000_R31G119B180A255,8714,17813970.0,1609.388,3571.918,164997.0,834.9442,-70946.49,17814095.864402816
PART_000_R31G119B180A255,8715,17812790.0,-833.7343,2458.742,154671.1,163.4136,-72237.01,17814431.63668527
PART_000_R31G119B180A255,8716,17813220.0,736.3111,2174.792,147853.0,195.2324,-56329.81,17813872.5465477
PART_000_R31G119B180A255,8717,17812710.0,-533.4512,1902.941,144589.9,27.50555,-30400.78,17813863.68765673
PART_000_R31G119B180A255,8718,17813070.0,549.4247,1917.097,143390.7,0.001352318,-0.007456574,17813568.20245649
PART_000_R31G119B180A255,8719,17812710.0,-533.4513,1902.94,144589.9,-27.5032,30400.76,17813863.688104175
PART_000_R31G119B180A255,8720,17813220.0,736.3105,2174.791,147853.0,-195.2303,56329.8,17813872.547252648
PART_000_R31G119B180A255,8721,17812790.0,-833.7363,2458.74,154671.1,-163.4124,72237.0,17814431.638563313
PART_000_R31G119B180A255,8722,17813970.0,1609.385,3571.916,164997.0,-834.9436,70946.48,17814095.866782956
PART_000_R31G119B180A255,8723,17813640.0,-1253.227,5452.686,192001.1,-1356.019,32815.52,17814736.312761407
PART_003_R247G182B210A255,8724,14248280.0,-1819.76,-2810.006,522768.7,-881.2848,-12172.52,14279347.44435625
PART_003_R247G182B210A255,8725,14250410.0,1112.629,719.538,466110.4,858.8945,-33337.49,14272462.64962859
PART_000_R31G119B180A255,8726,14250490.0,460.0523,1601.365,435090.6,613.9934,-40755.29,14269547.52875383
PART_000_R31G119B180A255,8727,14250210.0,-67.26796,1309.515,417103.3,180.4055,-33724.38,14268010.448483042
PART_000_R31G119B180A255,8728,14250460.0,417.7308,1569.464,407187.7,150.5217,-18846.76,14266946.586142564
PART_000_R31G119B180A255,8729,14250180.0,-206.6382,1353.903,404161.0,0.003726636,-0.007318598,14266790.872504443
PART_000_R31G119B180A255,8730,14250460.0,417.731,1569.464,407187.7,-150.5149,18846.75,14266946.586002827
PART_000_R31G119B180A255,8731,14250210.0,-67.26704,1309.515,417103.3,-180.3996,33724.37,14268010.447952436
PART_000_R31G119B180A255,8732,14250490.0,460.0544,1601.366,435090.6,-613.9894,40755.28,14269547.527119746
PART_000_R31G119B180A255,8733,14250410.0,1112.632,719.5394,466110.4,-858.8923,33337.49,14272462.647431767
PART_002_R214G39B40A255,8734,14248280.0,-1819.757,-2810.005,522768.7,881.2853,12172.52,14279347.442360474
PART_003_R247G182B210A255,8735,10687520.0,-1042.784,1558.19,764228.0,93.90012,-6642.084,10768929.666634485
PART_003_R247G182B210A255,8736,10687010.0,-343.8016,-692.6619,701009.7,-939.4383,-16755.39,10756316.677707491
PART_003_R247G182B210A255,8737,10687700.0,835.18,202.4026,657568.5,372.3244,-21367.84,10747762.634804871
PART_000_R31G119B180A255,8738,10687750.0,252.4461,955.577,630704.8,99.85096,-19071.3,10742883.530823024
PART_000_R31G119B180A255,8739,10687650.0,160.2778,752.5343,615893.4,80.98218,-10890.86,10740318.294645714
PART_000_R31G119B180A255,8740,10687810.0,277.3523,1110.274,611096.7,0.00563961,-0.006275752,10739402.704145277
PART_000_R31G119B180A255,8741,10687650.0,160.2778,752.5345,615893.4,-80.97153,10890.85,10740318.294515556
PART_000_R31G119B180A255,8742,10687750.0,252.4459,955.5774,630704.8,-99.84174,19071.29,10742883.530670056
PART_000_R31G119B180A255,8743,10687700.0,835.1787,202.4024,657568.5,-372.3177,21367.83,10747762.635490255
PART_002_R214G39B40A255,8744,10687010.0,-343.8045,-692.6625,701009.7,939.4424,16755.39,10756316.679447317
PART_002_R214G39B40A255,8745,10687520.0,-1042.789,1558.188,764228.0,-93.89894,6642.082,10768929.670104755
PART_003_R247G182B210A255,8746,7124362.0,-753.9127,-883.3867,932913.8,-373.9078,-3075.389,7306107.894877882
PART_003_R247G182B210A255,8747,7125054.0,-40.02917,497.8476,865939.5,30.04722,-8493.738,7280996.008631507
PART_003_R247G182B210A255,8748,7124901.0,13.51283,-17.02992,817671.8,-712.696,-10884.41,7264320.874790528
PART_003_R247G182B210A255,8749,7125111.0,491.5507,140.618,785365.0,110.3629,-9832.544,7253508.620344837
PART_000_R31G119B180A255,8750,7125165.0,169.9212,627.0003,767156.4,-108.0213,-5811.809,7247619.373840464
PART_000_R31G119B180A255,8751,7125105.0,238.0238,375.9923,761253.3,0.007139212,-0.004580268,7245775.748714137
PART_000_R31G119B180A255,8752,7125165.0,169.9215,627.0006,767156.4,108.0348,5811.8,7247619.373524502
PART_000_R31G119B180A255,8753,7125111.0,491.5517,140.6186,785365.0,-110.351,9832.536,7253508.619525971
PART_002_R214G39B40A255,8754,7124901.0,13.51481,-17.02897,817671.8,712.7051,10884.41,7264320.873356327
PART_002_R214G39B40A255,8755,7125054.0,-40.02615,497.849,865939.5,-30.04127,8493.734,7280996.006454748
PART_002_R214G39B40A255,8756,7124362.0,-753.9102,-883.3851,932913.8,373.9098,3075.387,7306107.892876441
PART_003_R247G182B210A255,8757,3562468.0,-342.0742,391.4203,1032769.0,-49.42204,-1354.277,3986332.122747729
PART_003_R247G182B210A255,8758,3562317.0,-153.9691,-251.5066,964427.5,-723.274,-3495.945,3934710.4508775384
PART_003_R247G182B210A255,8759,3562540.0,162.4012,107.6012,913527.7,-50.32596,-4584.902,3897998.3357239305
PART_003_R247G182B210A255,8760,3562517.0,62.47622,136.5609,878889.4,-562.1101,-4176.448,3874043.2786095436
PART_003_R247G182B210A255,8761,3562554.0,227.968,83.99231,858767.3,9.688671,-2459.777,3860458.7351479973
PART_000_R31G119B180A255,8762,3562582.0,86.34244,311.2335,852242.5,0.008062717,-0.002413417,3856102.439472261
PART_000_R31G119B180A255,8763,3562554.0,227.9681,83.99242,858767.3,-9.673322,2459.773,3860458.735043342
PART_002_R214G39B40A255,8764,3562517.0,62.47607,136.561,878889.4,562.1238,4176.443,3874043.278622329
PART_002_R214G39B40A255,8765,3562540.0,162.4001,107.6008,913527.7,50.33655,4584.899,3897998.336399177
PART_002_R214G39B40A255,8766,3562317.0,-153.9719,-251.5076,964427.5,723.2809,3495.943,3934710.4525962546
PART_002_R214G39B40A255,8767,3562468.0,-342.0789,391.4187,1032769.0,49.42434,1354.277,3986332.125563285
PART_003_R247G182B210A255,8768,0.003580533,0.0007899224,0.0007531175,1065912.0,-290.5969,2.551883e-05,1846213.8090079585
PART_003_R247G182B210A255,8769,0.004398986,0.003473078,0.0004940531,997062.1,-122.3268,3.20772e-05,1726962.228498576
PART_003_R247G182B210A255,8770,0.005394607,0.008032597,0.003663997,945572.5,-773.3799,5.498178e-05,1637780.1600392403
PART_003_R247G182B210A255,8771,0.005894727,0.01048377,0.003239609,910068.4,-47.43452,6.7179e-05,1576284.709304059
PART_003_R247G182B210A255,8772,0.006432127,0.01268558,0.005394379,889485.7,-321.2964,4.641849e-05,1540634.525514601
PART_003_R247G182B210A255,8773,0.006357377,0.01260493,0.004031035,882690.3,0.008393794,-2.492773e-06,1528864.4469482147
PART_002_R214G39B40A255,8774,0.006428003,0.0127307,0.005407163,889485.7,321.3123,-4.693501e-05,1540634.525524549
PART_002_R214G39B40A255,8775,0.005939555,0.01082919,0.003374567,910068.4,47.44879,-7.461377e-05,1576284.7093053474
PART_002_R214G39B40A255,8776,0.005603322,0.009245523,0.004126694,945572.5,773.3911,-6.702335e-05,1637780.1600551067
PART_002_R214G39B40A255,8777,0.004914637,0.006086043,0.00154529,997062.1,122.3343,-4.212897e-05,1726962.2285001697
PART_002_R214G39B40A255,8778,0.00434577,0.004531699,0.002239171,1065912.0,290.5995,-2.27415e-06,1846213.8090091862
PART_003_R247G182B210A255,8779,-3562467.0,342.0761,-391.4162,1032769.0,-49.42207,1354.277,3986331.231763989
PART_003_R247G182B210A255,8780,-3562317.0,153.9616,251.5,964427.5,-723.274,3495.945,3934710.4444944263
PART_003_R247G182B210A255,8781,-3562540.0,-162.4142,-107.6034,913527.7,-50.32596,4584.903,3897998.328781886
PART_003_R247G182B210A255,8782,-3562517.0,-62.49819,-136.5733,878889.4,-562.1101,4176.448,3874043.262806758
PART_003_R247G182B210A255,8783,-3562554.0,-227.9905,-83.99854,858767.3,9.688678,2459.777,3860458.7218925543
PART_001_R158G218B229A255,8784,-3562582.0,-86.36876,-311.2478,852242.5,0.008061061,0.002398323,3856102.4207087476
PART_001_R158G218B229A255,8785,-3562554.0,-227.9907,-83.99868,858767.3,-9.673321,-2459.773,3860458.7217279198
PART_002_R214G39B40A255,8786,-3562517.0,-62.49873,-136.5737,878889.4,562.1238,-4176.444,3874043.262367589
PART_002_R214G39B40A255,8787,-3562540.0,-162.4155,-107.604,913527.7,50.33654,-4584.899,3897998.3278999776
PART_002_R214G39B40A255,8788,-3562317.0,153.9591,251.4988,964427.5,723.281,-3495.943,3934710.4428179744
PART_002_R214G39B40A255,8789,-3562467.0,342.0733,-391.4176,1032769.0,49.42435,-1354.277,3986331.229887185
PART_003_R247G182B210A255,8790,-7124362.0,753.9173,883.3978,932913.8,-373.9077,3075.389,7306107.902533556
PART_003_R247G182B210A255,8791,-7125054.0,40.03255,-497.856,865939.5,30.04721,8493.738,7280996.006175998
PART_003_R247G182B210A255,8792,-7124901.0,-13.49335,17.04637,817671.8,-712.696,10884.41,7264320.892410731
PART_003_R247G182B210A255,8793,-7125111.0,-491.5334,-140.6208,785365.0,110.3629,9832.544,7253508.627465456
PART_001_R158G218B229A255,8794,-7125165.0,-169.8922,-626.9805,767156.4,-108.0213,5811.809,7247619.3978273
PART_001_R158G218B229A255,8795,-7125105.0,-238.0022,-375.9937,761253.3,0.007134863,0.004532804,7245775.758645832
PART_001_R158G218B229A255,8796,-7125165.0,-169.8924,-626.9807,767156.4,108.0348,-5811.8,7247619.397609643
PART_001_R158G218B229A255,8797,-7125111.0,-491.5336,-140.6213,785365.0,-110.351,-9832.536,7253508.627088579
PART_002_R214G39B40A255,8798,-7124901.0,-13.49283,17.04649,817671.8,712.7051,-10884.41,7264320.892727267
PART_002_R214G39B40A255,8799,-7125054.0,40.03474,-497.8555,865939.5,-30.04126,-8493.734,7280996.00747817
PART_002_R214G39B40A255,8800,-7124362.0,753.9224,883.3994,932913.8,373.9098,-3075.387,7306107.905798349
PART_003_R247G182B210A255,8801,-10687520.0,1042.792,-1558.167,764228.0,93.90007,6642.084,10768929.682014221
PART_003_R247G182B210A255,8802,-10687010.0,343.7871,692.6375,701009.7,-939.4383,16755.39,10756316.658381635
PART_003_R247G182B210A255,8803,-10687700.0,-835.1867,-202.3873,657568.5,372.3245,21367.84,10747762.639081616
PART_001_R158G218B229A255,8804,-10687750.0,-252.4753,-955.6067,630704.8,99.85095,19071.3,10742883.501525845
PART_001_R158G218B229A255,8805,-10687650.0,-160.2938,-752.523,615893.4,80.98219,10890.86,10740318.292306207
PART_001_R158G218B229A255,8806,-10687810.0,-277.386,-1110.306,611096.7,0.005648378,0.006181222,10739402.671455113
PART_001_R158G218B229A255,8807,-10687650.0,-160.294,-752.5231,615893.4,-80.97155,-10890.85,10740318.292126285
PART_001_R158G218B229A255,8808,-10687750.0,-252.4759,-955.6075,630704.8,-99.84173,-19071.29,10742883.500775972
PART_001_R158G218B229A255,8809,-10687700.0,-835.1879,-202.3877,657568.5,-372.3177,-21367.83,10747762.63822581
PART_002_R214G39B40A255,8810,-10687010.0,343.7846,692.6359,701009.7,939.4424,-16755.39,10756316.656345842
PART_002_R214G39B40A255,8811,-10687520.0,1042.79,-1558.168,764228.0,-93.89893,-6642.082,10768929.680521684
PART_003_R247G182B210A255,8812,-14248280.0,1819.771,2810.039,522768.7,-881.2846,12172.52,14279347.466313059
PART_003_R247G182B210A255,8813,-14250410.0,-1112.633,-719.5679,466110.4,858.8945,33337.49,14272462.632705335
PART_001_R158G218B229A255,8814,-14250490.0,-460.0248,-1601.328,435090.6,613.9934,40755.29,14269547.56095786
PART_001_R158G218B229A255,8815,-14250210.0,67.27724,-1309.539,417103.3,180.4056,33724.38,14268010.441134958
PART_001_R158G218B229A255,8816,-14250460.0,-417.6931,-1569.424,407187.7,150.5217,18846.76,14266946.624944823
PART_001_R158G218B229A255,8817,-14250180.0,206.6516,-1353.926,404161.0,0.003737431,0.007218863,14266790.867713211
PART_001_R158G218B229A255,8818,-14250460.0,-417.6933,-1569.424,407187.7,-150.5149,-18846.75,14266946.624805087
PART_001_R158G218B229A255,8819,-14250210.0,67.27697,-1309.54,417103.3,-180.3996,-33724.37,14268010.440429695
PART_001_R158G218B229A255,8820,-14250490.0,-460.0242,-1601.327,435090.6,-613.9894,-40755.28,14269547.561670512
PART_001_R158G218B229A255,8821,-14250410.0,-1112.632,-719.5679,466110.4,-858.8923,-33337.49,14272462.633204112
PART_002_R214G39B40A255,8822,-14248280.0,1819.776,2810.041,522768.7,881.2852,-12172.52,14279347.469805965
PART_003_R247G182B210A255,8823,-17813640.0,1253.236,-5452.647,192001.1,1356.018,32815.52,17814736.336748403
PART_001_R158G218B229A255,8824,-17813970.0,-1609.41,-3571.96,164997.0,834.9446,70946.49,17814095.832409408
PART_001_R158G218B229A255,8825,-17812790.0,833.7335,-2458.709,154671.1,163.4134,72237.02,17814431.65290001
PART_001_R158G218B229A255,8826,-17813220.0,-736.3482,-2174.839,147853.0,195.2325,56329.81,17813872.504503276
PART_001_R158G218B229A255,8827,-17812710.0,533.4409,-1902.912,144589.9,27.5055,30400.78,17813863.697001733
PART_001_R158G218B229A255,8828,-17813070.0,-549.4666,-1917.145,143390.7,0.001353833,0.007390106,17813568.15751121
PART_001_R158G218B229A255,8829,-17812710.0,533.4409,-1902.911,144589.9,-27.50316,-30400.76,17813863.697399173
PART_001_R158G218B229A255,8830,-17813220.0,-736.3484,-2174.838,147853.0,-195.2304,-56329.8,17813872.504808225
PART_001_R158G218B229A255,8831,-17812790.0,833.733,-2458.707,154671.1,-163.4122,-72237.01,17814431.65352788
PART_001_R158G218B229A255,8832,-17813970.0,-1609.412,-3571.96,164997.0,-834.9439,-70946.48,17814095.831289817
PART_001_R158G218B229A255,8833,-17813640.0,1253.233,-5452.648,192001.1,-1356.018,-32815.52,17814736.334748197
PART_003_R247G182B210A255,8834,17495540.0,-1230.993,5354.923,192001.1,1331.799,-32815.52,17496732.136461157
PART_000_R31G119B180A255,8835,17495860.0,1580.796,3508.518,164997.0,820.0376,-70946.5,17496081.239572536
PART_000_R31G119B180A255,8836,17494710.0,-818.9735,2414.466,154671.1,160.494,-72237.01,17496410.999542005
PART_000_R31G119B180A255,8837,17495120.0,723.3316,2136.337,147853.0,191.7476,-56329.82,17495836.58748387
PART_000_R31G119B180A255,8838,17494620.0,-524.0444,1868.599,144589.9,27.01444,-30400.78,17495819.573833246
PART_000_R31G119B180A255,8839,17494980.0,539.7901,1883.243,143390.7,0.00171535,-0.009788994,17495531.42333028
PART_000_R31G119B180A255,8840,17494620.0,-524.0442,1868.598,144589.9,-27.0109,30400.76,17495819.574128803
PART_000_R31G119B180A255,8841,17495120.0,723.3327,2136.335,147853.0,-191.7449,56329.8,17495836.58774036
PART_000_R31G119B180A255,8842,17494710.0,-818.9709,2414.465,154671.1,-160.492,72237.0,17496410.998617705
PART_000_R31G119B180A255,8843,17495860.0,1580.801,3508.518,164997.0,-820.0369,70946.49,17496081.23695077
PART_000_R31G119B180A255,8844,17495540.0,-1230.987,5354.924,192001.1,-1331.799,32815.51,17496732.13290413
PART_003_R247G182B210A255,8845,13993840.0,-1787.371,-2760.171,522768.7,-865.5462,-12172.52,14025388.033843124
PART_003_R247G182B210A255,8846,13995940.0,1092.878,707.0269,466110.4,843.5573,-33337.5,14018425.698367098
PART_000_R31G119B180A255,8847,13996010.0,451.695,1572.428,435090.6,603.03,-40755.29,14015450.895465357
PART_000_R31G119B180A255,8848,13995750.0,-65.95916,1286.455,417103.3,177.1852,-33724.38,14013895.805101216
PART_000_R31G119B180A255,8849,13995990.0,410.1137,1541.096,407187.7,147.8352,-18846.76,14012811.995297145
PART_000_R31G119B180A255,8850,13995720.0,-202.844,1330.047,404161.0,0.004977383,-0.009841254,14012652.950906713
PART_000_R31G119B180A255,8851,13995990.0,410.1138,1541.096,407187.7,-147.8255,18846.74,14012811.995166196
PART_000_R31G119B180A255,8852,13995750.0,-65.95969,1286.455,417103.3,-177.1773,33724.37,14013895.805293407
PART_000_R31G119B180A255,8853,13996010.0,451.6932,1572.428,435090.6,-603.0242,40755.28,14015450.896276167
PART_000_R31G119B180A255,8854,13995940.0,1092.874,707.0253,466110.4,-843.5546,33337.49,14018425.701090546
PART_002_R214G39B40A255,8855,13993840.0,-1787.377,-2760.173,522768.7,865.547,12172.51,14025388.037808679
PART_003_R247G182B210A255,8856,10496680.0,-1024.266,1530.082,764228.0,92.22327,-6642.083,10579567.679090625
PART_003_R247G182B210A255,8857,10496170.0,-337.5578,-680.0187,701009.6,-922.6621,-16755.4,10566709.697618134
PART_003_R247G182B210A255,8858,10496840.0,820.1801,198.5258,657568.5,365.6775,-21367.84,10558007.221703216
PART_000_R31G119B180A255,8859,10496900.0,248.0634,938.7871,630704.8,98.06948,-19071.3,10553052.111853592
PART_000_R31G119B180A255,8860,10496800.0,157.3376,738.8411,615893.4,79.53831,-10890.86,10550437.60124574
PART_000_R31G119B180A255,8861,10496960.0,272.5318,1090.722,611096.7,0.007628305,-0.008572165,10549510.780976333
PART_000_R31G119B180A255,8862,10496800.0,157.338,738.8416,615893.4,-79.52353,10890.85,10550437.600766748
PART_000_R31G119B180A255,8863,10496900.0,248.0647,938.7879,630704.8,-98.057,19071.29,10553052.11075465
PART_000_R31G119B180A255,8864,10496840.0,820.183,198.5274,657568.5,-365.668,21367.83,10558007.219404714
PART_002_R214G39B40A255,8865,10496170.0,-337.5539,-680.017,701009.7,922.6677,16755.39,10566709.714693042
PART_002_R214G39B40A255,8866,10496680.0,-1024.263,1530.085,764228.0,-92.22123,6642.081,10579567.67611038
PART_003_R247G182B210A255,8867,6997141.0,-740.5098,-867.801,932913.8,-367.23,-3075.388,7182078.366561981
PART_003_R247G182B210A255,8868,6997821.0,-39.25267,489.1419,865939.5,29.51179,-8493.741,7156543.917998578
PART_003_R247G182B210A255,8869,6997671.0,13.18585,-16.91642,817671.8,-699.9674,-10884.41,7139575.892780854
PART_003_R247G182B210A255,8870,6997877.0,482.8216,138.281,785365.0,108.3943,-9832.547,7128577.7624199055
PART_000_R31G119B180A255,8871,6997930.0,166.7885,615.6113,767156.4,-106.0897,-5811.809,7122586.440423583
PART_000_R31G119B180A255,8872,6997871.0,233.818,369.4494,761253.2,0.009639862,-0.006258059,7120708.978290561
PART_000_R31G119B180A255,8873,6997930.0,166.7887,615.6116,767156.4,106.1083,5811.797,7122586.440149433
PART_000_R31G119B180A255,8874,6997877.0,482.8215,138.2813,785365.0,-108.3782,9832.536,7128577.762275478
PART_002_R214G39B40A255,8875,6997671.0,13.18465,-16.91646,817671.8,699.9801,10884.4,7139575.8933465285
PART_002_R214G39B40A255,8876,6997821.0,-39.25617,489.1407,865939.5,-29.50397,8493.736,7156543.920278612
PART_002_R214G39B40A255,8877,6997141.0,-740.5165,-867.8027,932913.8,367.2328,3075.386,7182078.370652095
PART_003_R247G182B210A255,8878,3498852.0,-336.0011,384.3322,1032769.0,-48.53905,-1354.277,3929584.906275957
PART_003_R247G182B210A255,8879,3498705.0,-151.1784,-246.9179,964427.5,-710.3573,-3495.947,3877206.330860212
PART_003_R247G182B210A255,8880,3498924.0,159.4821,105.5924,913527.7,-49.42491,-4584.901,3839948.352422495
PART_003_R247G182B210A255,8881,3498901.0,61.41944,134.2239,878889.4,-552.07,-4176.449,3815627.950873507
PART_003_R247G182B210A255,8882,3498937.0,223.8875,82.41038,858767.3,9.518739,-2459.777,3801835.1397553305
PART_000_R31G119B180A255,8883,3498965.0,84.86496,305.7788,852242.5,0.01088047,-0.003292482,3797412.426054467
PART_000_R31G119B180A255,8884,3498937.0,223.8878,82.41061,858767.3,-9.497575,2459.771,3801835.1394996513
PART_002_R214G39B40A255,8885,3498901.0,61.4203,134.2244,878889.4,552.0884,4176.444,3815627.9502415336
PART_002_R214G39B40A255,8886,3498924.0,159.4841,105.5934,913527.8,49.43971,4584.897,3839948.4224123303
PART_002_R214G39B40A255,8887,3498705.0,-151.175,-246.9164,964427.5,710.3668,3495.944,3877206.3286464023
PART_002_R214G39B40A255,8888,3498852.0,-335.9975,384.3342,1032769.0,48.54265,1354.276,3929584.90378177
PART_003_R247G182B210A255,8889,0.003807226,0.0002244339,-0.0008574738,1065912.0,-285.4069,4.33417e-05,1846213.8065791014
PART_003_R247G182B210A255,8890,0.002745219,-0.003306273,-0.0007919012,997062.0,-120.141,0.0001764021,1726962.0548331626
PART_003_R247G182B210A255,8891,0.001630432,-0.009031835,-0.004695837,945572.5,-759.5673,0.000227632,1637780.1406465399
PART_003_R247G182B210A255,8892,0.001150874,-0.0121847,-0.00448575,910068.4,-46.58492,0.0001906031,1576284.7092280458
PART_003_R247G182B210A255,8893,0.0006630762,-0.01483413,-0.007104554,889485.7,-315.5557,0.0001045003,1540634.5219550512
PART_003_R247G182B210A255,8894,0.0007874605,-0.01478417,-0.005596819,882690.3,0.01132818,3.833381e-06,1528864.4469482147
PART_002_R214G39B40A255,8895,0.0006629634,-0.01488048,-0.007121261,889485.7,315.5777,-0.0001096938,1540634.52196857
PART_002_R214G39B40A255,8896,0.001083777,-0.01259508,-0.004640752,910068.4,46.60417,-0.0001821496,1576284.7092297527
PART_002_R214G39B40A255,8897,0.001356111,-0.01048782,-0.005256897,945572.5,759.5827,-0.0002114526,1637780.1406679668
PART_002_R214G39B40A255,8898,0.002073273,-0.006523611,-0.00208613,997062.1,120.1509,-0.0001628657,1726962.2280403085
PART_002_R214G39B40A255,8899,0.002806221,-0.004419102,-0.002703184,1065912.0,285.4105,-7.443124e-05,1846213.8065807712
PART_003_R247G182B210A255,8900,-3498852.0,336.0007,-384.3372,1032769.0,-48.53905,1354.277,3929584.9038725607
PART_003_R247G182B210A255,8901,-3498705.0,151.1893,246.9257,964427.5,-710.3573,3495.947,3877206.3392978674
PART_003_R247G182B210A255,8902,-3498924.0,-159.4646,-105.5901,913527.7,-49.42493,4584.902,3839948.3614463606
PART_003_R247G182B210A255,8903,-3498901.0,-61.39121,-134.2097,878889.4,-552.07,4176.45,3815627.970330437
PART_003_R247G182B210A255,8904,-3498937.0,-223.8587,-82.40375,858767.3,9.518727,2459.777,3801835.156057616
PART_001_R158G218B229A255,8905,-3498965.0,-84.8316,-305.7628,852242.5,0.01088938,0.003313966,3797412.4487942965
PART_001_R158G218B229A255,8906,-3498937.0,-223.8589,-82.40396,858767.3,-9.497576,-2459.771,3801835.155857153
PART_002_R214G39B40A255,8907,-3498901.0,-61.39124,-134.2098,878889.4,552.0884,-4176.444,3815627.97025912
PART_002_R214G39B40A255,8908,-3498924.0,-159.4637,-105.5899,913527.8,49.43972,-4584.897,3839948.433300465
PART_002_R214G39B40A255,8909,-3498705.0,151.1923,246.9268,964427.5,710.3668,-3495.944,3877206.3411449185
PART_002_R214G39B40A255,8910,-3498852.0,336.0064,-384.3355,1032769.0,48.54267,-1354.276,3929584.9071666203
PART_003_R247G182B210A255,8911,-6997141.0,740.5061,867.7876,932913.8,-367.2301,3075.388,7182078.358231071
PART_003_R247G182B210A255,8912,-6997821.0,39.24986,-489.132,865939.5,29.51178,8493.742,7156543.921467699
PART_003_R247G182B210A255,8913,-6997671.0,-13.20849,16.89583,817671.8,-699.9674,10884.41,7139575.871595471
PART_003_R247G182B210A255,8914,-6997877.0,-482.8419,-138.2786,785365.0,108.3943,9832.548,7128577.7536393525
PART_001_R158G218B229A255,8915,-6997930.0,-166.8229,-615.6366,767156.4,-106.0897,5811.809,7122586.411097215
PART_001_R158G218B229A255,8916,-6997871.0,-233.8434,-369.4492,761253.3,0.009645503,0.006318234,7120708.997980174
PART_001_R158G218B229A255,8917,-6997930.0,-166.8232,-615.6371,767156.4,106.1083,-5811.797,7122586.410675702
PART_001_R158G218B229A255,8918,-6997877.0,-482.8426,-138.2791,785365.0,-108.3782,-9832.537,7128577.753004136
PART_002_R214G39B40A255,8919,-6997671.0,-13.21031,16.89456,817671.8,699.9801,-10884.4,7139575.87003918
PART_002_R214G39B40A255,8920,-6997821.0,39.24699,-489.1331,865939.5,-29.50396,-8493.736,7156543.919505228
PART_002_R214G39B40A255,8921,-6997141.0,740.5034,867.7854,932913.8,367.2328,-3075.386,7182078.355841735
PART_003_R247G182B210A255,8922,-10496680.0,1024.257,-1530.11,764228.0,92.22335,6642.083,10579567.660739452
PART_003_R247G182B210A255,8923,-10496170.0,337.5763,680.0481,701009.7,-922.6621,16755.4,10566709.741312072
PART_003_R247G182B210A255,8924,-10496840.0,-820.1711,-198.5452,657568.5,365.6775,21367.84,10558007.21653234
PART_001_R158G218B229A255,8925,-10496900.0,-248.0269,-938.7519,630704.8,98.0695,19071.3,10553052.147510886
PART_001_R158G218B229A255,8926,-10496800.0,-157.3172,-738.8563,615893.4,79.5383,10890.86,10550437.603833884
PART_001_R158G218B229A255,8927,-10496960.0,-272.4899,-1090.685,611096.7,0.007632848,0.008685925,10549510.820227554
PART_001_R158G218B229A255,8928,-10496800.0,-157.3177,-738.8569,615893.4,-79.52353,-10890.85,10550437.603255406
PART_001_R158G218B229A255,8929,-10496900.0,-248.0273,-938.7522,630704.8,-98.05703,-19071.29,10553052.1471082
PART_001_R158G218B229A255,8930,-10496840.0,-820.171,-198.546,657568.5,-365.6679,-21367.83,10558007.216122631
PART_002_R214G39B40A255,8931,-10496170.0,337.579,680.0493,701009.7,922.6677,-16755.39,10566709.743203007
PART_002_R214G39B40A255,8932,-10496680.0,1024.263,-1530.109,764228.0,-92.22125,-6642.081,10579567.66420903
PART_003_R247G182B210A255,8933,-13993840.0,1787.358,2760.131,522768.7,-865.5464,12172.52,14025388.007397067
PART_003_R247G182B210A255,8934,-13995940.0,-1092.872,-706.9906,466110.4,843.5574,33337.5,14018425.719482461
PART_001_R158G218B229A255,8935,-13996010.0,-451.7284,-1572.475,435090.6,603.03,40755.29,14015450.855324836
PART_001_R158G218B229A255,8936,-13995750.0,65.94801,-1286.427,417103.3,177.1852,33724.39,14013895.813584302
PART_001_R158G218B229A255,8937,-13995990.0,-410.1596,-1541.147,407187.7,147.8352,18846.76,14012811.946908988
PART_001_R158G218B229A255,8938,-13995720.0,202.8279,-1330.021,404161.0,0.004989961,0.009965675,14012652.955847079
PART_001_R158G218B229A255,8939,-13995990.0,-410.1598,-1541.148,407187.7,-147.8256,-18846.74,14012811.946228798
PART_001_R158G218B229A255,8940,-13995750.0,65.94782,-1286.426,417103.3,-177.1773,-33724.37,14013895.813843984
PART_001_R158G218B229A255,8941,-13996010.0,-451.7298,-1572.476,435090.6,-603.0243,-40755.28,14015450.85403859
PART_001_R158G218B229A255,8942,-13995940.0,-1092.875,-706.9909,466110.4,-843.5546,-33337.49,14018425.717763418
PART_002_R214G39B40A255,8943,-13993840.0,1787.354,2760.128,522768.7,865.5471,-12172.51,14025388.00387852
PART_003_R247G182B210A255,8944,-17495540.0,1230.975,-5354.972,192001.1,1331.8,32815.52,17496732.102976367
PART_001_R158G218B229A255,8945,-17495860.0,-1580.769,-3508.467,164997.0,820.0372,70946.5,17496081.27856433
PART_001_R158G218B229A255,8946,-17494710.0,818.9745,-2414.508,154671.1,160.4943,72237.01,17496410.9790509
PART_001_R158G218B229A255,8947,-17495120.0,-723.286,-2136.281,147853.0,191.7474,56329.82,17495836.638277
PART_001_R158G218B229A255,8948,-17494620.0,524.0571,-1868.636,144589.9,27.01453,30400.78,17495819.561689645
PART_001_R158G218B229A255,8949,-17494980.0,-539.7388,-1883.186,143390.7,0.001708315,0.009873974,17495531.477474496
PART_001_R158G218B229A255,8950,-17494620.0,524.057,-1868.635,144589.9,-27.01098,-30400.76,17495819.56203521
PART_001_R158G218B229A255,8951,-17495120.0,-723.2861,-2136.279,147853.0,-191.7448,-56329.8,17495836.639033496
PART_001_R158G218B229A255,8952,-17494710.0,818.975,-2414.506,154671.1,-160.4922,-72237.0,17496410.980176598
PART_001_R158G218B229A255,8953,-17495860.0,-1580.767,-3508.465,164997.0,-820.0365,-70946.49,17496081.280442268
PART_001_R158G218B229A255,8954,-17495540.0,1230.979,-5354.971,192001.1,-1331.8,-32815.51,17496732.10542048
PART_003_R247G182B210A255,8955,17177440.0,-1208.488,5257.883,192001.1,1307.589,-32815.52,17178729.613840654
PART_000_R31G119B180A255,8956,17177750.0,1551.933,3444.415,164997.0,805.1257,-70946.49,17178068.92990803
PART_000_R31G119B180A255,8957,17176620.0,-803.9848,2370.867,154671.1,157.5777,-72237.02,17178381.563494332
PART_000_R31G119B180A255,8958,17177030.0,710.0339,2097.183,147852.9,188.261,-56329.82,17177812.55217181
PART_000_R31G119B180A255,8959,17176540.0,-514.4298,1834.915,144589.9,26.52419,-30400.78,17177786.263723254
PART_000_R31G119B180A255,8960,17176890.0,529.821,1848.689,143390.7,0.002547656,-0.01362871,17177496.32702312
PART_000_R31G119B180A255,8961,17176540.0,-514.4299,1834.913,144589.9,-26.5198,30400.76,17177786.264666736
PART_000_R31G119B180A255,8962,17177030.0,710.0329,2097.179,147853.0,-188.257,56329.8,17177812.557056583
PART_000_R31G119B180A255,8963,17176620.0,-803.9877,2370.863,154671.1,-157.5754,72237.0,17178381.566691298
PART_000_R31G119B180A255,8964,17177750.0,1551.928,3444.411,164997.0,-805.1244,70946.48,17178068.93428329
PART_000_R31G119B180A255,8965,17177440.0,-1208.495,5257.881,192001.1,-1307.589,32815.51,17178729.61828389
PART_003_R247G182B210A255,8966,13739410.0,-1754.786,-2709.706,522768.7,-849.8098,-12172.52,13771457.450804353
PART_003_R247G182B210A255,8967,13741470.0,1072.914,693.8964,466110.4,828.2209,-33337.5,13764404.564545138
PART_000_R31G119B180A255,8968,13741540.0,443.6042,1544.118,435090.6,592.0669,-40755.3,13761377.279519541
PART_000_R31G119B180A255,8969,13741280.0,-64.83858,1262.803,417103.3,173.9652,-33724.38,13759783.92764407
PART_000_R31G119B180A255,8970,13741520.0,402.7965,1513.358,407187.7,145.149,-18846.77,13758688.673433024
PART_000_R31G119B180A255,8971,13741250.0,-199.2296,1305.606,404161.0,0.006978079,-0.01336185,13758516.959104689
PART_000_R31G119B180A255,8972,13741520.0,402.7969,1513.358,407187.7,-145.1362,18846.74,13758688.673109576
PART_000_R31G119B180A255,8973,13741280.0,-64.83711,1262.803,417103.3,-173.9541,33724.36,13759783.926762506
PART_000_R31G119B180A255,8974,13741540.0,443.6075,1544.119,435090.6,-592.0593,40755.28,13761377.277193982
PART_000_R31G119B180A255,8975,13741470.0,1072.919,693.8987,466110.4,-828.2165,33337.49,13764404.560828054
PART_002_R214G39B40A255,8976,13739410.0,-1754.781,-2709.704,522768.7,849.8109,12172.51,13771457.447285771
PART_003_R247G182B210A255,8977,10305830.0,-1005.558,1502.494,764228.0,90.54696,-6642.085,10390249.328811642
PART_003_R247G182B210A255,8978,10305330.0,-331.5087,-667.8797,701009.6,-905.885,-16755.39,10377148.637258459
PART_003_R247G182B210A255,8979,10305990.0,805.3311,195.1281,657568.5,359.0303,-21367.84,10368301.636436105
PART_000_R31G119B180A255,8980,10306050.0,243.441,921.4907,630704.8,96.28901,-19071.3,10363258.090375252
PART_000_R31G119B180A255,8981,10305950.0,154.5293,725.6116,615893.4,78.09472,-10890.87,10360591.925396444
PART_000_R31G119B180A255,8982,10306100.0,267.4569,1070.662,611096.7,0.0104971,-0.0114339,10359644.052019922
PART_000_R31G119B180A255,8983,10305950.0,154.5295,725.612,615893.4,-78.07496,10890.85,10360591.92503453
PART_000_R31G119B180A255,8984,10306050.0,243.4409,921.4914,630704.8,-96.27177,19071.28,10363258.089966068
PART_000_R31G119B180A255,8985,10305990.0,805.3294,195.1278,657568.5,-359.0176,21367.83,10368301.63736684
PART_002_R214G39B40A255,8986,10305330.0,-331.513,-667.8805,701009.7,905.8929,16755.38,10377148.660010438
PART_002_R214G39B40A255,8987,10305830.0,-1005.567,1502.491,764228.0,-90.54469,6642.081,10390249.334756106
PART_003_R247G182B210A255,8988,6869921.0,-726.9961,-851.8683,932913.8,-360.5529,-3075.389,7058163.719663615
PART_003_R247G182B210A255,8989,6870587.0,-38.58637,480.0984,865939.5,28.97695,-8493.74,7032190.456367154
PART_003_R247G182B210A255,8990,6870441.0,13.02267,-16.4509,817671.8,-687.2384,-10884.41,7014919.916447096
PART_003_R247G182B210A255,8991,6870643.0,474.0127,135.6277,785365.0,106.4267,-9832.547,7003729.821408899
PART_000_R31G119B180A255,8992,6870695.0,163.8474,604.5795,767156.4,-104.1574,-5811.812,6997632.359568071
PART_000_R31G119B180A255,8993,6870637.0,229.5418,362.5962,761253.3,0.01318293,-0.008341626,6995720.426213031
PART_000_R31G119B180A255,8994,6870695.0,163.848,604.58,767156.4,104.1824,5811.796,6997632.3589893235
PART_000_R31G119B180A255,8995,6870643.0,474.0143,135.6288,785365.0,-106.4046,9832.533,7003729.820024658
PART_002_R214G39B40A255,8996,6870441.0,13.0258,-16.44937,817671.8,687.2554,10884.4,7014919.914123537
PART_002_R214G39B40A255,8997,6870587.0,-38.58181,480.1007,865939.5,-28.96572,8493.733,7032190.4529904565
PART_002_R214G39B40A255,8998,6869921.0,-726.9928,-851.866,932913.8,360.5567,3075.386,7058163.716934652
PART_003_R247G182B210A255,8999,3435237.0,-329.8625,377.425,1032769.0,-47.65605,-1354.278,3873051.918651419
PART_003_R247G182B210A255,9000,3435092.0,-148.4662,-242.5095,964427.5,-697.4397,-3495.946,3819895.216267369
PART_003_R247G182B210A255,9001,3435307.0,156.5915,103.7413,913527.7,-48.52385,-4584.903,3782076.3513272842
PART_003_R247G182B210A255,9002,3435284.0,60.24518,131.6963,878889.4,-542.0287,-4176.449,3757380.702305971
PART_003_R247G182B210A255,9003,3435320.0,219.8139,80.97465,858767.3,9.349394,-2459.779,3743374.441997807
PART_000_R31G119B180A255,9004,3435347.0,83.25812,300.1301,852242.5,0.01486051,-0.004394971,3738882.700390327
PART_000_R31G119B180A255,9005,3435320.0,219.8141,80.97487,858767.3,-9.321119,2459.77,3743374.4417871437
PART_002_R214G39B40A255,9006,3435284.0,60.24505,131.6965,878889.4,542.054,4176.442,3757380.7022615843
PART_002_R214G39B40A255,9007,3435307.0,156.59,103.7408,913527.8,48.54352,4584.897,3782076.4246768863
PART_002_R214G39B40A255,9008,3435092.0,-148.4703,-242.5109,964427.5,697.4527,3495.942,3819895.218736573
PART_002_R214G39B40A255,9009,3435237.0,-329.8698,377.4227,1032769.0,47.66036,1354.276,3873051.922907538
PART_003_R247G182B210A255,9010,0.002674929,0.001219781,0.0008947952,1065912.0,-280.2172,9.248837e-05,1846213.8041941507
PART_003_R247G182B210A255,9011,0.004074925,0.005391397,0.0008349153,997062.0,-117.9545,0.0001793952,1726962.054380985
PART_003_R247G182B210A255,9012,0.005722223,0.01222092,0.005264361,945572.5,-745.7541,0.0002341817,1637780.1216024947
PART_003_R247G182B210A255,9013,0.006653738,0.01601916,0.004915368,910068.4,-45.73412,0.0002329229,1576284.7091533018
PART_003_R247G182B210A255,9014,0.007489574,0.01913765,0.007786226,889485.7,-309.8145,0.0001470788,1540634.5184593727
PART_003_R247G182B210A255,9015,0.00744773,0.01908767,0.006016306,882690.3,0.01545389,-6.396642e-06,1528864.446948215
PART_002_R214G39B40A255,9016,0.007471428,0.01918232,0.007789583,889485.7,309.8439,-0.0001424599,1540634.51847711
PART_002_R214G39B40A255,9017,0.00671914,0.01650737,0.005104789,910068.4,45.7605,-0.0002482349,1576284.7091555987
PART_002_R214G39B40A255,9018,0.006030019,0.01398992,0.00594568,945572.5,745.7749,-0.0002525913,1637780.121630909
PART_002_R214G39B40A255,9019,0.004864466,0.009336366,0.002417844,997062.1,117.9685,-0.0001954169,1726962.2275889332
PART_002_R214G39B40A255,9020,0.003856817,0.006918752,0.003155614,1065912.0,280.2221,-5.710068e-05,1846213.8041963817
PART_003_R247G182B210A255,9021,-3435237.0,329.866,-377.4193,1032769.0,-47.65609,1354.278,3873051.922731101
PART_003_R247G182B210A255,9022,-3435092.0,148.4556,242.4999,964427.5,-697.4397,3495.946,3819895.20718431
PART_003_R247G182B210A255,9023,-3435307.0,-156.6108,-103.7452,913527.7,-48.52384,4584.904,3782076.340795057
PART_003_R247G182B210A255,9024,-3435284.0,-60.27776,-131.7149,878889.4,-542.0287,4176.45,3757380.678913431
PART_003_R247G182B210A255,9025,-3435320.0,-219.8475,-80.98469,858767.3,9.349402,2459.779,3743374.421974978
PART_001_R158G218B229A255,9026,-3435347.0,-83.29705,-300.1514,852242.5,0.01486136,0.004359651,3738882.6727209454
PART_001_R158G218B229A255,9027,-3435320.0,-219.8477,-80.9849,858767.3,-9.321126,-2459.771,3743374.421770874
PART_002_R214G39B40A255,9028,-3435284.0,-60.27861,-131.7155,878889.4,542.054,-4176.442,3757380.6782348678
PART_002_R214G39B40A255,9029,-3435307.0,-156.6129,-103.7461,913527.8,48.54351,-4584.898,3782076.411873987
PART_002_R214G39B40A255,9030,-3435092.0,148.4518,242.4981,964427.5,697.4527,-3495.942,3819895.204662405
PART_002_R214G39B40A255,9031,-3435237.0,329.8618,-377.4214,1032769.0,47.66036,-1354.276,3873051.919934973
PART_003_R247G182B210A255,9032,-6869921.0,727.0028,851.8844,932913.8,-360.5529,3075.389,7058163.730760975
PART_003_R247G182B210A255,9033,-6870587.0,38.59182,-480.1107,865939.5,28.97694,8493.74,7032190.453021951
PART_003_R247G182B210A255,9034,-6870441.0,-12.99326,16.47504,817671.8,-687.2384,10884.42,7014919.942717177
PART_003_R247G182B210A255,9035,-6870643.0,-473.9862,-135.6318,785365.0,106.4267,9832.547,7003729.832394477
PART_001_R158G218B229A255,9036,-6870695.0,-163.8038,-604.5506,767156.4,-104.1574,5811.813,6997632.39516169
PART_001_R158G218B229A255,9037,-6870637.0,-229.5092,-362.5982,761253.3,0.01318447,0.008258846,6995720.441239312
PART_001_R158G218B229A255,9038,-6870695.0,-163.8043,-604.5509,767156.4,104.1824,-5811.796,6997632.394727717
PART_001_R158G218B229A255,9039,-6870643.0,-473.9868,-135.6327,785365.0,-106.4046,-9832.533,7003729.83159878
PART_002_R214G39B40A255,9040,-6870441.0,-12.99273,16.4751,817671.8,687.2554,-10884.4,7014919.942918
PART_002_R214G39B40A255,9041,-6870587.0,38.59504,-480.1102,865939.5,-28.9657,-8493.733,7032190.454813796
PART_002_R214G39B40A255,9042,-6869921.0,727.0111,851.8869,932913.8,360.5567,-3075.386,7058163.736014143
PART_003_R247G182B210A255,9043,-10305830.0,1005.571,-1502.46,764228.0,90.54687,6642.085,10390249.352116343
PART_003_R247G182B210A255,9044,-10305330.0,331.4875,667.8433,701009.6,-905.8851,16755.39,10377148.608656049
PART_003_R247G182B210A255,9045,-10305990.0,-805.3412,-195.1055,657568.5,359.0303,21367.85,10368301.642711513
PART_001_R158G218B229A255,9046,-10306050.0,-243.4847,-921.5353,630704.8,96.28899,19071.3,10363258.046471499
PART_001_R158G218B229A255,9047,-10305950.0,-154.5533,-725.5952,615893.4,78.09474,10890.87,10360591.921614977
PART_001_R158G218B229A255,9048,-10306100.0,-267.5072,-1070.71,611096.7,0.01049054,0.01129179,10359644.003126996
PART_001_R158G218B229A255,9049,-10305950.0,-154.5535,-725.5954,615893.4,-78.07499,-10890.85,10360591.921352522
PART_001_R158G218B229A255,9050,-10306050.0,-243.4857,-921.5367,630704.8,-96.27176,-19071.28,10363258.045167314
PART_001_R158G218B229A255,9051,-10305990.0,-805.343,-195.1061,657568.5,-359.0176,-21367.83,10368301.641393863
PART_002_R214G39B40A255,9052,-10305330.0,331.4836,667.8406,701009.7,905.8929,-16755.38,10377148.625598323
PART_002_R214G39B40A255,9053,-10305830.0,1005.568,-1502.462,764228.0,-90.54467,-6642.081,10390249.349628804
PART_003_R247G182B210A255,9054,-13739410.0,1754.803,2709.755,522768.7,-849.8096,12172.52,13771457.483734535
PART_003_R247G182B210A255,9055,-13741470.0,-1072.921,-693.9414,466110.4,828.2208,33337.5,13764404.538589325
PART_001_R158G218B229A255,9056,-13741540.0,-443.5627,-1544.063,435090.6,592.0669,40755.3,13761377.327695694
PART_001_R158G218B229A255,9057,-13741280.0,64.85266,-1262.84,417103.3,173.9653,33724.38,13759783.91620368
PART_001_R158G218B229A255,9058,-13741520.0,-402.7399,-1513.298,407187.7,145.149,18846.77,13758688.73165601
PART_001_R158G218B229A255,9059,-13741250.0,199.2497,-1305.641,404161.0,0.006973051,0.01320992,13758516.951668857
PART_001_R158G218B229A255,9060,-13741520.0,-402.7401,-1513.298,407187.7,-145.1362,-18846.74,13758688.731432442
PART_001_R158G218B229A255,9061,-13741280.0,64.85202,-1262.84,417103.3,-173.9541,-33724.36,13759783.915736597
PART_001_R158G218B229A255,9062,-13741540.0,-443.5622,-1544.062,435090.6,-592.0593,-40755.28,13761377.328265851
PART_001_R158G218B229A255,9063,-13741470.0,-1072.918,-693.9417,466110.4,-828.2165,-33337.49,13764404.539863484
PART_002_R214G39B40A255,9064,-13739410.0,1754.81,2709.759,522768.7,849.8108,-12172.51,13771457.489196174
PART_003_R247G182B210A255,9065,-17177440.0,1208.51,-5257.823,192001.1,1307.588,32815.52,17178729.654821787
PART_001_R158G218B229A255,9066,-17177750.0,-1551.966,-3444.478,164997.0,805.1262,70946.49,17178068.88191845
PART_001_R158G218B229A255,9067,-17176620.0,803.9837,-2370.817,154671.1,157.5774,72237.02,17178381.58793362
PART_001_R158G218B229A255,9068,-17177030.0,-710.0897,-2097.253,147852.9,188.2612,56329.82,17177812.489280682
PART_001_R158G218B229A255,9069,-17176540.0,514.4144,-1834.872,144589.9,26.5241,30400.78,17177786.277515728
PART_001_R158G218B229A255,9070,-17176890.0,-529.8838,-1848.762,143390.7,0.002557305,0.01353034,17177496.259130802
PART_001_R158G218B229A255,9071,-17176540.0,514.4145,-1834.87,144589.9,-26.51973,-30400.76,17177786.278459214
PART_001_R158G218B229A255,9072,-17177030.0,-710.0898,-2097.251,147853.0,-188.2572,-56329.8,17177812.49261571
PART_001_R158G218B229A255,9073,-17176620.0,803.9829,-2370.814,154671.1,-157.5751,-72237.0,17178381.588780563
PART_001_R158G218B229A255,9074,-17177750.0,-1551.969,-3444.477,164997.0,-805.1249,-70946.48,17178068.880794197
PART_001_R158G218B229A255,9075,-17177440.0,1208.505,-5257.823,192001.1,-1307.588,-32815.52,17178729.652320858
PART_003_R247G182B210A255,9076,16859340.0,-1186.21,5160.251,192001.1,1283.371,-32815.52,16860729.772670537
PART_000_R31G119B180A255,9077,16859650.0,1523.293,3380.882,164997.0,790.218,-70946.5,16860068.154373493
PART_000_R31G119B180A255,9078,16858540.0,-789.1701,2326.719,154671.1,154.6591,-72237.02,16860364.232572634
PART_000_R31G119B180A255,9079,16858940.0,697.014,2058.602,147853.0,184.7759,-56329.83,16859789.59619859
PART_000_R31G119B180A255,9080,16858460.0,-504.9615,1800.701,144589.9,26.03375,-30400.78,16859754.59927329
PART_000_R31G119B180A255,9081,16858800.0,520.1482,1814.711,143390.7,0.003148134,-0.01787681,16859462.026235297
PART_000_R31G119B180A255,9082,16858460.0,-504.9612,1800.699,144589.9,-26.02721,30400.75,16859754.59996064
PART_000_R31G119B180A255,9083,16858940.0,697.0156,2058.599,147853.0,-184.7711,56329.8,16859789.596597362
PART_000_R31G119B180A255,9084,16858540.0,-789.1662,2326.716,154671.1,-154.6552,72236.99,16860364.23173604
PART_000_R31G119B180A255,9085,16859650.0,1523.3,3380.882,164997.0,-790.2166,70946.48,16860068.150620837
PART_000_R31G119B180A255,9086,16859340.0,-1186.203,5160.253,192001.1,-1283.37,32815.51,16860729.768111408
PART_003_R247G182B210A255,9087,13484980.0,-1722.361,-2659.754,522768.7,-834.0715,-12172.52,13517547.548728993
PART_003_R247G182B210A255,9088,13486990.0,1053.117,681.2703,466110.4,812.8838,-33337.5,13510389.384310117
PART_000_R31G119B180A255,9089,13487070.0,435.281,1515.293,435090.6,581.1042,-40755.3,13507318.27454775
PART_000_R31G119B180A255,9090,13486810.0,-63.58637,1239.627,417103.3,170.7455,-33724.39,13505684.808206877
PART_000_R31G119B180A255,9091,13487040.0,395.2089,1485.098,407187.7,142.4637,-18846.77,13504568.156524276
PART_000_R31G119B180A255,9092,13486780.0,-195.4953,1281.633,404161.0,0.009109684,-0.01791285,13504392.860891903
PART_000_R31G119B180A255,9093,13487040.0,395.209,1485.098,407187.7,-142.4458,18846.73,13504568.156306302
PART_000_R31G119B180A255,9094,13486810.0,-63.58706,1239.627,417103.3,-170.731,33724.36,13505684.808326144
PART_000_R31G119B180A255,9095,13487070.0,435.2784,1515.292,435090.6,-581.0934,40755.27,13507318.27607207
PART_000_R31G119B180A255,9096,13486990.0,1053.112,681.2681,466110.4,-812.8786,33337.49,13510389.387828628
PART_002_R214G39B40A255,9097,13484980.0,-1722.371,-2659.756,522768.7,834.0731,12172.51,13517547.554688375
PART_003_R247G182B210A255,9098,10114980.0,-987.0047,1474.481,764228.0,88.87075,-6642.084,10200988.181272088
PART_003_R247G182B210A255,9099,10114490.0,-325.294,-655.3269,701009.6,-889.108,-16755.4,10187635.385219945
PART_003_R247G182B210A255,9100,10115140.0,790.3735,191.3438,657568.5,352.3844,-21367.84,10178638.7422189
PART_000_R31G119B180A255,9101,10115190.0,239.0359,904.6155,630704.8,94.50876,-19071.31,10173492.908030517
PART_000_R31G119B180A255,9102,10115100.0,151.6384,712.0122,615893.4,76.65236,-10890.87,10170783.765820047
PART_000_R31G119B180A255,9103,10115250.0,262.616,1051.027,611096.7,0.01388667,-0.01555556,10169823.654469399
PART_000_R31G119B180A255,9104,10115100.0,151.6391,712.013,615893.4,-76.62541,10890.84,10170783.764977207
PART_000_R31G119B180A255,9105,10115190.0,239.0379,904.6168,630704.8,-94.48593,19071.28,10173492.906220678
PART_000_R31G119B180A255,9106,10115140.0,790.378,191.3465,657568.5,-352.3667,21367.82,10178638.738513818
PART_002_R214G39B40A255,9107,10114490.0,-325.2881,-655.3244,701009.7,889.1185,16755.38,10187635.401597003
PART_002_R214G39B40A255,9108,10114980.0,-987.0007,1474.484,764228.0,-88.86684,6642.08,10200988.177793587
PART_003_R247G182B210A255,9109,6742700.0,-713.5733,-836.2191,932913.8,-353.875,-3075.388,6934368.530109215
PART_003_R247G182B210A255,9110,6743354.0,-37.83649,471.3289,865939.5,28.442,-8493.743,6907942.552191141
PART_003_R247G182B210A255,9111,6743210.0,12.71083,-16.27877,817671.8,-674.5085,-10884.41,6890357.280843728
PART_003_R247G182B210A255,9112,6743409.0,465.2478,133.2249,785365.0,104.4596,-9832.551,6878968.962489894
PART_000_R31G119B180A255,9113,6743460.0,160.725,593.2463,767156.4,-102.2239,-5811.814,6872761.953377947
PART_000_R31G119B180A255,9114,6743403.0,225.2975,355.9868,761253.2,0.01744993,-0.0113263,6870813.895524305
PART_000_R31G119B180A255,9115,6743460.0,160.7254,593.2469,767156.4,102.2578,5811.792,6872761.952833094
PART_000_R31G119B180A255,9116,6743409.0,465.2479,133.2255,785365.0,-104.4303,9832.531,6878968.9620596925
PART_002_R214G39B40A255,9117,6743210.0,12.70926,-16.27866,817671.8,674.5317,10884.4,6890357.281517558
PART_002_R214G39B40A255,9118,6743354.0,-37.84163,471.3272,865939.5,-28.4276,8493.733,6907942.555492675
PART_002_R214G39B40A255,9119,6742700.0,-713.5836,-836.2216,932913.9,353.8802,3075.385,6934368.576690169
PART_003_R247G182B210A255,9120,3371621.0,-323.7771,370.3694,1032769.0,-46.77232,-1354.277,3816741.066516124
PART_003_R247G182B210A255,9121,3371479.0,-145.6829,-237.951,964427.5,-684.5218,-3495.947,3762786.6512961704
PART_003_R247G182B210A255,9122,3371690.0,153.6925,101.7667,913527.7,-47.62126,-4584.903,3724391.734500924
PART_003_R247G182B210A255,9123,3371668.0,59.18843,129.333,878889.4,-531.9868,-4176.451,3699311.0700077987
PART_003_R247G182B210A255,9124,3371703.0,215.7592,79.42861,858767.3,9.181553,-2459.78,3685084.5103961537
PART_000_R31G119B180A255,9125,3371730.0,81.78276,294.6502,852242.5,0.01964846,-0.00594671,3680522.499377552
PART_000_R31G119B180A255,9126,3371703.0,215.7597,79.42901,858767.3,-9.143264,2459.768,3685084.5099601275
PART_002_R214G39B40A255,9127,3371668.0,59.18978,129.3338,878889.4,532.0203,4176.441,3699311.069008613
PART_002_R214G39B40A255,9128,3371690.0,153.6957,101.7682,913527.8,47.64829,4584.895,3724391.8059297805
PART_002_R214G39B40A255,9129,3371479.0,-145.6779,-237.9488,964427.5,684.5393,3495.942,3762786.6480660317
PART_002_R214G39B40A255,9130,3371621.0,-323.772,370.3723,1032769.0,46.77901,1354.276,3816741.0629815226
PART_003_R247G182B210A255,9131,0.002886585,0.0008404155,-0.00102577,1065912.0,-275.027,0.0001368993,1846213.8018527413
PART_003_R247G182B210A255,9132,0.001467311,-0.004726468,-0.001386058,997062.0,-115.768,0.0004363453,1726962.0539371122
PART_003_R247G182B210A255,9133,3.112214e-05,-0.01330074,-0.006956938,945572.5,-731.94,0.0005447627,1637780.102906749
PART_003_R247G182B210A255,9134,-0.0005472007,-0.01820211,-0.00707173,910068.4,-44.88276,0.0004606103,1576284.7090798877
PART_003_R247G182B210A255,9135,-0.001092347,-0.02199603,-0.01063444,889485.7,-304.0717,0.000250955,1540634.5150269307
PART_003_R247G182B210A255,9136,-0.000921475,-0.0220217,-0.008745919,882690.3,0.02042795,3.442052e-06,1528864.4469482151
PART_002_R214G39B40A255,9137,-0.00109028,-0.02205082,-0.01064652,889485.7,304.1114,-0.0002653562,1540634.515050439
PART_002_R214G39B40A255,9138,-0.0006355735,-0.01876006,-0.007287587,910068.4,44.91761,-0.000440737,1576284.709082866
PART_002_R214G39B40A255,9139,-0.0003587028,-0.01543651,-0.007769797,945572.5,731.9682,-0.0005242001,1637780.102944558
PART_002_R214G39B40A255,9140,0.0004705418,-0.00953431,-0.003321774,997062.1,115.7861,-0.0004145361,1726962.227145832
PART_002_R214G39B40A255,9141,0.001373726,-0.006188425,-0.003815081,1065912.0,275.0336,-0.0001788128,1846213.8018556905
PART_003_R247G182B210A255,9142,-3371621.0,323.7768,-370.3764,1032769.0,-46.7723,1354.278,3816741.063293799
PART_003_R247G182B210A255,9143,-3371479.0,145.6993,237.962,964427.5,-684.5218,3495.948,3762786.6635748367
PART_003_R247G182B210A255,9144,-3371690.0,-153.6657,-101.7628,913527.7,-47.62128,4584.904,3724391.748400199
PART_003_R247G182B210A255,9145,-3371668.0,-59.14577,-129.3124,878889.4,-531.9868,4176.452,3699311.098839266
PART_003_R247G182B210A255,9146,-3371703.0,-215.7155,-79.41853,858767.3,9.18155,2459.78,3685084.5349974046
PART_001_R158G218B229A255,9147,-3371730.0,-81.73264,-294.627,852242.5,0.0196453,0.005988209,3680522.5329611045
PART_001_R158G218B229A255,9148,-3371703.0,-215.7159,-79.41892,858767.3,-9.14326,-2459.769,3685084.5346136983
PART_002_R214G39B40A255,9149,-3371668.0,-59.146,-129.3127,878889.4,532.0203,-4176.442,3699311.0985783283
PART_002_R214G39B40A255,9150,-3371690.0,-153.6645,-101.7627,913527.8,47.6483,-4584.896,3724391.8225448215
PART_002_R214G39B40A255,9151,-3371479.0,145.7039,237.9636,964427.5,684.5393,-3495.943,3762786.666348173
PART_002_R214G39B40A255,9152,-3371621.0,323.7858,-370.3739,1032769.0,46.77901,-1354.276,3816741.0683721853
PART_003_R247G182B210A255,9153,-6742700.0,713.5687,836.1997,932913.8,-353.8751,3075.389,6934368.518440707
PART_003_R247G182B210A255,9154,-6743354.0,37.83259,-471.3146,865939.5,28.44199,8493.744,6907942.557269765
PART_003_R247G182B210A255,9155,-6743210.0,-12.74438,16.24816,817671.8,-674.5085,10884.42,6890357.249496205
PART_003_R247G182B210A255,9156,-6743409.0,-465.2783,-133.2221,785365.0,104.4596,9832.552,6878968.948918925
PART_001_R158G218B229A255,9157,-6743460.0,-160.7762,-593.2841,767156.4,-102.2239,5811.814,6872761.909716965
PART_001_R158G218B229A255,9158,-6743403.0,-225.3355,-355.9874,761253.3,0.01744815,0.01142804,6870813.909821046
PART_001_R158G218B229A255,9159,-6743460.0,-160.7767,-593.2849,767156.4,102.2578,-5811.793,6872761.909027481
PART_001_R158G218B229A255,9160,-6743409.0,-465.2794,-133.2229,785365.0,-104.4303,-9832.533,6878968.947904889
PART_002_R214G39B40A255,9161,-6743210.0,-12.74723,16.24608,817671.8,674.5317,-10884.4,6890357.246995882
PART_002_R214G39B40A255,9162,-6743354.0,37.82818,-471.3163,865939.5,-28.42759,-8493.734,6907942.554250436
PART_002_R214G39B40A255,9163,-6742700.0,713.5647,836.1962,932913.9,353.8803,-3075.385,6934368.555149858
PART_003_R247G182B210A255,9164,-10114980.0,986.9914,-1474.521,764228.0,88.87087,6642.085,10200988.154854208
PART_003_R247G182B210A255,9165,-10114490.0,325.3218,655.3707,701009.6,-889.1079,16755.4,10187635.420764992
PART_003_R247G182B210A255,9166,-10115140.0,-790.3595,-191.3729,657568.5,352.3843,21367.84,10178638.734714452
PART_001_R158G218B229A255,9167,-10115190.0,-238.9809,-904.5632,630704.8,94.50881,19071.31,10173492.961370172
PART_001_R158G218B229A255,9168,-10115100.0,-151.6076,-712.0351,615893.4,76.65235,10890.87,10170783.769750474
PART_001_R158G218B229A255,9169,-10115250.0,-262.5531,-1050.972,611096.7,0.01388779,0.01572818,10169823.713099713
PART_001_R158G218B229A255,9170,-10115100.0,-151.6083,-712.0361,615893.4,-76.6254,-10890.84,10170783.768808194
PART_001_R158G218B229A255,9171,-10115190.0,-238.9817,-904.5637,630704.8,-94.48597,-19071.28,10173492.96055457
PART_001_R158G218B229A255,9172,-10115140.0,-790.3598,-191.3745,657568.5,-352.3667,-21367.82,10178638.733642582
PART_002_R214G39B40A255,9173,-10114490.0,325.3258,655.3725,701009.7,889.1185,-16755.39,10187635.444240646
PART_002_R214G39B40A255,9174,-10114980.0,987.0015,-1474.52,764228.0,-88.86687,-6642.08,10200988.160349058
PART_003_R247G182B210A255,9175,-13484980.0,1722.342,2659.694,522768.7,-834.0718,12172.52,13517547.50931568
PART_003_R247G182B210A255,9176,-13486990.0,-1053.108,-681.2158,466110.4,812.8839,33337.51,13510389.416078074
PART_001_R158G218B229A255,9177,-13487070.0,-435.3312,-1515.363,435090.6,581.1043,40755.3,13507318.214543384
PART_001_R158G218B229A255,9178,-13486810.0,63.5697,-1239.585,417103.3,170.7455,33724.39,13505684.82084938
PART_001_R158G218B229A255,9179,-13487040.0,-395.2777,-1485.175,407187.7,142.4637,18846.77,13504568.083724469
PART_001_R158G218B229A255,9180,-13486780.0,195.4714,-1281.594,404161.0,0.009111444,0.01809201,13504392.868426593
PART_001_R158G218B229A255,9181,-13487040.0,-395.278,-1485.175,407187.7,-142.4459,-18846.73,13504568.08340662
PART_001_R158G218B229A255,9182,-13486810.0,63.56946,-1239.584,417103.3,-170.731,-33724.36,13505684.821003458
PART_001_R158G218B229A255,9183,-13487070.0,-435.3333,-1515.364,435090.6,-581.0935,-40755.27,13507318.212722804
PART_001_R158G218B229A255,9184,-13486990.0,-1053.112,-681.2162,466110.4,-812.8786,-33337.49,13510389.413733091
PART_002_R214G39B40A255,9185,-13484980.0,1722.337,2659.69,522768.7,834.0732,-12172.51,13517547.504799088
PART_003_R247G182B210A255,9186,-16859340.0,1186.183,-5160.326,192001.1,1283.372,32815.52,16860729.721694525
PART_001_R158G218B229A255,9187,-16859650.0,-1523.253,-3380.805,164997.0,790.2174,70946.5,16860068.212860394
PART_001_R158G218B229A255,9188,-16858540.0,789.1717,-2326.782,154671.1,154.6595,72237.02,16860364.201886322
PART_001_R158G218B229A255,9189,-16858940.0,-696.9453,-2058.518,147853.0,184.7757,56329.83,16859789.67253757
PART_001_R158G218B229A255,9190,-16858460.0,504.9805,-1800.758,144589.9,26.03387,30400.79,16859754.58033737
PART_001_R158G218B229A255,9191,-16858800.0,-520.0712,-1814.626,143390.7,0.003144184,0.0179898,16859462.10722605
PART_001_R158G218B229A255,9192,-16858460.0,504.9802,-1800.756,144589.9,-26.02732,-30400.75,16859754.580970626
PART_001_R158G218B229A255,9193,-16858940.0,-696.9456,-2058.515,147853.0,-184.7709,-56329.8,16859789.67358634
PART_001_R158G218B229A255,9194,-16858540.0,789.1722,-2326.778,154671.1,-154.6556,-72236.99,16860364.203749783
PART_001_R158G218B229A255,9195,-16859650.0,-1523.25,-3380.802,164997.0,-790.2161,-70946.48,16860068.215607222
PART_001_R158G218B229A255,9196,-16859340.0,1186.19,-5160.324,192001.1,-1283.371,-32815.51,16860729.72613642
PART_003_R247G182B210A255,9197,16541240.0,-1163.745,5063.102,192001.1,1259.159,-32815.52,16542731.999817554
PART_000_R31G119B180A255,9198,16541540.0,1494.468,3316.886,164997.0,775.307,-70946.5,16542059.747687371
PART_000_R31G119B180A255,9199,16540450.0,-774.2295,2283.013,154671.1,151.7422,-72237.02,16542338.46532561
PART_000_R31G119B180A255,9200,16540840.0,683.7439,2019.548,147853.0,181.2902,-56329.83,16541758.586338513
PART_000_R31G119B180A255,9201,16540370.0,-495.4037,1766.91,144589.9,25.54356,-30400.79,16541714.062894797
PART_000_R31G119B180A255,9202,16540710.0,510.2037,1780.256,143390.7,0.004615563,-0.02511565,16541429.402391475
PART_000_R31G119B180A255,9203,16540370.0,-495.4038,1766.907,144589.9,-25.53566,30400.74,16541714.064168604
PART_000_R31G119B180A255,9204,16540840.0,683.7423,2019.543,147853.0,-181.2829,56329.79,16541758.589228977
PART_000_R31G119B180A255,9205,16540450.0,-774.2338,2283.008,154671.1,-151.7379,72236.99,16542338.469581641
PART_000_R31G119B180A255,9206,16541540.0,1494.46,3316.88,164997.0,-775.3046,70946.48,16542059.754428629
PART_000_R31G119B180A255,9207,16541240.0,-1163.756,5063.099,192001.1,-1259.159,32815.51,16542732.006758843
PART_003_R247G182B210A255,9208,13230540.0,-1689.805,-2609.385,522768.7,-818.3344,-12172.52,13263648.910186213
PART_003_R247G182B210A255,9209,13232520.0,1033.192,668.2346,466110.4,797.5481,-33337.5,13256401.661175918
PART_000_R31G119B180A255,9210,13232590.0,427.1658,1486.893,435090.6,570.1418,-40755.3,13253264.026653197
PART_000_R31G119B180A255,9211,13232340.0,-62.41443,1216.072,417103.3,167.5269,-33724.39,13251599.730646422
PART_000_R31G119B180A255,9212,13232570.0,387.8735,1457.274,407187.7,139.7785,-18846.78,13250470.39170151
PART_000_R31G119B180A255,9213,13232310.0,-191.8257,1257.29,404161.0,0.01254107,-0.024304,13250281.868047459
PART_000_R31G119B180A255,9214,13232570.0,387.8742,1457.274,407187.7,-139.7554,18846.73,13250470.391137883
PART_000_R31G119B180A255,9215,13232340.0,-62.4121,1216.073,417103.3,-167.5066,33724.35,13251599.728677658
PART_000_R31G119B180A255,9216,13232590.0,427.171,1486.895,435090.6,-570.1279,40755.27,13253264.022780325
PART_000_R31G119B180A255,9217,13232520.0,1033.2,668.2382,466110.4,-797.5399,33337.48,13256401.655234462
PART_002_R214G39B40A255,9218,13230540.0,-1689.799,-2609.382,522768.7,818.3365,12172.51,13263648.90566973
PART_003_R247G182B210A255,9219,9924129.0,-968.3256,1446.815,764228.0,87.19431,-6642.086,10011785.951203024
PART_003_R247G182B210A255,9220,9923654.0,-319.2222,-643.1148,701009.6,-872.3304,-16755.4,9998177.174484521
PART_003_R247G182B210A255,9221,9924289.0,775.487,187.869,657568.5,345.7382,-21367.85,9989019.528130593
PART_000_R31G119B180A255,9222,9924342.0,234.4274,887.3866,630704.8,92.72992,-19071.31,9983781.262937006
PART_000_R31G119B180A255,9223,9924251.0,148.7847,698.7036,615893.4,75.21044,-10890.88,9981015.856215311
PART_000_R31G119B180A255,9224,9924397.0,257.5525,1031.033,611096.7,0.01875595,-0.02061829,9980039.367337607
PART_000_R31G119B180A255,9225,9924251.0,148.785,698.7043,615893.4,-75.1752,10890.84,9981015.855586458
PART_000_R31G119B180A255,9226,9924341.0,234.4275,887.388,630704.8,-92.69893,19071.28,9983780.268028557
PART_000_R31G119B180A255,9227,9924289.0,775.4847,187.8688,657568.5,-345.7153,21367.82,9989019.52917744
PART_002_R214G39B40A255,9228,9923654.0,-319.2283,-643.1159,701009.7,872.3448,16755.38,9998177.198995082
PART_002_R214G39B40A255,9229,9924129.0,-968.3389,1446.811,764228.1,-87.19019,6642.079,10011785.982664578
PART_003_R247G182B210A255,9230,6615479.0,-700.0751,-820.3385,932913.8,-347.1972,-3075.39,6810699.99800644
PART_003_R247G182B210A255,9231,6616121.0,-37.14682,462.338,865939.5,27.90861,-8493.743,6783805.295627562
PART_003_R247G182B210A255,9232,6615980.0,12.53858,-15.86004,817671.8,-661.778,-10884.42,6765894.736020717
PART_003_R247G182B210A255,9233,6616175.0,456.473,130.6271,785365.0,102.4941,-9832.553,6754300.264121354
PART_000_R31G119B180A255,9234,6616225.0,157.7811,582.1709,767156.4,-100.2896,-5811.818,6747979.4028811585
PART_000_R31G119B180A255,9235,6616169.0,221.0588,349.1901,761253.2,0.02342576,-0.01496689,6745994.2759096995
PART_000_R31G119B180A255,9236,6616225.0,157.782,582.1718,767156.4,100.3339,5811.789,6747979.4019258255
PART_000_R31G119B180A255,9237,6616175.0,456.4755,130.6289,785365.0,-102.4546,9832.527,6754300.261900094
PART_002_R214G39B40A255,9238,6615980.0,12.54343,-15.85761,817671.8,661.8085,10884.4,6765894.732373804
PART_002_R214G39B40A255,9239,6616121.0,-37.14005,462.3416,865939.5,-27.88821,8493.729,6783805.290517876
PART_002_R214G39B40A255,9240,6615479.0,-700.0711,-820.3351,932913.9,347.2041,3075.385,6810700.035499675
PART_003_R247G182B210A255,9241,3308006.0,-317.6481,363.4358,1032769.0,-45.88921,-1354.278,3760663.971838939
PART_003_R247G182B210A255,9242,3307866.0,-142.9659,-233.5186,964427.4,-671.6032,-3495.947,3705890.1121753734
PART_003_R247G182B210A255,9243,3308073.0,150.7823,99.88619,913527.7,-46.71858,-4584.905,3666903.2449640785
PART_003_R247G182B210A255,9244,3308051.0,58.00947,126.8248,878889.4,-521.9433,-4176.452,3641425.938739838
PART_003_R247G182B210A255,9245,3308086.0,211.6593,77.96125,858767.3,9.01455,-2459.782,3626973.518866624
PART_000_R31G119B180A255,9246,3308112.0,80.16869,289.0197,852242.5,0.0263412,-0.007862106,3622338.4147824463
PART_000_R31G119B180A255,9247,3308086.0,211.6596,77.96163,858767.3,-8.964492,2459.767,3626973.5185256386
PART_002_R214G39B40A255,9248,3308051.0,58.00944,126.8253,878889.4,521.9882,4176.438,3641425.9384975033
PART_002_R214G39B40A255,9249,3308073.0,150.7802,99.88563,913527.8,46.75367,4584.894,3666903.320862305
PART_002_R214G39B40A255,9250,3307866.0,-142.9719,-233.5206,964427.5,671.6267,3495.94,3705890.1938113905
PART_002_R214G39B40A255,9251,3308006.0,-317.6593,363.4323,1032769.0,45.89691,1354.275,3760663.9783022874
PART_003_R247G182B210A255,9252,0.0007880644,0.001695171,0.0009958589,1065912.0,-269.8365,0.0002268883,1846213.7995549731
PART_003_R247G182B210A255,9253,0.003295371,0.008257668,0.001415829,997062.0,-113.5798,0.0004852103,1726962.053501209
PART_003_R247G182B210A255,9254,0.006060121,0.01844715,0.007600125,945572.5,-718.125,0.0006004362,1637780.0845593698
PART_003_R247G182B210A255,9255,0.007769625,0.02435709,0.007505739,910068.4,-44.0295,0.0005561515,1576284.7090076942
PART_003_R247G182B210A255,9256,0.009087967,0.0287927,0.01129484,889485.7,-298.328,0.0003400208,1540634.5116581859
PART_003_R247G182B210A255,9257,0.009152162,0.0288334,0.009072541,882690.3,0.0273447,-1.137989e-05,1528864.4469482156
PART_002_R214G39B40A255,9258,0.009072501,0.02882609,0.0113055,889485.7,298.38,-0.0003242209,1540634.5116883963
PART_002_R214G39B40A255,9259,0.007860111,0.02500889,0.00775661,910068.4,44.0764,-0.0005832968,1576284.7090116264
PART_002_R214G39B40A255,9260,0.006500569,0.02102021,0.008586511,945572.5,718.162,-0.0006264131,1637780.084608042
PART_002_R214G39B40A255,9261,0.004476743,0.01415251,0.003784978,997062.1,113.6051,-0.0005175584,1726962.226711281
PART_002_R214G39B40A255,9262,0.00260572,0.01036045,0.004441628,1065912.0,269.8453,-0.0001754519,1846213.7995588316
PART_003_R247G182B210A255,9263,-3308006.0,317.654,-363.4275,1032769.0,-45.88925,1354.278,3760663.9780839686
PART_003_R247G182B210A255,9264,-3307866.0,142.9507,233.5048,964427.5,-671.6032,3495.949,3705890.177310202
PART_003_R247G182B210A255,9265,-3308073.0,-150.8113,-99.89298,913527.7,-46.71856,4584.907,3666903.2288285643
PART_003_R247G182B210A255,9266,-3308051.0,-58.05798,-126.8524,878889.4,-521.9433,4176.453,3641425.9041729085
PART_003_R247G182B210A255,9267,-3308086.0,-211.7094,-77.97717,858767.3,9.014562,2459.783,3626973.488763198
PART_001_R158G218B229A255,9268,-3308112.0,-80.22645,-289.0514,852242.5,0.02632929,0.007799566,3622338.373933785
PART_001_R158G218B229A255,9269,-3308086.0,-211.7098,-77.97753,858767.3,-8.964486,-2459.767,3626973.4883836987
PART_002_R214G39B40A255,9270,-3308051.0,-58.05926,-126.8534,878889.4,521.9882,-4176.44,3641425.9031118797
PART_002_R214G39B40A255,9271,-3308073.0,-150.8144,-99.89431,913527.8,46.75366,-4584.896,3666903.3015288482
PART_002_R214G39B40A255,9272,-3307866.0,142.9448,233.502,964427.5,671.6267,-3495.941,3705890.1734173778
PART_002_R214G39B40A255,9273,-3308006.0,317.6478,-363.4308,1032769.0,45.89691,-1354.276,3760663.973903464
PART_003_R247G182B210A255,9274,-6615479.0,700.0848,820.3617,932913.8,-347.1971,3075.39,6810700.013986919
PART_003_R247G182B210A255,9275,-6616121.0,37.15529,-462.356,865939.5,27.9086,8493.744,6783805.290985713
PART_003_R247G182B210A255,9276,-6615980.0,-12.49435,15.89548,817671.8,-661.778,10884.42,6765894.774973058
PART_003_R247G182B210A255,9277,-6616175.0,-456.4326,-130.6329,785365.0,102.4941,9832.554,6754300.281069513
PART_001_R158G218B229A255,9278,-6616225.0,-157.7157,-582.1284,767156.4,-100.2896,5811.819,6747979.45577849
PART_001_R158G218B229A255,9279,-6616169.0,-221.0094,-349.1929,761253.3,0.02343044,0.0148343,6745994.332614623
PART_001_R158G218B229A255,9280,-6616225.0,-157.7165,-582.129,767156.4,100.3339,-5811.79,6747979.455019232
PART_001_R158G218B229A255,9281,-6616175.0,-456.4338,-130.6345,785365.0,-102.4546,-9832.528,6754300.279582844
PART_002_R214G39B40A255,9282,-6615980.0,-12.49387,15.89544,817671.8,661.8085,-10884.4,6765894.775100609
PART_002_R214G39B40A255,9283,-6616121.0,37.16016,-462.3555,865939.5,-27.88818,-8493.73,6783805.293551663
PART_002_R214G39B40A255,9284,-6615479.0,700.0984,820.3658,932913.9,347.2041,-3075.385,6810700.063671704
PART_003_R247G182B210A255,9285,-9924129.0,968.3449,-1446.765,764228.0,87.19418,6642.087,10011785.985545253
PART_003_R247G182B210A255,9286,-9923654.0,319.1908,643.0606,701009.6,-872.3305,16755.4,9998177.132000951
PART_003_R247G182B210A255,9287,-9924289.0,-775.5022,-187.8355,657568.5,345.7383,21367.85,9989019.537223017
PART_001_R158G218B229A255,9288,-9924342.0,-234.4928,-887.4535,630704.8,92.72988,19071.31,9983781.197184624
PART_001_R158G218B229A255,9289,-9924251.0,-148.8206,-698.6795,615893.4,75.21049,10890.88,9981015.85034664
PART_001_R158G218B229A255,9290,-9924397.0,-257.6276,-1031.104,611096.7,0.01875223,0.02040915,9980039.294699365
PART_001_R158G218B229A255,9291,-9924251.0,-148.821,-698.6799,615893.4,-75.17524,-10890.84,9981015.849817194
PART_001_R158G218B229A255,9292,-9924341.0,-234.4945,-887.456,630704.8,-92.69891,-19071.28,9983780.200934267
PART_001_R158G218B229A255,9293,-9924289.0,-775.5049,-187.8365,657568.5,-345.7154,-21367.82,9989019.53519027
PART_002_R214G39B40A255,9294,-9923654.0,319.1847,643.0562,701009.7,872.3448,-16755.38,9998177.147727186
PART_002_R214G39B40A255,9295,-9924129.0,968.3411,-1446.767,764228.1,-87.19015,-6642.08,10011786.005556202
PART_003_R247G182B210A255,9296,-13230540.0,1689.829,2609.458,522768.7,-818.3341,12172.52,13263648.9585755
PART_003_R247G182B210A255,9297,-13232520.0,-1033.202,-668.3023,466110.4,797.548,33337.5,13256401.622397192
PART_001_R158G218B229A255,9298,-13232590.0,-427.1034,-1486.81,435090.6,570.1418,40755.31,13253264.099325556
PART_001_R158G218B229A255,9299,-13232340.0,62.43574,-1216.128,417103.3,167.5269,33724.39,13251599.71333298
PART_001_R158G218B229A255,9300,-13232570.0,-387.7885,-1457.184,407187.7,139.7785,18846.78,13250470.47907691
PART_001_R158G218B229A255,9301,-13232310.0,191.8557,-1257.343,404161.0,0.01254997,0.02409844,13250281.856570326
PART_001_R158G218B229A255,9302,-13232570.0,-387.7889,-1457.184,407187.7,-139.7555,-18846.73,13250470.47866309
PART_001_R158G218B229A255,9303,-13232340.0,62.43448,-1216.129,417103.3,-167.5066,-33724.35,13251599.711898493
PART_001_R158G218B229A255,9304,-13232590.0,-427.1029,-1486.809,435090.6,-570.1279,-40755.27,13253264.099703494
PART_001_R158G218B229A255,9305,-13232520.0,-1033.199,-668.303,466110.4,-797.5398,-33337.48,13256401.6233926
PART_002_R214G39B40A255,9306,-13230540.0,1689.842,2609.464,522768.7,818.3364,-12172.51,13263648.968025854
PART_003_R247G182B210A255,9307,-16541240.0,1163.779,-5063.011,192001.1,1259.157,32815.52,16542732.062288001
PART_001_R158G218B229A255,9308,-16541540.0,-1494.517,-3316.981,164997.0,775.3078,70946.5,16542059.675704017
PART_001_R158G218B229A255,9309,-16540450.0,774.2277,-2282.939,154671.1,151.7417,72237.03,16542338.501540327
PART_001_R158G218B229A255,9310,-16540840.0,-683.828,-2019.655,147853.0,181.2905,56329.83,16541758.490803024
PART_001_R158G218B229A255,9311,-16540370.0,495.3807,-1766.845,144589.9,25.54343,30400.79,16541714.083883258
PART_001_R158G218B229A255,9312,-16540710.0,-510.2979,-1780.366,143390.7,0.004626304,0.02499895,16541429.300303891
PART_001_R158G218B229A255,9313,-16540370.0,495.3808,-1766.843,144589.9,-25.53554,-30400.75,16541714.08471236
PART_001_R158G218B229A255,9314,-16540840.0,-683.8279,-2019.65,147853.0,-181.2832,-56329.79,16541758.4929435
PART_001_R158G218B229A255,9315,-16540450.0,774.2268,-2282.935,154671.1,-151.7375,-72236.99,16542338.502565268
PART_001_R158G218B229A255,9316,-16541540.0,-1494.521,-3316.98,164997.0,-775.3053,-70946.48,16542059.673946187
PART_001_R158G218B229A255,9317,-16541240.0,1163.772,-5063.012,192001.1,-1259.158,-32815.51,16542732.058227856
PART_003_R247G182B210A255,9318,16223140.0,-1141.432,4965.563,192001.1,1234.943,-32815.52,16224737.042308543
PART_000_R31G119B180A255,9319,16223430.0,1465.802,3253.269,164997.0,760.3988,-70946.5,16224053.235637072
PART_000_R31G119B180A255,9320,16222360.0,-759.3684,2238.958,154671.1,148.8248,-72237.03,16224314.86700457
PART_000_R31G119B180A255,9321,16222750.0,670.7103,1980.89,147853.0,177.8052,-56329.84,16223738.93821032
PART_000_R31G119B180A255,9322,16222290.0,-485.8786,1732.791,144589.9,25.0541,-30400.8,16223685.170005685
PART_000_R31G119B180A255,9323,16222620.0,500.5211,1746.203,143390.7,0.005531239,-0.03251993,16223397.8258981
PART_000_R31G119B180A255,9324,16222290.0,-485.8782,1732.787,144589.9,-25.04243,30400.73,16223685.171411447
PART_000_R31G119B180A255,9325,16222750.0,670.7129,1980.886,147853.0,-177.7965,56329.78,16223738.938284563
PART_000_R31G119B180A255,9326,16222360.0,-759.3626,2238.953,154671.1,-148.8177,72236.98,16224314.865935087
PART_000_R31G119B180A255,9327,16223430.0,1465.812,3253.27,164997.0,-760.3963,70946.47,16224053.229743423
PART_000_R31G119B180A255,9328,16223140.0,-1141.421,4965.565,192001.1,-1234.942,32815.51,16224737.035746504
PART_003_R247G182B210A255,9329,12976110.0,-1657.355,-2559.356,522768.7,-802.5968,-12172.52,13009783.24483367
PART_003_R247G182B210A255,9330,12978050.0,1013.364,655.5297,466110.4,782.2111,-33337.51,13002431.938995043
PART_000_R31G119B180A255,9331,12978120.0,418.8608,1458.139,435090.6,559.1803,-40755.31,12999235.974131886
PART_000_R31G119B180A255,9332,12977870.0,-61.20798,1192.814,417103.3,164.3081,-33724.4,12997529.110400671
PART_000_R31G119B180A255,9333,12978100.0,380.2961,1429.082,407187.7,137.0949,-18846.78,12996386.809122548
PART_000_R31G119B180A255,9334,12977850.0,-188.1416,1233.235,404161.0,0.01599446,-0.03218823,12996194.354008809
PART_000_R31G119B180A255,9335,12978100.0,380.2963,1429.082,407187.7,-137.0633,18846.72,12996386.808760656
PART_000_R31G119B180A255,9336,12977870.0,-61.20891,1192.814,417103.3,-164.2824,33724.35,12997529.110474838
PART_000_R31G119B180A255,9337,12978120.0,418.8571,1458.138,435090.6,-559.1609,40755.26,12999235.976005275
PART_000_R31G119B180A255,9338,12978050.0,1013.356,655.5266,466110.4,-782.2016,33337.48,13002431.944301708
PART_002_R214G39B40A255,9339,12976110.0,-1657.37,-2559.359,522768.7,802.5997,12172.51,13009783.253783675
PART_003_R247G182B210A255,9340,9733281.0,-949.7476,1418.865,764228.0,85.51907,-6642.086,9822650.50371124
PART_003_R247G182B210A255,9341,9732814.0,-313.0243,-630.6212,701009.6,-855.5523,-16755.4,9808768.5662916
PART_003_R247G182B210A255,9342,9733437.0,760.5641,184.1493,657568.5,339.0941,-21367.85,9799446.927938865
PART_000_R31G119B180A255,9343,9733489.0,230.0168,870.4585,630704.8,90.9515,-19071.32,9794108.130098658
PART_000_R31G119B180A255,9344,9733400.0,145.9378,685.1715,615893.4,73.77048,-10890.88,9791287.776494125
PART_000_R31G119B180A255,9345,9733543.0,252.7094,1011.346,611096.7,0.02424974,-0.02773418,9790294.886090895
PART_000_R31G119B180A255,9346,9733400.0,145.939,685.173,615893.4,-73.72321,10890.83,9791287.774984261
PART_000_R31G119B180A255,9347,9733489.0,230.0199,870.4607,630704.8,-90.91139,19071.27,9794108.127171963
PART_000_R31G119B180A255,9348,9733437.0,760.571,184.1537,657568.5,-339.0627,21367.81,9799446.922062386
PART_002_R214G39B40A255,9349,9732814.0,-313.0156,-630.6173,701009.7,855.5712,16755.38,9808768.581382947
PART_002_R214G39B40A255,9350,9733280.0,-949.743,1418.871,764228.1,-85.51185,6642.078,9822649.530906403
PART_003_R247G182B210A255,9351,6488258.0,-686.6393,-804.647,932913.8,-340.5193,-3075.39,6687165.4299770985
PART_003_R247G182B210A255,9352,6488888.0,-36.41755,453.5247,865939.5,27.37446,-8493.746,6659784.623010189
PART_003_R247G182B210A255,9353,6488749.0,12.23031,-15.6515,817671.8,-649.0462,-10884.42,6641536.2664036555
PART_003_R247G182B210A255,9354,6488941.0,447.6747,128.1763,785365.0,100.5292,-9832.558,6629728.758807674
PART_000_R31G119B180A255,9355,6488990.0,154.6546,570.8705,767156.4,-98.35316,-5811.822,6623290.099605525
PART_000_R31G119B180A255,9356,6488935.0,216.7773,342.5317,761253.2,0.03031338,-0.02007142,6621266.306989704
PART_000_R31G119B180A255,9357,6488990.0,154.6554,570.8716,767156.4,98.41222,5811.784,6623290.098577454
PART_000_R31G119B180A255,9358,6488940.0,447.675,128.1774,785365.0,-100.4781,9832.523,6629727.77924375
PART_002_R214G39B40A255,9359,6488749.0,12.22832,-15.65109,817671.8,649.087,10884.39,6641536.267039941
PART_002_R214G39B40A255,9360,6488888.0,-36.4249,453.5223,865939.5,-27.34902,8493.728,6659784.627691029
PART_002_R214G39B40A255,9361,6488258.0,-686.6548,-804.6505,932913.9,340.5286,3075.383,6687165.481039622
PART_003_R247G182B210A255,9362,3244390.0,-311.5545,356.4016,1032769.0,-45.00443,-1354.278,3704829.5826002522
PART_003_R247G182B210A255,9363,3244253.0,-140.1847,-228.979,964427.4,-658.6836,-3495.949,3649215.5081081144
PART_003_R247G182B210A255,9364,3244456.0,147.9034,97.93711,913527.7,-45.81346,-4584.906,3609620.309753884
PART_003_R247G182B210A255,9365,3244435.0,56.96243,124.448,878889.4,-511.8988,-4176.455,3583735.8654436343
PART_003_R247G182B210A255,9366,3244469.0,207.6329,76.44358,858767.3,8.849938,-2459.784,3569050.2134609516
PART_000_R31G119B180A255,9367,3244495.0,78.7063,283.5277,852242.5,0.03403825,-0.0105042,3564340.6738566873
PART_000_R31G119B180A255,9368,3244469.0,207.6336,76.44423,858767.3,-8.783394,2459.764,3569050.2128055217
PART_002_R214G39B40A255,9369,3244435.0,56.96452,124.4493,878889.4,511.957,4176.437,3583735.863871155
PART_002_R214G39B40A255,9370,3244456.0,147.9082,97.93947,913527.8,45.8609,4584.892,3609620.382409076
PART_002_R214G39B40A255,9371,3244253.0,-140.1773,-228.9756,964427.5,658.7145,3495.939,3649215.582580208
PART_002_R214G39B40A255,9372,3244390.0,-311.5475,356.4061,1032769.0,45.0164,1354.275,3704829.577561711
PART_003_R247G182B210A255,9373,0.0009220292,0.001685855,-0.001135719,1065912.0,-264.6461,0.0003145284,1846213.7973010263
PART_003_R247G182B210A255,9374,-0.0008190457,-0.007074618,-0.002347192,997062.0,-111.3924,0.0009135596,1726962.0530737785
PART_003_R247G182B210A255,9375,-0.002542086,-0.01989981,-0.01025964,945572.5,-704.3086,0.001098751,1637780.0665597813
PART_003_R247G182B210A255,9376,-0.003153262,-0.02744105,-0.01099349,910068.4,-43.17556,0.0009149067,1576284.7089368303
PART_003_R247G182B210A255,9377,-0.003684128,-0.03283472,-0.01577384,889485.7,-292.5819,0.000495598,1540634.5083523134
PART_003_R247G182B210A255,9378,-0.003424371,-0.03298028,-0.0134426,882690.3,0.03533126,1.59017e-05,1528864.446948216
PART_002_R214G39B40A255,9379,-0.003663783,-0.03285859,-0.01577231,889485.7,292.6509,-0.000526237,1540634.5083916297
PART_002_R214G39B40A255,9380,-0.003280081,-0.0282037,-0.01128491,910068.4,43.23608,-0.0008797795,1576284.7089418068
PART_002_R214G39B40A255,9381,-0.00308774,-0.02299109,-0.01143653,945572.5,704.3579,-0.001072931,1637780.0666233865
PART_002_R214G39B40A255,9382,-0.002297625,-0.01429929,-0.005249056,997062.1,111.424,-0.000873654,1726962.2262849738
PART_002_R214G39B40A255,9383,-0.001366444,-0.009030498,-0.00537757,1065912.0,264.6578,-0.0003794614,1846213.797306058
PART_003_R247G182B210A255,9384,-3244390.0,311.5537,-356.4118,1032769.0,-45.0044,1354.279,3704829.5777861974
PART_003_R247G182B210A255,9385,-3244253.0,140.2088,228.9946,964427.4,-658.6836,3495.95,3649215.5257590334
PART_003_R247G182B210A255,9386,-3244456.0,-147.8627,-97.93059,913527.7,-45.81348,4584.908,3609620.3309818604
PART_003_R247G182B210A255,9387,-3244435.0,-56.89847,-124.4179,878889.4,-511.8988,4176.456,3583735.908023713
PART_003_R247G182B210A255,9388,-3244469.0,-207.5669,-76.42791,858767.3,8.849933,2459.785,3569050.250581337
PART_001_R158G218B229A255,9389,-3244495.0,-78.63137,-283.4938,852242.5,0.03403834,0.01058328,3564340.723387768
PART_001_R158G218B229A255,9390,-3244469.0,-207.5675,-76.42861,858767.3,-8.783393,-2459.765,3569050.2499486282
PART_002_R214G39B40A255,9391,-3244435.0,-56.89901,-124.4184,878889.5,511.957,-4176.438,3583735.981088144
PART_002_R214G39B40A255,9392,-3244456.0,-147.8613,-97.93071,913527.8,45.86092,-4584.893,3609620.4074261445
PART_002_R214G39B40A255,9393,-3244253.0,140.2158,228.9971,964427.5,658.7145,-3495.941,3649215.609257988
PART_002_R214G39B40A255,9394,-3244390.0,311.5682,-356.4079,1032769.0,45.0164,-1354.275,3704829.5858402415
PART_003_R247G182B210A255,9395,-6488258.0,686.6334,804.619,932913.8,-340.5194,3075.39,6687165.413529104
PART_003_R247G182B210A255,9396,-6488888.0,36.41166,-453.504,865939.5,27.37446,8493.749,6659784.630234949
PART_003_R247G182B210A255,9397,-6488749.0,-12.28042,15.60619,817671.8,-649.0462,10884.42,6641536.219791217
PART_003_R247G182B210A255,9398,-6488941.0,-447.7208,-128.1731,785365.0,100.5292,9832.56,6629728.737824795
PART_001_R158G218B229A255,9399,-6488990.0,-154.731,-570.9266,767156.4,-98.35314,5811.823,6623290.034704177
PART_001_R158G218B229A255,9400,-6488935.0,-216.8343,-342.5333,761253.3,0.0303035,0.02023671,6621266.31276702
PART_001_R158G218B229A255,9401,-6488990.0,-154.7319,-570.9279,767156.4,98.41222,-5811.785,6623290.033529161
PART_001_R158G218B229A255,9402,-6488940.0,-447.7225,-128.1744,785365.0,-100.4781,-9832.525,6629727.757477937
PART_002_R214G39B40A255,9403,-6488749.0,-12.28483,15.60287,817671.8,649.087,-10884.39,6641536.2158796
PART_002_R214G39B40A255,9404,-6488888.0,36.4048,-453.5066,865939.5,-27.34903,-8493.73,6659784.625553229
PART_002_R214G39B40A255,9405,-6488258.0,686.6271,804.6132,932913.9,340.5286,-3075.384,6687165.449503953
PART_003_R247G182B210A255,9406,-9733281.0,949.7274,-1418.926,764228.0,85.51925,6642.087,9822650.463491011
PART_003_R247G182B210A255,9407,-9732814.0,313.0656,630.6862,701009.6,-855.5522,16755.41,9808768.619084382
PART_003_R247G182B210A255,9408,-9733437.0,-760.5427,-184.1925,657568.5,339.094,21367.85,9799446.917109953
PART_001_R158G218B229A255,9409,-9733489.0,-229.9341,-870.3804,630704.8,90.95158,19071.32,9794108.209996743
PART_001_R158G218B229A255,9410,-9733400.0,-145.8913,-685.2056,615893.4,73.77046,10890.88,9791287.782660533
PART_001_R158G218B229A255,9411,-9733543.0,-252.6152,-1011.264,611096.7,0.02424545,0.02797532,9790294.973675223
PART_001_R158G218B229A255,9412,-9733400.0,-145.8926,-685.2074,615893.4,-73.72319,-10890.83,9791287.78095187
PART_001_R158G218B229A255,9413,-9733489.0,-229.9356,-870.3814,630704.8,-90.91146,-19071.27,9794108.208461326
PART_001_R158G218B229A255,9414,-9733437.0,-760.5437,-184.1956,657568.5,-339.0626,-21367.82,9799446.914874263
PART_002_R214G39B40A255,9415,-9732814.0,313.0719,630.6891,701009.7,855.5711,-16755.38,9808768.644940404
PART_002_R214G39B40A255,9416,-9733280.0,949.744,-1418.925,764228.1,-85.5119,-6642.078,9822649.50465809
PART_003_R247G182B210A255,9417,-12976110.0,1657.327,2559.266,522768.7,-802.5972,12172.52,13009783.185973668
PART_003_R247G182B210A255,9418,-12978050.0,-1013.35,-655.4479,466110.4,782.2112,33337.51,13002431.986803565
PART_001_R158G218B229A255,9419,-12978120.0,-418.9362,-1458.244,435090.6,559.1803,40755.31,12999235.884086695
PART_001_R158G218B229A255,9420,-12977870.0,61.18292,-1192.75,417103.3,164.3081,33724.4,12997529.12983393
PART_001_R158G218B229A255,9421,-12978100.0,-380.3993,-1429.197,407187.7,137.0949,18846.78,12996386.700184368
PART_001_R158G218B229A255,9422,-12977850.0,188.1059,-1233.175,404161.0,0.01598677,0.03240461,12996194.366133321
PART_001_R158G218B229A255,9423,-12978100.0,-380.3997,-1429.198,407187.7,-137.0634,-18846.72,12996386.699223414
PART_001_R158G218B229A255,9424,-12977870.0,61.18265,-1192.75,417103.3,-164.2824,-33724.35,12997529.129308943
PART_001_R158G218B229A255,9425,-12978120.0,-418.9394,-1458.247,435090.6,-559.1609,-40755.26,12999235.880519155
PART_001_R158G218B229A255,9426,-12978050.0,-1013.356,-655.4484,466110.4,-782.2017,-33337.48,13002431.983327512
PART_002_R214G39B40A255,9427,-12976110.0,1657.319,2559.258,522768.7,802.6,-12172.51,13009783.177965526
PART_003_R247G182B210A255,9428,-16223140.0,1141.391,-4965.676,192001.1,1234.945,32815.52,16224736.965345979
PART_001_R158G218B229A255,9429,-16223430.0,-1465.742,-3253.154,164997.0,760.3979,70946.51,16224053.3232475
PART_001_R158G218B229A255,9430,-16222360.0,759.3708,-2239.053,154671.0,148.8255,72237.03,16224314.817865795
PART_001_R158G218B229A255,9431,-16222750.0,-670.607,-1980.765,147853.0,177.8048,56329.84,16223739.052342704
PART_001_R158G218B229A255,9432,-16222290.0,485.9069,-1732.876,144589.9,25.05427,30400.8,16223685.141670836
PART_001_R158G218B229A255,9433,-16222620.0,-500.4055,-1746.075,143390.7,0.005527886,0.03262315,16223397.94768311
PART_001_R158G218B229A255,9434,-16222290.0,485.9065,-1732.873,144589.9,-25.04259,-30400.73,16223685.142576762
PART_001_R158G218B229A255,9435,-16222750.0,-670.6078,-1980.76,147853.0,-177.7962,-56329.79,16223739.053920962
PART_001_R158G218B229A255,9436,-16222360.0,759.3713,-2239.046,154671.1,-148.8183,-72236.98,16224314.8238062
PART_001_R158G218B229A255,9437,-16223430.0,-1465.737,-3253.149,164997.0,-760.3955,-70946.48,16224053.327852681
PART_001_R158G218B229A255,9438,-16223140.0,1141.402,-4965.672,192001.1,-1234.943,-32815.51,16224736.972785199
PART_003_R247G182B210A255,9439,15905040.0,-1118.998,4868.337,192001.1,1210.729,-32815.52,15906744.564970195
PART_000_R31G119B180A255,9440,15905330.0,1436.995,3189.342,164997.0,745.4889,-70946.51,15906059.24058954
PART_000_R31G119B180A255,9441,15904280.0,-744.4717,2195.174,154671.0,145.9074,-72237.04,15906303.182654662
PART_000_R31G119B180A255,9442,15904660.0,657.4435,1941.898,147852.9,174.3206,-56329.85,15905721.350715645
PART_000_R31G119B180A255,9443,15904200.0,-476.3769,1698.918,144589.9,24.56407,-30400.81,15905647.719332973
PART_000_R31G119B180A255,9444,15904530.0,490.5751,1711.806,143390.7,0.008061396,-0.04568226,15905368.015055086
PART_000_R31G119B180A255,9445,15904200.0,-476.3771,1698.914,144589.9,-24.55047,30400.73,15905647.72097353
PART_000_R31G119B180A255,9446,15904660.0,657.4409,1941.889,147853.0,-174.3076,56329.77,15905721.358452687
PART_000_R31G119B180A255,9447,15904280.0,-744.4779,2195.165,154671.1,-145.9,72236.97,15906303.192216229
PART_000_R31G119B180A255,9448,15905330.0,1436.983,3189.331,164997.0,-745.4843,70946.47,15906059.251551537
PART_000_R31G119B180A255,9449,15905040.0,-1119.013,4868.332,192001.1,-1210.729,32815.51,15906744.574908879
PART_003_R247G182B210A255,9450,12721680.0,-1624.818,-2509.049,522768.7,-786.8589,-12172.52,12755941.530260254
PART_003_R247G182B210A255,9451,12723580.0,993.467,642.5596,466110.4,766.8767,-33337.51,12748481.68648148
PART_000_R31G119B180A255,9452,12723650.0,410.7356,1429.683,435090.6,548.2189,-40755.31,12745224.575659394
PART_000_R31G119B180A255,9453,12723410.0,-59.99136,1169.329,417103.3,161.0915,-33724.41,12743484.07954082
PART_000_R31G119B180A255,9454,12723630.0,372.961,1401.206,407187.7,134.4111,-18846.79,12742317.655752016
PART_000_R31G119B180A255,9455,12723380.0,-184.422,1208.963,404161.0,0.02167745,-0.04333218,12742111.405110883
PART_000_R31G119B180A255,9456,12723630.0,372.962,1401.207,407187.7,-134.3715,18846.71,12742317.654397324
PART_000_R31G119B180A255,9457,12723410.0,-59.98773,1169.33,417103.3,-161.0561,33724.33,12743484.076592902
PART_000_R31G119B180A255,9458,12723650.0,410.7435,1429.686,435090.6,-548.1944,40755.26,12745224.569735903
PART_000_R31G119B180A255,9459,12723580.0,993.4791,642.5651,466110.5,-766.8619,33337.47,12748481.688351506
PART_002_R214G39B40A255,9460,12721680.0,-1624.81,-2509.044,522768.7,786.8628,12172.51,12755941.52374891
PART_003_R247G182B210A255,9461,9542432.0,-931.0886,1391.147,764228.0,83.84203,-6642.088,9633581.274747336
PART_003_R247G182B210A255,9462,9541975.0,-306.941,-618.3619,701009.6,-838.7737,-16755.41,9619418.076180132
PART_003_R247G182B210A255,9463,9542586.0,745.6446,180.6194,657568.5,332.4494,-21367.86,9609925.501892101
PART_000_R31G119B180A255,9464,9542636.0,225.4059,853.2698,630704.8,89.17517,-19071.32,9604481.5481784
PART_000_R31G119B180A255,9465,9542549.0,143.0401,671.8045,615893.4,72.33096,-10890.89,9601603.823799742
PART_000_R31G119B180A255,9466,9542689.0,247.6396,991.3908,611096.7,0.03215672,-0.03629717,9600594.148170123
PART_000_R31G119B180A255,9467,9542549.0,143.0408,671.8056,615893.4,-72.27063,10890.82,9601603.822665771
PART_000_R31G119B180A255,9468,9542636.0,225.4063,853.2723,630704.8,-89.12171,19071.26,9604481.546379013
PART_000_R31G119B180A255,9469,9542586.0,745.6415,180.6193,657568.5,-332.4097,21367.81,9609925.503143033
PART_002_R214G39B40A255,9470,9541975.0,-306.9494,-618.3631,701009.7,838.7989,16755.37,9619418.102601446
PART_002_R214G39B40A255,9471,9542432.0,-931.1083,1391.142,764228.1,-83.83485,6642.076,9633581.310756715
PART_003_R247G182B210A255,9472,6361038.0,-673.1508,-788.8007,932913.8,-333.8406,-3075.391,6563773.129380368
PART_003_R247G182B210A255,9473,6361655.0,-35.70876,444.5706,865939.5,26.84336,-8493.748,6535887.361503192
PART_003_R247G182B210A255,9474,6361519.0,12.05991,-15.26064,817671.8,-636.3134,-10884.43,6517289.505162964
PART_003_R247G182B210A255,9475,6361706.0,438.9343,125.6206,785365.0,98.56697,-9832.562,6505259.139196056
PART_000_R31G119B180A255,9476,6361755.0,151.7223,559.7716,767156.4,-96.41587,-5811.829,6498699.005779787
PART_000_R31G119B180A255,9477,6361701.0,212.5775,335.7787,761253.2,0.03994221,-0.02615491,6496635.323404213
PART_000_R31G119B180A255,9478,6361755.0,151.7237,559.7729,767156.4,96.49134,5811.778,6498699.004324836
PART_000_R31G119B180A255,9479,6361706.0,438.9381,125.6236,785365.0,-98.49913,9832.517,6505259.135664129
PART_002_R214G39B40A255,9480,6361519.0,12.06729,-15.25686,817671.8,636.3658,10884.39,6517289.49953128
PART_002_R214G39B40A255,9481,6361655.0,-35.69889,444.576,865939.6,-26.80771,8493.724,6535887.393724702
PART_002_R214G39B40A255,9482,6361038.0,-673.1462,-788.7959,932913.9,333.8527,3075.383,6563773.16745483
PART_003_R247G182B210A255,9483,3180775.0,-305.4322,349.4506,1032769.0,-44.12155,-1354.279,3649250.7231313554
PART_003_R247G182B210A255,9484,3180641.0,-137.4685,-224.5323,964427.4,-645.7635,-3495.95,3592774.297051892
PART_003_R247G182B210A255,9485,3180840.0,144.9716,96.03377,913527.7,-44.90862,-4584.908,3552553.7530897823
PART_003_R247G182B210A255,9486,3180819.0,55.76818,121.9477,878889.4,-501.8518,-4176.457,3526249.7155102063
PART_003_R247G182B210A255,9487,3180852.0,203.5016,74.9498,858767.3,8.686218,-2459.787,3511323.9303031913
PART_000_R31G119B180A255,9488,3180877.0,77.07312,277.9036,852242.5,0.04475244,-0.01367347,3506536.9312207955
PART_000_R31G119B180A255,9489,3180852.0,203.5021,74.95044,858767.3,-8.601322,2459.761,3511323.9297315883
PART_002_R214G39B40A255,9490,3180819.0,55.76837,121.9486,878889.5,501.9286,4176.433,3526249.7897387273
PART_002_R214G39B40A255,9491,3180840.0,144.9688,96.03304,913527.8,44.96861,4584.889,3552553.831742769
PART_002_R214G39B40A255,9492,3180641.0,-137.4771,-224.5351,964427.5,645.8041,3495.937,3592774.3826127504
PART_002_R214G39B40A255,9493,3180775.0,-305.449,349.4454,1032769.0,44.13472,1354.274,3649250.7327156267
PART_003_R247G182B210A255,9494,-0.002720957,0.001668076,0.0009962231,1065912.0,-259.4547,0.0004626421,1846213.7950904344
PART_003_R247G182B210A255,9495,0.001773344,0.01202119,0.002378989,997062.0,-109.2014,0.0009875177,1726962.052653977
PART_003_R247G182B210A255,9496,0.006446352,0.02739701,0.0111201,945572.4,-690.491,0.001177041,1637779.8757033083
PART_003_R247G182B210A255,9497,0.009449567,0.03658126,0.01165886,910068.4,-42.31858,0.001033682,1576284.7088671091
PART_003_R247G182B210A255,9498,0.01151714,0.04291772,0.01669377,889485.7,-286.8348,0.0006251634,1540634.5051101763
PART_003_R247G182B210A255,9499,0.01176912,0.04318506,0.01397846,882690.3,0.04639531,-2.468277e-05,1528864.4469482172
PART_002_R214G39B40A255,9500,0.01148522,0.04294317,0.01669389,889485.7,286.9229,-0.0005795431,1540634.505159391
PART_002_R214G39B40A255,9501,0.009573818,0.03744183,0.01199051,910068.5,42.39857,-0.00108483,1576284.8820786383
PART_002_R214G39B40A255,9502,0.007062435,0.03109141,0.01252638,945572.5,690.5542,-0.001201037,1637780.0489882822
PART_002_R214G39B40A255,9503,0.00354965,0.02085746,0.005933857,997062.1,109.2453,-0.001044891,1726962.2258673862
PART_002_R214G39B40A255,9504,6.304379e-05,0.01487367,0.006233314,1065912.0,259.4699,-0.0003819287,1846213.7950968428
PART_003_R247G182B210A255,9505,-3180775.0,305.4409,-349.4388,1032769.0,-44.12162,1354.28,3649250.732066139
PART_003_R247G182B210A255,9506,-3180641.0,137.4456,224.5125,964427.4,-645.7635,3495.952,3592774.2781558065
PART_003_R247G182B210A255,9507,-3180840.0,-145.0161,-96.04489,913527.7,-44.90858,4584.911,3552553.728202523
PART_003_R247G182B210A255,9508,-3180819.0,-55.84116,-121.9883,878889.4,-501.8518,4176.459,3526249.664291425
PART_003_R247G182B210A255,9509,-3180852.0,-203.5774,-74.97437,858767.3,8.686229,2459.789,3511323.8848490063
PART_001_R158G218B229A255,9510,-3180877.0,-77.15948,-277.95,852242.5,0.04475405,0.01355948,3506536.8710072977
PART_001_R158G218B229A255,9511,-3180852.0,-203.578,-74.97494,858767.3,-8.601343,-2459.762,3511323.8842617176
PART_002_R214G39B40A255,9512,-3180819.0,-55.84311,-121.9899,878889.5,501.9286,-4176.435,3526249.737410454
PART_002_R214G39B40A255,9513,-3180840.0,-145.0207,-96.04681,913527.8,44.96858,-4584.892,3552553.8023565104
PART_002_R214G39B40A255,9514,-3180641.0,137.4366,224.5081,964427.5,645.8041,-3495.939,3592774.3527386547
PART_002_R214G39B40A255,9515,-3180775.0,305.4312,-349.444,1032769.0,44.13473,-1354.275,3649250.7255668878
PART_003_R247G182B210A255,9516,-6361038.0,673.1637,788.8341,932913.8,-333.8405,3075.393,6563773.151820979
PART_003_R247G182B210A255,9517,-6361655.0,35.7212,-444.5967,865939.5,26.84338,8493.75,6535887.354865401
PART_003_R247G182B210A255,9518,-6361519.0,-11.99403,15.31297,817671.8,-636.3134,10884.43,6517289.56285526
PART_003_R247G182B210A255,9519,-6361706.0,-438.8732,-125.628,785365.0,98.56699,9832.564,6505259.16545898
PART_001_R158G218B229A255,9520,-6361755.0,-151.6247,-559.7084,767156.4,-96.41586,5811.83,6498699.084485457
PART_001_R158G218B229A255,9521,-6361701.0,-212.5033,-335.7817,761253.3,0.03994803,0.02594473,6496635.393417363
PART_001_R158G218B229A255,9522,-6361755.0,-151.6259,-559.7095,767156.4,96.49131,-5811.779,6498699.083226279
PART_001_R158G218B229A255,9523,-6361706.0,-438.8755,-125.6309,785365.0,-98.49913,-9832.519,6505259.162709313
PART_002_R214G39B40A255,9524,-6361519.0,-11.9937,15.31276,817671.8,636.3658,-10884.39,6517289.562728763
PART_002_R214G39B40A255,9525,-6361655.0,35.72871,-444.5961,865939.6,-26.80771,-8493.726,6535887.398465543
PART_002_R214G39B40A255,9526,-6361038.0,673.1861,788.8408,932913.9,333.8527,-3075.384,6563773.208551415
PART_003_R247G182B210A255,9527,-9542432.0,931.118,-1391.073,764228.0,83.84183,6642.089,9633581.325950935
PART_003_R247G182B210A255,9528,-9541975.0,306.8941,618.2812,701009.6,-838.7738,16755.41,9619418.012889903
PART_003_R247G182B210A255,9529,-9542586.0,-745.6679,-180.5696,657568.5,332.4495,21367.86,9609925.515051851
PART_001_R158G218B229A255,9530,-9542636.0,-225.5043,-853.3697,630704.8,89.17515,19071.33,9604481.449732061
PART_001_R158G218B229A255,9531,-9542549.0,-143.0943,-671.7682,615893.4,72.331,10890.89,9601603.814901434
PART_001_R158G218B229A255,9532,-9542689.0,-247.752,-991.4964,611096.7,0.03216497,0.03602202,9600594.039834185
PART_001_R158G218B229A255,9533,-9542549.0,-143.0948,-671.7689,615893.4,-72.2707,-10890.82,9601603.814065598
PART_001_R158G218B229A255,9534,-9542636.0,-225.5068,-853.3736,630704.9,-89.12167,-19071.26,9604481.465834767
PART_001_R158G218B229A255,9535,-9542586.0,-745.6719,-180.571,657568.5,-332.4099,-21367.81,9609925.512033377
PART_002_R214G39B40A255,9536,-9541975.0,306.8841,618.274,701009.7,838.799,-16755.37,9619418.026018696
PART_002_R214G39B40A255,9537,-9542432.0,931.1115,-1391.076,764228.1,-83.83481,-6642.078,9633581.3450213
PART_003_R247G182B210A255,9538,-12721680.0,1624.854,2509.159,522768.7,-786.8584,12172.52,12755941.603079764
PART_003_R247G182B210A255,9539,-12723580.0,-993.4828,-642.6615,466110.4,766.8766,33337.51,12748481.627748411
PART_001_R158G218B229A255,9540,-12723650.0,-410.6417,-1429.558,435090.6,548.2189,40755.32,12745224.685010286
PART_001_R158G218B229A255,9541,-12723410.0,60.02343,-1169.413,417103.3,161.0915,33724.41,12743484.05362625
PART_001_R158G218B229A255,9542,-12723630.0,-372.8333,-1401.071,407187.7,134.4111,18846.8,12742317.786944166
PART_001_R158G218B229A255,9543,-12723380.0,184.4668,-1209.042,404161.0,0.0216806,0.04311689,12742111.38804686
PART_001_R158G218B229A255,9544,-12723630.0,-372.834,-1401.07,407187.7,-134.3715,-18846.71,12742317.786693232
PART_001_R158G218B229A255,9545,-12723410.0,60.02116,-1169.414,417103.3,-161.0562,-33724.34,12743484.051436722
PART_001_R158G218B229A255,9546,-12723650.0,-410.6413,-1429.556,435090.6,-548.1944,-40755.26,12745224.685629325
PART_001_R158G218B229A255,9547,-12723580.0,-993.4776,-642.6627,466110.5,-766.8618,-33337.47,12748481.640396383
PART_002_R214G39B40A255,9548,-12721680.0,1624.874,2509.167,522768.7,786.8626,-12172.51,12755941.617015956
PART_003_R247G182B210A255,9549,-15905040.0,1119.05,-4868.199,192001.1,1210.727,32815.52,15906744.659924086
PART_001_R158G218B229A255,9550,-15905330.0,-1437.068,-3189.485,164997.0,745.4901,70946.51,15906059.132616151
PART_001_R158G218B229A255,9551,-15904280.0,744.469,-2195.062,154671.1,145.9067,72237.04,15906303.240196468
PART_001_R158G218B229A255,9552,-15904660.0,-657.57,-1942.057,147852.9,174.321,56329.85,15905721.207988815
PART_001_R158G218B229A255,9553,-15904200.0,476.3427,-1698.82,144589.9,24.56387,30400.81,15905647.751215283
PART_001_R158G218B229A255,9554,-15904530.0,-490.7164,-1711.971,143390.7,0.008060482,0.04562497,15905367.861925123
PART_001_R158G218B229A255,9555,-15904200.0,476.3429,-1698.816,144589.9,-24.55028,-30400.73,15905647.752855841
PART_001_R158G218B229A255,9556,-15904660.0,-657.5695,-1942.05,147853.0,-174.3081,-56329.77,15905721.21367616
PART_001_R158G218B229A255,9557,-15904280.0,744.4678,-2195.055,154671.1,-145.8993,-72236.98,15906303.242277173
PART_001_R158G218B229A255,9558,-15905330.0,-1437.075,-3189.482,164997.0,-745.4854,-70946.47,15906059.130079806
PART_001_R158G218B229A255,9559,-15905040.0,1119.038,-4868.202,192001.1,-1210.728,-32815.51,15906744.652361572
PART_003_R247G182B210A255,9560,15586940.0,-1096.659,4770.861,192001.1,1186.516,-32815.52,15588755.122170093
PART_000_R31G119B180A255,9561,15587220.0,1408.314,3125.668,164997.0,730.5801,-70946.52,15588057.49162114
PART_000_R31G119B180A255,9562,15586190.0,-729.5696,2151.186,154671.0,142.9917,-72237.05,15588283.80073754
PART_000_R31G119B180A255,9563,15586560.0,644.4145,1903.191,147852.9,170.8355,-56329.86,15587695.394946376
PART_000_R31G119B180A255,9564,15586120.0,-466.7964,1664.869,144589.9,24.07603,-30400.83,15587621.96323125
PART_000_R31G119B180A255,9565,15586440.0,480.9032,1677.708,143390.7,0.009282967,-0.05796231,15587339.469176393
PART_000_R31G119B180A255,9566,15586120.0,-466.7959,1664.863,144589.9,-24.05602,30400.71,15587621.965278009
PART_000_R31G119B180A255,9567,15586560.0,644.4187,1903.186,147853.0,-170.8209,56329.76,15587695.397106726
PART_000_R31G119B180A255,9568,15586190.0,-729.5612,2151.176,154671.1,-142.9791,72236.96,15588283.803259982
PART_000_R31G119B180A255,9569,15587220.0,1408.33,3125.67,164997.0,-730.5757,70946.46,15588057.481801914
PART_000_R31G119B180A255,9570,15586940.0,-1096.645,4770.863,192001.1,-1186.512,32815.51,15588755.114104513
PART_003_R247G182B210A255,9571,12467240.0,-1592.356,-2458.969,522768.7,-771.1215,-12172.52,12502115.595409393
PART_003_R247G182B210A255,9572,12469110.0,973.6115,629.8,466110.4,751.5397,-33337.52,12494551.788249053
PART_000_R31G119B180A255,9573,12469170.0,402.4309,1400.973,435090.6,537.259,-40755.32,12491221.335196374
PART_000_R31G119B180A255,9574,12468940.0,-58.83201,1146.011,417103.3,157.874,-33724.42,12489445.452506177
PART_000_R31G119B180A255,9575,12469150.0,365.3714,1373.052,407187.7,131.7302,-18846.81,12488254.389839675
PART_000_R31G119B180A255,9576,12468910.0,-180.7911,1184.845,404161.0,0.02684742,-0.05636709,12488043.76685561
PART_000_R31G119B180A255,9577,12469150.0,365.3717,1373.052,407187.7,-131.6767,18846.7,12488254.389190184
PART_000_R31G119B180A255,9578,12468940.0,-58.8333,1146.011,417103.3,-157.8305,33724.32,12489445.452338466
PART_000_R31G119B180A255,9579,12469170.0,402.4257,1400.971,435090.6,-537.2255,40755.24,12491221.338002576
PART_000_R31G119B180A255,9580,12469110.0,973.5996,629.7959,466110.5,-751.5232,33337.47,12494551.807020415
PART_002_R214G39B40A255,9581,12467240.0,-1592.376,-2458.973,522768.7,771.1267,12172.51,12502115.607348785
PART_003_R247G182B210A255,9582,9351583.0,-912.4925,1363.24,764228.0,82.16856,-6642.09,9444583.581001788
PART_003_R247G182B210A255,9583,9351135.0,-300.7495,-605.9056,701009.6,-821.9939,-16755.41,9430126.825976456
PART_003_R247G182B210A255,9584,9351734.0,730.7544,176.9471,657568.4,325.808,-21367.87,9420456.429381607
PART_000_R31G119B180A255,9585,9351783.0,221.0058,836.3124,630704.8,87.39927,-19071.34,9414903.867662482
PART_000_R31G119B180A255,9586,9351698.0,140.2393,658.3244,615893.4,70.89447,-10890.9,9411966.73432605
PART_000_R31G119B180A255,9587,9351835.0,242.8122,971.6766,611096.7,0.04049842,-0.04803558,9410939.297742229
PART_000_R31G119B180A255,9588,9351698.0,140.2412,658.3268,615893.4,-70.81514,10890.81,9411966.731875712
PART_000_R31G119B180A255,9589,9351783.0,221.0107,836.3158,630704.9,-87.33181,19071.25,9414903.883088674
PART_000_R31G119B180A255,9590,9351734.0,730.765,176.954,657568.5,-325.7544,21367.8,9420456.441154787
PART_002_R214G39B40A255,9591,9351135.0,-300.737,-605.8999,701009.7,822.0264,16755.37,9430126.839048868
PART_002_R214G39B40A255,9592,9351583.0,-912.4879,1363.248,764228.1,-82.1557,6642.074,9444583.599005619
PART_003_R247G182B210A255,9593,6233817.0,-659.708,-773.0813,932913.8,-327.1623,-3075.392,6440529.468029074
PART_003_R247G182B210A255,9594,6234422.0,-34.99878,435.7259,865939.5,26.30999,-8493.752,6412120.527950908
PART_003_R247G182B210A255,9595,6234289.0,11.74339,-15.03184,817671.8,-623.5787,-10884.43,6393160.246212762
PART_003_R247G182B210A255,9596,6234472.0,430.0985,123.1318,785365.0,96.60493,-9832.57,6380899.371023445
PART_000_R31G119B180A255,9597,6234520.0,148.5759,548.4866,767156.4,-94.47529,-5811.836,6374212.281293716
PART_000_R31G119B180A255,9598,6234467.0,208.2534,329.0805,761253.2,0.05031685,-0.03447976,6372107.043222322
PART_000_R31G119B180A255,9599,6234520.0,148.5771,548.4884,767156.4,94.57383,5811.77,6374212.279650553
PART_000_R31G119B180A255,9600,6234472.0,430.0993,123.1337,785365.0,-96.51965,9832.51,6380899.369423205
PART_002_R214G39B40A255,9601,6234289.0,11.74095,-15.03094,817671.8,623.6476,10884.38,6393160.246728404
PART_002_R214G39B40A255,9602,6234422.0,-35.00904,435.7225,865939.6,-26.26703,8493.72,6412120.574978288
PART_002_R214G39B40A255,9603,6233817.0,-659.7307,-773.0862,932913.9,327.1782,3075.381,6440529.524829268
PART_003_R247G182B210A255,9604,3117159.0,-299.3332,342.4305,1032769.0,-43.23478,-1354.279,3593937.55224125
PART_003_R247G182B210A255,9605,3117028.0,-134.6843,-220.0031,964427.4,-632.8415,-3495.952,3536575.696400381
PART_003_R247G182B210A255,9606,3117223.0,142.116,94.10569,913527.7,-43.9997,-4584.911,3495712.307636195
PART_003_R247G182B210A255,9607,3117202.0,54.7421,119.5683,878889.4,-491.8039,-4176.461,3468976.4693946997
PART_003_R247G182B210A255,9608,3117235.0,199.5105,73.45776,858767.3,8.526208,-2459.791,3453804.4455552455
PART_000_R31G119B180A255,9609,3117260.0,75.63652,272.4109,852242.5,0.05628824,-0.01796185,3448938.5104757464
PART_000_R31G119B180A255,9610,3117235.0,199.5116,73.4588,858767.3,-8.415605,2459.757,3453804.4445161023
PART_002_R214G39B40A255,9611,3117202.0,54.74519,119.5701,878889.5,491.9007,4176.429,3468976.543130374
PART_002_R214G39B40A255,9612,3117223.0,142.1231,94.10927,913527.8,44.07947,4584.886,3495712.381177653
PART_002_R214G39B40A255,9613,3117028.0,-134.6734,-219.9981,964427.5,632.8936,3495.935,3536575.7711810376
PART_002_R214G39B40A255,9614,3117159.0,-299.3236,342.4371,1032769.0,43.25541,1354.273,3593937.54520942
PART_003_R247G182B210A255,9615,-0.00252182,0.002118731,-0.001110769,1065912.0,-254.2636,0.0005770605,1846213.7929237597
PART_003_R247G182B210A255,9616,-0.0044255,-0.01149155,-0.003803326,997062.0,-107.013,0.001599944,1726962.0522429978
PART_003_R247G182B210A255,9617,-0.006409043,-0.03060218,-0.01492657,945572.4,-676.6711,0.001830816,1637779.858398745
PART_003_R247G182B210A255,9618,-0.007037501,-0.04207597,-0.01667681,910068.4,-41.4613,0.001492414,1576284.7087987624
PART_003_R247G182B210A255,9619,-0.007486781,-0.04963497,-0.02290753,889485.7,-281.084,0.0007745314,1540634.5019303302
PART_003_R247G182B210A255,9620,-0.007147043,-0.05004092,-0.02009709,882690.3,0.05835692,3.704021e-05,1528864.4469482184
PART_002_R214G39B40A255,9621,-0.007440551,-0.04962661,-0.02289309,889485.7,281.1986,-0.0008458306,1540634.501993068
PART_002_R214G39B40A255,9622,-0.007198905,-0.04308333,-0.01705109,910068.5,41.56173,-0.001416817,1576284.8820117775
PART_002_R214G39B40A255,9623,-0.007156184,-0.03501164,-0.0166112,945572.5,676.7537,-0.001811287,1637780.0317061697
PART_002_R214G39B40A255,9624,-0.006632667,-0.02229343,-0.008144274,997062.1,107.0659,-0.001526315,1726962.225457914
PART_002_R214G39B40A255,9625,-0.006009396,-0.0141834,-0.007562315,1065912.0,254.2836,-0.0006797036,1846213.792932023
PART_003_R247G182B210A255,9626,-3117159.0,299.3297,-342.4449,1032769.0,-43.2347,1354.28,3593937.544481215
PART_003_R247G182B210A255,9627,-3117028.0,134.7181,220.0253,964427.4,-632.8414,3495.954,3536575.721085783
PART_003_R247G182B210A255,9628,-3117223.0,-142.0556,-94.0944,913527.7,-43.99971,4584.913,3495712.339606323
PART_003_R247G182B210A255,9629,-3117202.0,-54.64735,-119.5234,878889.4,-491.8039,4176.463,3468976.5321452054
PART_003_R247G182B210A255,9630,-3117235.0,-199.412,-73.4324,858767.3,8.526211,2459.792,3453804.501447923
PART_001_R158G218B229A255,9631,-3117260.0,-75.52561,-272.3603,852242.5,0.05628785,0.01811592,3448938.583463183
PART_001_R158G218B229A255,9632,-3117235.0,-199.4131,-73.43356,858767.3,-8.415609,-2459.758,3453804.5003546258
PART_002_R214G39B40A255,9633,-3117202.0,-54.64842,-119.5243,878889.5,491.9006,-4176.432,3468976.6071963743
PART_002_R214G39B40A255,9634,-3117223.0,-142.0538,-94.09486,913527.8,44.07948,-4584.889,3495712.418510735
PART_002_R214G39B40A255,9635,-3117028.0,134.7289,220.0292,964427.5,632.8935,-3495.938,3536575.8093548845
PART_002_R214G39B40A255,9636,-3117159.0,299.3526,-342.4389,1032769.0,43.2554,-1354.274,3593937.5570103917
PART_003_R247G182B210A255,9637,-6233817.0,659.6992,773.0411,932913.8,-327.1625,3075.393,6440529.444313739
PART_003_R247G182B210A255,9638,-6234422.0,34.98859,-435.696,865939.5,26.31002,8493.756,6412120.537546178
PART_003_R247G182B210A255,9639,-6234289.0,-11.81929,14.96539,817671.8,-623.5786,10884.43,6393160.176806457
PART_003_R247G182B210A255,9640,-6234472.0,-430.1692,-123.1277,785365.0,96.60495,9832.573,6380899.338505618
PART_001_R158G218B229A255,9641,-6234520.0,-148.6907,-548.5686,767156.4,-94.47525,5811.837,6374212.185056745
PART_001_R158G218B229A255,9642,-6234467.0,-208.3399,-329.0829,761253.3,0.05028493,0.03473932,6372107.035573085
PART_001_R158G218B229A255,9643,-6234520.0,-148.6921,-548.5707,767156.4,94.57384,-5811.771,6374212.183169082
PART_001_R158G218B229A255,9644,-6234472.0,-430.1719,-123.1296,785365.0,-96.51972,-9832.513,6380899.33597729
PART_002_R214G39B40A255,9645,-6234289.0,-11.82615,14.96014,817671.9,623.6475,-10884.39,6393160.209087164
PART_002_R214G39B40A255,9646,-6234422.0,34.97761,-435.6997,865939.6,-26.26709,-8493.724,6412120.570795916
PART_002_R214G39B40A255,9647,-6233817.0,659.6885,773.0316,932913.9,327.1783,-3075.382,6440529.4779785955
PART_003_R247G182B210A255,9648,-9351583.0,912.4606,-1363.332,764228.0,82.16884,6642.091,9444583.519676264
PART_003_R247G182B210A255,9649,-9351135.0,300.8102,606.0028,701009.6,-821.9938,16755.42,9430126.904323088
PART_003_R247G182B210A255,9650,-9351734.0,-730.7225,-177.0108,657568.5,325.8079,21367.87,9420456.434534794
PART_001_R158G218B229A255,9651,-9351783.0,-220.8822,-836.1947,630704.8,87.39937,19071.34,9414903.987497117
PART_001_R158G218B229A255,9652,-9351698.0,-140.1698,-658.374,615893.4,70.89447,10890.9,9411966.74421683
PART_001_R158G218B229A255,9653,-9351835.0,-242.6717,-971.5532,611096.7,0.04046703,0.04832339,9410939.42885601
PART_001_R158G218B229A255,9654,-9351698.0,-140.1719,-658.3769,615893.4,-70.81509,-10890.81,9411966.74141876
PART_001_R158G218B229A255,9655,-9351783.0,-220.8847,-836.1963,630704.9,-87.33194,-19071.26,9414904.005069913
PART_001_R158G218B229A255,9656,-9351734.0,-730.7245,-177.016,657568.5,-325.7543,-21367.8,9420456.430479197
PART_002_R214G39B40A255,9657,-9351135.0,300.8202,606.0074,701009.7,822.0263,-16755.37,9430126.933605311
PART_002_R214G39B40A255,9658,-9351583.0,912.4881,-1363.329,764228.1,-82.15578,-6642.075,9444583.559021188
PART_003_R247G182B210A255,9659,-12467240.0,1592.314,2458.834,522768.7,-771.1221,12172.52,12502115.507137207
PART_003_R247G182B210A255,9660,-12469110.0,-973.5901,-629.6767,466110.4,751.5399,33337.53,12494551.860529274
PART_001_R158G218B229A255,9661,-12469170.0,-402.5446,-1401.13,435090.6,537.2591,40755.32,12491221.200097693
PART_001_R158G218B229A255,9662,-12468940.0,58.79413,-1145.913,417103.3,157.874,33724.43,12489445.482586693
PART_001_R158G218B229A255,9663,-12469150.0,-365.5264,-1373.224,407187.7,131.7302,18846.81,12488254.226602206
PART_001_R158G218B229A255,9664,-12468910.0,180.7378,-1184.754,404161.0,0.02683151,0.05653846,12488043.785664137
PART_001_R158G218B229A255,9665,-12469150.0,-365.5271,-1373.225,407187.7,-131.6768,-18846.7,12488254.225253873
PART_001_R158G218B229A255,9666,-12468940.0,58.79388,-1145.912,417103.3,-157.8305,-33724.33,12489445.48214925
PART_001_R158G218B229A255,9667,-12469170.0,-402.5494,-1401.134,435090.6,-537.2256,-40755.25,12491221.195016239
PART_001_R158G218B229A255,9668,-12469110.0,-973.5994,-629.6776,466110.5,-751.5233,-33337.47,12494551.866148423
PART_002_R214G39B40A255,9669,-12467240.0,1592.299,2458.822,522768.8,771.127,-12172.51,12502115.506188862
PART_003_R247G182B210A255,9670,-15586940.0,1096.596,-4771.031,192001.0,1186.518,32815.53,15588755.002096212
PART_001_R158G218B229A255,9671,-15587220.0,-1408.224,-3125.495,164997.0,730.5787,70946.52,15588057.623087894
PART_001_R158G218B229A255,9672,-15586190.0,729.5733,-2151.327,154671.0,142.9926,72237.05,15588283.732119972
PART_001_R158G218B229A255,9673,-15586560.0,-644.2589,-1903.002,147852.9,170.835,56329.86,15587695.567217708
PART_001_R158G218B229A255,9674,-15586120.0,466.8386,-1664.996,144589.9,24.07629,30400.83,15587621.92085432
PART_001_R158G218B229A255,9675,-15586440.0,-480.7298,-1677.513,143390.7,0.009282003,0.05791531,15587339.653351765
PART_001_R158G218B229A255,9676,-15586120.0,466.838,-1664.99,144589.9,-24.05628,-30400.71,15587621.922851074
PART_001_R158G218B229A255,9677,-15586560.0,-644.2607,-1902.994,147853.0,-170.8203,-56329.76,15587695.572077598
PART_001_R158G218B229A255,9678,-15586190.0,729.5737,-2151.316,154671.1,-142.9799,-72236.96,15588283.739542611
PART_001_R158G218B229A255,9679,-15587220.0,-1408.217,-3125.487,164997.0,-730.5744,-70946.47,15588057.629903013
PART_001_R158G218B229A255,9680,-15586940.0,1096.615,-4771.024,192001.1,-1186.514,-32815.51,15588755.018664327
PART_003_R247G182B210A255,9681,15268840.0,-1074.248,4673.581,192001.1,1162.298,-32815.53,15270768.586417336
PART_000_R31G119B180A255,9682,15269110.0,1379.518,3061.79,164997.0,715.6714,-70946.52,15270058.4877145
PART_000_R31G119B180A255,9683,15268110.0,-714.7139,2107.344,154671.0,140.0734,-72237.06,15270276.703206908
PART_000_R31G119B180A255,9684,15268470.0,631.1341,1864.238,147852.9,167.3526,-56329.88,15269681.693285557
PART_000_R31G119B180A255,9685,15268040.0,-457.3529,1630.935,144589.9,23.58606,-30400.84,15269597.968205335
PART_000_R31G119B180A255,9686,15268350.0,470.9358,1643.345,143390.7,0.01347861,-0.08103638,15269312.851934109
PART_000_R31G119B180A255,9687,15268040.0,-457.3529,1630.93,144589.9,-23.56379,30400.69,15269597.969808446
PART_000_R31G119B180A255,9688,15268470.0,631.1298,1864.223,147853.0,-167.3306,56329.74,15269681.704288086
PART_000_R31G119B180A255,9689,15268110.0,-714.7225,2107.333,154671.1,-140.0612,72236.95,15270276.714481985
PART_000_R31G119B180A255,9690,15269110.0,1379.499,3061.772,164997.0,-715.6631,70946.45,15270058.505233891
PART_000_R31G119B180A255,9691,15268840.0,-1074.268,4673.576,192001.1,-1162.3,32815.5,15270768.598725574
PART_003_R247G182B210A255,9692,12212810.0,-1559.825,-2408.703,522768.7,-755.3826,-12172.53,12248326.702723935
PART_003_R247G182B210A255,9693,12214640.0,953.7407,616.8758,466110.4,736.2076,-33337.53,12240643.734296853
PART_000_R31G119B180A255,9694,12214700.0,394.313,1372.484,435090.6,526.299,-40755.34,12237246.912909105
PART_000_R31G119B180A255,9695,12214470.0,-57.56592,1122.58,417103.3,154.6604,-33724.44,12235424.295888739
PART_000_R31G119B180A255,9696,12214680.0,358.059,1345.15,407187.7,129.0482,-18846.82,12234217.422148835
PART_000_R31G119B180A255,9697,12214440.0,-177.0146,1160.63,404161.0,0.03579025,-0.07497686,12233992.403460175
PART_000_R31G119B180A255,9698,12214680.0,358.0606,1345.151,407187.7,-128.9831,18846.68,12234217.420201898
PART_000_R31G119B180A255,9699,12214470.0,-57.56042,1122.582,417103.3,-154.6014,33724.31,12235424.29106788
PART_000_R31G119B180A255,9700,12214700.0,394.3248,1372.489,435090.6,-526.258,40755.23,12237246.90342045
PART_000_R31G119B180A255,9701,12214640.0,953.7578,616.8839,466110.5,-736.1817,33337.46,12240643.73257168
PART_002_R214G39B40A255,9702,12212810.0,-1559.817,-2408.697,522768.8,755.3896,12172.5,12248326.708459305
PART_003_R247G182B210A255,9703,9160735.0,-893.8513,1335.487,764228.0,80.49053,-6642.092,9255662.563446218
PART_003_R247G182B210A255,9704,9160296.0,-294.6664,-593.6174,701009.6,-805.2139,-16755.42,9240900.79860885
PART_003_R247G182B210A255,9705,9160882.0,715.7992,173.3757,657568.4,319.165,-21367.88,9231043.953770062
PART_000_R31G119B180A255,9706,9160931.0,216.3744,819.1437,630704.8,85.62648,-19071.35,9225379.548986994
PART_000_R31G119B180A255,9707,9160847.0,137.2905,644.9105,615893.4,69.4579,-10890.92,9222379.431107903
PART_000_R31G119B180A255,9708,9160981.0,237.7157,951.7395,611096.7,0.05258251,-0.06177367,9221333.66559304
PART_000_R31G119B180A255,9709,9160847.0,137.2915,644.9123,615893.4,-69.35958,10890.8,9222379.429289985
PART_000_R31G119B180A255,9710,9160931.0,216.3753,819.1478,630704.9,-85.53837,19071.24,9225379.56632999
PART_000_R31G119B180A255,9711,9160882.0,715.7951,173.3757,657568.5,-319.0995,21367.79,9231043.976542756
PART_002_R214G39B40A255,9712,9160296.0,-294.6774,-593.6185,701009.7,805.2564,16755.36,9240900.827048702
PART_002_R214G39B40A255,9713,9160734.0,-893.8788,1335.479,764228.1,-80.47868,6642.071,9255661.616022384
PART_003_R247G182B210A255,9714,6106596.0,-646.2243,-757.2576,932913.8,-320.4824,-3075.394,6317444.013429977
PART_003_R247G182B210A255,9715,6107189.0,-34.27135,426.7989,865939.5,25.78257,-8493.756,6288491.911928661
PART_003_R247G182B210A255,9716,6107058.0,11.58627,-14.65451,817671.8,-610.8429,-10884.44,6269154.185680683
PART_003_R247G182B210A255,9717,6107238.0,421.3986,120.6118,785365.0,94.6472,-9832.577,6256654.90167803
PART_000_R31G119B180A255,9718,6107285.0,145.6713,537.3802,767156.4,-92.53437,-5811.846,6249835.749625269
PART_000_R31G119B180A255,9719,6107233.0,204.1006,322.3658,761253.2,0.06486131,-0.04408705,6247687.495916387
PART_000_R31G119B180A255,9720,6107285.0,145.6734,537.3823,767156.4,92.65659,5811.76,6249835.747338798
PART_000_R31G119B180A255,9721,6107238.0,421.4044,120.6164,785365.0,-94.53625,9832.501,6256654.896239141
PART_002_R214G39B40A255,9722,6107058.0,11.59719,-14.64886,817671.9,610.929,10884.38,6269154.216450906
PART_002_R214G39B40A255,9723,6107189.0,-34.25737,426.8069,865939.6,-25.72287,8493.715,6288491.942399337
PART_002_R214G39B40A255,9724,6106596.0,-646.2197,-757.2508,932913.9,320.5026,3075.379,6317444.052202526
PART_003_R247G182B210A255,9725,3053544.0,-293.217,335.4683,1032769.0,-42.35261,-1354.28,3538904.232993566
PART_003_R247G182B210A255,9726,3053415.0,-131.9755,-215.5494,964427.4,-619.9193,-3495.953,3480632.526276453
PART_003_R247G182B210A255,9727,3053606.0,139.1563,92.18253,913527.7,-43.09243,-4584.914,3439108.146963817
PART_003_R247G182B210A255,9728,3053586.0,53.5187,117.0659,878889.4,-481.7522,-4176.464,3411928.975236786
PART_003_R247G182B210A255,9729,3053618.0,195.3372,71.93888,858767.3,8.366412,-2459.796,3396502.4273216077
PART_000_R31G119B180A255,9730,3053642.0,73.96861,266.7827,852242.5,0.07238654,-0.02291437,3391554.3376130383
PART_000_R31G119B180A255,9731,3053618.0,195.3381,71.93986,858767.3,-8.229548,2459.751,3396502.4263777663
PART_002_R214G39B40A255,9732,3053586.0,53.51925,117.0673,878889.5,481.8771,4176.424,3411929.0515481844
PART_002_R214G39B40A255,9733,3053606.0,139.1525,92.18152,913527.8,43.19006,4584.882,3439108.2286635893
PART_002_R214G39B40A255,9734,3053415.0,-131.9878,-215.5534,964427.5,619.9863,3495.932,3480632.6165240793
PART_002_R214G39B40A255,9735,3053544.0,-293.2414,335.4607,1032769.0,42.37397,1354.272,3538904.2467928934
PART_003_R247G182B210A255,9736,-0.008182332,-0.000342968,0.0008286414,1065912.0,-249.071,0.0007588565,1846213.7908002662
PART_003_R247G182B210A255,9737,-0.0003106272,0.01619523,0.004120689,997062.0,-104.8178,0.001552311,1726962.0518390997
PART_003_R247G182B210A255,9738,0.007305078,0.03952479,0.01666487,945572.4,-662.8501,0.001744208,1637779.8414426912
PART_003_R247G182B210A255,9739,0.01222491,0.05387877,0.01868028,910068.4,-40.59925,0.00143383,1576284.7087314457
PART_003_R247G182B210A255,9740,0.01526503,0.06300452,0.02547529,889485.7,-275.3328,0.0008717568,1540634.4988146683
PART_003_R247G182B210A255,9741,0.01577701,0.06367007,0.02234073,882690.3,0.07492772,-5.754132e-05,1528864.4469482207
PART_002_R214G39B40A255,9742,0.01520945,0.06300305,0.02546753,889485.7,275.4746,-0.0007603455,1540634.4988907126
PART_002_R214G39B40A255,9743,0.01239014,0.05501925,0.01910086,910068.5,40.72923,-0.001544873,1576284.8819465858
PART_002_R214G39B40A255,9744,0.008169721,0.04483525,0.0186897,945572.5,662.953,-0.001757446,1637780.0147726773
PART_002_R214G39B40A255,9745,0.002353269,0.02939694,0.00942194,997062.1,104.8905,-0.001651996,1726962.2250574217
PART_002_R214G39B40A255,9746,-0.003931744,0.01973001,0.008788845,1065912.0,249.096,-0.0006313862,1846213.7908103848
PART_003_R247G182B210A255,9747,-3053544.0,293.2268,-335.4514,1032769.0,-42.35268,1354.281,3538904.2445127396
PART_003_R247G182B210A255,9748,-3053415.0,131.9387,215.5216,964427.4,-619.9193,3495.957,3480632.4979516002
PART_003_R247G182B210A255,9749,-3053606.0,-139.2267,-92.19988,913527.7,-43.09233,4584.919,3439108.108028938
PART_003_R247G182B210A255,9750,-3053586.0,-53.63047,-117.1242,878889.4,-481.7522,4176.467,3411928.8991451105
PART_003_R247G182B210A255,9751,-3053618.0,-195.4536,-71.97514,858767.3,8.366428,2459.798,3396502.358706823
PART_001_R158G218B229A255,9752,-3053642.0,-74.09946,-266.8488,852242.5,0.07238611,0.02269986,3391554.2489516316
PART_001_R158G218B229A255,9753,-3053618.0,-195.4545,-71.97594,858767.3,-8.229574,-2459.753,3396502.357843898
PART_002_R214G39B40A255,9754,-3053586.0,-53.63334,-117.1268,878889.5,481.8771,-4176.428,3411928.973885058
PART_002_R214G39B40A255,9755,-3053606.0,-139.2335,-92.20256,913527.8,43.18997,-4584.886,3439108.1833809335
PART_002_R214G39B40A255,9756,-3053415.0,131.9245,215.5147,964427.5,619.9862,-3495.936,3480632.571793786
PART_002_R214G39B40A255,9757,-3053544.0,293.211,-335.4594,1032769.0,42.37395,-1354.274,3538904.2342365826
PART_003_R247G182B210A255,9758,-6106596.0,646.2389,757.3056,932913.8,-320.4822,3075.396,6317444.0436921315
PART_003_R247G182B210A255,9759,-6107189.0,34.28764,-426.8361,865939.5,25.78267,8493.758,6288491.901786461
PART_003_R247G182B210A255,9760,-6107058.0,-11.4899,14.73253,817671.8,-610.8429,10884.44,6269154.27062112
PART_003_R247G182B210A255,9761,-6107238.0,-421.3078,-120.6197,785365.0,94.64725,9832.58,6256654.942146944
PART_001_R158G218B229A255,9762,-6107285.0,-145.5272,-537.2848,767156.4,-92.53438,5811.848,6249835.8666452505
PART_001_R158G218B229A255,9763,-6107233.0,-203.9906,-322.3666,761253.3,0.06489221,0.04376725,6247687.5858418755
PART_001_R158G218B229A255,9764,-6107285.0,-145.5292,-537.2865,767156.4,92.65653,-5811.761,6249835.864600256
PART_001_R158G218B229A255,9765,-6107238.0,-421.3116,-120.6244,785365.0,-94.53623,-9832.504,6256654.937635247
PART_002_R214G39B40A255,9766,-6107058.0,-11.48966,14.73218,817671.9,610.9289,-10884.38,6269154.309408501
PART_002_R214G39B40A255,9767,-6107189.0,34.29957,-426.8355,865939.6,-25.72292,-8493.718,6288491.949019125
PART_002_R214G39B40A255,9768,-6106596.0,646.2754,757.3167,932913.9,320.5025,-3075.381,6317444.110983087
PART_003_R247G182B210A255,9769,-9160735.0,893.8945,-1335.375,764228.0,80.49025,6642.094,9255662.640240358
PART_003_R247G182B210A255,9770,-9160296.0,294.5951,593.4975,701009.6,-805.2139,16755.42,9240900.703836959
PART_003_R247G182B210A255,9771,-9160882.0,-715.836,-173.3005,657568.4,319.1652,21367.88,9231043.972828163
PART_001_R158G218B229A255,9772,-9160931.0,-216.5231,-819.2912,630704.8,85.62644,19071.35,9225379.401929874
PART_001_R158G218B229A255,9773,-9160847.0,-137.3728,-644.854,615893.4,69.45794,10890.92,9222379.418288792
PART_001_R158G218B229A255,9774,-9160981.0,-237.8847,-951.8945,611096.7,0.05261598,0.06148554,9221333.504662946
PART_001_R158G218B229A255,9775,-9160847.0,-137.3736,-644.8551,615893.4,-69.35969,-10890.8,9222379.416917834
PART_001_R158G218B229A255,9776,-9160931.0,-216.5269,-819.2974,630704.9,-85.53828,-19071.24,9225379.416790433
PART_001_R158G218B229A255,9777,-9160882.0,-715.8421,-173.3026,657568.5,-319.0998,-21367.8,9231043.989567706
PART_002_R214G39B40A255,9778,-9160296.0,294.5785,593.4859,701009.7,805.2564,-16755.36,9240900.712301964
PART_002_R214G39B40A255,9779,-9160734.0,893.8822,-1335.38,764228.1,-80.47866,-6642.074,9255661.666685235
PART_003_R247G182B210A255,9780,-12212810.0,1559.878,2408.868,522768.7,-755.3818,12172.53,12248326.8114312
PART_003_R247G182B210A255,9781,-12214640.0,-953.7656,-617.0286,466110.4,736.2075,33337.53,12240643.645638648
PART_001_R158G218B229A255,9782,-12214700.0,-394.1722,-1372.293,435090.6,526.2989,40755.34,12237247.07848844
PART_001_R158G218B229A255,9783,-12214470.0,57.61376,-1122.703,417103.3,154.6605,33724.44,12235424.258387096
PART_001_R158G218B229A255,9784,-12214680.0,-357.8677,-1344.943,407187.7,129.0481,18846.83,12234217.621012203
PART_001_R158G218B229A255,9785,-12214440.0,177.081,-1160.746,404161.0,0.03580363,0.07490922,12233992.378715767
PART_001_R158G218B229A255,9786,-12214680.0,-357.8689,-1344.943,407187.7,-128.9831,-18846.68,12234217.619717851
PART_001_R158G218B229A255,9787,-12214470.0,57.60995,-1122.706,417103.3,-154.6015,-33724.31,12235424.253910828
PART_001_R158G218B229A255,9788,-12214700.0,-394.172,-1372.292,435090.6,-526.2579,-40755.24,12237247.078082824
PART_001_R158G218B229A255,9789,-12214640.0,-953.7571,-617.0305,466110.5,-736.1817,-33337.46,12240643.659778295
PART_002_R214G39B40A255,9790,-12212810.0,1559.913,2408.882,522768.8,755.3892,-12172.51,12248326.848609023
PART_003_R247G182B210A255,9791,-15268840.0,1074.327,-4673.373,192001.1,1162.295,32815.53,15270768.729845202
PART_001_R158G218B229A255,9792,-15269110.0,-1379.627,-3062.004,164997.0,715.6731,70946.53,15270058.326396314
PART_001_R158G218B229A255,9793,-15268110.0,714.7096,-2107.174,154671.0,140.0724,72237.07,15270276.786159104
PART_001_R158G218B229A255,9794,-15268470.0,-631.3246,-1864.475,147852.9,167.3532,56329.88,15269681.479572821
PART_001_R158G218B229A255,9795,-15268040.0,457.3017,-1630.784,144589.9,23.58576,30400.84,15269598.018077584
PART_001_R158G218B229A255,9796,-15268350.0,-471.1478,-1643.589,143390.7,0.01347188,0.08127626,15269312.623966115
PART_001_R158G218B229A255,9797,-15268040.0,457.302,-1630.778,144589.9,-23.56348,-30400.7,15269598.020390263
PART_001_R158G218B229A255,9798,-15268470.0,-631.3231,-1864.462,147853.0,-167.3312,-56329.74,15269681.488175688
PART_001_R158G218B229A255,9799,-15268110.0,714.7077,-2107.164,154671.1,-140.0602,-72236.96,15270276.791683944
PART_001_R158G218B229A255,9800,-15269110.0,-1379.637,-3061.998,164997.0,-715.6647,-70946.45,15270058.323279157
PART_001_R158G218B229A255,9801,-15268840.0,1074.305,-4673.379,192001.1,-1162.298,-32815.51,15270768.715715852
PART_003_R247G182B210A255,9802,14950740.0,-1051.885,4576.154,192001.0,1138.089,-32815.53,14952785.379122393
PART_000_R31G119B180A255,9803,14951010.0,1350.833,2998.075,164997.0,700.762,-70946.53,14952072.095532246
PART_000_R31G119B180A255,9804,14950020.0,-699.7679,2063.41,154671.0,137.1603,-72237.08,14952262.093520124
PART_000_R31G119B180A255,9805,14950380.0,618.1295,1825.505,147852.9,163.8673,-56329.9,14951669.878638063
PART_000_R31G119B180A255,9806,14949950.0,-447.7078,1596.946,144589.9,23.10023,-30400.87,14951565.763235403
PART_000_R31G119B180A255,9807,14950260.0,461.298,1609.226,143390.7,0.01470986,-0.1001691,14951287.701535098
PART_000_R31G119B180A255,9808,14949950.0,-447.7073,1596.936,144589.9,-23.06741,30400.66,14951565.76670251
PART_000_R31G119B180A255,9809,14950380.0,618.1363,1825.498,147853.0,-163.8438,56329.72,14951669.879668627
PART_000_R31G119B180A255,9810,14950020.0,-699.7559,2063.394,154671.1,-137.1388,72236.93,14952262.096444529
PART_000_R31G119B180A255,9811,14951010.0,1350.857,2998.08,164997.0,-700.7548,70946.44,14952072.07975167
PART_000_R31G119B180A255,9812,14950730.0,-1051.869,4576.152,192001.1,-1138.082,32815.5,14952775.37831849
PART_003_R247G182B210A255,9813,11958380.0,-1527.361,-2358.591,522768.7,-739.6457,-12172.53,11994566.840958748
PART_003_R247G182B210A255,9814,11960170.0,933.8579,604.077,466110.4,720.8701,-33337.54,11986758.760714673
PART_000_R31G119B180A255,9815,11960230.0,385.9927,1343.797,435090.6,515.3415,-40755.35,11983292.940145368
PART_000_R31G119B180A255,9816,11960000.0,-56.46053,1099.213,417103.3,151.4442,-33724.45,11981421.76567456
PART_000_R31G119B180A255,9817,11960210.0,350.4352,1317.013,407187.7,126.3709,-18846.84,11980198.359643336
PART_000_R31G119B180A255,9818,11959980.0,-173.4463,1136.461,404161.0,0.04271619,-0.09530288,11979968.440039963
PART_000_R31G119B180A255,9819,11960210.0,350.4357,1317.014,407187.7,-126.2847,18846.66,11980198.358042438
PART_000_R31G119B180A255,9820,11960000.0,-56.46235,1099.213,417103.3,-151.3743,33724.29,11981421.765229309
PART_000_R31G119B180A255,9821,11960230.0,385.9855,1343.796,435090.6,-515.2862,40755.21,11983292.942801997
PART_000_R31G119B180A255,9822,11960170.0,933.8423,604.0717,466110.5,-720.8427,33337.45,11986758.782050377
PART_002_R214G39B40A255,9823,11958380.0,-1527.387,-2358.596,522768.8,739.6547,12172.5,11994566.869398873
PART_003_R247G182B210A255,9824,8969886.0,-875.2383,1307.61,764228.0,78.81998,-6642.095,9066821.15337903
PART_003_R247G182B210A255,9825,8969456.0,-288.4709,-581.1828,701009.6,-788.4318,-16755.43,9051741.76531357
PART_003_R247G182B210A255,9826,8970031.0,700.9461,169.741,657568.4,312.5277,-21367.89,9041692.60188967
PART_000_R31G119B180A255,9827,8970078.0,212.003,802.1757,630704.8,83.85338,-19071.36,9035909.43890246
PART_000_R31G119B180A255,9828,8969996.0,134.5454,631.4757,615893.4,68.02597,-10890.93,9032844.91492891
PART_000_R31G119B180A255,9829,8970128.0,232.9248,932.0177,611096.7,0.06399373,-0.08008787,9031780.82601211
PART_000_R31G119B180A255,9830,8969996.0,134.5483,631.4794,615893.4,-67.8995,10890.78,9032844.911106626
PART_000_R31G119B180A255,9831,8970078.0,212.0101,802.1807,630704.9,-83.74581,19071.22,9035909.452947272
PART_000_R31G119B180A255,9832,8970031.0,700.9615,169.7517,657568.5,-312.4405,21367.78,9041692.609972896
PART_002_R214G39B40A255,9833,8969456.0,-288.4539,-581.1748,701009.7,788.4851,16755.35,9051741.77572991
PART_002_R214G39B40A255,9834,8969886.0,-875.2352,1307.621,764228.1,-78.79787,6642.068,9066821.17163261
PART_003_R247G182B210A255,9835,5979375.0,-632.7819,-741.5201,932913.8,-313.8039,-3075.395,6194526.332413476
PART_003_R247G182B210A255,9836,5979956.0,-33.58378,417.9304,865939.4,25.2494,-8493.762,6165009.743966139
PART_003_R247G182B210A255,9837,5979828.0,11.24758,-14.41786,817671.7,-598.1046,-10884.44,6145281.066073545
PART_003_R247G182B210A255,9838,5980004.0,412.5148,118.0893,785364.9,92.68813,-9832.589,6132532.845768066
PART_000_R31G119B180A255,9839,5980050.0,142.4859,526.0966,767156.4,-90.5886,-5811.857,6125576.564837512
PART_000_R31G119B180A255,9840,5979999.0,199.7211,315.6312,761253.2,0.07893283,-0.05689141,6123383.510263462
PART_000_R31G119B180A255,9841,5980050.0,142.4877,526.0993,767156.4,90.74441,5811.748,6125576.562337798
PART_000_R31G119B180A255,9842,5980004.0,412.5162,118.0921,785365.0,-92.55346,9832.49,6132532.881657647
PART_002_R214G39B40A255,9843,5979828.0,11.24461,-14.4163,817671.9,598.2151,10884.37,6145281.146253984
PART_002_R214G39B40A255,9844,5979956.0,-33.59744,417.9255,865939.6,-25.18065,8493.709,6165009.837024089
PART_002_R214G39B40A255,9845,5979375.0,-632.8129,-741.5267,932913.9,313.8299,3075.376,6194526.395718803
PART_003_R247G182B210A255,9846,2989928.0,-287.1146,328.4569,1032769.0,-41.46266,-1354.281,3484162.316652122
PART_003_R247G182B210A255,9847,2989802.0,-129.1827,-211.0237,964427.4,-606.9941,-3495.957,3424957.165136744
PART_003_R247G182B210A255,9848,2989989.0,136.3308,90.27442,913527.7,-42.17835,-4584.918,3382753.0700883768
PART_003_R247G182B210A255,9849,2989970.0,52.52818,114.6946,878889.4,-471.7008,-4176.47,3355117.4864974315
PART_003_R247G182B210A255,9850,2990001.0,191.3938,70.47405,858767.3,8.212067,-2459.802,3339428.8436355903
PART_000_R31G119B180A255,9851,2990025.0,72.57466,261.3011,852242.5,0.08789223,-0.02946251,3334396.961184434
PART_000_R31G119B180A255,9852,2990001.0,191.3954,70.47564,858767.3,-8.038077,2459.745,3339428.8420803235
PART_002_R214G39B40A255,9853,2989970.0,52.53265,114.6972,878889.5,471.8528,4176.419,3355117.561807352
PART_002_R214G39B40A255,9854,2989989.0,136.3411,90.27975,913527.8,42.30574,4584.877,3382753.144035488
PART_002_R214G39B40A255,9855,2989802.0,-129.1672,-211.0166,964427.6,607.0777,3495.929,3424957.3241836685
PART_002_R214G39B40A255,9856,2989928.0,-287.1013,328.4667,1032769.0,41.49678,1354.271,3484162.306729672
PART_003_R247G182B210A255,9857,-0.006955883,0.0002705756,-0.0007493581,1065912.0,-243.8794,0.0008142539,1846213.7887209826
PART_003_R247G182B210A255,9858,-0.008903054,-0.02048863,-0.005833104,997062.0,-102.6291,0.002178683,1726962.0514447317
PART_003_R247G182B210A255,9859,-0.01141199,-0.04870787,-0.0211479,945572.4,-649.0262,0.002278674,1637779.8248330897
PART_003_R247G182B210A255,9860,-0.01237681,-0.065964,-0.02432309,910068.4,-39.73865,0.00174882,1576284.7086656534
PART_003_R247G182B210A255,9861,-0.01293052,-0.07646776,-0.03209,889485.7,-269.5762,0.000799274,1540634.4957605798
PART_003_R247G182B210A255,9862,-0.01259262,-0.07726753,-0.02871661,882690.3,0.0909742,8.870927e-05,1528864.4469482237
PART_002_R214G39B40A255,9863,-0.01285407,-0.07643117,-0.0320791,889485.7,269.7562,-0.0009640064,1540634.495855099
PART_002_R214G39B40A255,9864,-0.01258716,-0.06729454,-0.02479466,910068.5,39.8961,-0.001586786,1576284.8818826657
PART_002_R214G39B40A255,9865,-0.01243301,-0.05506196,-0.02357658,945572.6,649.1574,-0.002277611,1637780.1713991628
PART_002_R214G39B40A255,9866,-0.01219043,-0.03666248,-0.01231397,997062.1,102.7129,-0.002040391,1726962.224664758
PART_002_R214G39B40A255,9867,-0.01225175,-0.02455275,-0.01056971,1065912.0,243.9117,-0.0009725494,1846213.7887337839
PART_003_R247G182B210A255,9868,-2989928.0,287.1013,-328.4773,1032769.0,-41.4625,1354.283,3484162.3021956906
PART_003_R247G182B210A255,9869,-2989802.0,129.2263,211.0558,964427.4,-606.9941,3495.96,3424957.1981886034
PART_003_R247G182B210A255,9870,-2989989.0,-136.2444,-90.25403,913527.7,-42.1783,4584.922,3382753.117297601
PART_003_R247G182B210A255,9871,-2989970.0,-52.3908,-114.626,878889.4,-471.7007,4176.473,3355117.5782882725
PART_003_R247G182B210A255,9872,-2990001.0,-191.2496,-70.43088,858767.3,8.212091,2459.803,3339428.9275134667
PART_001_R158G218B229A255,9873,-2990025.0,-72.41326,-261.2229,852242.5,0.08788269,0.02975563,3334397.0686091892
PART_001_R158G218B229A255,9874,-2990001.0,-191.2513,-70.43273,858767.3,-8.038087,-2459.747,3339428.925799246
PART_002_R214G39B40A255,9875,-2989970.0,-52.39256,-114.6273,878889.5,471.8527,-4176.422,3355117.65538495
PART_002_R214G39B40A255,9876,-2989989.0,-136.2421,-90.25504,913527.8,42.30571,-4584.881,3382753.1987220715
PART_002_R214G39B40A255,9877,-2989802.0,129.2431,211.0621,964427.6,607.0775,-3495.932,3424957.377183027
PART_002_R214G39B40A255,9878,-2989928.0,287.1375,-328.4679,1032769.0,41.49673,-1354.273,3484162.3217544495
PART_003_R247G182B210A255,9879,-5979375.0,632.7652,741.4626,932913.8,-313.804,3075.397,6194526.296600393
PART_003_R247G182B210A255,9880,-5979956.0,33.56351,-417.8866,865939.4,25.24955,8493.768,6165009.755398907
PART_003_R247G182B210A255,9881,-5979828.0,-11.36512,14.32177,817671.7,-598.1044,10884.45,6145280.962187505
PART_003_R247G182B210A255,9882,-5980004.0,-412.6256,-118.082,785364.9,92.68815,9832.593,6132532.795330928
PART_001_R158G218B229A255,9883,-5980050.0,-142.6604,-526.2138,767156.4,-90.58854,5811.858,6125576.422460612
PART_001_R158G218B229A255,9884,-5979999.0,-199.8543,-315.6323,761253.3,0.07887289,0.05726899,6123383.481982506
PART_001_R158G218B229A255,9885,-5980050.0,-142.6624,-526.217,767156.4,90.74444,-5811.75,6125576.419622097
PART_001_R158G218B229A255,9886,-5980004.0,-412.6292,-118.0847,785365.0,-92.55359,-9832.494,6132532.830196761
PART_002_R214G39B40A255,9887,-5979828.0,-11.37556,14.31375,817671.9,598.215,-10884.37,6145281.032647345
PART_002_R214G39B40A255,9888,-5979956.0,33.5455,-417.8922,865939.6,-25.18086,-8493.713,6165009.8279959895
PART_002_R214G39B40A255,9889,-5979375.0,632.7453,741.4469,932913.9,313.8299,-3075.378,6194526.32457323
PART_003_R247G182B210A255,9890,-8969886.0,875.1856,-1307.746,764228.0,78.82047,6642.096,9066821.060057247
PART_003_R247G182B210A255,9891,-8969456.0,288.5584,581.3285,701009.6,-788.4316,16755.43,9051741.880860567
PART_003_R247G182B210A255,9892,-8970031.0,-700.8999,-169.8335,657568.4,312.5276,21367.89,9041692.578918142
PART_001_R158G218B229A255,9893,-8970078.0,-211.8195,-801.9959,630704.8,83.85347,19071.37,9035909.619282352
PART_001_R158G218B229A255,9894,-8969996.0,-134.443,-631.5448,615893.4,68.02595,10890.93,9032844.931469431
PART_001_R158G218B229A255,9895,-8970128.0,-232.7164,-931.8283,611096.7,0.06393058,0.08031585,9031781.023542654
PART_001_R158G218B229A255,9896,-8969996.0,-134.4462,-631.5493,615893.4,-67.89937,-10890.78,9032844.927101016
PART_001_R158G218B229A255,9897,-8970078.0,-211.8234,-801.9985,630704.9,-83.746,-19071.23,9035909.636106646
PART_001_R158G218B229A255,9898,-8970031.0,-700.9033,-169.842,657568.5,-312.4403,-21367.78,9041692.594044313
PART_002_R214G39B40A255,9899,-8969456.0,288.575,581.3361,701009.7,788.4848,-16755.36,9051741.915709527
PART_002_R214G39B40A255,9900,-8969886.0,875.2314,-1307.742,764228.1,-78.79803,-6642.069,9066821.109924592
PART_003_R247G182B210A255,9901,-11958380.0,1527.299,2358.389,522768.7,-739.6466,12172.53,11994566.709328493
PART_003_R247G182B210A255,9902,-11960170.0,-933.8264,-603.89,466110.4,720.8704,33337.55,11986758.869802026
PART_001_R158G218B229A255,9903,-11960230.0,-386.165,-1344.032,435090.6,515.3417,40755.35,11983292.736905795
PART_001_R158G218B229A255,9904,-11960000.0,56.40263,-1099.062,417103.3,151.4441,33724.46,11981421.812208634
PART_001_R158G218B229A255,9905,-11960210.0,-350.6688,-1317.267,407187.7,126.3709,18846.84,11980198.116268305
PART_001_R158G218B229A255,9906,-11959980.0,173.3663,-1136.318,404161.0,0.04267486,0.09514444,11979968.471467853
PART_001_R158G218B229A255,9907,-11960210.0,-350.6696,-1317.267,407187.7,-126.2847,-18846.66,11980198.115016717
PART_001_R158G218B229A255,9908,-11960000.0,56.40257,-1099.061,417103.3,-151.3742,-33724.3,11981421.811323978
PART_001_R158G218B229A255,9909,-11960230.0,-386.1721,-1344.038,435090.7,-515.2862,-40755.22,11983292.739927685
PART_001_R158G218B229A255,9910,-11960170.0,-933.8423,-603.8923,466110.5,-720.8429,-33337.46,11986758.871632827
PART_002_R214G39B40A255,9911,-11958380.0,1527.271,2358.369,522768.8,739.6551,-12172.5,11994566.698382804
PART_003_R247G182B210A255,9912,-14950740.0,1051.788,-4576.41,192001.0,1138.093,32815.53,14952785.202713134
PART_001_R158G218B229A255,9913,-14951010.0,-1350.698,-2997.814,164997.0,700.7599,70946.54,14952072.293621028
PART_001_R158G218B229A255,9914,-14950020.0,699.7733,-2063.619,154671.0,137.1616,72237.08,14952261.991769783
PART_001_R158G218B229A255,9915,-14950380.0,-617.8955,-1825.214,147852.9,163.8665,56329.9,14951670.141090486
PART_001_R158G218B229A255,9916,-14949950.0,447.7705,-1597.13,144589.9,23.10055,30400.87,14951565.702619594
PART_001_R158G218B229A255,9917,-14950260.0,-461.0381,-1608.926,143390.7,0.01472588,0.09957672,14951287.981444161
PART_001_R158G218B229A255,9918,-14949950.0,447.7697,-1597.121,144589.9,-23.06777,-30400.66,14951565.705436867
PART_001_R158G218B229A255,9919,-14950380.0,-617.8991,-1825.204,147853.0,-163.843,-56329.73,14951670.145333566
PART_001_R158G218B229A255,9920,-14950020.0,699.774,-2063.601,154671.1,-137.1401,-72236.93,14952262.002044234
PART_001_R158G218B229A255,9921,-14951010.0,-1350.687,-2997.804,164997.0,-700.7528,-70946.45,14952072.302836709
PART_001_R158G218B229A255,9922,-14950740.0,1051.823,-4576.395,192001.1,-1138.085,-32815.5,14952785.23136522
PART_003_R247G182B210A255,9923,14632630.0,-1029.502,4478.828,192001.0,1113.867,-32815.54,14634795.563643115
PART_000_R31G119B180A255,9924,14632900.0,1322.033,2934.231,164997.0,685.855,-70946.55,14634078.757575959
PART_000_R31G119B180A255,9925,14631940.0,-684.962,2019.517,154671.0,134.2404,-72237.09,14634260.178298287
PART_000_R31G119B180A255,9926,14632290.0,604.8119,1786.571,147852.9,160.3869,-56329.93,14633660.595128912
PART_000_R31G119B180A255,9927,14631870.0,-438.3387,1562.957,144589.9,22.60966,-30400.89,14633545.677983608
PART_000_R31G119B180A255,9928,14632160.0,451.2816,1574.877,143390.7,0.02143639,-0.1390733,14633254.724786915
PART_000_R31G119B180A255,9929,14631870.0,-438.3384,1562.95,144589.9,-22.57547,30400.64,14633545.679774085
PART_000_R31G119B180A255,9930,14632290.0,604.8047,1786.547,147853.0,-160.3513,56329.69,14633660.610983554
PART_000_R31G119B180A255,9931,14631940.0,-684.9736,2019.504,154671.1,-134.2213,72236.91,14634260.191100264
PART_000_R31G119B180A255,9932,14632900.0,1322.006,2934.201,164997.0,-685.8405,70946.42,14634078.7841765
PART_000_R31G119B180A255,9933,14632630.0,-1029.524,4478.827,192001.1,-1113.871,32815.49,14634795.5787464
PART_003_R247G182B210A255,9934,11703940.0,-1494.828,-2308.348,522768.7,-723.905,-12172.54,11740827.705281941
PART_003_R247G182B210A255,9935,11705690.0,914.0139,591.1874,466110.4,705.5419,-33337.55,11732888.475815222
PART_000_R31G119B180A255,9936,11705760.0,377.897,1315.294,435090.6,504.3828,-40755.37,11729360.328690616
PART_000_R31G119B180A255,9937,11705530.0,-55.13607,1075.829,417103.3,148.2347,-33724.48,11727438.920119736
PART_000_R31G119B180A255,9938,11705740.0,343.1677,1289.107,407187.7,123.6902,-18846.87,11726197.782318544
PART_000_R31G119B180A255,9939,11705510.0,-169.6009,1112.298,404161.0,0.05585404,-0.1247671,11725952.814426215
PART_000_R31G119B180A255,9940,11705740.0,343.17,1289.108,407187.7,-123.5897,18846.63,11726197.779511072
PART_000_R31G119B180A255,9941,11705530.0,-55.12807,1075.833,417103.3,-148.1413,33724.26,11727438.912229428
PART_000_R31G119B180A255,9942,11705760.0,377.914,1315.302,435090.7,-504.3177,40755.2,11729360.325563911
PART_000_R31G119B180A255,9943,11705690.0,914.037,591.199,466110.5,-705.4985,33337.43,11732888.46939412
PART_002_R214G39B40A255,9944,11703940.0,-1494.823,-2308.342,522768.8,723.917,12172.49,11740827.713002698
PART_003_R247G182B210A255,9945,8779038.0,-856.618,1279.831,764228.0,77.13946,-6642.098,8878066.340635441
PART_003_R247G182B210A255,9946,8778617.0,-282.4001,-568.8789,701009.6,-771.6503,-16755.44,8862656.324501675
PART_003_R247G182B210A255,9947,8779179.0,685.9472,166.1354,657568.4,305.8856,-21367.9,8852404.32632413
PART_000_R31G119B180A255,9948,8779225.0,207.3306,785.011,630704.8,82.08478,-19071.38,8846498.568018952
PART_000_R31G119B180A255,9949,8779145.0,131.5312,618.0197,615893.4,66.59188,-10890.95,8843366.820680844
PART_000_R31G119B180A255,9950,8779274.0,227.7782,912.0822,611096.7,0.08098778,-0.100648,8842282.681897236
PART_000_R31G119B180A255,9951,8779145.0,131.5325,618.0222,615893.4,-66.44135,10890.76,8843366.818089401
PART_000_R31G119B180A255,9952,8779225.0,207.332,785.0173,630704.9,-81.94766,19071.21,8846498.5844837
PART_000_R31G119B180A255,9953,8779179.0,685.9419,166.1353,657568.5,-305.7836,21367.76,8852404.350261474
PART_002_R214G39B40A255,9954,8778617.0,-282.4132,-568.8795,701009.7,771.7183,16755.34,8862656.354466444
PART_002_R214G39B40A255,9955,8779037.0,-856.6528,1279.82,764228.1,-77.12128,6642.064,8878065.40020922
PART_003_R247G182B210A255,9956,5852155.0,-619.297,-725.7103,932913.7,-307.1223,-3075.399,6071787.411308729
PART_003_R247G182B210A255,9957,5852723.0,-32.83409,409.0254,865939.4,24.72742,-8493.769,6041683.08673943
PART_003_R247G182B210A255,9958,5852598.0,11.11778,-14.04181,817671.7,-585.366,-10884.46,6021547.802065863
PART_003_R247G182B210A255,9959,5852770.0,403.8683,115.6047,785364.9,90.73568,-9832.601,6008540.637290969
PART_000_R31G119B180A255,9960,5852815.0,139.6297,514.9981,767156.4,-88.64471,-5811.872,6001441.527246031
PART_000_R31G119B180A255,9961,5852765.0,195.631,308.9561,761253.2,0.09896764,-0.07092027,5999201.971289298
PART_000_R31G119B180A255,9962,5852814.0,139.6327,515.001,767156.4,88.83022,5811.734,6001440.5487962365
PART_000_R31G119B180A255,9963,5852770.0,403.8766,115.6114,785365.1,-90.56474,9832.478,6008540.707799075
PART_002_R214G39B40A255,9964,5852597.0,11.13328,-14.03382,817671.9,585.4989,10884.36,6021546.899678802
PART_002_R214G39B40A255,9965,5852722.0,-32.81516,409.0369,865939.6,-24.63245,8493.702,6041682.189020356
PART_002_R214G39B40A255,9966,5852154.0,-619.2934,-725.7015,932914.0,307.1542,3075.374,6071786.579643563
PART_003_R247G182B210A255,9967,2926313.0,-281.0065,321.4881,1032769.0,-40.58263,-1354.282,3429727.4693565974
PART_003_R247G182B210A255,9968,2926189.0,-126.4908,-206.5695,964427.4,-594.07,-3495.96,3369563.0350577617
PART_003_R247G182B210A255,9969,2926372.0,133.3317,88.33173,913527.7,-41.26974,-4584.924,3326659.897288441
PART_003_R247G182B210A255,9970,2926353.0,51.25628,112.18,878889.4,-461.644,-4176.476,3298553.670674513
PART_003_R247G182B210A255,9971,2926384.0,187.1606,68.92804,858767.3,8.055272,-2459.81,3282595.9098669323
PART_000_R31G119B180A255,9972,2926407.0,70.85009,255.658,852242.5,0.1098125,-0.03657449,3277476.822614466
PART_000_R31G119B180A255,9973,2926384.0,187.1619,68.92937,858767.3,-7.848803,2459.738,3282595.908531323
PART_002_R214G39B40A255,9974,2926353.0,51.25722,112.1822,878889.5,461.8349,4176.413,3298553.7490566648
PART_002_R214G39B40A255,9975,2926372.0,133.3265,88.33013,913527.8,41.41885,4584.872,3326659.982452163
PART_002_R214G39B40A255,9976,2926189.0,-126.5078,-206.5751,964427.6,594.1744,3495.925,3369563.216547948
PART_002_R214G39B40A255,9977,2926312.0,-281.0406,321.477,1032769.0,40.61493,1354.269,3429726.635413689
PART_003_R247G182B210A255,9978,-0.0142587,-0.008025175,0.0003462305,1065912.0,-238.6852,0.0008797802,1846213.7866844875
PART_003_R247G182B210A255,9979,-0.001254142,0.0187866,0.007314829,997061.9,-100.4279,0.001485615,1726961.877851425
PART_003_R247G182B210A255,9980,0.01031163,0.05465793,0.02588664,945572.4,-635.2021,0.001413369,1637779.808573303
PART_003_R247G182B210A255,9981,0.01739244,0.07717794,0.03104595,910068.4,-38.87088,0.0009151388,1576284.7086007397
PART_003_R247G182B210A255,9982,0.02127559,0.09039752,0.04055744,889485.7,-263.8219,0.0006134884,1540634.4927722013
PART_003_R247G182B210A255,9983,0.02198158,0.09177973,0.03724867,882690.3,0.1134219,-0.000130688,1528864.4469482284
PART_002_R214G39B40A255,9984,0.02118294,0.09034332,0.04054176,889485.7,264.0355,-0.0003515414,1540634.492881978
PART_002_R214G39B40A255,9985,0.01763504,0.07863011,0.03155654,910068.5,39.06935,-0.001144137,1576284.8818205404
PART_002_R214G39B40A255,9986,0.01150138,0.06221233,0.02878713,945572.6,635.3594,-0.001376418,1637780.1551664325
PART_002_R214G39B40A255,9987,0.002758936,0.03850977,0.01522085,997062.2,100.5418,-0.001675339,1726962.3974865468
PART_002_R214G39B40A255,9988,-0.007716313,0.02258579,0.01248429,1065912.0,238.724,-0.0006789192,1846213.7866995374
PART_003_R247G182B210A255,9989,-2926313.0,281.0106,-321.4639,1032769.0,-40.58268,1354.284,3429727.4814293045
PART_003_R247G182B210A255,9990,-2926189.0,126.4268,206.5312,964427.4,-594.0699,3495.964,3369562.9906485113
PART_003_R247G182B210A255,9991,-2926372.0,-133.4473,-88.35716,913527.7,-41.26954,4584.928,3326659.835278115
PART_003_R247G182B210A255,9992,-2926353.0,-51.43139,-112.261,878889.4,-461.6439,4176.478,3298553.5570783494
PART_003_R247G182B210A255,9993,-2926384.0,-187.343,-68.97825,858767.3,8.055278,2459.811,3282595.8061931636
PART_001_R158G218B229A255,9994,-2926407.0,-71.05213,-255.7484,852242.5,0.1098283,0.03617357,3277476.692059514
PART_001_R158G218B229A255,9995,-2926384.0,-187.3441,-68.97921,858767.3,-7.848859,-2459.739,3282595.8051116215
PART_002_R214G39B40A255,9996,-2926353.0,-51.43539,-112.2648,878889.5,461.8349,-4176.416,3298553.633397293
PART_002_R214G39B40A255,9997,-2926372.0,-133.4571,-88.36058,913527.8,41.41864,-4584.875,3326659.911632614
PART_002_R214G39B40A255,9998,-2926189.0,126.4041,206.5204,964427.6,594.1742,-3495.929,3369563.147778554
PART_002_R214G39B40A255,9999,-2926313.0,280.9833,-321.4765,1032769.0,40.61482,-1354.271,3429727.4643914825
PART_003_R247G182B210A255,10000,-5852155.0,619.3067,725.7791,932913.7,-307.1219,3075.401,6071787.449147056
PART_003_R247G182B210A255,10001,-5852723.0,32.85102,-409.0776,865939.4,24.72772,8493.77,6041683.069664546
PART_003_R247G182B210A255,10002,-5852598.0,-10.98036,14.15984,817671.7,-585.3659,10884.46,6021547.926207155
PART_003_R247G182B210A255,10003,-5852770.0,-403.7365,-115.6088,785364.9,90.73581,9832.602,6008540.699482933
PART_001_R158G218B229A255,10004,-5852814.0,-139.42,-514.8506,767156.4,-88.64479,5811.874,6001440.726241649
PART_001_R158G218B229A255,10005,-5852765.0,-195.4708,-308.9479,761253.3,0.0990523,0.07047666,5999202.091500365
PART_001_R158G218B229A255,10006,-5852814.0,-139.4229,-514.8528,767156.4,88.8301,-5811.734,6001440.723356398
PART_001_R158G218B229A255,10007,-5852770.0,-403.7424,-115.6159,785365.1,-90.56471,-9832.479,6008540.7709649615
PART_002_R214G39B40A255,10008,-5852597.0,-10.97982,14.1597,817671.9,585.4987,-10884.36,6021547.035429891
PART_002_R214G39B40A255,10009,-5852722.0,32.87062,-409.0765,865939.6,-24.63264,-8493.704,6041682.196715742
PART_002_R214G39B40A255,10010,-5852154.0,619.3659,725.798,932913.9,307.1539,-3075.376,6071786.615005436
PART_003_R247G182B210A255,10011,-8779038.0,856.6782,-1279.663,764228.0,77.13911,6642.1,8878066.453445045
PART_003_R247G182B210A255,10012,-8778617.0,282.2891,568.7017,701009.6,-771.6501,16755.44,8862656.181759512
PART_003_R247G182B210A255,10013,-8779179.0,-686.0074,-166.0199,657568.4,305.886,21367.91,8852404.353824276
PART_001_R158G218B229A255,10014,-8779225.0,-207.5576,-785.2257,630704.8,82.08471,19071.38,8846498.348860197
PART_001_R158G218B229A255,10015,-8779145.0,-131.6583,-617.9279,615893.4,66.59183,10890.96,8843366.803187683
PART_001_R158G218B229A255,10016,-8779274.0,-228.0343,-912.3052,611096.7,0.08107884,0.1005407,8842282.44406775
PART_001_R158G218B229A255,10017,-8779145.0,-131.6592,-617.9295,615893.4,-66.44151,-10890.76,8843366.801204532
PART_001_R158G218B229A255,10018,-8779225.0,-207.5628,-785.2348,630704.9,-81.94745,-19071.21,8846498.362050174
PART_001_R158G218B229A255,10019,-8779179.0,-686.0165,-166.0226,657568.6,-305.7841,-21367.77,8852404.391518101
PART_002_R214G39B40A255,10020,-8778617.0,282.2609,568.6833,701009.7,771.7182,-16755.34,8862656.181859296
PART_002_R214G39B40A255,10021,-8779037.0,856.6526,-1279.672,764228.1,-77.12136,-6642.067,8878065.473263146
PART_003_R247G182B210A255,10022,-11703940.0,1494.902,2308.597,522768.7,-723.9037,12172.54,11740827.866309548
PART_003_R247G182B210A255,10023,-11705690.0,-914.0543,-591.4157,466110.4,705.5417,33337.55,11732888.34178137
PART_001_R158G218B229A255,10024,-11705760.0,-377.6866,-1315.002,435090.6,504.3826,40755.38,11729360.579466376
PART_001_R158G218B229A255,10025,-11705530.0,55.20654,-1076.008,417103.3,148.2347,33724.48,11727438.86597652
PART_001_R158G218B229A255,10026,-11705740.0,-342.8818,-1288.786,407187.7,123.69,18846.87,11726198.085215887
PART_001_R158G218B229A255,10027,-11705510.0,169.6983,-1112.463,404161.0,0.0559005,0.1253022,11725952.780708017
PART_001_R158G218B229A255,10028,-11705740.0,-342.8838,-1288.786,407187.7,-123.5897,-18846.64,11726198.083105417
PART_001_R158G218B229A255,10029,-11705530.0,55.2006,-1076.012,417103.3,-148.1412,-33724.26,11727438.859114388
PART_001_R158G218B229A255,10030,-11705760.0,-377.6864,-1315.002,435090.7,-504.3176,-40755.21,11729360.588913973
PART_001_R158G218B229A255,10031,-11705690.0,-914.0391,-591.4178,466110.5,-705.4985,-33337.43,11732888.35920277
PART_002_R214G39B40A255,10032,-11703940.0,1494.962,2308.621,522768.8,723.9163,-12172.5,11740827.921418155
PART_003_R247G182B210A255,10033,-14632630.0,1029.622,-4478.513,192001.1,1113.863,32815.54,14634795.784965185
PART_001_R158G218B229A255,10034,-14632900.0,-1322.197,-2934.55,164997.0,685.8576,70946.55,14634078.516143704
PART_001_R158G218B229A255,10035,-14631940.0,684.9551,-2019.255,154671.0,134.2388,72237.1,14634260.305933021
PART_001_R158G218B229A255,10036,-14632290.0,-605.0991,-1786.92,147852.9,160.3878,56329.93,14633660.277088469
PART_001_R158G218B229A255,10037,-14631870.0,438.2622,-1562.717,144589.9,22.60919,30400.89,14633545.759688642
PART_001_R158G218B229A255,10038,-14632160.0,-451.6,-1575.231,143390.7,0.0214069,0.1402256,14633254.388637392
PART_001_R158G218B229A255,10039,-14631870.0,438.2623,-1562.71,144589.9,-22.57494,-30400.65,14633545.761741454
PART_001_R158G218B229A255,10040,-14632290.0,-605.0956,-1786.898,147853.0,-160.3522,-56329.68,14633660.28997803
PART_001_R158G218B229A255,10041,-14631940.0,684.9516,-2019.245,154671.1,-134.2197,-72236.92,14634260.309685169
PART_001_R158G218B229A255,10042,-14632900.0,-1322.213,-2934.538,164997.0,-685.843,-70946.42,14634078.512249058
PART_001_R158G218B229A255,10043,-14632630.0,1029.581,-4478.529,192001.1,-1113.868,-32815.5,14634795.756197773
PART_003_R247G182B210A255,10044,14314530.0,-1007.107,4381.446,192001.0,1089.664,-32815.55,14316819.442985376
PART_000_R31G119B180A255,10045,14314790.0,1293.356,2870.488,164997.0,670.9444,-70946.57,14316088.432929782
PART_000_R31G119B180A255,10046,14313850.0,-669.9605,1975.636,154671.0,131.3314,-72237.13,14316250.985161787
PART_000_R31G119B180A255,10047,14314190.0,591.8558,1747.829,147852.9,156.9003,-56329.95,14315643.462235248
PART_000_R31G119B180A255,10048,14313780.0,-428.6088,1529.027,144589.9,22.12703,-30400.94,14315517.49996605
PART_000_R31G119B180A255,10049,14314070.0,441.707,1540.759,143390.7,0.02159672,-0.1662776,14315233.402736481
PART_000_R31G119B180A255,10050,14313780.0,-428.6086,1529.013,144589.9,-22.07614,30400.59,14315517.50463345
PART_000_R31G119B180A255,10051,14314190.0,591.8669,1747.823,147853.0,-156.8653,56329.67,14315643.459476681
PART_000_R31G119B180A255,10052,14313850.0,-669.9447,1975.611,154671.1,-131.2961,72236.88,14316250.98921099
PART_000_R31G119B180A255,10053,14314790.0,1293.39,2870.5,164997.0,-670.9331,70946.41,14316088.407553062
PART_000_R31G119B180A255,10054,14314530.0,-1007.094,4381.435,192001.1,-1089.651,32815.49,14316819.445586596
PART_003_R247G182B210A255,10055,11449510.0,-1462.377,-2258.221,522768.7,-708.1691,-12172.54,11487131.476467254
PART_003_R247G182B210A255,10056,11451220.0,894.0985,578.3584,466110.4,690.2022,-33337.57,11479054.447214762
PART_000_R31G119B180A255,10057,11451280.0,369.5431,1286.617,435090.6,493.4284,-40755.39,11475440.951368146
PART_000_R31G119B180A255,10058,11451070.0,-54.09903,1052.42,417103.3,145.0184,-33724.51,11473487.309814198
PART_000_R31G119B180A255,10059,11451260.0,335.4835,1260.97,407187.7,121.0172,-18846.9,11472207.572782217
PART_000_R31G119B180A255,10060,11451040.0,-166.1135,1088.083,404161.0,0.06318943,-0.1539563,11471957.08264302
PART_000_R31G119B180A255,10061,11451260.0,335.484,1260.97,407187.7,-120.8869,18846.6,11472207.571050005
PART_000_R31G119B180A255,10062,11451070.0,-54.10188,1052.421,417103.3,-144.9136,33724.24,11473487.308352798
PART_000_R31G119B180A255,10063,11451280.0,369.5332,1286.614,435090.7,-493.3419,40755.17,11475440.966823833
PART_000_R31G119B180A255,10064,11451220.0,894.0801,578.3523,466110.5,-690.1597,33337.42,11479054.470301053
PART_002_R214G39B40A255,10065,11449510.0,-1462.405,-2258.225,522768.8,708.1839,12172.49,11487131.505912706
PART_003_R247G182B210A255,10066,8588189.0,-837.9824,1251.976,764227.9,75.47434,-6642.104,8689401.78506971
PART_003_R247G182B210A255,10067,8587778.0,-276.1874,-556.4535,701009.5,-754.8656,-16755.45,8673647.943441821
PART_003_R247G182B210A255,10068,8588327.0,671.1423,162.5353,657568.4,299.2535,-21367.92,8663184.158585228
PART_000_R31G119B180A255,10069,8588373.0,203.011,768.0498,630704.8,80.31328,-19071.41,8657151.277388094
PART_000_R31G119B180A255,10070,8588294.0,128.8611,604.6315,615893.4,65.16455,-10890.98,8653948.496390382
PART_000_R31G119B180A255,10071,8588420.0,223.0502,892.3715,611096.7,0.09382584,-0.1270675,8652843.264710778
PART_000_R31G119B180A255,10072,8588294.0,128.8652,604.6369,615893.4,-64.97649,10890.74,8653948.49076632
PART_000_R31G119B180A255,10073,8588372.0,203.0207,768.0566,630704.9,-80.15357,19071.18,8657150.29753633
PART_000_R31G119B180A255,10074,8588327.0,671.164,162.5512,657568.6,-299.12,21367.74,8663184.184145363
PART_002_R214G39B40A255,10075,8587777.0,-276.1659,-556.4433,701009.8,754.9479,16755.33,8673647.009664975
PART_002_R214G39B40A255,10076,8588188.0,-837.9842,1251.991,764228.2,-75.43777,6642.06,8689400.869274097
PART_003_R247G182B210A255,10077,5724934.0,-605.8667,-709.9627,932913.7,-300.4437,-3075.401,5949236.53436483
PART_003_R247G182B210A255,10078,5725490.0,-32.17845,400.1365,865939.4,24.19201,-8493.778,5918521.668622303
PART_003_R247G182B210A255,10079,5725367.0,10.73821,-13.80792,817671.7,-572.6243,-10884.47,5897962.5538027575
PART_003_R247G182B210A255,10080,5725536.0,394.9172,113.0476,785364.9,88.77746,-9832.618,5884686.770242943
PART_000_R31G119B180A255,10081,5725579.0,136.379,503.7028,767156.4,-86.69417,-5811.888,5877438.084132132
PART_000_R31G119B180A255,10082,5725531.0,191.1736,302.1833,761253.2,0.1145057,-0.08900348,5875151.051280247
PART_000_R31G119B180A255,10083,5725579.0,136.3813,503.7065,767156.4,86.92315,5811.718,5877438.080715716
PART_000_R31G119B180A255,10084,5725536.0,394.9191,113.0512,785365.1,-88.58024,9832.463,5884686.846856964
PART_002_R214G39B40A255,10085,5725367.0,10.73451,-13.80573,817671.9,572.79,10884.34,5897962.637045979
PART_002_R214G39B40A255,10086,5725489.0,-32.19521,400.1296,865939.7,-24.08958,8493.693,5918520.844024489
PART_002_R214G39B40A255,10087,5724934.0,-605.9046,-709.9707,932914.0,300.4839,3075.371,5949236.69754239
PART_003_R247G182B210A255,10088,2862697.0,-274.9017,314.4817,1032769.0,-39.68723,-1354.284,3375612.8329899837
PART_003_R247G182B210A255,10089,2862577.0,-123.6818,-202.0401,964427.3,-581.1419,-3495.965,3314464.850548951
PART_003_R247G182B210A255,10090,2862756.0,130.5481,86.44601,913527.6,-40.34979,-4584.931,3270842.6781369983
PART_003_R247G182B210A255,10091,2862737.0,50.32168,109.8299,878889.3,-451.5911,-4176.486,3242251.812283608
PART_003_R247G182B210A255,10092,2862767.0,183.2846,67.49679,858767.2,7.905911,-2459.818,3226015.8798537
PART_000_R31G119B180A255,10093,2862790.0,69.52229,250.2018,852242.5,0.1265987,-0.04572477,3220807.8439470557
PART_000_R31G119B180A255,10094,2862767.0,183.2869,67.49901,858767.3,-7.652092,2459.731,3226015.9575075908
PART_002_R214G39B40A255,10095,2862737.0,50.32763,109.8331,878889.5,451.8122,4176.406,3242251.970671711
PART_002_R214G39B40A255,10096,2862756.0,130.5624,86.45359,913527.9,40.53984,4584.867,3270842.919665143
PART_002_R214G39B40A255,10097,2862576.0,-123.6604,-202.0303,964427.6,581.2668,3495.921,3314464.2351685897
PART_002_R214G39B40A255,10098,2862697.0,-274.8833,314.4958,1032769.0,39.74086,1354.268,3375612.819191298
PART_003_R247G182B210A255,10099,-0.008675486,-0.008112254,0.0003072005,1065912.0,-233.4932,0.0005871257,1846213.7846926677
PART_003_R247G182B210A255,10100,-0.01131781,-0.0391414,-0.008372892,997061.9,-98.24173,0.001521873,1726961.8774741797
PART_003_R247G182B210A255,10101,-0.01591104,-0.0805828,-0.02886511,945572.4,-621.3747,0.0009227737,1637779.7926598182
PART_003_R247G182B210A255,10102,-0.01871603,-0.1062034,-0.03367777,910068.3,-38.00964,0.0003574739,1576284.535332652
PART_003_R247G182B210A255,10103,-0.02037747,-0.1205282,-0.04264579,889485.6,-258.0605,-0.0002615409,1540634.3166396604
PART_003_R247G182B210A255,10104,-0.02042631,-0.1218987,-0.03851626,882690.3,0.1307172,0.0002120207,1528864.4469482342
PART_002_R214G39B40A255,10105,-0.02024629,-0.120467,-0.04264156,889485.7,258.3223,-0.0001042544,1540634.4899763572
PART_002_R214G39B40A255,10106,-0.01897916,-0.1078669,-0.03421951,910068.5,38.23781,1.444882e-05,1576284.8817593688
PART_002_R214G39B40A255,10107,-0.01724061,-0.08960887,-0.0323321,945572.6,621.569,-0.0009969733,1637780.1392910923
PART_002_R214G39B40A255,10108,-0.01619091,-0.06328924,-0.0180027,997062.2,98.36485,-0.001243593,1726962.3971104447
PART_002_R214G39B40A255,10109,-0.01675032,-0.04597999,-0.01469372,1065912.0,233.5423,-0.0008367709,1846213.784711299
PART_003_R247G182B210A255,10110,-2862697.0,274.8619,-314.5102,1032769.0,-39.68691,1354.285,3375612.804028903
PART_003_R247G182B210A255,10111,-2862577.0,123.7298,202.0875,964427.3,-581.1416,3495.967,3314464.8917541276
PART_003_R247G182B210A255,10112,-2862756.0,-130.4304,-86.40787,913527.6,-40.34965,4584.931,3270842.746331916
PART_003_R247G182B210A255,10113,-2862737.0,-50.12802,-109.7215,878889.3,-451.591,4176.486,3242251.945632519
PART_003_R247G182B210A255,10114,-2862767.0,-183.0789,-67.41988,858767.2,7.90595,2459.817,3226016.0052365353
PART_001_R158G218B229A255,10115,-2862789.0,-69.29275,-250.0766,852242.5,0.1265453,0.04631109,3220807.1128040226
PART_001_R158G218B229A255,10116,-2862767.0,-183.0814,-67.42262,858767.3,-7.652078,-2459.731,3226016.082573252
PART_002_R214G39B40A255,10117,-2862737.0,-50.13051,-109.7228,878889.5,451.812,-4176.405,3242252.1063829637
PART_002_R214G39B40A255,10118,-2862756.0,-130.4269,-86.40966,913527.9,40.53972,-4584.868,3270842.9981871448
PART_002_R214G39B40A255,10119,-2862576.0,123.7568,202.098,964427.6,581.2664,-3495.923,3314464.3060416775
PART_002_R214G39B40A255,10120,-2862697.0,274.919,-314.4951,1032769.0,39.74074,-1354.269,3375612.83463153
PART_003_R247G182B210A255,10121,-5724934.0,605.8304,709.881,932913.7,-300.4437,3075.401,5949236.477582172
PART_003_R247G182B210A255,10122,-5725490.0,32.13507,-400.0714,865939.4,24.19239,8493.782,5918521.6791390525
PART_003_R247G182B210A255,10123,-5725367.0,-10.92476,13.67165,817671.7,-572.6239,10884.47,5897962.397116193
PART_003_R247G182B210A255,10124,-5725536.0,-395.0948,-113.0318,785364.9,88.77744,9832.619,5884686.691546329
PART_001_R158G218B229A255,10125,-5725579.0,-136.6483,-503.8649,767156.4,-86.69405,5811.887,5877437.874009059
PART_001_R158G218B229A255,10126,-5725531.0,-191.3826,-302.176,761253.3,0.1143354,0.08952801,5875150.991871232
PART_001_R158G218B229A255,10127,-5725579.0,-136.6508,-503.8695,767156.4,86.92329,-5811.718,5877437.870059894
PART_001_R158G218B229A255,10128,-5725536.0,-395.0994,-113.0348,785365.1,-88.58053,-9832.463,5884686.767133914
PART_002_R214G39B40A255,10129,-5725367.0,-10.94028,13.65995,817671.9,572.7898,-10884.34,5897962.466414873
PART_002_R214G39B40A255,10130,-5725489.0,32.10471,-400.0797,865939.7,-24.09014,-8493.696,5918520.824392434
PART_002_R214G39B40A255,10131,-5724934.0,605.7906,709.8546,932914.0,300.4838,-3075.372,5949236.586818879
PART_003_R247G182B210A255,10132,-8588189.0,837.8919,-1252.181,764227.9,75.4752,6642.104,8689401.639064876
PART_003_R247G182B210A255,10133,-8587777.0,276.3096,556.6735,701009.5,-754.8651,16755.45,8673647.122710465
PART_003_R247G182B210A255,10134,-8588327.0,-671.0787,-162.6672,657568.4,299.2533,21367.92,8663184.124723328
PART_001_R158G218B229A255,10135,-8588373.0,-202.7412,-767.7712,630704.8,80.31327,19071.41,8657151.549393853
PART_001_R158G218B229A255,10136,-8588294.0,-128.7126,-604.7222,615893.4,65.1645,10890.98,8653948.525079768
PART_001_R158G218B229A255,10137,-8588420.0,-222.7439,-892.0755,611096.7,0.09364255,0.1269046,8652843.563599804
PART_001_R158G218B229A255,10138,-8588294.0,-128.7172,-604.7286,615893.4,-64.97616,-10890.73,8653948.51867369
PART_001_R158G218B229A255,10139,-8588372.0,-202.7468,-767.7748,630704.9,-80.15388,-19071.18,8657150.57316294
PART_001_R158G218B229A255,10140,-8588327.0,-671.0831,-162.6796,657568.6,-299.1198,-21367.74,8663184.16059249
PART_002_R214G39B40A255,10141,-8587777.0,276.3385,556.6865,701009.8,754.9473,-16755.33,8673647.215518277
PART_002_R214G39B40A255,10142,-8588188.0,837.9683,-1252.172,764228.2,-75.4381,-6642.06,8689400.772002963
PART_003_R247G182B210A255,10143,-11449510.0,1462.281,2257.917,522768.7,-708.1704,12172.54,11487131.277079318
PART_003_R247G182B210A255,10144,-11451220.0,-894.0537,-578.0731,466110.4,690.2027,33337.57,11479054.611859014
PART_001_R158G218B229A255,10145,-11451280.0,-369.8056,-1286.963,435090.6,493.4285,40755.39,11475440.6477857
PART_001_R158G218B229A255,10146,-11451070.0,54.00935,-1052.18,417103.3,145.0181,33724.51,11473487.384800224
PART_001_R158G218B229A255,10147,-11451260.0,-335.8366,-1261.337,407187.7,121.0172,18846.9,11472207.21341554
PART_001_R158G218B229A255,10148,-11451040.0,165.9922,-1087.851,404161.0,0.06310338,0.1527231,11471957.137860911
PART_001_R158G218B229A255,10149,-11451260.0,-335.8374,-1261.337,407187.7,-120.8867,-18846.59,11472207.211484302
PART_001_R158G218B229A255,10150,-11451070.0,54.00989,-1052.181,417103.3,-144.9134,-33724.24,11473487.382185966
PART_001_R158G218B229A255,10151,-11451280.0,-369.8161,-1286.971,435090.7,-493.3419,-40755.17,11475440.647575
PART_001_R158G218B229A255,10152,-11451220.0,-894.0822,-578.079,466110.5,-690.1601,-33337.43,11479054.605656432
PART_002_R214G39B40A255,10153,-11449510.0,1462.228,2257.884,522768.8,708.1844,-12172.49,11487131.247710586
PART_003_R247G182B210A255,10154,-14314530.0,1006.958,-4381.831,192001.0,1089.67,32815.55,14316819.176127529
PART_001_R158G218B229A255,10155,-14314790.0,-1293.156,-2870.089,164997.0,670.9412,70946.57,14316088.732342172
PART_001_R158G218B229A255,10156,-14313850.0,669.9681,-1975.943,154671.0,131.3332,72237.13,14316250.835537372
PART_001_R158G218B229A255,10157,-14314190.0,-591.504,-1747.376,147852.9,156.8991,56329.95,14315643.86455534
PART_001_R158G218B229A255,10158,-14313780.0,428.7017,-1529.289,144589.9,22.1274,30400.94,14315517.415465964
PART_001_R158G218B229A255,10159,-14314070.0,-441.3176,-1540.289,143390.7,0.02167832,0.1641497,14315233.832367163
PART_001_R158G218B229A255,10160,-14313780.0,428.701,-1529.274,144589.9,-22.07666,-30400.59,14315517.420383172
PART_001_R158G218B229A255,10161,-14314190.0,-591.511,-1747.368,147853.0,-156.864,-56329.67,14315643.86484634
PART_001_R158G218B229A255,10162,-14313850.0,669.9704,-1975.913,154671.1,-131.298,-72236.87,14316250.850984557
PART_001_R158G218B229A255,10163,-14314790.0,-1293.138,-2870.08,164997.0,-670.9301,-70946.42,14316088.743608095
PART_001_R158G218B229A255,10164,-14314530.0,1007.022,-4381.8,192001.1,-1089.655,-32815.48,14316819.227162149
PART_003_R247G182B210A255,10165,13996430.0,-984.7633,4284.074,192001.0,1065.434,-32815.55,13998847.268754099
PART_000_R31G119B180A255,10166,13996690.0,1264.543,2806.675,164997.0,656.0404,-70946.6,13998111.547223523
PART_000_R31G119B180A255,10167,13995770.0,-655.2174,1931.696,154671.0,128.4075,-72237.16,13998254.964262068
PART_000_R31G119B180A255,10168,13996100.0,578.478,1708.908,147852.9,153.4237,-56330.01,13997639.219313184
PART_000_R31G119B180A255,10169,13995700.0,-419.337,1494.986,144589.9,21.63398,-30400.97,13997501.864364985
PART_000_R31G119B180A255,10170,13995980.0,431.6123,1506.412,143390.7,0.03189561,-0.2289621,13997214.58344401
PART_000_R31G119B180A255,10171,13995700.0,-419.336,1494.982,144589.9,-21.58625,30400.57,13997501.863257755
PART_000_R31G119B180A255,10172,13996100.0,578.4658,1708.872,147853.0,-153.3693,56329.61,13997639.241745064
PART_000_R31G119B180A255,10173,13995770.0,-655.2318,1931.685,154671.1,-128.3805,72236.86,13998254.975629369
PART_000_R31G119B180A255,10174,13996690.0,1264.507,2806.627,164997.0,-656.0159,70946.38,13998111.585863646
PART_000_R31G119B180A255,10175,13996430.0,-984.7787,4284.085,192001.1,-1065.443,32815.48,13998847.274585338
PART_003_R247G182B210A255,10176,11195080.0,-1429.82,-2207.987,522768.6,-692.426,-12172.55,11233470.18904119
PART_003_R247G182B210A255,10177,11196750.0,874.2942,565.4978,466110.3,674.8804,-33337.59,11225248.422533937
PART_000_R31G119B180A255,10178,11196810.0,361.4936,1258.115,435090.5,482.4699,-40755.42,11221555.860295951
PART_000_R31G119B180A255,10179,11196600.0,-52.69351,1029.085,417103.3,141.8137,-33724.55,11219548.029926423
PART_000_R31G119B180A255,10180,11196790.0,328.2947,1233.079,407187.7,118.3352,-18846.94,11218248.360892316
PART_000_R31G119B180A255,10181,11196570.0,-162.1721,1063.974,404161.0,0.08061815,-0.1973943,11217982.0979288
PART_000_R31G119B180A255,10182,11196790.0,328.2977,1233.082,407187.7,-118.1931,18846.57,11218248.356028957
PART_000_R31G119B180A255,10183,11196600.0,-52.68249,1029.089,417103.4,-141.676,33724.2,11219548.030423177
PART_000_R31G119B180A255,10184,11196810.0,361.5166,1258.128,435090.7,-482.374,40755.15,11221555.862645809
PART_000_R31G119B180A255,10185,11196750.0,874.3222,565.5132,466110.5,-674.8111,33337.4,11225248.424099393
PART_002_R214G39B40A255,10186,11195070.0,-1429.824,-2207.981,522768.8,692.4455,12172.48,11233460.248297699
PART_003_R247G182B210A255,10187,8397340.0,-819.3988,1224.176,764227.9,73.78807,-6642.108,8500834.571704255
PART_003_R247G182B210A255,10188,8396938.0,-270.1487,-544.1451,701009.5,-738.0836,-16755.46,8484721.115061054
PART_003_R247G182B210A255,10189,8397476.0,656.0821,158.8977,657568.4,292.6094,-21367.95,8474037.902645076
PART_000_R31G119B180A255,10190,8397520.0,198.2684,750.8747,630704.8,78.54791,-19071.43,8467870.391518075
PART_000_R31G119B180A255,10191,8397443.0,125.7545,591.1322,615893.4,63.72938,-10891.01,8464594.444445265
PART_000_R31G119B180A255,10192,8397566.0,217.8204,872.4224,611096.7,0.1144304,-0.1546991,8463467.226100361
PART_000_R31G119B180A255,10193,8397443.0,125.7558,591.1351,615893.4,-63.51902,10890.71,8464594.441199364
PART_000_R31G119B180A255,10194,8397520.0,198.27,750.8836,630704.9,-78.35103,19071.16,8467870.406827228
PART_000_R31G119B180A255,10195,8397475.0,656.0748,158.8965,657568.6,-292.4632,21367.72,8474036.960742963
PART_002_R214G39B40A255,10196,8396937.0,-270.1612,-544.1444,701009.8,738.1854,16755.32,8484720.204753397
PART_002_R214G39B40A255,10197,8397340.0,-819.4344,1224.164,764228.2,-73.76297,6642.055,8500834.67600362
PART_003_R247G182B210A255,10198,5597713.0,-592.3708,-694.1592,932913.6,-293.7604,-3075.406,5826886.3783398075
PART_003_R247G182B210A255,10199,5598257.0,-31.39676,391.2533,865939.3,23.67756,-8493.788,5795535.875468554
PART_003_R247G182B210A255,10200,5598137.0,10.65484,-13.42064,817671.7,-559.8853,-10884.49,5774536.408947297
PART_003_R247G182B210A255,10201,5598302.0,386.3462,110.6052,785364.9,86.82902,-9832.636,5760979.7310195835
PART_000_R31G119B180A255,10202,5598344.0,133.5995,492.629,767156.4,-84.752,-5811.91,5753576.11204655
PART_000_R31G119B180A255,10203,5598297.0,187.1719,295.5563,761253.3,0.1378149,-0.1070911,5751238.7075937735
PART_000_R31G119B180A255,10204,5598344.0,133.6033,492.6326,767156.5,85.00762,5811.7,5753576.147822182
PART_000_R31G119B180A255,10205,5598302.0,386.357,110.6141,785365.1,-86.58727,9832.449,5760979.802274759
PART_002_R214G39B40A255,10206,5598137.0,10.67532,-13.41037,817671.9,560.0736,10884.33,5774536.478151761
PART_002_R214G39B40A255,10207,5598256.0,-31.37304,391.2689,865939.7,-23.53644,8493.685,5795535.069392134
PART_002_R214G39B40A255,10208,5597713.0,-592.3704,-694.149,932914.0,293.8072,3075.368,5826886.565320484
PART_003_R247G182B210A255,10209,2799082.0,-268.8093,307.5097,1032769.0,-38.81305,-1354.286,3321835.77190191
PART_003_R247G182B210A255,10210,2798964.0,-121.0219,-197.5923,964427.3,-568.2179,-3495.971,3259676.207502522
PART_003_R247G182B210A255,10211,2799139.0,127.4897,84.48159,913527.6,-39.4447,-4584.94,3215314.4347658837
PART_003_R247G182B210A255,10212,2799120.0,48.97234,107.291,878889.3,-441.5316,-4176.495,3186224.647189913
PART_003_R247G182B210A255,10213,2799150.0,178.9628,65.91829,858767.2,7.746536,-2459.829,3169702.9438129663
PART_000_R31G119B180A255,10214,2799172.0,67.70869,244.531,852242.5,0.151514,-0.05461332,3164402.2748740865
PART_000_R31G119B180A255,10215,2799150.0,178.9643,65.91975,858767.3,-7.464802,2459.722,3169703.0235338747
PART_002_R214G39B40A255,10216,2799120.0,48.97346,107.2939,878889.5,441.7985,4176.4,3186224.810665826
PART_002_R214G39B40A255,10217,2799139.0,127.4824,84.47858,913527.9,39.65212,4584.861,3215314.694629055
PART_002_R214G39B40A255,10218,2798964.0,-121.0442,-197.6001,964427.7,568.3679,3495.918,3259676.575373042
PART_002_R214G39B40A255,10219,2799081.0,-268.8532,307.4938,1032769.0,38.85681,1354.267,3321834.95445315
PART_003_R247G182B210A255,10220,-0.01451756,-0.02840379,-0.0005889882,1065912.0,-228.2979,0.0001126242,1846213.782743427
PART_003_R247G182B210A255,10221,0.004750539,0.01548338,0.01322855,997061.8,-96.03274,-0.001128597,1726961.703896349
PART_003_R247G182B210A255,10222,0.02003341,0.07118216,0.04168427,945572.3,-607.5508,-0.002174845,1637779.603895407
PART_003_R247G182B210A255,10223,0.02802455,0.1066104,0.05323,910068.3,-37.13827,-0.002702956,1576284.535270339
PART_003_R247G182B210A255,10224,0.0314422,0.1259523,0.06716112,889485.6,-252.3089,-0.001341146,1540634.3137816417
PART_003_R247G182B210A255,10225,0.03182825,0.1285455,0.06430954,882690.3,0.1559477,-0.0002888304,1528864.446948241
PART_002_R214G39B40A255,10226,0.03128102,0.1258069,0.06717025,889485.7,252.5995,0.00195304,1540634.4871295718
PART_002_R214G39B40A255,10227,0.02838649,0.1084305,0.05377353,910068.5,37.41503,0.002213724,1576284.8817001348
PART_002_R214G39B40A255,10228,0.02163716,0.08189778,0.04586092,945572.6,607.7702,0.002372646,1637780.123754752
PART_002_R214G39B40A255,10229,0.01080289,0.04488828,0.02495138,997062.2,96.19869,0.0007674438,1726962.3967443777
PART_002_R214G39B40A255,10230,-0.004440511,0.01825941,0.01794694,1065912.0,228.3532,0.0002138631,1846213.7827639442
PART_003_R247G182B210A255,10231,-2799082.0,268.7897,-307.4747,1032769.0,-38.81308,1354.286,3321835.7783830212
PART_003_R247G182B210A255,10232,-2798964.0,120.9044,197.5415,964427.3,-568.2175,3495.97,3259676.13523965
PART_003_R247G182B210A255,10233,-2799139.0,-127.6856,-84.51603,913527.6,-39.44437,4584.938,3215314.3344998076
PART_003_R247G182B210A255,10234,-2799121.0,-49.25305,-107.3982,878889.3,-441.5315,4176.49,3186225.3552640975
PART_003_R247G182B210A255,10235,-2799150.0,-179.2546,-65.98177,858767.2,7.746501,2459.827,3169702.786948224
PART_001_R158G218B229A255,10236,-2799172.0,-68.02674,-244.6475,852242.5,0.1515522,0.05383279,3164402.0826789006
PART_001_R158G218B229A255,10237,-2799150.0,-179.2557,-65.98248,858767.3,-7.464916,-2459.718,3169702.867172249
PART_002_R214G39B40A255,10238,-2799120.0,-49.25818,-107.4036,878889.5,441.7984,-4176.396,3186224.637402178
PART_002_R214G39B40A255,10239,-2799139.0,-127.6995,-84.51965,913527.9,39.65167,-4584.857,3215314.5822411263
PART_002_R214G39B40A255,10240,-2798964.0,120.8674,197.5243,964427.7,568.3675,-3495.917,3259676.4669160736
PART_002_R214G39B40A255,10241,-2799081.0,268.7403,-307.4947,1032769.0,38.85655,-1354.267,3321834.906493197
PART_003_R247G182B210A255,10242,-5597713.0,592.3591,694.2578,932913.6,-293.7597,3075.407,5826886.4200886255
PART_003_R247G182B210A255,10243,-5598257.0,31.40429,-391.3246,865939.3,23.67829,8493.784,5795535.844656637
PART_003_R247G182B210A255,10244,-5598137.0,-10.46527,13.60202,817671.7,-559.8852,10884.48,5774536.588699887
PART_003_R247G182B210A255,10245,-5598302.0,-386.1604,-110.5948,785364.9,86.82927,9832.628,5760979.826297972
PART_001_R158G218B229A255,10246,-5598344.0,-133.3001,-492.3957,767156.3,-84.75224,5811.907,5753576.331189247
PART_001_R158G218B229A255,10247,-5598297.0,-186.9439,-295.5234,761253.2,0.1380031,0.106513,5751238.794863018
PART_001_R158G218B229A255,10248,-5598344.0,-133.3037,-492.3983,767156.4,85.00738,-5811.696,5753576.367545563
PART_001_R158G218B229A255,10249,-5598301.0,-386.1685,-110.6047,785365.1,-86.58717,-9832.442,5760978.926665087
PART_002_R214G39B40A255,10250,-5598136.0,-10.46283,13.60333,817671.9,560.0731,-10884.33,5774535.70523138
PART_002_R214G39B40A255,10251,-5598256.0,31.43783,-391.3219,865939.7,-23.53694,-8493.682,5795535.075079546
PART_002_R214G39B40A255,10252,-5597713.0,592.4547,694.2904,932914.0,293.8066,-3075.368,5826886.673745169
PART_003_R247G182B210A255,10253,-8397340.0,819.4773,-1223.925,764227.9,73.78769,6642.108,8500834.734413452
PART_003_R247G182B210A255,10254,-8396938.0,269.9715,543.8844,701009.5,-738.083,16755.46,8484720.898363631
PART_003_R247G182B210A255,10255,-8397476.0,-656.1838,-158.7168,657568.4,292.6098,21367.95,8474037.94189787
PART_001_R158G218B229A255,10256,-8397520.0,-198.6186,-751.1822,630704.8,78.54774,19071.42,8467870.065348906
PART_001_R158G218B229A255,10257,-8397443.0,-125.954,-590.9776,615893.4,63.72909,10891.01,8464594.422159715
PART_001_R158G218B229A255,10258,-8397566.0,-218.2118,-872.7362,611096.7,0.114665,0.1553058,8463466.876264108
PART_001_R158G218B229A255,10259,-8397443.0,-125.9545,-590.9793,615893.4,-63.51929,-10890.7,8464594.419867234
PART_001_R158G218B229A255,10260,-8397520.0,-198.6249,-751.1944,630704.9,-78.3505,-19071.15,8467870.076691438
PART_001_R158G218B229A255,10261,-8397475.0,-656.197,-158.7199,657568.6,-292.464,-21367.72,8474036.98770914
PART_002_R214G39B40A255,10262,-8396937.0,269.9225,543.8557,701009.8,738.1851,-16755.31,8484719.943708459
PART_002_R214G39B40A255,10263,-8397340.0,819.4207,-1223.941,764228.2,-73.7633,-6642.056,8500834.779336732
PART_003_R247G182B210A255,10264,-11195080.0,1429.922,2208.361,522768.6,-692.424,12172.55,11233470.42628013
PART_003_R247G182B210A255,10265,-11196750.0,-874.3615,-565.838,466110.3,674.8802,33337.58,11225248.219219519
PART_001_R158G218B229A255,10266,-11196810.0,-361.1807,-1257.664,435090.5,482.4694,40755.42,11221556.241367767
PART_001_R158G218B229A255,10267,-11196600.0,52.79545,-1029.337,417103.2,141.8135,33724.53,11219547.943745447
PART_001_R158G218B229A255,10268,-11196790.0,-327.869,-1232.575,407187.7,118.3347,18846.93,11218248.824765645
PART_001_R158G218B229A255,10269,-11196570.0,162.3133,-1064.201,404161.0,0.08071763,0.1996759,11217982.055142596
PART_001_R158G218B229A255,10270,-11196790.0,-327.8718,-1232.578,407187.7,-118.1929,-18846.57,11218248.820052512
PART_001_R158G218B229A255,10271,-11196600.0,52.78706,-1029.342,417103.4,-141.6757,-33724.19,11219547.956298877
PART_001_R158G218B229A255,10272,-11196810.0,-361.1796,-1257.665,435090.7,-482.3738,-40755.15,11221556.261727283
PART_001_R158G218B229A255,10273,-11196750.0,-874.3322,-565.8379,466110.5,-674.8111,-33337.39,11225248.257089404
PART_002_R214G39B40A255,10274,-11195070.0,1430.026,2208.401,522768.8,692.4444,-12172.48,11233460.55829634
PART_003_R247G182B210A255,10275,-13996430.0,984.9447,-4283.598,192001.0,1065.427,32815.55,13998847.59727385
PART_001_R158G218B229A255,10276,-13996690.0,-1264.79,-2807.15,164997.0,656.0442,70946.59,13998111.186180009
PART_001_R158G218B229A255,10277,-13995770.0,655.206,-1931.287,154671.0,128.4051,72237.15,13998255.16280457
PART_001_R158G218B229A255,10278,-13996100.0,-578.9114,-1709.413,147852.9,153.4248,56330.0,13997638.75008676
PART_001_R158G218B229A255,10279,-13995700.0,419.2223,-1494.6,144589.9,21.63328,30400.97,13997501.999940958
PART_001_R158G218B229A255,10280,-13995980.0,-432.0905,-1506.918,143390.7,0.03175707,0.2325216,13997214.091423081
PART_001_R158G218B229A255,10281,-13995700.0,419.2218,-1494.595,144589.9,-21.58531,-30400.57,13997501.99958355
PART_001_R158G218B229A255,10282,-13996100.0,-578.9036,-1709.379,147853.0,-153.3706,-56329.59,13997638.769198388
PART_001_R158G218B229A255,10283,-13995760.0,655.1986,-1931.283,154671.1,-128.3779,-72236.86,13998245.16215898
PART_001_R158G218B229A255,10284,-13996690.0,-1264.818,-2807.128,164997.0,-656.0196,-70946.37,13998111.179828087
PART_001_R158G218B229A255,10285,-13996430.0,984.8644,-4283.635,192001.1,-1065.437,-32815.48,13998847.542253323
PART_003_R247G182B210A255,10286,13678330.0,-962.3147,4186.747,192001.0,1041.244,-32815.57,13680879.219303839
PART_000_R31G119B180A255,10287,13678580.0,1235.889,2742.903,164997.0,641.1273,-70946.62,13680128.134800762
PART_000_R31G119B180A255,10288,13677680.0,-640.1406,1887.873,154671.0,125.5057,-72237.22,13680251.94687926
PART_000_R31G119B180A255,10289,13678010.0,565.5984,1670.167,147852.9,149.9333,-56330.05,13679637.408735324
PART_000_R31G119B180A255,10290,13677620.0,-409.4914,1461.125,144589.9,21.15586,-30401.05,13679488.269337403
PART_000_R31G119B180A255,10291,13677890.0,422.1363,1472.313,143390.7,0.02797001,-0.2618514,13679197.607531358
PART_000_R31G119B180A255,10292,13677610.0,-409.4922,1461.105,144589.9,-21.08285,30400.49,13679478.277749835
PART_000_R31G119B180A255,10293,13678010.0,565.6163,1670.171,147853.0,-149.8869,56329.59,13679637.395345086
PART_000_R31G119B180A255,10294,13677680.0,-640.122,1887.833,154671.1,-125.4508,72236.81,13680251.9544641
PART_000_R31G119B180A255,10295,13678580.0,1235.934,2742.932,164997.1,-641.1114,70946.37,13680128.097535523
PART_000_R31G119B180A255,10296,13678330.0,-962.3189,4186.714,192001.1,-1041.218,32815.47,13680879.241374804
PART_003_R247G182B210A255,10297,10940640.0,-1397.415,-2157.858,522768.6,-676.6926,-12172.56,10979836.568916623
PART_003_R247G182B210A255,10298,10942280.0,854.3254,552.6423,466110.3,659.5347,-33337.61,10971472.492605656
PART_000_R31G119B180A255,10299,10942340.0,353.0765,1229.433,435090.5,471.5183,-40755.46,10967697.317112697
PART_000_R31G119B180A255,10300,10942130.0,-51.7548,1005.632,417103.2,138.5929,-33724.58,10965633.127752239
PART_000_R31G119B180A255,10301,10942320.0,320.5093,1204.926,407187.7,115.6657,-18846.99,10964312.449301904
PART_000_R31G119B180A255,10302,10942110.0,-158.8009,1039.712,404161.0,0.08334651,-0.2338262,10964039.941510279
PART_000_R31G119B180A255,10303,10942320.0,320.5093,1204.926,407187.7,-115.4864,18846.52,10964312.44687256
PART_000_R31G119B180A255,10304,10942130.0,-51.75983,1005.635,417103.4,-138.4515,33724.17,10965633.147799818
PART_000_R31G119B180A255,10305,10942340.0,353.0631,1229.43,435090.7,-471.3932,40755.12,10967697.345289493
PART_000_R31G119B180A255,10306,10942280.0,854.3083,552.637,466110.6,-659.4745,33337.38,10971472.5399029
PART_002_R214G39B40A255,10307,10940640.0,-1397.431,-2157.858,522768.9,676.7156,12172.47,10979836.619443988
PART_003_R247G182B210A255,10308,8206492.0,-800.722,1196.345,764227.8,72.13224,-6642.117,8312372.228134322
PART_003_R247G182B210A255,10309,8206099.0,-263.8971,-531.716,701009.5,-721.297,-16755.48,8295883.114299496
PART_003_R247G182B210A255,10310,8206624.0,641.3465,155.336,657568.4,285.9822,-21367.97,8284968.217036226
PART_000_R31G119B180A255,10311,8206667.0,194.0329,733.9396,630704.7,76.77265,-19071.47,8278660.794953269
PART_000_R31G119B180A255,10312,8206592.0,123.1909,577.8005,615893.4,62.30344,-10891.04,8275308.434027763
PART_000_R31G119B180A255,10313,8206713.0,213.1921,852.7438,611096.7,0.1219051,-0.1881916,8274159.084489416
PART_000_R31G119B180A255,10314,8206592.0,123.1959,577.8076,615893.5,-62.0523,10890.68,8275308.4489289615
PART_000_R31G119B180A255,10315,8206667.0,194.0447,733.9472,630704.9,-76.5606,19071.14,8278660.828762076
PART_000_R31G119B180A255,10316,8206623.0,641.3743,155.3578,657568.6,-285.7953,21367.71,8284967.247566734
PART_002_R214G39B40A255,10317,8206098.0,-263.8744,-531.7052,701009.8,721.4136,16755.3,8295882.183495632
PART_002_R214G39B40A255,10318,8206491.0,-800.7359,1196.361,764228.2,-72.07448,6642.05,8312371.350028812
PART_003_R247G182B210A255,10319,5470493.0,-578.9757,-678.4088,932913.7,-287.0834,-3075.409,5704751.100218043
PART_003_R247G182B210A255,10320,5471024.0,-30.79334,382.343,865939.4,23.13305,-8493.803,5672737.434426846
PART_003_R247G182B210A255,10321,5470907.0,10.20666,-13.20004,817671.7,-547.1439,-10884.5,5651279.246474068
PART_003_R247G182B210A255,10322,5471068.0,377.2957,108.0072,785364.9,84.86362,-9832.659,5637429.750545457
PART_000_R31G119B180A255,10323,5471109.0,130.2455,481.3083,767156.3,-82.80167,-5811.93,5629864.627179197
PART_000_R31G119B180A255,10324,5471063.0,182.5998,288.7374,761253.3,0.1460075,-0.1291045,5627474.696409121
PART_000_R31G119B180A255,10325,5471109.0,130.2478,481.3127,767156.5,83.10121,5811.683,5629864.704931545
PART_000_R31G119B180A255,10326,5471067.0,377.2969,108.0105,785365.1,-84.60792,9832.432,5637428.860303412
PART_002_R214G39B40A255,10327,5470906.0,10.20144,-13.19811,817672.0,547.3683,10884.32,5651278.409227644
PART_002_R214G39B40A255,10328,5471023.0,-30.81083,382.333,865939.7,-22.99664,8493.676,5672736.620084749
PART_002_R214G39B40A255,10329,5470492.0,-579.0115,-678.417,932914.1,287.1406,3075.365,5704750.358447053
PART_003_R247G182B210A255,10330,2735466.0,-262.701,300.5057,1032769.0,-37.90903,-1354.29,3268411.2334040287
PART_003_R247G182B210A255,10331,2735351.0,-118.1851,-193.0501,964427.2,-555.2891,-3495.979,3205213.4908741955
PART_003_R247G182B210A255,10332,2735522.0,124.7666,82.62446,913527.6,-38.52101,-4584.952,3160090.8846824183
PART_003_R247G182B210A255,10333,2735504.0,48.12326,104.98,878889.3,-431.4859,-4176.509,3130488.0483570807
PART_003_R247G182B210A255,10334,2735533.0,175.1843,64.53277,858767.2,7.596131,-2459.84,3113670.908699463
PART_000_R31G119B180A255,10335,2735554.0,66.48072,239.1201,852242.5,0.1592791,-0.06553356,3108274.695307755
PART_000_R31G119B180A255,10336,2735533.0,175.1869,64.53545,858767.4,-7.268372,2459.715,3113671.0715648266
PART_002_R214G39B40A255,10337,2735504.0,48.13026,104.9832,878889.6,431.7692,4176.394,3130488.2962339562
PART_002_R214G39B40A255,10338,2735522.0,124.7852,82.6346,913527.9,38.77631,4584.859,3160091.1320226667
PART_002_R214G39B40A255,10339,2735351.0,-118.1569,-193.0377,964427.7,555.4572,3495.916,3205213.9247705736
PART_002_R214G39B40A255,10340,2735466.0,-262.6751,300.5254,1032769.0,37.9878,1354.266,3268411.2142940243
PART_003_R247G182B210A255,10341,0.004009674,-0.03071566,0.00267115,1065912.0,-223.1071,-0.001222149,1846213.780839677
PART_003_R247G182B210A255,10342,-0.002826591,-0.07620502,-0.01108865,997061.9,-93.85757,-0.003180323,1726961.87674267
PART_003_R247G182B210A255,10343,-0.01459445,-0.1366159,-0.03738274,945572.3,-593.725,-0.005800311,1637779.5886840236
PART_003_R247G182B210A255,10344,-0.02383239,-0.1742894,-0.04360209,910068.3,-36.28629,-0.005736464,1576284.535210815
PART_003_R247G182B210A255,10345,-0.02970829,-0.193663,-0.05264832,889485.6,-246.5492,-0.004282324,1540634.3109841568
PART_003_R247G182B210A255,10346,-0.03121973,-0.1957977,-0.04736437,882690.3,0.163753,0.000484024,1528864.4469482491
PART_002_R214G39B40A255,10347,-0.02944749,-0.193518,-0.05268463,889485.8,246.8856,0.003467975,1540634.6575559184
PART_002_R214G39B40A255,10348,-0.02418166,-0.1763608,-0.04412792,910068.6,36.57657,0.006559191,1576285.0548461839
PART_002_R214G39B40A255,10349,-0.01627628,-0.1494369,-0.04241514,945572.7,593.9824,0.005534208,1637780.281784208
PART_002_R214G39B40A255,10350,-0.01006386,-0.1122169,-0.02532753,997062.3,94.01732,0.003748432,1726962.56958906
PART_002_R214G39B40A255,10351,-0.00829559,-0.08849211,-0.02026863,1065912.0,223.1753,0.0008284275,1846213.780864407
PART_003_R247G182B210A255,10352,-2735466.0,262.6004,-300.5448,1032769.0,-37.90842,1354.287,3268411.174932435
PART_003_R247G182B210A255,10353,-2735351.0,118.2217,193.1216,964427.2,-555.2886,3495.971,3205213.5369776324
PART_003_R247G182B210A255,10354,-2735522.0,-124.6161,-82.55231,913527.6,-38.52066,4584.937,3160090.98098079
PART_003_R247G182B210A255,10355,-2735504.0,-47.85916,-104.8042,878889.3,-431.4858,4176.497,3130488.240503017
PART_003_R247G182B210A255,10356,-2735533.0,-174.8991,-64.39268,858767.2,7.596203,2459.831,3113671.095486539
PART_001_R158G218B229A255,10357,-2735554.0,-66.16295,-238.9134,852242.5,0.1591553,0.06671879,3108274.926089265
PART_001_R158G218B229A255,10358,-2735533.0,-174.9023,-64.3964,858767.3,-7.268318,-2459.708,3113671.174894616
PART_002_R214G39B40A255,10359,-2735504.0,-47.86175,-104.8043,878889.5,431.7689,-4176.379,3130488.4074234623
PART_002_R214G39B40A255,10360,-2735522.0,-124.6098,-82.55495,913527.9,38.77606,-4584.846,3160091.2423525094
PART_002_R214G39B40A255,10361,-2735351.0,118.2659,193.1399,964427.7,555.4565,-3495.906,3205214.0148622426
PART_002_R214G39B40A255,10362,-2735466.0,262.6894,-300.5206,1032769.0,37.98755,-1354.264,3268411.222285485
PART_003_R247G182B210A255,10363,-5470493.0,578.8957,678.2941,932913.6,-287.0832,3075.405,5704750.957788084
PART_003_R247G182B210A255,10364,-5471024.0,30.70113,-382.245,865939.3,23.13381,8493.797,5672737.391386697
PART_003_R247G182B210A255,10365,-5470907.0,-10.50852,13.01127,817671.6,-547.143,10884.49,5651278.965524679
PART_003_R247G182B210A255,10366,-5471068.0,-377.5858,-107.971,785364.9,84.86342,9832.646,5637429.627290908
PART_001_R158G218B229A255,10367,-5471109.0,-130.6668,-481.5242,767156.3,-82.80146,5811.92,5629864.317540068
PART_001_R158G218B229A255,10368,-5471063.0,-182.9335,-288.7065,761253.2,0.1456113,0.1297675,5627474.508636048
PART_001_R158G218B229A255,10369,-5471109.0,-130.6693,-481.5298,767156.5,83.10157,-5811.674,5629864.394615368
PART_001_R158G218B229A255,10370,-5471067.0,-377.59,-107.9728,785365.1,-84.60843,-9832.419,5637428.736321227
PART_002_R214G39B40A255,10371,-5470906.0,-10.53082,12.99531,817672.0,547.3679,-10884.31,5651278.151572893
PART_002_R214G39B40A255,10372,-5471023.0,30.64865,-382.2571,865939.7,-22.99787,-8493.669,5672736.578435647
PART_002_R214G39B40A255,10373,-5470492.0,578.8125,678.249,932914.1,287.1403,-3075.362,5704750.182457533
PART_003_R247G182B210A255,10374,-8206492.0,800.5626,-1196.65,764227.8,72.13371,6642.113,8312371.998914219
PART_003_R247G182B210A255,10375,-8206099.0,264.0622,532.0504,701009.5,-721.2962,16755.47,8295883.361301794
PART_003_R247G182B210A255,10376,-8206624.0,-641.2638,-155.5199,657568.3,285.9821,21367.95,8284968.142940004
PART_001_R158G218B229A255,10377,-8206667.0,-193.6406,-733.5023,630704.7,76.7723,19071.45,8278661.205982361
PART_001_R158G218B229A255,10378,-8206592.0,-122.9802,-577.9103,615893.3,62.30333,10891.03,8275308.461702798
PART_001_R158G218B229A255,10379,-8206712.0,-212.7461,-852.2744,611096.7,0.1214442,0.1867792,8274158.546643503
PART_001_R158G218B229A255,10380,-8206592.0,-122.9861,-577.9184,615893.4,-62.05153,-10890.67,8275308.475661911
PART_001_R158G218B229A255,10381,-8206667.0,-193.6473,-733.5064,630704.9,-76.56102,-19071.12,8278661.244053631
PART_001_R158G218B229A255,10382,-8206623.0,-641.2673,-155.5359,657568.6,-285.7948,-21367.68,8284967.212109902
PART_002_R214G39B40A255,10383,-8206098.0,264.1144,532.0731,701009.8,721.4123,-16755.29,8295882.484112802
PART_002_R214G39B40A255,10384,-8206491.0,800.6903,-1196.63,764228.2,-72.07509,-6642.044,8312371.194762083
PART_003_R247G182B210A255,10385,-10940640.0,1397.264,2157.404,522768.6,-676.6945,12172.55,10979836.26739889
PART_003_R247G182B210A255,10386,-10942280.0,-854.2638,-552.2041,466110.3,659.5354,33337.61,10971472.741832605
PART_001_R158G218B229A255,10387,-10942340.0,-353.479,-1229.941,435090.5,471.5181,40755.44,10967696.86273142
PART_001_R158G218B229A255,10388,-10942130.0,51.61431,-1005.247,417103.2,138.592,33724.57,10965633.249609593
PART_001_R158G218B229A255,10389,-10942320.0,-321.0451,-1205.449,407187.6,115.6654,18846.98,10964311.909806997
PART_001_R158G218B229A255,10390,-10942110.0,158.6152,-1039.33,404161.0,0.08311644,0.2297247,10964040.039413488
PART_001_R158G218B229A255,10391,-10942320.0,-321.0452,-1205.449,407187.7,-115.4859,-18846.5,10964311.91841744
PART_001_R158G218B229A255,10392,-10942130.0,51.61629,-1005.251,417103.4,-138.451,-33724.16,10965633.267636469
PART_001_R158G218B229A255,10393,-10942340.0,-353.4941,-1229.95,435090.7,-471.3929,-40755.09,10967696.870594017
PART_001_R158G218B229A255,10394,-10942280.0,-854.3171,-552.219,466110.5,-659.475,-33337.38,10971472.731209127
PART_002_R214G39B40A255,10395,-10940640.0,1397.156,2157.347,522768.9,676.7162,-12172.47,10979836.227771174
PART_003_R247G182B210A255,10396,-13678330.0,962.0837,-4187.326,192001.0,1041.252,32815.56,13680878.814455135
PART_001_R158G218B229A255,10397,-13678580.0,-1235.59,-2742.294,164997.0,641.1225,70946.6,13680128.588345913
PART_001_R158G218B229A255,10398,-13677680.0,640.1508,-1888.317,154671.0,125.5081,72237.19,13680251.729617715
PART_001_R158G218B229A255,10399,-13678010.0,-565.0697,-1669.456,147852.9,149.9313,56330.02,13679638.028079225
PART_001_R158G218B229A255,10400,-13677620.0,409.6283,-1461.485,144589.9,21.15618,30401.04,13679488.157791223
PART_001_R158G218B229A255,10401,-13677890.0,-421.5535,-1471.57,143390.7,0.02817547,0.2558689,13679198.27031286
PART_001_R158G218B229A255,10402,-13677620.0,409.6287,-1461.464,144589.9,-21.08362,-30400.47,13679488.164686665
PART_001_R158G218B229A255,10403,-13678010.0,-565.083,-1669.459,147853.0,-149.8846,-56329.57,13679638.017612169
PART_001_R158G218B229A255,10404,-13677680.0,640.1584,-1888.268,154671.1,-125.4535,-72236.77,13680251.754642427
PART_001_R158G218B229A255,10405,-13678580.0,-1235.558,-2742.294,164997.1,-641.1068,-70946.36,13680128.604226544
PART_001_R158G218B229A255,10406,-13678330.0,962.2067,-4187.261,192001.1,-1041.224,-32815.46,13680878.911927208
PART_003_R247G182B210A255,10407,13360230.0,-940.0527,4089.307,192001.0,1016.995,-32815.57,13362915.818830904
PART_000_R31G119B180A255,10408,13360480.0,1207.036,2679.119,164997.0,626.2279,-70946.68,13362158.651796767
PART_000_R31G119B180A255,10409,13359590.0,-625.493,1843.868,154671.0,122.5726,-72237.25,13362252.69117108
PART_000_R31G119B180A255,10410,13359910.0,552.1217,1631.247,147852.9,146.4618,-56330.14,13361628.958417276
PART_000_R31G119B180A255,10411,13359530.0,-400.3619,1427.019,144589.9,20.65548,-30401.09,13361467.746105414
PART_000_R31G119B180A255,10412,13359800.0,411.9153,1437.952,143390.7,0.04283914,-0.3572098,13361183.574311486
PART_000_R31G119B180A255,10413,13359530.0,-400.3593,1427.024,144589.9,-20.5994,30400.47,13361467.738074118
PART_000_R31G119B180A255,10414,13359910.0,552.1007,1631.199,147853.0,-146.3856,56329.52,13361628.988384156
PART_000_R31G119B180A255,10415,13359590.0,-625.5082,1843.876,154671.1,-122.5402,72236.79,13362252.69078474
PART_000_R31G119B180A255,10416,13360470.0,1206.991,2679.047,164997.1,-626.1883,70946.33,13362148.711112993
PART_000_R31G119B180A255,10417,13360230.0,-940.0383,4089.349,192001.1,-1017.016,32815.46,13362915.794152556
PART_003_R247G182B210A255,10418,10686210.0,-1364.794,-2107.613,522768.5,-660.9445,-12172.57,10726252.88725965
PART_003_R247G182B210A255,10419,10687810.0,834.5849,539.813,466110.3,644.2234,-33337.64,10717728.570223385
PART_000_R31G119B180A255,10420,10687860.0,345.1046,1200.951,435090.5,460.5559,-40755.5,10713856.607168518
PART_000_R31G119B180A255,10421,10687660.0,-50.2351,982.3554,417103.2,135.3921,-33724.64,10711743.670151096
PART_000_R31G119B180A255,10422,10687850.0,313.4427,1177.076,407187.7,112.9741,-18847.03,10710400.52640532
PART_000_R31G119B180A255,10423,10687640.0,-154.7243,1015.67,404161.0,0.1022414,-0.2911184,10710111.43015497
PART_000_R31G119B180A255,10424,10687850.0,313.4463,1177.081,407187.7,-112.8017,18846.49,10710400.51925864
PART_000_R31G119B180A255,10425,10687660.0,-50.22137,982.3606,417103.4,-135.2104,33724.13,10711743.67924663
PART_000_R31G119B180A255,10426,10687860.0,345.1329,1200.971,435090.7,-460.4305,40755.1,10713856.602863463
PART_000_R31G119B180A255,10427,10687810.0,834.6118,539.8309,466110.6,-644.1194,33337.36,10717728.584396664
PART_002_R214G39B40A255,10428,10686210.0,-1364.824,-2107.614,522768.9,660.9743,12172.47,10726252.960852617
PART_003_R247G182B210A255,10429,8015643.0,-782.2136,1168.519,764227.9,70.43319,-6642.122,8124020.20715431
PART_003_R247G182B210A255,10430,8015259.0,-257.9238,-519.4154,701009.5,-704.5181,-16755.51,8107138.478039054
PART_003_R247G182B210A255,10431,8015772.0,626.1937,151.6626,657568.3,279.327,-21368.01,8095981.977160265
PART_000_R31G119B180A255,10432,8015815.0,189.1785,716.7382,630704.7,75.00485,-19071.5,8089529.362483536
PART_000_R31G119B180A255,10433,8015741.0,119.9491,564.2496,615893.4,60.85582,-10891.08,8086096.065658947
PART_000_R31G119B180A255,10434,8015859.0,207.8314,832.764,611096.7,0.1392748,-0.2182352,8084922.531214921
PART_000_R31G119B180A255,10435,8015741.0,119.949,564.2514,615893.5,-60.60638,10890.65,8086096.085923474
PART_000_R31G119B180A255,10436,8015814.0,189.1782,716.7486,630705.0,-74.75777,19071.11,8089528.434052532
PART_000_R31G119B180A255,10437,8015772.0,626.1829,151.6574,657568.7,-279.1451,21367.69,8095982.079993714
PART_002_R214G39B40A255,10438,8015258.0,-257.9283,-519.4121,701009.9,704.6556,16755.29,8107137.592350965
PART_002_R214G39B40A255,10439,8015642.0,-782.2284,1168.507,764228.3,-70.40502,6642.045,8124019.346434497
PART_003_R247G182B210A255,10440,5343272.0,-565.449,-662.6025,932913.5,-280.3986,-3075.418,5582842.40053306
PART_003_R247G182B210A255,10441,5343791.0,-29.95943,373.4874,865939.3,22.62774,-8493.816,5550138.3506816095
PART_003_R247G182B210A255,10442,5343676.0,10.19793,-12.78632,817671.6,-534.4132,-10884.53,5528200.777558956
PART_003_R247G182B210A255,10443,5343834.0,368.8349,105.6222,785364.9,82.91195,-9832.681,5514046.667533536
PART_000_R31G119B180A255,10444,5343874.0,127.583,470.2808,767156.4,-80.87582,-5811.955,5506312.993171529
PART_000_R31G119B180A255,10445,5343829.0,178.7263,282.1764,761253.3,0.1628606,-0.146817,5503868.204948556
PART_000_R31G119B180A255,10446,5343874.0,127.5866,470.2839,767156.5,81.17024,5811.665,5506313.030812164
PART_000_R31G119B180A255,10447,5343833.0,368.8469,105.6318,785365.1,-82.61722,9832.422,5514045.7720385585
PART_002_R214G39B40A255,10448,5343676.0,10.22168,-12.77549,817672.0,534.6426,10884.31,5528200.9371042345
PART_002_R214G39B40A255,10449,5343790.0,-29.93409,373.5063,865939.8,-22.43889,8493.672,5550137.599962569
PART_002_R214G39B40A255,10450,5343271.0,-565.4553,-662.5935,932914.2,280.4594,3075.363,5582841.792878744
PART_003_R247G182B210A255,10451,2671851.0,-256.6403,293.5327,1032769.0,-37.0488,-1354.292,3215358.510506174
PART_003_R247G182B210A255,10452,2671738.0,-115.5814,-188.6181,964427.3,-542.3723,-3495.989,3151094.144645492
PART_003_R247G182B210A255,10453,2671905.0,121.6183,80.63343,913527.6,-37.63353,-4584.965,3105188.7287166454
PART_003_R247G182B210A255,10454,2671888.0,46.65349,102.4004,878889.3,-421.4339,-4176.522,3075057.6100164573
PART_003_R247G182B210A255,10455,2671916.0,170.7302,62.91237,858767.2,7.417101,-2459.854,3057935.9581747823
PART_000_R31G119B180A255,10456,2671937.0,64.52997,233.404,852242.5,0.1756402,-0.07346912,3052442.16180583
PART_000_R31G119B180A255,10457,2671916.0,170.7311,62.91305,858767.4,-7.099338,2459.708,3057936.125629355
PART_002_R214G39B40A255,10458,2671888.0,46.65364,102.4033,878889.6,421.7516,4176.392,3075057.8655235637
PART_002_R214G39B40A255,10459,2671905.0,121.6071,80.62704,913528.0,37.87684,4584.856,3105189.0888428898
PART_002_R214G39B40A255,10460,2671738.0,-115.6085,-188.6287,964427.8,542.5608,3495.915,3151094.6195713533
PART_002_R214G39B40A255,10461,2671850.0,-256.6889,293.5105,1032769.0,37.0965,1354.265,3215357.7089336505
PART_003_R247G182B210A255,10462,0.008791854,-0.07283503,-0.002227128,1065911.0,-217.9123,-0.003184243,1846212.0469275238
PART_003_R247G182B210A255,10463,0.03213244,-0.000585607,0.02401173,997061.7,-91.64021,-0.01053322,1726961.5299752497
PART_003_R247G182B210A255,10464,0.04689508,0.08637599,0.06886862,945572.3,-579.9126,-0.01402142,1637779.5738370114
PART_003_R247G182B210A255,10465,0.0505898,0.1419695,0.09245852,910068.3,-35.421,-0.01387879,1576284.5351517661
PART_003_R247G182B210A255,10466,0.04948284,0.1702894,0.1137315,889485.6,-240.8179,-0.007369108,1540634.3082645775
PART_003_R247G182B210A255,10467,0.04799213,0.1747796,0.1124173,882690.3,0.1794353,-0.0006361923,1528864.4469482503
PART_002_R214G39B40A255,10468,0.04921457,0.1700336,0.1138281,889485.8,241.1435,0.00876196,1540634.6548275142
PART_002_R214G39B40A255,10469,0.05118897,0.1441549,0.09290343,910068.6,35.74901,0.01282144,1576285.0547892223
PART_002_R214G39B40A255,10470,0.04900789,0.1014835,0.07493233,945572.7,580.1713,0.01462726,1637780.2669320707
PART_002_R214G39B40A255,10471,0.04128492,0.04318548,0.04127285,997062.3,91.85461,0.009816962,1726962.5692399007
PART_002_R214G39B40A255,10472,0.02437255,-0.001617501,0.02618073,1065912.0,217.9803,0.003726076,1846213.779002376
PART_003_R247G182B210A255,10473,-2671851.0,256.562,-293.4821,1032769.0,-37.04876,1354.285,3215358.498971999
PART_003_R247G182B210A255,10474,-2671738.0,115.3641,188.5539,964427.2,-542.3714,3495.97,3151093.9334207466
PART_003_R247G182B210A255,10475,-2671905.0,-121.9542,-80.676,913527.5,-37.63304,4584.94,3105188.4775267723
PART_003_R247G182B210A255,10476,-2671888.0,-47.1097,-102.5343,878889.3,-421.4336,4176.494,3075057.3535345774
PART_003_R247G182B210A255,10477,-2671916.0,-171.2032,-62.98331,858767.2,7.416921,2459.84,3057935.720524299
PART_001_R158G218B229A255,10478,-2671937.0,-65.03738,-233.543,852242.5,0.1757404,0.07192485,3052441.878890773
PART_001_R158G218B229A255,10479,-2671916.0,-171.2033,-62.98252,858767.3,-7.099546,-2459.691,3057935.8047136385
PART_002_R214G39B40A255,10480,-2671888.0,-47.115,-102.5411,878889.6,421.7516,-4176.367,3075057.6051224195
PART_002_R214G39B40A255,10481,-2671905.0,-121.9726,-80.67793,913527.9,37.87606,-4584.828,3105188.821326132
PART_002_R214G39B40A255,10482,-2671738.0,115.3025,188.5264,964427.7,542.5602,-3495.897,3151094.3545925464
PART_002_R214G39B40A255,10483,-2671850.0,256.4684,-293.5138,1032769.0,37.09595,-1354.259,3215357.615913829
PART_003_R247G182B210A255,10484,-5343272.0,565.3827,662.7434,932913.4,-280.3976,3075.412,5582842.386098088
PART_003_R247G182B210A255,10485,-5343791.0,29.93663,-373.5815,865939.2,22.62915,8493.791,5550138.247489284
PART_003_R247G182B210A255,10486,-5343676.0,-9.945309,13.06828,817671.6,-534.4132,10884.5,5528201.03575057
PART_003_R247G182B210A255,10487,-5343834.0,-368.5804,-105.5759,785364.8,82.91234,9832.649,5514046.770376805
PART_001_R158G218B229A255,10488,-5343874.0,-127.1634,-469.9065,767156.3,-80.87652,5811.939,5506313.336544323
PART_001_R158G218B229A255,10489,-5343829.0,-178.4094,-282.089,761253.2,0.1632919,0.1461753,5503868.359721577
PART_001_R158G218B229A255,10490,-5343874.0,-127.1668,-469.908,767156.4,81.16978,-5811.647,5506313.3750519045
PART_001_R158G218B229A255,10491,-5343833.0,-368.5894,-105.5877,785365.1,-82.61679,-9832.391,5514045.918003543
PART_002_R214G39B40A255,10492,-5343676.0,-9.936444,13.07447,817672.0,534.6415,-10884.28,5528201.219284602
PART_002_R214G39B40A255,10493,-5343790.0,29.99628,-373.5739,865939.7,-22.43977,-8493.648,5550137.55044873
PART_002_R214G39B40A255,10494,-5343271.0,565.5358,662.8009,932914.1,280.4583,-3075.355,5582841.880524525
PART_003_R247G182B210A255,10495,-8015643.0,782.3075,-1168.139,764227.8,70.43281,6642.114,8124020.412645485
PART_003_R247G182B210A255,10496,-8015259.0,257.6367,519.0332,701009.5,-704.517,16755.48,8107138.146977058
PART_003_R247G182B210A255,10497,-8015772.0,-626.3682,-151.3755,657568.3,279.3275,21367.98,8095982.032682588
PART_001_R158G218B229A255,10498,-8015815.0,-189.7229,-717.1723,630704.7,75.00444,19071.46,8089528.87743082
PART_001_R158G218B229A255,10499,-8015741.0,-120.2657,-563.9852,615893.3,60.8549,10891.06,8086096.016832291
PART_001_R158G218B229A255,10500,-8015859.0,-208.4335,-833.1966,611096.7,0.1397893,0.2208689,8084922.01830773
PART_001_R158G218B229A255,10501,-8015741.0,-120.2646,-563.9862,615893.4,-60.6068,-10890.63,8086096.037988988
PART_001_R158G218B229A255,10502,-8015814.0,-189.7282,-717.1859,630704.9,-74.75649,-19071.07,8089527.921250343
PART_001_R158G218B229A255,10503,-8015772.0,-626.3865,-151.3779,657568.6,-279.1464,-21367.66,8095982.09298327
PART_002_R214G39B40A255,10504,-8015258.0,257.5499,518.99,701009.8,704.655,-16755.26,8107137.170490189
PART_002_R214G39B40A255,10505,-8015642.0,782.1812,-1168.172,764228.3,-70.40583,-6642.039,8124019.488327879
PART_003_R247G182B210A255,10506,-10686210.0,1364.93,2108.179,522768.5,-660.9414,12172.57,10726253.23702789
PART_003_R247G182B210A255,10507,-10687810.0,-834.6989,-540.319,466110.3,644.2229,33337.6,10717728.260727195
PART_001_R158G218B229A255,10508,-10687860.0,-344.6411,-1200.249,435090.5,460.5547,40755.46,10713857.187991535
PART_001_R158G218B229A255,10509,-10687660.0,50.38007,-982.7066,417103.2,135.3913,33724.6,10711743.566930467
PART_001_R158G218B229A255,10510,-10687850.0,-312.8109,-1176.279,407187.6,112.973,18847.0,10710401.22767767
PART_001_R158G218B229A255,10511,-10687640.0,154.9264,-1015.971,404161.0,0.102438,0.297796,10710111.380851954
PART_001_R158G218B229A255,10512,-10687850.0,-312.8146,-1176.285,407187.7,-112.8012,-18846.47,10710401.231440444
PART_001_R158G218B229A255,10513,-10687660.0,50.36987,-982.7092,417103.4,-135.2093,-33724.08,10711743.578989586
PART_001_R158G218B229A255,10514,-10687860.0,-344.6361,-1200.257,435090.7,-460.4298,-40755.07,10713857.206395352
PART_001_R158G218B229A255,10515,-10687810.0,-834.6396,-540.3099,466110.6,-644.1193,-33337.32,10717728.331337702
PART_002_R214G39B40A255,10516,-10686210.0,1365.112,2108.247,522768.9,660.9727,-12172.46,10726253.419691611
PART_003_R247G182B210A255,10517,-13360230.0,940.3279,-4088.583,192001.0,1016.986,32815.56,13362916.318069212
PART_001_R158G218B229A255,10518,-13360480.0,-1207.41,-2679.824,164997.0,626.2335,70946.64,13362158.111833995
PART_001_R158G218B229A255,10519,-13359590.0,625.4737,-1843.226,154671.0,122.5688,72237.2,13362253.001542183
PART_001_R158G218B229A255,10520,-13359910.0,-552.7764,-1631.972,147852.9,146.4629,56330.09,13361628.26808431
PART_001_R158G218B229A255,10521,-13359530.0,400.1896,-1426.39,144589.9,20.65443,30401.05,13361467.974058311
PART_001_R158G218B229A255,10522,-13359800.0,-412.634,-1438.663,143390.7,0.04244595,0.3665436,13361182.859584553
PART_001_R158G218B229A255,10523,-13359530.0,400.1874,-1426.397,144589.9,-20.59771,-30400.45,13361467.965363927
PART_001_R158G218B229A255,10524,-13359910.0,-552.76,-1631.922,147853.0,-146.3874,-56329.45,13361628.296498146
PART_001_R158G218B229A255,10525,-13359590.0,625.4572,-1843.247,154671.1,-122.536,-72236.76,13362252.97913308
PART_001_R158G218B229A255,10526,-13360470.0,-1207.458,-2679.785,164997.0,-626.1936,-70946.28,13362148.104298582
PART_001_R158G218B229A255,10527,-13360230.0,940.1661,-4088.669,192001.1,-1017.008,-32815.46,13362916.197766088
PART_003_R247G182B210A255,10528,13042130.0,-917.4857,3992.069,192001.0,992.8317,-32815.61,13044956.993596915
PART_000_R31G119B180A255,10529,13042370.0,1178.44,2615.32,164997.0,611.3094,-70946.7,13044183.155558567
PART_000_R31G119B180A255,10530,13041510.0,-610.2966,1800.129,154671.0,119.683,-72237.35,13044266.736095062
PART_000_R31G119B180A255,10531,13041820.0,539.3655,1592.52,147852.9,142.9611,-56330.17,13043633.235380344
PART_000_R31G119B180A255,10532,13041450.0,-390.3432,1393.252,144589.9,20.18309,-30401.21,13043459.386772059
PART_000_R31G119B180A255,10533,13041710.0,402.5962,1403.902,143390.7,0.02748425,-0.3827919,13043171.552380154
PART_000_R31G119B180A255,10534,13041450.0,-390.3467,1393.229,144589.9,-20.09094,30400.37,13043459.39414364
PART_000_R31G119B180A255,10535,13041820.0,539.3944,1592.556,147853.0,-142.9127,56329.5,13043633.197656598
PART_000_R31G119B180A255,10536,13041510.0,-610.2802,1800.074,154671.1,-119.6032,72236.73,13044266.748634854
PART_000_R31G119B180A255,10537,13042370.0,1178.494,2615.386,164997.1,-611.2905,70946.33,13044183.093331471
PART_000_R31G119B180A255,10538,13042130.0,-917.5413,3991.989,192001.2,-992.7807,32815.45,13044957.068979276
PART_003_R247G182B210A255,10539,10431780.0,-1332.499,-2057.511,522768.6,-645.2173,-12172.58,10472712.536189327
PART_003_R247G182B210A255,10540,10433340.0,814.5236,526.9254,466110.3,628.8622,-33337.68,10464019.308966361
PART_000_R31G119B180A255,10541,10433390.0,336.5829,1172.247,435090.5,449.6042,-40755.56,10460056.436617238
PART_000_R31G119B180A255,10542,10433190.0,-49.43874,958.8493,417103.2,132.1546,-33724.68,10457882.378619894
PART_000_R31G119B180A255,10543,10433370.0,305.501,1148.885,407187.7,110.3028,-18847.1,10456505.516521784
PART_000_R31G119B180A255,10544,10433170.0,-151.5212,991.3511,404161.0,0.08665869,-0.3236195,10456209.335055029
PART_000_R31G119B180A255,10545,10433370.0,305.499,1148.884,407187.7,-110.096,18846.43,10456505.514389068
PART_000_R31G119B180A255,10546,10433190.0,-49.44856,958.8561,417103.4,-131.9995,33724.11,10457882.398537675
PART_000_R31G119B180A255,10547,10433390.0,336.5648,1172.241,435090.8,-449.4449,40755.06,10460056.480207313
PART_000_R31G119B180A255,10548,10433330.0,814.5199,526.9249,466110.6,-628.7899,33337.35,10464009.377942514
PART_002_R214G39B40A255,10549,10431770.0,-1332.467,-2057.496,522769.0,645.2501,12172.46,10472702.6097331
PART_003_R247G182B210A255,10550,7824795.0,-763.4516,1140.721,764227.7,68.79433,-6642.137,7935788.0384867815
PART_003_R247G182B210A255,10551,7824420.0,-251.5949,-506.9655,701009.4,-687.7334,-16755.53,7918495.439367415
PART_003_R247G182B210A255,10552,7824921.0,611.5632,148.1518,657568.3,272.7012,-21368.04,7907085.585835695
PART_000_R31G119B180A255,10553,7824962.0,185.0734,699.8541,630704.7,73.21045,-19071.54,7900478.632001151
PART_000_R31G119B180A255,10554,7824890.0,117.5407,550.9947,615893.4,59.41964,-10891.11,7896961.595999719
PART_000_R31G119B180A255,10555,7825005.0,203.355,813.1441,611096.7,0.1222493,-0.2499417,7895762.6108525805
PART_000_R31G119B180A255,10556,7824890.0,117.5453,551.0021,615893.5,-59.1487,10890.63,7896961.611460167
PART_000_R31G119B180A255,10557,7824961.0,185.0844,699.8586,630705.0,-72.986,19071.09,7900477.7025228925
PART_000_R31G119B180A255,10558,7824920.0,611.5936,148.1781,657568.7,-272.4771,21367.67,7907084.664992655
PART_002_R214G39B40A255,10559,7824419.0,-251.5816,-506.9595,701009.9,687.8755,16755.28,7918494.572906611
PART_002_R214G39B40A255,10560,7824793.0,-763.4913,1140.734,764228.4,-68.70835,6642.042,7935786.281671919
PART_003_R247G182B210A255,10561,5216051.0,-552.1336,-646.8605,932913.7,-273.7274,-3075.42,5461177.064466009
PART_003_R247G182B210A255,10562,5216558.0,-29.44513,364.5482,865939.3,22.05733,-8493.837,5427752.617647007
PART_003_R247G182B210A255,10563,5216446.0,9.640277,-12.59163,817671.6,-521.6837,-10884.55,5405315.998158651
PART_003_R247G182B210A255,10564,5216599.0,359.6359,102.9695,785364.9,80.91757,-9832.706,5390841.877412467
PART_000_R31G119B180A255,10565,5216639.0,124.071,458.9173,767156.4,-78.94194,-5811.973,5382933.175123752
PART_000_R31G119B180A255,10566,5216595.0,173.9834,275.295,761253.3,0.1392753,-0.1652542,5380431.163857927
PART_000_R31G119B180A255,10567,5216639.0,124.0712,458.9204,767156.5,79.24932,5811.657,5382933.215269899
PART_000_R31G119B180A255,10568,5216599.0,359.6328,102.9689,785365.2,-80.66258,9832.413,5390842.008704337
PART_002_R214G39B40A255,10569,5216445.0,9.631296,-12.59292,817672.1,521.9336,10884.31,5405315.263586218
PART_002_R214G39B40A255,10570,5216557.0,-29.456,364.5335,865939.9,-21.91286,8493.667,5427751.9552458115
PART_002_R214G39B40A255,10571,5216050.0,-552.1394,-646.865,932914.2,273.7978,3075.361,5461176.37031159
PART_003_R247G182B210A255,10572,2608235.0,-250.5208,286.53,1032768.0,-36.13052,-1354.299,3162693.605643244
PART_003_R247G182B210A255,10573,2608126.0,-112.6958,-184.0492,964427.1,-529.4513,-3496.001,3097336.2114447616
PART_003_R247G182B210A255,10574,2608289.0,118.9855,78.81563,913527.5,-36.71535,-4584.981,3050625.5335530913
PART_003_R247G182B210A255,10575,2608272.0,45.93479,100.1548,878889.3,-411.4192,-4176.54,3019949.3100641887
PART_003_R247G182B210A255,10576,2608299.0,167.0946,61.59169,858767.2,7.24657,-2459.865,3002513.7263557175
PART_000_R31G119B180A255,10577,2608319.0,63.45211,228.0669,852242.5,0.146272,-0.08204206,2996918.3354199934
PART_000_R31G119B180A255,10578,2608299.0,167.0966,61.59396,858767.4,-6.92126,2459.709,3002513.89572506
PART_002_R214G39B40A255,10579,2608271.0,45.94066,100.1554,878889.6,411.6928,4176.394,3019948.705044976
PART_002_R214G39B40A255,10580,2608288.0,119.0071,78.82775,913528.0,36.99495,4584.864,3050625.11283602
PART_002_R214G39B40A255,10581,2608125.0,-112.6618,-184.0355,964427.8,529.635,3495.919,3097336.0029589497
PART_002_R214G39B40A255,10582,2608235.0,-250.4831,286.5563,1032769.0,36.23478,1354.268,3162694.5588569455
PART_003_R247G182B210A255,10583,0.05895351,-0.07774666,0.007390411,1065912.0,-212.727,-0.006913041,1846213.7771640487
PART_003_R247G182B210A255,10584,0.0367276,-0.1437441,-0.0134023,997061.8,-89.49655,-0.01751377,1726961.7028430724
PART_003_R247G182B210A255,10585,0.004532025,-0.2318532,-0.04573983,945572.3,-566.1034,-0.02472694,1637779.5593428002
PART_003_R247G182B210A255,10586,-0.02219428,-0.2871568,-0.05248197,910068.3,-34.60476,-0.02214216,1576284.5350973925
PART_003_R247G182B210A255,10587,-0.03966658,-0.3133253,-0.05946275,889485.6,-235.0803,-0.01467574,1540634.305606101
PART_003_R247G182B210A255,10588,-0.04510461,-0.3164704,-0.05232196,882690.3,0.1485304,0.00108577,1528864.4469482598
PART_002_R214G39B40A255,10589,-0.03917891,-0.3130734,-0.05965209,889485.8,235.4098,0.01289644,1540634.652167188
PART_002_R214G39B40A255,10590,-0.02267036,-0.2895636,-0.05274342,910068.6,34.87979,0.0239726,1576285.0547308202
PART_002_R214G39B40A255,10591,0.002593613,-0.2498638,-0.05307447,945572.7,566.3761,0.02399164,1637780.2524458475
PART_002_R214G39B40A255,10592,0.02602246,-0.1972666,-0.0342831,997062.4,89.65528,0.01869919,1726962.7420982565
PART_002_R214G39B40A255,10593,0.04019527,-0.1659114,-0.02783797,1065912.0,212.8072,0.006283136,1846213.777191782
PART_003_R247G182B210A255,10594,-2608235.0,250.3009,-286.5827,1032768.0,-36.12953,1354.285,3162693.4931997573
PART_003_R247G182B210A255,10595,-2608125.0,112.6915,184.1583,964427.1,-529.4506,3495.962,3097335.4133380777
PART_003_R247G182B210A255,10596,-2608289.0,-118.8049,-78.68138,913527.5,-36.7148,4584.926,3050625.667898114
PART_003_R247G182B210A255,10597,-2608271.0,-45.58458,-99.86662,878889.2,-411.4193,4176.493,3019948.634580035
PART_003_R247G182B210A255,10598,-2608299.0,-166.7086,-61.33912,858767.2,7.246662,2459.834,3002514.003628366
PART_001_R158G218B229A255,10599,-2608319.0,-63.02215,-227.7232,852242.5,0.1459747,0.08448558,2996918.6720759226
PART_001_R158G218B229A255,10600,-2608298.0,-166.7117,-61.34344,858767.3,-6.921047,-2459.682,3002513.2171675423
PART_002_R214G39B40A255,10601,-2608271.0,-45.58485,-99.86226,878889.6,411.6924,-4176.343,3019948.985068975
PART_002_R214G39B40A255,10602,-2608288.0,-118.7918,-78.68446,913528.0,36.99463,-4584.812,3050625.265892463
PART_002_R214G39B40A255,10603,-2608125.0,112.7656,184.1918,964427.8,529.6338,-3495.879,3097336.112339187
PART_002_R214G39B40A255,10604,-2608235.0,250.4385,-286.5429,1032769.0,36.23442,-1354.254,3162694.5459665256
PART_003_R247G182B210A255,10605,-5216051.0,551.9686,646.7012,932913.6,-273.7268,3075.404,5461176.858301354
PART_003_R247G182B210A255,10606,-5216557.0,29.26024,-364.3997,865939.3,22.05849,8493.8,5427751.6389097255
PART_003_R247G182B210A255,10607,-5216446.0,-10.13149,12.33543,817671.6,-521.6822,10884.49,5405315.63714776
PART_003_R247G182B210A255,10608,-5216599.0,-360.1125,-102.8928,785364.8,80.91674,9832.658,5390841.63998542
PART_001_R158G218B229A255,10609,-5216639.0,-124.7344,-459.1947,767156.3,-78.94162,5811.941,5382932.676404633
PART_001_R158G218B229A255,10610,-5216595.0,-174.5201,-275.2142,761253.2,0.13837,0.1659945,5380430.900404247
PART_001_R158G218B229A255,10611,-5216639.0,-124.7349,-459.1998,767156.4,79.25029,-5811.627,5382932.715442986
PART_001_R158G218B229A255,10612,-5216599.0,-360.1124,-102.8891,785365.1,-80.66337,-9832.363,5390841.771315017
PART_002_R214G39B40A255,10613,-5216445.0,-10.1615,12.31619,817672.0,521.9333,-10884.25,5405314.828473571
PART_002_R214G39B40A255,10614,-5216557.0,29.16747,-364.4168,865939.8,-21.91504,-8493.628,5427751.824609526
PART_002_R214G39B40A255,10615,-5216050.0,551.7924,646.6231,932914.2,273.7974,-3075.347,5461176.089023392
PART_003_R247G182B210A255,10616,-7824795.0,763.1713,-1141.178,764227.6,68.7967,6642.119,7935787.646097866
PART_003_R247G182B210A255,10617,-7824420.0,251.8113,507.4759,701009.3,-687.7324,16755.48,7918495.771598486
PART_003_R247G182B210A255,10618,-7824921.0,-611.4625,-148.4043,657568.3,272.7008,21367.97,7907085.510144977
PART_001_R158G218B229A255,10619,-7824962.0,-184.5073,-699.1645,630704.7,73.20911,19071.48,7900479.253374106
PART_001_R158G218B229A255,10620,-7824890.0,-117.2471,-551.1161,615893.3,59.41942,10891.08,7896961.657805893
PART_001_R158G218B229A255,10621,-7825005.0,-202.7105,-812.3976,611096.6,0.1211546,0.2452775,7895763.276850551
PART_001_R158G218B229A255,10622,-7824890.0,-117.2528,-551.1238,615893.4,-59.14693,-10890.59,7896961.672531322
PART_001_R158G218B229A255,10623,-7824961.0,-184.5123,-699.1668,630704.9,-72.9865,-19071.04,7900478.304079715
PART_001_R158G218B229A255,10624,-7824920.0,-611.4582,-148.4199,657568.6,-272.4758,-21367.6,7907084.586815239
PART_002_R214G39B40A255,10625,-7824419.0,251.9087,507.5169,701009.9,687.8731,-16755.24,7918495.00967468
PART_002_R214G39B40A255,10626,-7824793.0,763.3857,-1141.134,764228.3,-68.70925,-6642.021,7935786.003523517
PART_003_R247G182B210A255,10627,-10431780.0,1332.26,2056.827,522768.6,-645.2199,12172.55,10472712.076291177
PART_003_R247G182B210A255,10628,-10433340.0,-814.4414,-526.2494,466110.3,628.8633,33337.63,10464019.686465146
PART_001_R158G218B229A255,10629,-10433390.0,-337.2024,-1172.992,435090.5,449.6034,40755.48,10460055.75522805
PART_001_R158G218B229A255,10630,-10433190.0,49.21721,-958.2284,417103.2,132.1525,33724.62,10457882.577183297
PART_001_R158G218B229A255,10631,-10433370.0,-306.3162,-1149.626,407187.6,110.302,18847.06,10456504.728294348
PART_001_R158G218B229A255,10632,-10433170.0,151.2353,-990.7236,404161.0,0.08614418,0.3125727,10456209.50539698
PART_001_R158G218B229A255,10633,-10433370.0,-306.3137,-1149.622,407187.7,-110.0947,-18846.38,10456504.739535734
PART_001_R158G218B229A255,10634,-10433190.0,49.22261,-958.241,417103.4,-131.9982,-33724.06,10457882.592100246
PART_001_R158G218B229A255,10635,-10433390.0,-337.2229,-1172.996,435090.7,-449.4438,-40754.97,10460055.761984564
PART_001_R158G218B229A255,10636,-10433330.0,-814.5438,-526.2854,466110.6,-628.7907,-33337.31,10464009.684451874
PART_002_R214G39B40A255,10637,-10431770.0,1332.04,2056.732,522768.9,645.2508,-12172.44,10472702.001401944
PART_003_R247G182B210A255,10638,-13042130.0,917.1275,-3992.943,192000.9,992.8434,32815.58,13044956.373209385
PART_001_R158G218B229A255,10639,-13042370.0,-1177.994,-2614.384,164996.9,611.3021,70946.62,13044183.841220459
PART_001_R158G218B229A255,10640,-13041510.0,610.3095,-1800.769,154671.0,119.6859,72237.25,13044266.42105485
PART_001_R158G218B229A255,10641,-13041820.0,-538.571,-1591.4,147852.9,142.958,56330.09,13043634.191362774
PART_001_R158G218B229A255,10642,-13041450.0,390.5445,-1393.739,144589.9,20.18309,30401.17,13043459.243740471
PART_001_R158G218B229A255,10643,-13041710.0,-401.7246,-1402.723,143390.7,0.02802657,0.3677805,13043172.577476563
PART_001_R158G218B229A255,10644,-13041450.0,390.5479,-1393.712,144589.9,-20.09215,-30400.3,13043459.252851507
PART_001_R158G218B229A255,10645,-13041820.0,-538.5959,-1591.441,147853.0,-142.9087,-56329.44,13043634.15339878
PART_001_R158G218B229A255,10646,-13041510.0,610.3316,-1800.694,154671.1,-119.6069,-72236.61,13044266.462507453
PART_001_R158G218B229A255,10647,-13042370.0,-1177.935,-2614.414,164997.1,-611.2834,-70946.27,13044183.857599625
PART_001_R158G218B229A255,10648,-13042130.0,917.3664,-3992.806,192001.1,-992.7905,-32815.41,13044956.568661297
PART_003_R247G182B210A255,10649,12724030.0,-895.4021,3894.507,192001.0,968.5476,-32815.61,12727003.761895182
PART_000_R31G119B180A255,10650,12724260.0,1149.5,2551.568,164997.0,596.4177,-70946.8,12726212.222706817
PART_000_R31G119B180A255,10651,12723420.0,-595.801,1756.026,154671.0,116.7292,-72237.38,12726275.302070381
PART_000_R31G119B180A255,10652,12723730.0,525.7349,1553.593,147852.9,139.4963,-56330.31,12725641.476536898
PART_000_R31G119B180A255,10653,12723360.0,-381.4263,1359.055,144589.9,19.66417,-30401.23,12725444.782075873
PART_000_R31G119B180A255,10654,12723620.0,392.1798,1369.506,143390.7,0.04727416,-0.5163929,12725163.065930463
PART_000_R31G119B180A255,10655,12723360.0,-381.4206,1359.088,144589.9,-19.62432,30400.36,12725444.756497169
PART_000_R31G119B180A255,10656,12723730.0,525.6982,1553.538,147853.0,-139.4043,56329.41,12725641.513906177
PART_000_R31G119B180A255,10657,12723420.0,-595.8108,1756.09,154671.1,-116.7051,72236.74,12726275.267735036
PART_000_R31G119B180A255,10658,12724260.0,1149.455,2551.462,164997.1,-596.3564,70946.28,12726212.293363394
PART_000_R31G119B180A255,10659,12724030.0,-895.3006,3894.624,192001.2,-968.5916,32815.45,12727003.660512034
PART_003_R247G182B210A255,10660,10177340.0,-1299.727,-2007.218,522768.5,-629.4606,-12172.6,10219208.13505705
PART_003_R247G182B210A255,10661,10178870.0,794.9028,514.1404,466110.3,613.5679,-33337.72,10210346.818756029
PART_000_R31G119B180A255,10662,10178920.0,328.7425,1143.81,435090.5,438.6268,-40755.6,10206288.22227777
PART_000_R31G119B180A255,10663,10178730.0,-47.74851,935.6518,417103.3,128.9516,-33724.75,10204060.232193412
PART_000_R31G119B180A255,10664,10178900.0,298.6245,1121.11,407187.7,107.581,-18847.13,10202647.991208646
PART_000_R31G119B180A255,10665,10178700.0,-147.2452,967.3979,404161.1,0.09687334,-0.3838234,10202334.305734014
PART_000_R31G119B180A255,10666,10178900.0,298.6274,1121.119,407187.8,-107.4403,18846.42,10202647.993307205
PART_000_R31G119B180A255,10667,10178720.0,-47.73438,935.6568,417103.4,-128.7607,33724.07,10204050.25342413
PART_000_R31G119B180A255,10668,10178920.0,328.7705,1143.84,435090.8,-438.4995,40755.06,10206288.225239117
PART_000_R31G119B180A255,10669,10178860.0,794.9102,514.155,466110.7,-613.4256,33337.33,10210336.890195142
PART_002_R214G39B40A255,10670,10177340.0,-1299.819,-2007.239,522769.0,629.5022,12172.46,10219208.267571691
PART_003_R247G182B210A255,10671,7633946.0,-745.0992,1112.851,764227.9,67.067,-6642.138,7747683.006759425
PART_003_R247G182B210A255,10672,7633581.0,-245.7452,-494.6906,701009.5,-670.9679,-16755.56,7729961.047637595
PART_003_R247G182B210A255,10673,7634069.0,596.2686,144.4311,657568.4,266.0124,-21368.07,7718284.383980019
PART_000_R31G119B180A255,10674,7634109.0,180.0479,682.6055,630704.8,71.42353,-19071.56,7711516.830818539
PART_000_R31G119B180A255,10675,7634039.0,114.0994,537.3738,615893.4,57.93044,-10891.14,7707912.0534376865
PART_000_R31G119B180A255,10676,7634151.0,197.7952,793.1105,611096.7,0.1161297,-0.2647361,7706686.370197448
PART_000_R31G119B180A255,10677,7634039.0,114.0942,537.3704,615893.5,-57.74245,10890.61,7707912.079416767
PART_000_R31G119B180A255,10678,7634108.0,180.04,682.6131,630705.0,-71.19669,19071.09,7711515.886640754
PART_000_R31G119B180A255,10679,7634068.0,596.2508,144.4146,657568.7,-265.8515,21367.67,7718283.485238946
PART_002_R214G39B40A255,10680,7633579.0,-245.7236,-494.6826,701010.0,671.1198,16755.28,7729959.192112566
PART_002_R214G39B40A255,10681,7633945.0,-745.0363,1112.846,764228.5,-67.05204,6642.04,7747682.170225588
PART_003_R247G182B210A255,10682,5088831.0,-538.5308,-631.0356,932913.3,-267.0434,-3075.433,5339771.838333052
PART_003_R247G182B210A255,10683,5089325.0,-28.51677,355.7351,865939.2,21.56101,-8493.849,5305594.434632165
PART_003_R247G182B210A255,10684,5089216.0,9.751805,-12.13093,817671.6,-508.9845,-10884.57,5282636.49497343
PART_003_R247G182B210A255,10685,5089365.0,351.3411,100.6684,785364.9,78.94147,-9832.724,5267828.765690553
PART_000_R31G119B180A255,10686,5089404.0,121.5858,447.9645,767156.4,-77.06963,-5811.991,5259735.995879486
PART_000_R31G119B180A255,10687,5089361.0,170.3,268.8293,761253.3,0.1223424,-0.1678777,5257174.17597706
PART_000_R31G119B180A255,10688,5089404.0,121.5863,447.9634,767156.5,77.26671,5811.655,5259736.038820917
PART_000_R31G119B180A255,10689,5089365.0,351.3491,100.6738,785365.2,-78.69408,9832.422,5267828.891694077
PART_002_R214G39B40A255,10690,5089215.0,9.771646,-12.12546,817672.1,509.1745,10884.31,5282635.75002056
PART_002_R214G39B40A255,10691,5089324.0,-28.50019,355.753,865939.9,-21.35488,8493.675,5305593.800797101
PART_002_R214G39B40A255,10692,5088830.0,-538.5493,-631.0358,932914.4,267.104,3075.364,5339771.470563978
PART_003_R247G182B210A255,10693,2544620.0,-244.5216,279.557,1032769.0,-35.30267,-1354.301,3110440.9538096907
PART_003_R247G182B210A255,10694,2544513.0,-110.1862,-179.6485,964427.3,-516.5597,-3496.016,3043958.1859467216
PART_003_R247G182B210A255,10695,2544672.0,115.7023,76.7898,913527.6,-35.87998,-4584.999,2996419.0072686323
PART_003_R247G182B210A255,10696,2544655.0,44.28203,97.50911,878889.3,-401.402,-4176.552,2965181.3242593883
PART_003_R247G182B210A255,10697,2544682.0,162.4446,59.91396,858767.2,7.005008,-2459.876,2947422.9649048657
PART_000_R31G119B180A255,10698,2544702.0,61.29404,222.2782,852242.5,0.1222414,-0.08051075,2941723.7358250977
PART_000_R31G119B180A255,10699,2544681.0,162.4426,59.91134,858767.4,-6.812013,2459.713,2947422.2779864846
PART_002_R214G39B40A255,10700,2544655.0,44.27795,97.50963,878889.6,401.6476,4176.407,2965181.592036971
PART_002_R214G39B40A255,10701,2544671.0,115.6836,76.77547,913528.0,36.05524,4584.873,2996418.537363499
PART_002_R214G39B40A255,10702,2544512.0,-110.2141,-179.6624,964427.9,516.7333,3495.93,3043957.9375405307
PART_002_R214G39B40A255,10703,2544619.0,-244.556,279.5272,1032769.0,35.32481,1354.271,3110440.1619482287
PART_003_R247G182B210A255,10704,0.09417947,-0.1539228,-0.004977869,1065911.0,-207.5378,-0.01205402,1846212.0433414096
PART_003_R247G182B210A255,10705,0.1100326,-0.035846,0.04263831,997061.6,-87.27407,-0.03432266,1726961.3560916728
PART_003_R247G182B210A255,10706,0.1109524,0.09949522,0.114072,945572.2,-552.3318,-0.04263142,1637779.3720308538
PART_003_R247G182B210A255,10707,0.09707399,0.1855494,0.1583882,910068.2,-33.77272,-0.0400013,1576284.3618381552
PART_003_R247G182B210A255,10708,0.08223207,0.2266422,0.1912154,889485.6,-229.414,-0.02126949,1540634.3030435382
PART_003_R247G182B210A255,10709,0.07536262,0.2337764,0.1929949,882690.2,0.1209639,-0.001377087,1528864.2737431547
PART_002_R214G39B40A255,10710,0.08178767,0.226286,0.1915901,889485.8,229.6051,0.0243465,1540634.6495390935
PART_002_R214G39B40A255,10711,0.09810367,0.1880406,0.1583516,910068.6,34.02201,0.03773362,1576285.0546745604
PART_002_R214G39B40A255,10712,0.1136038,0.1207345,0.1230089,945572.7,552.523,0.04417953,1637780.2382495864
PART_002_R214G39B40A255,10713,0.1239241,0.0292956,0.06781778,997062.4,87.48856,0.03288441,1726962.7417648693
PART_002_R214G39B40A255,10714,0.1183662,-0.04498753,0.03876388,1065912.0,207.5959,0.01295473,1846213.7754117732
PART_003_R247G182B210A255,10715,-2544620.0,244.3316,-279.4836,1032769.0,-35.30265,1354.277,3110440.906050758
PART_003_R247G182B210A255,10716,-2544513.0,109.7999,179.5715,964427.2,-516.5582,3495.951,3043957.897024852
PART_003_R247G182B210A255,10717,-2544672.0,-116.2695,-76.83871,913527.5,-35.87959,4584.918,2996418.6538379136
PART_003_R247G182B210A255,10718,-2544655.0,-45.02016,-97.66781,878889.2,-401.4018,4176.472,2965180.850183127
PART_003_R247G182B210A255,10719,-2544682.0,-163.209,-59.98275,858767.2,7.004454,2459.834,2947422.605162897
PART_001_R158G218B229A255,10720,-2544702.0,-62.1029,-222.4318,852242.5,0.1224587,0.07739389,2941723.31953936
PART_001_R158G218B229A255,10721,-2544682.0,-163.2055,-59.97723,858767.3,-6.812269,-2459.664,2947422.6960381875
PART_002_R214G39B40A255,10722,-2544655.0,-45.02255,-97.67483,878889.6,401.6478,-4176.332,2965181.2013378874
PART_002_R214G39B40A255,10723,-2544671.0,-116.2916,-76.83381,913528.0,36.0542,-4584.786,2996418.2540397407
PART_002_R214G39B40A255,10724,-2544512.0,109.6954,179.5269,964427.8,516.7324,-3495.866,3043957.5688303607
PART_002_R214G39B40A255,10725,-2544619.0,244.1496,-279.5346,1032769.0,35.32389,-1354.246,3110439.992603552
PART_003_R247G182B210A255,10726,-5088831.0,538.3573,631.236,932913.2,-267.0422,3075.408,5339771.798700842
PART_003_R247G182B210A255,10727,-5089324.0,28.43178,-355.8555,865939.0,21.56311,8493.773,5305593.278629259
PART_003_R247G182B210A255,10728,-5089215.0,-9.421203,12.56934,817671.5,-508.9852,10884.48,5282635.855024021
PART_003_R247G182B210A255,10729,-5089365.0,-350.997,-100.5514,785364.8,78.94186,9832.638,5267828.943204321
PART_001_R158G218B229A255,10730,-5089404.0,-121.0034,-447.3673,767156.3,-77.07143,5811.943,5259736.522631308
PART_001_R158G218B229A255,10731,-5089361.0,-169.8646,-268.6404,761253.2,0.123332,0.1673635,5257174.434712595
PART_001_R158G218B229A255,10732,-5089404.0,-121.0035,-447.3635,767156.4,77.2659,-5811.606,5259736.567068922
PART_001_R158G218B229A255,10733,-5089365.0,-351.0022,-100.5609,785365.1,-78.69265,-9832.336,5267829.06857956
PART_002_R214G39B40A255,10734,-5089215.0,-9.394808,12.58876,817672.0,509.1729,-10884.22,5282636.107717111
PART_002_R214G39B40A255,10735,-5089323.0,28.54119,-355.8352,865939.8,-21.3558,-8493.602,5305592.77252321
PART_002_R214G39B40A255,10736,-5088829.0,538.6009,631.3391,932914.2,267.1021,-3075.337,5339770.581709476
PART_003_R247G182B210A255,10737,-7633946.0,745.2037,-1112.277,764227.8,67.06654,6642.11,7747683.311272823
PART_003_R247G182B210A255,10738,-7633581.0,245.281,494.13,701009.4,-670.9659,16755.48,7729960.513872578
PART_003_R247G182B210A255,10739,-7634069.0,-596.5643,-143.9755,657568.2,266.0121,21367.98,7718284.4112216225
PART_001_R158G218B229A255,10740,-7634109.0,-180.8951,-683.2176,630704.7,71.42255,19071.47,7711516.083318067
PART_001_R158G218B229A255,10741,-7634039.0,-114.6026,-536.9298,615893.3,57.92808,10891.08,7707911.999858056
PART_001_R158G218B229A255,10742,-7634151.0,-198.7234,-793.7042,611096.6,0.1173451,0.272357,7706685.592650756
PART_001_R158G218B229A255,10743,-7634039.0,-114.5962,-536.9272,615893.4,-57.7432,-10890.57,7707912.026120146
PART_001_R158G218B229A255,10744,-7634109.0,-180.8933,-683.2255,630704.9,-71.19364,-19070.98,7711516.12572998
PART_001_R158G218B229A255,10745,-7634068.0,-596.588,-143.9741,657568.6,-265.8532,-21367.58,7718283.510050908
PART_002_R214G39B40A255,10746,-7633579.0,245.1252,494.0675,701009.9,671.1194,-16755.19,7729958.565106731
PART_002_R214G39B40A255,10747,-7633944.0,744.924,-1112.345,764228.3,-67.05361,-6642.015,7747681.317063463
PART_003_R247G182B210A255,10748,-10177340.0,1299.907,2008.075,522768.3,-629.456,12172.57,10219208.620750483
PART_003_R247G182B210A255,10749,-10178870.0,-795.095,-514.8956,466110.2,613.5667,33337.61,10210346.331762206
PART_001_R158G218B229A255,10750,-10178920.0,-328.056,-1142.716,435090.4,438.6242,40755.48,10206289.095825166
PART_001_R158G218B229A255,10751,-10178730.0,47.95235,-936.1409,417103.2,128.9496,33724.64,10204060.076620184
PART_001_R158G218B229A255,10752,-10178900.0,-297.688,-1119.852,407187.6,107.5786,18847.05,10202649.07339246
PART_001_R158G218B229A255,10753,-10178700.0,147.5319,-967.7963,404161.0,0.09729036,0.4008016,10202334.238187427
PART_001_R158G218B229A255,10754,-10178900.0,-297.6923,-1119.867,407187.7,-107.4394,-18846.38,10202649.072021889
PART_001_R158G218B229A255,10755,-10178720.0,47.94386,-936.1346,417103.3,-128.7581,-33723.94,10204050.106100786
PART_001_R158G218B229A255,10756,-10178920.0,-328.0399,-1142.74,435090.7,-438.4979,-40754.96,10206289.124009538
PART_001_R158G218B229A255,10757,-10178860.0,-794.9716,-514.8598,466110.6,-613.4251,-33337.22,10210336.493514672
PART_002_R214G39B40A255,10758,-10177340.0,1300.228,2008.19,522768.9,629.4998,-12172.43,10219208.929469595
PART_003_R247G182B210A255,10759,-12724030.0,895.82,-3893.407,192001.0,968.5338,32815.56,12727004.519995987
PART_001_R158G218B229A255,10760,-12724260.0,-1150.066,-2552.617,164996.9,596.4256,70946.67,12726211.409425404
PART_001_R158G218B229A255,10761,-12723420.0,595.7688,-1755.016,154671.0,116.7235,72237.23,12726275.788139526
PART_001_R158G218B229A255,10762,-12723730.0,-526.7248,-1554.635,147852.9,139.4973,56330.19,12725640.459232146
PART_001_R158G218B229A255,10763,-12723360.0,381.1672,-1358.04,144589.9,19.66274,30401.13,12725445.159102077
PART_001_R158G218B229A255,10764,-12723620.0,-393.2601,-1370.506,143390.7,0.04627577,0.5388723,12725162.02597397
PART_001_R158G218B229A255,10765,-12723360.0,381.1609,-1358.082,144589.9,-19.62126,-30400.32,12725445.129155228
PART_001_R158G218B229A255,10766,-12723730.0,-526.691,-1554.567,147853.0,-139.4069,-56329.24,12725640.5009854
PART_001_R158G218B229A255,10767,-12723420.0,595.7312,-1755.111,154671.1,-116.6982,-72236.61,12726275.714953046
PART_001_R158G218B229A255,10768,-12724260.0,-1150.156,-2552.547,164997.1,-596.3643,-70946.13,12726211.398154411
PART_001_R158G218B229A255,10769,-12724030.0,895.4899,-3893.6,192001.1,-968.58,-32815.41,12727004.26187532
PART_003_R247G182B210A255,10770,12405930.0,-872.5775,3797.437,192001.0,944.4346,-32815.67,12409055.503567798
PART_000_R31G119B180A255,10771,12406160.0,1121.03,2487.731,164997.0,581.487,-70946.8,12408255.845429044
PART_000_R31G119B180A255,10772,12405340.0,-580.4109,1712.414,154671.0,113.8606,-72237.53,12408297.468679696
PART_000_R31G119B180A255,10773,12405630.0,513.1685,1514.885,147852.9,135.9709,-56330.32,12407642.765925338
PART_000_R31G119B180A255,10774,12405280.0,-371.1474,1325.42,144589.9,19.19798,-30401.39,12407442.431791047
PART_000_R31G119B180A255,10775,12405530.0,383.1009,1335.535,143390.7,0.003875832,-0.4953992,12407156.728638478
PART_000_R31G119B180A255,10776,12405280.0,-371.1572,1325.404,144589.9,-19.11078,30400.23,12407442.43616054
PART_000_R31G119B180A255,10777,12405630.0,513.2154,1515.002,147853.0,-135.9545,56329.45,12407642.675724693
PART_000_R31G119B180A255,10778,12405340.0,-580.41,1712.346,154671.1,-113.7564,72236.66,12408297.490752716
PART_000_R31G119B180A255,10779,12406150.0,1121.077,2487.877,164997.1,-581.474,70946.31,12408245.747693183
PART_000_R31G119B180A255,10780,12405930.0,-872.7619,3797.255,192001.2,-944.3369,32815.44,12409055.694137337
PART_003_R247G182B210A255,10781,9922909.0,-1267.68,-1957.19,522768.7,-613.7473,-12172.6,9965763.044447279
PART_003_R247G182B210A255,10782,9924394.0,774.6687,501.2036,466110.4,598.1707,-33337.76,9956708.616706701
PART_000_R31G119B180A255,10783,9924446.0,320.0477,1115.059,435090.6,427.666,-40755.66,9952551.525496788
PART_000_R31G119B180A255,10784,9924257.0,-47.16444,912.0732,417103.3,125.669,-33724.77,9950257.88201884
PART_000_R31G119B180A255,10785,9924428.0,290.4424,1092.848,407187.7,104.892,-18847.19,9948819.772932054
PART_000_R31G119B180A255,10786,9924235.0,-144.2914,943.0015,404161.1,0.03027102,-0.3774567,9948495.030852387
PART_000_R31G119B180A255,10787,9924428.0,290.4351,1092.845,407187.8,-104.7504,18846.38,9948819.78574
PART_000_R31G119B180A255,10788,9924256.0,-47.18519,912.0868,417103.5,-125.589,33724.09,9950256.906477483
PART_000_R31G119B180A255,10789,9924444.0,320.0232,1115.048,435090.8,-427.513,40755.04,9952549.56758184
PART_000_R31G119B180A255,10790,9924391.0,774.7072,501.2172,466110.7,-598.1156,33337.34,9956705.638575815
PART_002_R214G39B40A255,10791,9922906.0,-1267.511,-1957.14,522769.1,613.788,12172.45,9965760.010227269
PART_003_R247G182B210A255,10792,7443098.0,-726.1512,1085.118,764227.6,65.45931,-6642.16,7559715.758333621
PART_003_R247G182B210A255,10793,7442741.0,-239.2627,-482.1928,701009.4,-654.196,-16755.58,7541541.582651522
PART_003_R247G182B210A255,10794,7443218.0,581.8071,140.9948,657568.3,259.3753,-21368.09,7529586.488970745
PART_000_R31G119B180A255,10795,7443257.0,176.1454,665.8057,630704.8,69.57241,-19071.59,7522650.137555352
PART_000_R31G119B180A255,10796,7443188.0,111.9236,524.2288,615893.4,56.45342,-10891.14,7518952.236245848
PART_000_R31G119B180A255,10797,7443297.0,193.5496,773.5832,611096.7,0.02842347,-0.2662432,7517698.423717111
PART_000_R31G119B180A255,10798,7443188.0,111.9237,524.2319,615893.5,-56.32316,10890.63,7518952.257016732
PART_000_R31G119B180A255,10799,7443256.0,176.1468,665.7965,630705.0,-69.48061,19071.1,7522649.1985985
PART_000_R31G119B180A255,10800,7443216.0,581.8274,141.0183,657568.8,-259.197,21367.69,7529584.617933089
PART_002_R214G39B40A255,10801,7442739.0,-239.286,-482.206,701010.1,654.3137,16755.29,7541539.820068385
PART_002_R214G39B40A255,10802,7443096.0,-726.2432,1085.112,764228.6,-65.34177,6642.044,7559714.140459722
PART_003_R247G182B210A255,10803,4961610.0,-525.3795,-615.3227,932913.7,-260.3875,-3075.43,5218644.1089680875
PART_003_R247G182B210A255,10804,4962092.0,-28.15553,346.7493,865939.4,20.92654,-8493.872,5183680.722032642
PART_003_R247G182B210A255,10805,4961985.0,9.025579,-11.97928,817671.7,-496.2959,-10884.59,5160177.030446541
PART_003_R247G182B210A255,10806,4962131.0,341.9221,97.93615,785364.9,76.86648,-9832.737,5145021.444488922
PART_000_R31G119B180A255,10807,4962169.0,117.8384,436.5337,767156.4,-75.19331,-5811.985,5136736.1845994145
PART_000_R31G119B180A255,10808,4962127.0,165.3038,261.8554,761253.3,0.008405784,-0.160289,5134111.856866778
PART_000_R31G119B180A255,10809,4962169.0,117.831,436.5299,767156.5,75.29181,5811.68,5136736.23378216
PART_000_R31G119B180A255,10810,4962131.0,341.9051,97.92173,785365.2,-76.81213,9832.443,5145021.595332766
PART_002_R214G39B40A255,10811,4961984.0,9.006848,-11.99177,817672.1,496.4406,10884.34,5160176.2724747
PART_002_R214G39B40A255,10812,4962090.0,-28.14172,346.7272,865940.0,-20.86889,8493.689,5183679.111346474
PART_002_R214G39B40A255,10813,4961609.0,-525.2854,-615.3138,932914.4,260.4487,3075.37,5218643.484454763
PART_003_R247G182B210A255,10814,2481005.0,-238.3629,272.5564,1032768.0,-34.36049,-1354.312,3058616.664989034
PART_003_R247G182B210A255,10815,2480900.0,-107.2081,-175.0295,964427.0,-503.6689,-3496.031,2990979.9028677046
PART_003_R247G182B210A255,10816,2481055.0,113.2121,75.02683,913527.5,-34.99288,-4585.016,2942588.561521302
PART_003_R247G182B210A255,10817,2481039.0,43.76654,95.3678,878889.3,-391.4753,-4176.568,2910773.3207030753
PART_003_R247G182B210A255,10818,2481065.0,159.0242,58.68438,858767.2,6.766558,-2459.875,2892681.259483527
PART_000_R31G119B180A255,10819,2481084.0,60.44549,217.0554,852242.5,-0.01128399,-0.07480147,2886873.9470408624
PART_000_R31G119B180A255,10820,2481065.0,159.0226,58.68373,858767.4,-6.698486,2459.737,2892681.4382213787
PART_002_R214G39B40A255,10821,2481039.0,43.76543,95.35952,878889.6,391.5036,4176.43,2910773.595871362
PART_002_R214G39B40A255,10822,2481055.0,113.231,75.03812,913528.1,35.14105,4584.904,2942589.1070868853
PART_002_R214G39B40A255,10823,2480900.0,-107.1736,-175.0196,964427.9,503.7629,3495.95,2990980.754818736
PART_002_R214G39B40A255,10824,2481004.0,-238.3056,272.5887,1032770.0,34.47327,1354.28,3058617.8434138373
PART_003_R247G182B210A255,10825,0.2101792,-0.1541583,0.01590951,1065912.0,-202.3683,-0.02025779,1846213.7736705595
PART_003_R247G182B210A255,10826,0.1446644,-0.2507096,-0.01509734,997061.8,-85.20833,-0.05029475,1726961.7021923866
PART_003_R247G182B210A255,10827,0.0630533,-0.3812577,-0.0542587,945572.3,-538.5765,-0.06616194,1637779.5314925576
PART_003_R247G182B210A255,10828,-0.00357404,-0.4635385,-0.06100907,910068.3,-33.05439,-0.05682738,1576284.5349976148
PART_003_R247G182B210A255,10829,-0.04721741,-0.4997608,-0.06337966,889485.6,-223.7491,-0.03628678,1540634.300544182
PART_003_R247G182B210A255,10830,-0.06116675,-0.5043333,-0.05345731,882690.2,-0.01820255,0.002363182,1528864.2737431994
PART_002_R214G39B40A255,10831,-0.04632533,-0.4993415,-0.06400509,889485.7,223.803,0.03244547,1540634.4737727437
PART_002_R214G39B40A255,10832,-0.00431729,-0.4660129,-0.06043103,910068.6,33.0642,0.06078487,1576285.0546134748
PART_002_R214G39B40A255,10833,0.06108932,-0.4062664,-0.06518213,945572.8,538.6919,0.0643359,1637780.397631684
PART_002_R214G39B40A255,10834,0.1287689,-0.3298968,-0.04534483,997062.5,85.23839,0.05276718,1726962.91463241
PART_002_R214G39B40A255,10835,0.1814952,-0.2885871,-0.03846579,1065912.0,202.428,0.01925945,1846213.773690212
PART_003_R247G182B210A255,10836,-2481004.0,237.9476,-272.6262,1032768.0,-34.35914,1354.27,3058615.6569992397
PART_003_R247G182B210A255,10837,-2480900.0,107.1288,175.1954,964426.9,-503.6685,3495.922,2990979.841673613
PART_003_R247G182B210A255,10838,-2481055.0,-112.9953,-74.7878,913527.4,-34.99246,4584.874,2942588.6598827904
PART_003_R247G182B210A255,10839,-2481039.0,-43.30009,-94.90382,878889.2,-391.4761,4176.451,2910773.626138251
PART_003_R247G182B210A255,10840,-2481065.0,-158.4999,-58.24867,858767.2,6.766558,2459.8,2892681.670974165
PART_001_R158G218B229A255,10841,-2481084.0,-59.8634,-216.4975,852242.4,-0.01188673,0.07984893,2886874.348324949
PART_001_R158G218B229A255,10842,-2481064.0,-158.5003,-58.25207,858767.3,-6.697805,-2459.67,2892680.90040857
PART_002_R214G39B40A255,10843,-2481038.0,-43.29162,-94.88684,878889.5,391.5033,-4176.304,2910773.055771333
PART_002_R214G39B40A255,10844,-2481054.0,-112.9665,-74.78968,913528.0,35.14119,-4584.77,2942588.386438945
PART_002_R214G39B40A255,10845,-2480899.0,107.2563,175.2584,964427.8,503.7614,-3495.839,2990979.9615336233
PART_002_R214G39B40A255,10846,-2481004.0,238.1575,-272.5599,1032769.0,34.47306,-1354.238,3058616.7819741536
PART_003_R247G182B210A255,10847,-4961610.0,525.0785,615.1037,932913.5,-260.3864,3075.386,5218643.754409255
PART_003_R247G182B210A255,10848,-4962091.0,27.81939,-346.5261,865939.2,20.9273,8493.765,5183679.609969493
PART_003_R247G182B210A255,10849,-4961985.0,-9.810874,11.63313,817671.5,-496.2942,10884.44,5160176.390428969
PART_003_R247G182B210A255,10850,-4962131.0,-342.6928,-97.79474,785364.8,76.86385,9832.613,5145021.094569853
PART_001_R158G218B229A255,10851,-4962169.0,-118.8748,-436.8886,767156.3,-75.19283,5811.909,5136735.467534184
PART_001_R158G218B229A255,10852,-4962127.0,-166.1585,-261.6937,761253.2,0.006442378,0.1609044,5134111.477492067
PART_001_R158G218B229A255,10853,-4962169.0,-118.8679,-436.888,767156.4,75.29427,-5811.605,5136735.514933564
PART_001_R158G218B229A255,10854,-4962131.0,-342.6781,-97.7746,785365.1,-76.81306,-9832.317,5145021.24705183
PART_002_R214G39B40A255,10855,-4961984.0,-9.846916,11.61563,817672.0,496.4416,-10884.2,5160175.639304978
PART_002_R214G39B40A255,10856,-4962090.0,27.65261,-346.5497,865939.8,-20.87187,-8493.579,5183678.861398993
PART_002_R214G39B40A255,10857,-4961608.0,524.706,614.9666,932914.2,260.4486,-3075.328,5218641.985736274
PART_003_R247G182B210A255,10858,-7443098.0,725.6754,-1085.803,764227.3,65.46253,6642.111,7559715.095826407
PART_003_R247G182B210A255,10859,-7442741.0,239.547,482.9718,701009.2,-654.1957,16755.45,7541542.050735458
PART_003_R247G182B210A255,10860,-7443218.0,-581.6863,-141.3452,657568.2,259.374,21367.93,7529586.347910705
PART_001_R158G218B229A255,10861,-7443256.0,-175.326,-664.729,630704.6,69.56868,19071.44,7522650.034698569
PART_001_R158G218B229A255,10862,-7443189.0,-111.5147,-524.3596,615893.2,56.45312,10891.07,7518953.314340859
PART_001_R158G218B229A255,10863,-7443297.0,-192.618,-772.4141,611096.6,0.02600479,0.2539445,7517699.439204352
PART_001_R158G218B229A255,10864,-7443188.0,-111.5158,-524.3598,615893.4,-56.31929,-10890.53,7518952.370613906
PART_001_R158G218B229A255,10865,-7443256.0,-175.3217,-664.7229,630704.8,-69.48105,-19070.98,7522650.0866468
PART_001_R158G218B229A255,10866,-7443216.0,-581.6567,-141.3467,657568.6,-259.1933,-21367.51,7529584.486037819
PART_002_R214G39B40A255,10867,-7442739.0,239.7328,483.0471,701009.9,654.3104,-16755.17,7541540.399049835
PART_002_R214G39B40A255,10868,-7443096.0,726.0366,-1085.703,764228.3,-65.34251,-6641.989,7559713.656762293
PART_003_R247G182B210A255,10869,-9922909.0,1267.301,1956.158,522768.5,-613.7512,12172.54,9965762.310139988
PART_003_R247G182B210A255,10870,-9924394.0,-774.5574,-500.16,466110.2,598.172,33337.62,9956709.162770571
PART_001_R158G218B229A255,10871,-9924446.0,-321.0008,-1116.159,435090.4,427.6637,40755.48,9952550.473487051
PART_001_R158G218B229A255,10872,-9924257.0,46.81759,-911.086,417103.1,125.6646,33724.6,9950258.174366869
PART_001_R158G218B229A255,10873,-9924429.0,-291.6826,-1093.913,407187.6,104.8906,18847.11,9948819.607973024
PART_001_R158G218B229A255,10874,-9924235.0,143.8521,-941.9962,404161.0,0.02914444,0.3506279,9948495.300844973
PART_001_R158G218B229A255,10875,-9924428.0,-291.6729,-1093.899,407187.7,-104.7478,-18846.26,9948818.629757464
PART_001_R158G218B229A255,10876,-9924256.0,46.83067,-911.1196,417103.3,-125.5864,-33723.96,9950257.185434949
PART_001_R158G218B229A255,10877,-9924444.0,-321.0261,-1116.146,435090.7,-427.51,-40754.82,9952548.504361704
PART_001_R158G218B229A255,10878,-9924391.0,-774.7576,-500.2441,466110.6,-598.1163,-33337.21,9956706.083070256
PART_002_R214G39B40A255,10879,-9922906.0,1266.851,1956.0,522768.9,613.789,-12172.39,9965759.08223329
PART_003_R247G182B210A255,10880,-12405930.0,872.0216,-3798.759,192000.8,944.4511,32815.59,12409054.55526671
PART_001_R158G218B229A255,10881,-12406160.0,-1120.363,-2486.293,164996.9,581.476,70946.6,12408256.890113173
PART_001_R158G218B229A255,10882,-12405340.0,580.4262,-1713.346,154670.9,113.8636,72237.3,12408297.002834728
PART_001_R158G218B229A255,10883,-12405630.0,-511.9739,-1513.137,147852.9,135.9664,56330.1,12407644.233836401
PART_001_R158G218B229A255,10884,-12405280.0,371.4428,-1326.093,144589.8,19.19711,30401.3,12407442.23897294
PART_001_R158G218B229A255,10885,-12405530.0,-381.798,-1333.696,143390.7,0.005198085,0.4602471,12407158.299242841
PART_001_R158G218B229A255,10886,-12405280.0,371.4545,-1326.063,144589.9,-19.11284,-30400.08,12407442.254344555
PART_001_R158G218B229A255,10887,-12405630.0,-512.0204,-1513.279,147853.0,-135.9479,-56329.29,12407644.132157445
PART_001_R158G218B229A255,10888,-12405340.0,580.4838,-1713.231,154671.1,-113.7616,-72236.39,12408297.080685413
PART_001_R158G218B229A255,10889,-12406150.0,-1120.249,-2486.407,164997.1,-581.4629,-70946.14,12408246.893361427
PART_001_R158G218B229A255,10890,-12405930.0,872.4917,-3798.474,192001.1,-944.3512,-32815.34,12409054.944648592
PART_003_R247G182B210A255,10891,12087830.0,-850.8793,3699.638,192001.1,920.0792,-32815.64,12091114.206838522
PART_000_R31G119B180A255,10892,12088050.0,1091.907,2424.016,164997.0,566.6084,-70946.96,12090294.867262594
PART_000_R31G119B180A255,10893,12087250.0,-566.1648,1668.137,154671.1,110.8617,-72237.51,12090315.175984422
PART_000_R31G119B180A255,10894,12087540.0,499.3027,1475.935,147853.0,132.5143,-56330.5,12089658.80969511
PART_000_R31G119B180A255,10895,12087190.0,-362.5521,1291.076,144589.9,18.63604,-30401.33,12089434.749354083
PART_000_R31G119B180A255,10896,12087440.0,372.386,1301.071,143390.7,0.02687626,-0.6580321,12089154.725125208
PART_000_R31G119B180A255,10897,12087190.0,-362.5404,1291.181,144589.9,-18.68389,30400.32,12089434.683407528
PART_000_R31G119B180A255,10898,12087540.0,499.2374,1475.896,147853.0,-132.4374,56329.34,12089658.845616248
PART_000_R31G119B180A255,10899,12087250.0,-566.1538,1668.343,154671.1,-110.887,72236.74,12090315.053742826
PART_000_R31G119B180A255,10900,12088050.0,1091.886,2423.872,164997.1,-566.52,70946.26,12090294.941483878
PART_000_R31G119B180A255,10901,12087830.0,-850.5618,3699.922,192001.2,-920.1742,32815.46,12091113.90951616
PART_003_R247G182B210A255,10902,9668475.0,-1234.574,-1906.78,522768.4,-597.9752,-12172.64,9712367.874339113
PART_003_R247G182B210A255,10903,9669922.0,755.279,488.4907,466110.3,582.9044,-33337.79,9703116.84200386
PART_000_R31G119B180A255,10904,9669973.0,312.4276,1086.701,435090.6,416.6476,-40755.68,9698852.731726866
PART_000_R31G119B180A255,10905,9669789.0,-45.21734,888.9833,417103.3,122.4467,-33724.83,9696494.146046994
PART_000_R31G119B180A255,10906,9669956.0,283.8574,1065.189,407187.7,102.0928,-18847.15,9695023.253246944
PART_000_R31G119B180A255,10907,9669767.0,-139.7194,919.1674,404161.1,0.005166857,-0.4018484,9694683.921140298
PART_000_R31G119B180A255,10908,9669955.0,283.8563,1065.206,407187.8,-102.17,18846.45,9695022.256494312
PART_000_R31G119B180A255,10909,9669788.0,-45.20985,888.9847,417103.5,-122.3696,33724.09,9696493.162497051
PART_000_R31G119B180A255,10910,9669971.0,312.4388,1086.743,435090.9,-416.6136,40755.1,9698850.7443674
PART_000_R31G119B180A255,10911,9669919.0,755.2212,488.4863,466110.8,-582.7394,33337.35,9703113.950940678
PART_002_R214G39B40A255,10912,9668472.0,-1234.803,-1906.854,522769.2,598.0244,12172.46,9712365.166756062
PART_003_R247G182B210A255,10913,7252250.0,-708.1187,1057.158,764228.1,63.67122,-6642.149,7371897.126447572
PART_003_R247G182B210A255,10914,7251902.0,-233.6408,-469.9736,701009.7,-637.4672,-16755.6,7353249.118172621
PART_003_R247G182B210A255,10915,7252366.0,566.2929,137.2041,657568.5,252.6024,-21368.11,7340999.238415884
PART_000_R31G119B180A255,10916,7252404.0,170.863,648.4798,630704.8,67.7262,-19071.58,7333885.650636751
PART_000_R31G119B180A255,10917,7252337.0,108.1873,510.5042,615893.4,54.85597,-10891.12,7330091.071630945
PART_000_R31G119B180A255,10918,7252443.0,187.6919,753.4611,611096.8,-0.05042895,-0.2178326,7328807.690762968
PART_000_R31G119B180A255,10919,7252337.0,108.1686,510.4853,615893.5,-55.02217,10890.68,7330091.113480017
PART_000_R31G119B180A255,10920,7252403.0,170.8339,648.4719,630705.0,-67.74054,19071.16,7333884.728420456
PART_000_R31G119B180A255,10921,7252364.0,566.2592,137.1595,657568.8,-252.6387,21367.73,7340997.378637926
PART_002_R214G39B40A255,10922,7251900.0,-233.5538,-469.9576,701010.1,637.5517,16755.32,7353247.2073592255
PART_002_R214G39B40A255,10923,7252247.0,-707.8455,1057.18,764228.7,-63.7162,6642.055,7371894.216312284
PART_003_R247G182B210A255,10924,4834390.0,-511.5956,-599.4492,932913.2,-253.7108,-3075.448,5097814.031015248
PART_003_R247G182B210A255,10925,4834859.0,-27.04291,338.0088,865939.1,20.43443,-8493.87,5062027.875390742
PART_003_R247G182B210A255,10926,4834755.0,9.337758,-11.44358,817671.7,-483.6819,-10884.59,5037954.271643309
PART_003_R247G182B210A255,10927,4834897.0,333.8867,95.7601,785365.0,74.81509,-9832.723,5022433.315142532
PART_000_R31G119B180A255,10928,4834934.0,115.6262,425.6919,767156.4,-73.45931,-5811.963,5013946.337122566
PART_000_R31G119B180A255,10929,4834893.0,161.9108,255.528,761253.3,-0.1074284,-0.1096878,5011256.515080486
PART_000_R31G119B180A255,10930,4834934.0,115.6161,425.6775,767156.5,73.1738,5811.73,5013946.394012939
PART_000_R31G119B180A255,10931,4834897.0,333.8769,95.74779,785365.2,-74.91566,9832.507,5022433.418343099
PART_002_R214G39B40A255,10932,4834754.0,9.334204,-11.45879,817672.1,483.591,10884.39,5037953.514420817
PART_002_R214G39B40A255,10933,4834857.0,-27.06157,338.0131,865940.0,-20.32518,8493.731,5062026.433241742
PART_002_R214G39B40A255,10934,4834388.0,-511.6352,-599.4773,932914.6,253.7233,3075.383,5097812.934745486
PART_003_R247G182B210A255,10935,2417389.0,-232.4749,265.5816,1032769.0,-33.60407,-1354.312,3007246.358352022
PART_003_R247G182B210A255,10936,2417287.0,-104.8489,-170.6878,964427.4,-490.8429,-3496.047,2938424.83880557
PART_003_R247G182B210A255,10937,2417438.0,109.7332,72.9531,913527.7,-34.28639,-4585.031,2889156.712166165
PART_003_R247G182B210A255,10938,2417422.0,41.84358,92.61376,878889.4,-381.5566,-4176.567,2856745.804686556
PART_003_R247G182B210A255,10939,2417447.0,154.0904,56.92337,858767.3,6.365576,-2459.868,2838309.687302937
PART_000_R31G119B180A255,10940,2417467.0,57.98125,211.1481,852242.5,-0.1507666,-0.04218848,2832392.6205397765
PART_000_R31G119B180A255,10941,2417447.0,154.0799,56.91138,858767.4,-6.744569,2459.771,2838309.78739947
PART_002_R214G39B40A255,10942,2417422.0,41.82719,92.60583,878889.6,381.3721,4176.481,2856745.9991177
PART_002_R214G39B40A255,10943,2417438.0,109.6993,72.92064,913528.0,34.09397,4584.943,2889157.024074606
PART_002_R214G39B40A255,10944,2417287.0,-104.8657,-170.7051,964427.9,490.8336,3495.985,2938425.3449252057
PART_002_R214G39B40A255,10945,2417388.0,-232.4451,265.5439,1032770.0,33.51882,1354.291,3007246.587919521
PART_003_R247G182B210A255,10946,0.3090153,-0.271464,-0.009838195,1065911.0,-197.1977,-0.0309214,1846212.0399412564
PART_003_R247G182B210A255,10947,0.286001,-0.08307095,0.07200376,997061.5,-82.99255,-0.0829166,1726961.1822534297
PART_003_R247G182B210A255,10948,0.2435396,0.1241463,0.1835886,945572.2,-524.9129,-0.09852884,1637779.3449788094
PART_003_R247G182B210A255,10949,0.1859954,0.2537677,0.2592033,910068.3,-32.31952,-0.08986823,1576284.5349518447
PART_003_R247G182B210A255,10950,0.1408217,0.3116566,0.3078816,889485.6,-218.2485,-0.04704887,1540634.2981770001
PART_003_R247G182B210A255,10951,0.1222096,0.3218025,0.3139829,882690.2,-0.1681397,-0.002959412,1528864.273743174
PART_002_R214G39B40A255,10952,0.1400287,0.3113616,0.3089493,889485.7,217.8364,0.05363699,1540634.4712071058
PART_002_R214G39B40A255,10953,0.1877643,0.2564338,0.2578153,910068.5,32.11387,0.08500821,1576284.8813493957
PART_002_R214G39B40A255,10954,0.2465888,0.1540902,0.1970866,945572.7,524.727,0.1021529,1637780.2108253662
PART_002_R214G39B40A255,10955,0.3071312,0.01385486,0.1082296,997062.5,83.04623,0.07995663,1726962.914311962
PART_002_R214G39B40A255,10956,0.3466547,-0.104428,0.05787994,1065913.0,197.1766,0.03239121,1846215.5040360251
PART_003_R247G182B210A255,10957,-2417389.0,232.1299,-265.4765,1032769.0,-33.60457,1354.25,3007246.2617906863
PART_003_R247G182B210A255,10958,-2417287.0,104.2212,170.5986,964427.3,-490.8415,3495.886,2938424.444880898
PART_003_R247G182B210A255,10959,-2417438.0,-110.6437,-73.01377,913527.5,-34.28714,4584.838,2889156.1152533097
PART_003_R247G182B210A255,10960,-2417422.0,-43.00126,-92.80416,878889.3,-381.5568,4176.386,2856745.1412167144
PART_003_R247G182B210A255,10961,-2417448.0,-155.2924,-56.99235,858767.2,6.364064,2459.773,2838309.9067634805
PART_001_R158G218B229A255,10962,-2417467.0,-59.24019,-211.3203,852242.4,-0.1502393,0.03578751,2832391.9195184284
PART_001_R158G218B229A255,10963,-2417447.0,-155.2792,-56.97458,858767.3,-6.74472,-2459.662,2838309.1587513634
PART_002_R214G39B40A255,10964,-2417422.0,-42.9926,-92.80784,878889.5,381.3734,-4176.312,2856745.32751834
PART_002_R214G39B40A255,10965,-2417438.0,-110.6643,-72.98971,913527.9,34.09337,-4584.739,2889156.495653273
PART_002_R214G39B40A255,10966,-2417286.0,104.0411,170.5249,964427.8,490.8336,-3495.827,2938424.0098930923
PART_002_R214G39B40A255,10967,-2417388.0,231.7719,-265.5586,1032769.0,33.51767,-1354.228,3007245.280987767
PART_003_R247G182B210A255,10968,-4834389.0,511.2606,599.7311,932912.8,-253.7105,3075.383,5097812.837686457
PART_003_R247G182B210A255,10969,-4834858.0,26.87201,-338.1609,865938.9,20.43615,8493.691,5062026.66250967
PART_003_R247G182B210A255,10970,-4834755.0,-8.88777,12.11236,817671.4,-483.6855,10884.38,5037954.661033959
PART_003_R247G182B210A255,10971,-4834897.0,-333.4038,-95.53103,785364.7,74.81497,9832.533,5022433.515960744
PART_001_R158G218B229A255,10972,-4834934.0,-114.8043,-424.7696,767156.2,-73.46352,5811.857,5013947.085863251
PART_001_R158G218B229A255,10973,-4834893.0,-161.2988,-255.1856,761253.1,-0.1051621,0.1097487,5011256.884324889
PART_001_R158G218B229A255,10974,-4834933.0,-114.7932,-424.751,767156.3,73.17244,-5811.623,5013946.181013633
PART_001_R158G218B229A255,10975,-4834897.0,-333.3923,-95.52633,785365.0,-74.91142,-9832.318,5022433.663233538
PART_002_R214G39B40A255,10976,-4834754.0,-8.81871,12.16393,817671.9,483.5897,-10884.18,5037954.001379272
PART_002_R214G39B40A255,10977,-4834857.0,27.07729,-338.1106,865939.8,-20.32426,-8493.556,5062026.290673717
PART_002_R214G39B40A255,10978,-4834387.0,511.6458,599.919,932914.2,253.7209,-3075.316,5097811.981079655
PART_003_R247G182B210A255,10979,-7252249.0,708.2445,-1056.288,764227.7,63.67003,6642.076,7371896.507776354
PART_003_R247G182B210A255,10980,-7251902.0,232.9124,469.1433,701009.4,-637.4652,16755.41,7353248.262425035
PART_003_R247G182B210A255,10981,-7252366.0,-566.772,-136.4955,657568.2,252.5993,21367.88,7340999.269201013
PART_001_R158G218B229A255,10982,-7252404.0,-172.1681,-649.3655,630704.6,67.72409,19071.38,7333884.514288118
PART_001_R158G218B229A255,10983,-7252338.0,-108.9731,-509.7985,615893.2,54.8506,10890.99,7330091.97030333
PART_001_R158G218B229A255,10984,-7252444.0,-189.1112,-754.3044,611096.5,-0.04759886,0.2368599,7328807.485761647
PART_001_R158G218B229A255,10985,-7252337.0,-108.9537,-509.7856,615893.3,-55.02365,-10890.58,7330091.020314494
PART_001_R158G218B229A255,10986,-7252403.0,-172.1435,-649.3484,630704.8,-67.73356,-19070.93,7333883.5941607645
PART_001_R158G218B229A255,10987,-7252364.0,-566.798,-136.483,657568.5,-252.6402,-21367.52,7340997.364255746
PART_002_R214G39B40A255,10988,-7251900.0,232.6297,469.0587,701009.8,637.5535,-16755.11,7353246.221143997
PART_002_R214G39B40A255,10989,-7252247.0,707.6369,-1056.431,764228.3,-63.71849,-6641.99,7371894.357371513
PART_003_R247G182B210A255,10990,-9668475.0,1234.816,1908.085,522768.1,-597.9691,12172.56,9712368.595779344
PART_003_R247G182B210A255,10991,-9669922.0,-755.5932,-489.6315,466110.0,582.9008,33337.55,9703116.071314432
PART_001_R158G218B229A255,10992,-9669973.0,-311.4029,-1085.014,435090.3,416.6418,40755.39,9698854.039371636
PART_001_R158G218B229A255,10993,-9669790.0,45.50639,-889.6958,417103.1,122.4427,33724.61,9696494.90408394
PART_001_R158G218B229A255,10994,-9669956.0,-282.4649,-1063.251,407187.5,102.0883,18846.99,9695024.887909444
PART_001_R158G218B229A255,10995,-9669768.0,140.128,-919.7306,404160.9,0.006126345,0.4418063,9694684.816498011
PART_001_R158G218B229A255,10996,-9669955.0,-282.4681,-1063.286,407187.6,-102.1685,-18846.36,9695023.880445583
PART_001_R158G218B229A255,10997,-9669788.0,45.50977,-889.663,417103.3,-122.3642,-33723.8,9696492.945071487
PART_001_R158G218B229A255,10998,-9669971.0,-311.3591,-1085.072,435090.6,-416.6099,-40754.86,9698852.072087528
PART_001_R158G218B229A255,10999,-9669919.0,-755.3347,-489.5268,466110.5,-582.7372,-33337.09,9703113.330018768
PART_002_R214G39B40A255,11000,-9668472.0,1235.39,1908.279,522768.9,598.0215,-12172.39,9712366.119709546
PART_003_R247G182B210A255,11001,-12087830.0,851.5179,-3697.961,192001.0,920.0601,32815.52,12091115.358149312
PART_001_R158G218B229A255,11002,-12088050.0,-1092.764,-2425.59,164996.9,566.6191,70946.67,12090293.643026441
PART_001_R158G218B229A255,11003,-12087250.0,566.1133,-1666.574,154671.0,110.8535,72237.16,12090315.921173023
PART_001_R158G218B229A255,11004,-12087540.0,-500.7996,-1477.472,147852.9,132.5142,56330.25,12089657.285973866
PART_001_R158G218B229A255,11005,-12087200.0,362.1638,-1289.496,144589.9,18.63455,30401.13,12089445.341119133
PART_001_R158G218B229A255,11006,-12087440.0,-374.0088,-1302.526,143390.6,0.02453972,0.7092962,12089153.182982009
PART_001_R158G218B229A255,11007,-12087190.0,362.1483,-1289.624,144589.9,-18.67844,-30400.22,12089435.264772756
PART_001_R158G218B229A255,11008,-12087540.0,-500.7307,-1477.391,147852.9,-132.4413,-56328.99,12089657.343289236
PART_001_R158G218B229A255,11009,-12087250.0,566.0292,-1666.852,154671.1,-110.8757,-72236.46,12090315.731495524
PART_001_R158G218B229A255,11010,-12088050.0,-1092.934,-2425.47,164997.0,-566.5312,-70945.93,12090293.60906546
PART_001_R158G218B229A255,11011,-12087830.0,850.8421,-3698.387,192001.1,-920.1571,-32815.35,12091114.810795207
PART_003_R247G182B210A255,11012,11769730.0,-827.5026,3602.897,192001.0,896.0674,-32815.75,11773178.052605847
PART_000_R31G119B180A255,11013,11769940.0,1063.696,2360.118,164997.0,551.6512,-70946.89,11772339.063924087
PART_000_R31G119B180A255,11014,11769170.0,-550.453,1624.725,154671.1,108.0299,-72237.71,11772346.723527364
PART_000_R31G119B180A255,11015,11769450.0,487.0243,1437.234,147853.0,128.9326,-56330.4,11771678.230571365
PART_000_R31G119B180A255,11016,11769110.0,-351.8791,1257.625,144589.9,18.17435,-30401.52,11771439.333944436
PART_000_R31G119B180A255,11017,11769350.0,363.6718,1267.217,143390.8,-0.08032752,-0.4918812,11771154.95451578
PART_000_R31G119B180A255,11018,11769110.0,-351.9024,1257.643,144589.9,-18.16791,30400.19,11771439.326293463
PART_000_R31G119B180A255,11019,11769450.0,487.1009,1437.543,147853.0,-129.0404,56329.51,11771678.02506472
PART_000_R31G119B180A255,11020,11769160.0,-550.499,1624.665,154671.2,-107.9198,72236.68,11772336.764641166
PART_000_R31G119B180A255,11021,11769940.0,1063.694,2360.432,164997.2,-551.6705,70946.37,11772338.907015352
PART_000_R31G119B180A255,11022,11769720.0,-827.9834,3602.504,192001.3,-895.8808,32815.45,11773168.505584946
PART_003_R247G182B210A255,11023,9414042.0,-1203.048,-1856.926,522768.9,-582.2917,-12172.62,9459032.913923705
PART_003_R247G182B210A255,11024,9415451.0,734.7205,475.4675,466110.5,567.4274,-33337.82,9449573.30652625
PART_000_R31G119B180A255,11025,9415500.0,303.4523,1057.863,435090.7,405.6558,-40755.71,9445195.551442092
PART_000_R31G119B180A255,11026,9415321.0,-44.94731,865.2974,417103.4,119.0569,-33724.76,9442768.890689502
PART_000_R31G119B180A255,11027,9415483.0,275.3128,1036.804,407187.8,99.34854,-18847.15,9441262.530159043
PART_000_R31G119B180A255,11028,9415300.0,-137.1331,894.6562,404161.1,-0.1847886,-0.2682259,9440909.98309584
PART_000_R31G119B180A255,11029,9415482.0,275.2925,1036.797,407187.8,-99.53281,18846.49,9441261.542624943
PART_000_R31G119B180A255,11030,9415320.0,-44.99239,865.3222,417103.5,-119.2949,33724.23,9442767.911336742
PART_000_R31G119B180A255,11031,9415498.0,303.4181,1057.839,435090.9,-405.6395,40755.14,9445193.607139442
PART_000_R31G119B180A255,11032,9415447.0,734.8651,475.5144,466110.8,-567.4771,33337.41,9449569.26589333
PART_002_R214G39B40A255,11033,9414038.0,-1202.546,-1856.794,522769.3,582.3278,12172.47,9459028.682525586
PART_003_R247G182B210A255,11034,7061401.0,-688.7642,1029.559,764227.5,62.12239,-6642.176,7184235.743621104
PART_003_R247G182B210A255,11035,7061062.0,-226.85,-457.3821,701009.4,-620.7342,-16755.58,7165089.95554194
PART_003_R247G182B210A255,11036,7061514.0,552.1154,133.8816,657568.5,245.9232,-21368.08,7152530.671458474
PART_000_R31G119B180A255,11037,7061551.0,167.2806,631.8082,630704.9,65.73544,-19071.53,7145230.38369978
PART_000_R31G119B180A255,11038,7061486.0,106.3695,497.5164,615893.5,53.26832,-10891.03,7141333.955531466
PART_000_R31G119B180A255,11039,7061590.0,183.8017,734.0673,611096.8,-0.311369,-0.1168463,7140020.311467916
PART_000_R31G119B180A255,11040,7061486.0,106.3554,497.5032,615893.5,-53.71005,10890.81,7141333.968031694
PART_000_R31G119B180A255,11041,7061550.0,167.2515,631.7601,630705.0,-66.16464,19071.27,7145229.458022577
PART_000_R31G119B180A255,11042,7061513.0,552.0931,133.8812,657568.8,-246.0331,21367.83,7152529.775947939
PART_002_R214G39B40A255,11043,7061060.0,-226.9723,-457.448,701010.2,620.6779,16755.39,7165088.310681734
PART_002_R214G39B40A255,11044,7061398.0,-688.9598,1029.496,764228.8,-61.98357,6642.077,7184233.33668292
PART_003_R247G182B210A255,11045,4707169.0,-498.7664,-583.8063,932914.1,-247.0906,-3075.428,4977303.572969938
PART_003_R247G182B210A255,11046,4707626.0,-26.94242,328.9395,865939.7,19.6549,-8493.88,4940657.053026385
PART_003_R247G182B210A255,11047,4707525.0,8.360736,-11.36059,817671.9,-471.0983,-10884.57,4915986.558499581
PART_003_R247G182B210A255,11048,4707663.0,324.1472,92.9037,785365.1,72.54754,-9832.68,4900082.93312852
PART_000_R31G119B180A255,11049,4707699.0,111.5371,414.1552,767156.5,-71.7324,-5811.88,4891384.655393412
PART_000_R31G119B180A255,11050,4707659.0,156.5438,248.4071,761253.4,-0.4411295,-0.02060543,4888626.305404493
PART_000_R31G119B180A255,11051,4707698.0,111.5095,414.1314,767156.5,71.05405,5811.847,4891383.717586404
PART_000_R31G119B180A255,11052,4707662.0,324.0945,92.85286,785365.2,-73.21523,9832.609,4900082.069859738
PART_002_R214G39B40A255,11053,4707524.0,8.317731,-11.40319,817672.1,470.7796,10884.49,4915985.7410661355
PART_002_R214G39B40A255,11054,4707624.0,-26.86374,328.9054,865940.0,-19.93984,8493.791,4940655.283461282
PART_002_R214G39B40A255,11055,4707167.0,-498.4133,-583.762,932914.6,247.0747,3075.408,4977301.774476692
PART_003_R247G182B210A255,11056,2353774.0,-226.1973,258.5878,1032768.0,-32.61975,-1354.327,2956350.91133529
PART_003_R247G182B210A255,11057,2353675.0,-101.6823,-165.9789,964427.0,-478.0327,-3496.054,2886314.550049003
PART_003_R247G182B210A255,11058,2353822.0,107.4821,71.26383,913527.6,-33.48852,-4585.03,2836144.985592755
PART_003_R247G182B210A255,11059,2353806.0,41.65654,90.63303,878889.5,-371.8417,-4176.559,2803120.459985852
PART_003_R247G182B210A255,11060,2353831.0,151.0054,55.81565,858767.3,5.953004,-2459.826,2784330.359572593
PART_000_R31G119B180A255,11061,2353849.0,57.49349,206.094,852242.5,-0.5357639,0.006768729,2778297.4174846793
PART_000_R31G119B180A255,11062,2353831.0,150.9939,55.806,858767.3,-6.801096,2459.851,2784330.3685841854
PART_002_R214G39B40A255,11063,2353806.0,41.63435,90.601,878889.5,371.0172,4176.554,2803120.4823994967
PART_002_R214G39B40A255,11064,2353821.0,107.4833,71.26662,913528.0,33.08369,4585.025,2836144.5405154373
PART_002_R214G39B40A255,11065,2353674.0,-101.6634,-165.9862,964427.9,477.7501,3496.038,2886314.631787147
PART_002_R214G39B40A255,11066,2353773.0,-226.1056,258.6218,1032770.0,32.68035,1354.315,2956352.161139056
PART_003_R247G182B210A255,11067,0.5409421,-0.2340186,0.02991037,1065912.0,-192.0657,-0.04559924,1846213.7703690145
PART_003_R247G182B210A255,11068,0.3738116,-0.3818275,-0.01863947,997062.1,-81.10301,-0.1107052,1726962.221214694
PART_003_R247G182B210A255,11069,0.189202,-0.5822557,-0.07027845,945572.5,-511.2928,-0.13977,1637779.8516681823
PART_003_R247G182B210A255,11070,0.04504319,-0.7092291,-0.08123474,910068.4,-31.83292,-0.1157221,1576284.7081273785
PART_003_R247G182B210A255,11071,-0.04811397,-0.7624537,-0.07932912,889485.7,-212.7679,-0.07294278,1540634.4690823038
PART_003_R247G182B210A255,11072,-0.07731122,-0.7694587,-0.06624867,882690.2,-0.568253,0.004972889,1528864.2737436097
PART_002_R214G39B40A255,11073,-0.04656538,-0.7617806,-0.08102516,889485.6,211.8551,0.06469783,1540634.2954998538
PART_002_R214G39B40A255,11074,0.04367634,-0.7109222,-0.07854897,910068.4,30.93709,0.1240489,1576284.7080738712
PART_002_R214G39B40A255,11075,0.1876433,-0.6164661,-0.08705042,945572.6,510.7918,0.1354564,1637780.024404262
PART_002_R214G39B40A255,11076,0.3498665,-0.4980878,-0.06176732,997062.4,80.67007,0.1157848,1726962.7407691344
PART_002_R214G39B40A255,11077,0.4966485,-0.4386063,-0.05454599,1065913.0,192.0119,0.0440577,1846215.5024030586
PART_003_R247G182B210A255,11078,-2353773.0,225.5449,-258.6794,1032768.0,-32.61878,1354.232,2956349.818790694
PART_003_R247G182B210A255,11079,-2353674.0,101.5402,166.2218,964426.8,-478.0348,3495.819,2886313.574314729
PART_003_R247G182B210A255,11080,-2353821.0,-107.1635,-70.86852,913527.5,-33.48958,4584.736,2836144.353870492
PART_003_R247G182B210A255,11081,-2353806.0,-40.98072,-89.92527,878889.3,-371.8447,4176.321,2803120.851685184
PART_003_R247G182B210A255,11082,-2353830.0,-150.2428,-55.12334,858767.2,5.952686,2459.676,2784330.036249327
PART_001_R158G218B229A255,11083,-2353849.0,-56.65849,-205.2453,852242.3,-0.5369121,0.003620602,2778297.94663252
PART_001_R158G218B229A255,11084,-2353830.0,-150.2341,-55.12181,858767.1,-6.799144,-2459.719,2784329.9481642763
PART_002_R214G39B40A255,11085,-2353805.0,-40.94826,-89.87726,878889.3,371.0179,-4176.298,2803120.045352595
PART_002_R214G39B40A255,11086,-2353821.0,-107.0996,-70.86513,913527.8,33.08614,-4584.745,2836144.6717132702
PART_002_R214G39B40A255,11087,-2353673.0,101.7648,166.3432,964427.7,477.7498,-3495.797,2886313.8018404054
PART_002_R214G39B40A255,11088,-2353772.0,225.8612,-258.5681,1032769.0,32.68139,-1354.221,2956350.2408714346
PART_003_R247G182B210A255,11089,-4707168.0,498.3125,583.508,932913.6,-247.0892,3075.331,4977301.990077288
PART_003_R247G182B210A255,11090,-4707625.0,26.41539,-328.6156,865939.3,19.65218,8493.643,4940655.791861463
PART_003_R247G182B210A255,11091,-4707525.0,-9.554833,10.87614,817671.6,-471.0979,10884.27,4915985.603128218
PART_003_R247G182B210A255,11092,-4707663.0,-325.3394,-92.69441,785364.8,72.54049,9832.427,4900082.315271384
PART_001_R158G218B229A255,11093,-4707699.0,-113.1087,-414.6473,767156.2,-71.73157,5811.732,4891383.5206157565
PART_001_R158G218B229A255,11094,-4707659.0,-157.8582,-248.1638,761253.1,-0.4451851,0.02069398,4888625.649532568
PART_001_R158G218B229A255,11095,-4707699.0,-113.082,-414.6288,767156.2,71.05992,-5811.699,4891383.542219188
PART_001_R158G218B229A255,11096,-4707662.0,-325.2862,-92.63315,785364.9,-73.21558,-9832.355,4900081.457242603
PART_002_R214G39B40A255,11097,-4707524.0,-9.587751,10.87482,817671.8,470.7852,-10884.19,4915984.728316023
PART_002_R214G39B40A255,11098,-4707624.0,26.11231,-328.6463,865939.6,-19.94181,-8493.55,4940654.837295166
PART_002_R214G39B40A255,11099,-4707166.0,497.5343,583.2645,932914.2,247.0767,-3075.313,4977299.952578678
PART_003_R247G182B210A255,11100,-7061401.0,688.0134,-1030.594,764227.0,62.12522,6642.068,7184234.70619704
PART_003_R247G182B210A255,11101,-7061062.0,227.2577,458.5625,701009.0,-620.7384,16755.3,7165090.618752604
PART_003_R247G182B210A255,11102,-7061514.0,-551.9465,-134.397,657568.1,245.9191,21367.75,7152530.387111341
PART_001_R158G218B229A255,11103,-7061551.0,-166.0663,-630.1763,630704.6,65.72649,19071.24,7145231.708268856
PART_001_R158G218B229A255,11104,-7061487.0,-105.7784,-497.7014,615893.2,53.2684,10890.89,7141335.066851471
PART_001_R158G218B229A255,11105,-7061590.0,-182.4323,-732.3099,611096.4,-0.3165105,0.08767461,7140021.754866679
PART_001_R158G218B229A255,11106,-7061486.0,-105.7637,-497.6768,615893.2,-53.70183,-10890.61,7141334.096232603
PART_001_R158G218B229A255,11107,-7061550.0,-166.0341,-630.1469,630704.6,-66.16465,-19071.02,7145230.748724235
PART_001_R158G218B229A255,11108,-7061513.0,-551.8508,-134.349,657568.4,-246.0235,-21367.47,7152529.551057446
PART_002_R214G39B40A255,11109,-7061060.0,227.6163,458.7017,701009.7,620.6754,-16755.14,7165089.097305832
PART_002_R214G39B40A255,11110,-7061398.0,688.6269,-1030.371,764228.3,-61.98221,-6641.959,7184232.583279752
PART_003_R247G182B210A255,11111,-9414042.0,1202.471,1855.357,522768.5,-582.2978,12172.49,9459031.778981674
PART_003_R247G182B210A255,11112,-9415451.0,-734.5521,-473.8654,466110.2,567.4277,33337.51,9449574.140878111
PART_001_R158G218B229A255,11113,-9415501.0,-304.9068,-1059.533,435090.4,405.6504,40755.34,9445194.944764663
PART_001_R158G218B229A255,11114,-9415321.0,44.41829,-863.7887,417103.1,119.0489,33724.41,9442769.335432332
PART_001_R158G218B229A255,11115,-9415484.0,-277.1898,-1038.414,407187.5,99.34624,18847.01,9441261.749070534
PART_001_R158G218B229A255,11116,-9415300.0,136.4692,-893.1368,404160.9,-0.1870587,0.2070505,9440910.383803843
PART_001_R158G218B229A255,11117,-9415483.0,-277.1622,-1038.376,407187.5,-99.52778,-18846.24,9441260.779972587
PART_001_R158G218B229A255,11118,-9415320.0,44.44788,-863.8692,417103.2,-119.2903,-33723.97,9442768.32155693
PART_001_R158G218B229A255,11119,-9415498.0,-304.931,-1059.469,435090.6,-405.6323,-40754.7,9445191.993595438
PART_001_R158G218B229A255,11120,-9415447.0,-734.9464,-474.0555,466110.5,-567.4761,-33337.14,9449569.904942466
PART_002_R214G39B40A255,11121,-9414038.0,1201.55,1855.095,522768.9,582.33,-12172.34,9459027.27435895
PART_003_R247G182B210A255,11122,-11769730.0,826.6426,-3604.908,192000.7,896.0893,32815.57,11773176.601842713
PART_001_R158G218B229A255,11123,-11769940.0,-1062.693,-2357.926,164996.9,551.6348,70946.46,11772340.648786817
PART_001_R158G218B229A255,11124,-11769170.0,550.472,-1626.137,154670.9,108.0319,72237.26,11772346.011278542
PART_001_R158G218B229A255,11125,-11769450.0,-485.2245,-1434.583,147852.9,128.9269,56329.96,11771680.445232023
PART_001_R158G218B229A255,11126,-11769110.0,352.3139,-1258.648,144589.8,18.17158,30401.36,11771439.035138894
PART_001_R158G218B229A255,11127,-11769350.0,-361.7227,-1264.457,143390.6,-0.0771546,0.4134532,11771157.30118604
PART_001_R158G218B229A255,11128,-11769110.0,352.3445,-1258.628,144589.8,-18.17193,-30399.89,11771439.049044847
PART_001_R158G218B229A255,11129,-11769450.0,-485.3116,-1434.96,147852.9,-129.0294,-56329.21,11771680.202499168
PART_001_R158G218B229A255,11130,-11769170.0,550.6106,-1625.968,154671.0,-107.9273,-72236.13,11772346.148162985
PART_001_R158G218B229A255,11131,-11769940.0,-1062.467,-2358.236,164997.1,-551.6532,-70946.0,11772340.606941102
PART_001_R158G218B229A255,11132,-11769720.0,827.574,-3604.317,192001.1,-895.9014,-32815.24,11773167.383701261
PART_003_R247G182B210A255,11133,11451630.0,-806.6143,3504.629,192001.2,871.5689,-32815.66,11455250.9799952
PART_000_R31G119B180A255,11134,11451840.0,1034.206,2296.45,164997.1,536.7952,-70947.11,11454399.795929065
PART_000_R31G119B180A255,11135,11451080.0,-536.6171,1580.141,154671.2,104.9361,-72237.54,11454375.220124064
PART_000_R31G119B180A255,11136,11451350.0,472.81,1398.24,147853.0,125.4851,-56330.59,11453693.433726119
PART_000_R31G119B180A255,11137,11451030.0,-343.7667,1223.037,144590.0,17.51837,-30401.24,11453449.832087811
PART_000_R31G119B180A255,11138,11451260.0,352.51,1232.628,143390.8,-0.06041071,-0.6329095,11453160.600197773
PART_000_R31G119B180A255,11139,11451030.0,-343.7439,1223.304,144589.9,-17.82956,30400.51,11453449.677650329
PART_000_R31G119B180A255,11140,11451350.0,472.6916,1398.277,147853.0,-125.5141,56329.44,11453693.457457513
PART_000_R31G119B180A255,11141,11451080.0,-536.5523,1580.67,154671.2,-105.114,72236.92,11454374.911662115
PART_000_R31G119B180A255,11142,11451830.0,1034.274,2296.276,164997.2,-536.6799,70946.34,11454389.842575585
PART_000_R31G119B180A255,11143,11451620.0,-805.803,3505.267,192001.3,-871.7718,32815.51,11455240.26373481
PART_003_R247G182B210A255,11144,9159609.0,-1169.222,-1806.259,522768.4,-566.492,-12172.66,9205759.049473949
PART_003_R247G182B210A255,11145,9160979.0,715.7895,462.8805,466110.4,552.2084,-33337.78,9196078.007232422
PART_000_R31G119B180A255,11146,9161027.0,296.2094,1029.636,435090.7,394.5401,-40755.61,9191581.241006836
PART_000_R31G119B180A255,11147,9160853.0,-42.60302,842.3515,417103.5,115.7758,-33724.71,9189082.661188064
PART_000_R31G119B180A255,11148,9161010.0,269.1808,1009.318,407187.9,96.37116,-18846.92,9187538.533473598
PART_000_R31G119B180A255,11149,9160832.0,-132.1122,870.9748,404161.2,-0.305894,-0.1545368,9187171.167119294
PART_000_R31G119B180A255,11150,9161010.0,269.168,1009.348,407187.8,-97.12801,18846.76,9187538.510645004
PART_000_R31G119B180A255,11151,9160851.0,-42.61908,842.3406,417103.4,-116.1374,33724.36,9189080.663400404
PART_000_R31G119B180A255,11152,9161025.0,296.1643,1029.688,435090.8,-394.8506,40755.34,9191579.25501612
PART_000_R31G119B180A255,11153,9160976.0,715.5636,462.819,466110.8,-552.0881,33337.49,9196075.219661215
PART_002_R214G39B40A255,11154,9159604.0,-1169.743,-1806.454,522769.4,566.5291,12172.51,9205754.599751377
PART_003_R247G182B210A255,11155,6870553.0,-671.3737,1001.412,764228.6,60.20695,-6642.128,6996749.3545009
PART_003_R247G182B210A255,11156,6870223.0,-221.6425,-445.2733,701010.1,-604.0922,-16755.56,6977079.252865082
PART_003_R247G182B210A255,11157,6870662.0,536.2641,129.9789,657568.8,238.9605,-21368.01,6964192.641621322
PART_000_R31G119B180A255,11158,6870698.0,161.6219,614.3586,630705.1,63.7439,-19071.38,6956695.890873205
PART_000_R31G119B180A255,11159,6870635.0,102.2015,483.6278,615893.6,51.42073,-10890.86,6952692.3633104665
PART_000_R31G119B180A255,11160,6870736.0,177.5057,713.7999,611096.8,-0.5711541,0.1080049,6951345.737873339
PART_000_R31G119B180A255,11161,6870635.0,102.1507,483.5705,615893.5,-52.65749,10891.02,6952692.390924632
PART_000_R31G119B180A255,11162,6870697.0,161.54,614.304,630705.0,-64.5565,19071.49,6956694.944423374
PART_000_R31G119B180A255,11163,6870661.0,536.1941,129.8691,657568.7,-239.6392,21368.0,6964191.715440937
PART_002_R214G39B40A255,11164,6870221.0,-221.4078,-445.2447,701010.1,603.8858,16755.5,6977077.153279213
PART_002_R214G39B40A255,11165,6870549.0,-670.6008,1001.502,764228.8,-60.42724,6642.121,6996745.068482114
PART_003_R247G182B210A255,11166,4579948.0,-484.5657,-567.8247,932913.1,-240.4359,-3075.446,4857134.233586665
PART_003_R247G182B210A255,11167,4580393.0,-25.45698,320.3284,865939.3,19.15435,-8493.823,4819586.970780325
PART_003_R247G182B210A255,11168,4580294.0,9.020465,-10.71182,817672.0,-458.6834,-10884.5,4794290.29373233
PART_003_R247G182B210A255,11169,4580429.0,316.5324,90.91389,785365.3,70.31245,-9832.562,4777985.93979822
PART_000_R31G119B180A255,11170,4580464.0,109.7565,403.468,767156.6,-70.31641,-5811.74,4769065.827818784
PART_000_R31G119B180A255,11171,4580425.0,153.6086,242.2774,761253.4,-0.7969722,0.1709669,4766235.423959686
PART_000_R31G119B180A255,11172,4580463.0,109.7192,403.4198,767156.4,68.61854,5812.031,4769064.812949181
PART_000_R31G119B180A255,11173,4580429.0,316.4739,90.85279,785365.0,-71.50393,9832.805,4777985.850742027
PART_002_R214G39B40A255,11174,4580294.0,8.948421,-10.7826,817672.0,457.7109,10884.64,4794290.362631522
PART_002_R214G39B40A255,11175,4580391.0,-25.57095,320.2883,865940.0,-19.44837,8493.91,4819585.521086646
PART_002_R214G39B40A255,11176,4579946.0,-484.6407,-567.9225,932914.7,240.275,3075.448,4857133.350904986
PART_003_R247G182B210A255,11177,2290159.0,-220.4966,251.6036,1032769.0,-32.01531,-1354.314,2905959.067220841
PART_003_R247G182B210A255,11178,2290062.0,-99.55037,-161.7485,964428.0,-465.356,-3496.055,2834675.2535078633
PART_003_R247G182B210A255,11179,2290205.0,103.7368,69.12111,913528.1,-33.06958,-4585.015,2783578.076717294
PART_003_R247G182B210A255,11180,2290190.0,39.35073,87.69565,878889.7,-362.1547,-4176.502,2749922.4205079544
PART_003_R247G182B210A255,11181,2290213.0,145.6766,53.9257,858767.4,5.188456,-2459.758,2730765.6367908884
PART_000_R31G119B180A255,11182,2290231.0,54.59189,199.985,852242.5,-0.9524469,0.1196835,2724614.9933438064
PART_000_R31G119B180A255,11183,2290213.0,145.6455,53.89082,858767.2,-7.209424,2459.958,2730765.47632461
PART_002_R214G39B40A255,11184,2290189.0,39.3037,87.66536,878889.4,360.6675,4176.685,2749921.3325100513
PART_002_R214G39B40A255,11185,2290205.0,103.6706,69.04866,913527.8,31.77938,4585.124,2783577.83887998
PART_002_R214G39B40A255,11186,2290061.0,-99.52742,-161.7677,964427.8,464.7398,3496.123,2834674.239886276
PART_002_R214G39B40A255,11187,2290158.0,-220.2864,251.5608,1032770.0,31.62498,1354.343,2905959.2793613444
PART_003_R247G182B210A255,11188,0.7401047,-0.3723811,-0.01928652,1065911.0,-186.942,-0.06342324,1846212.036740611
PART_003_R247G182B210A255,11189,0.6140089,-0.08541958,0.1116093,997061.6,-78.92107,-0.1633713,1726961.3548860194
PART_003_R247G182B210A255,11190,0.4779458,0.2214568,0.2759318,945572.5,-497.8779,-0.1853272,1637779.8392690385
PART_003_R247G182B210A255,11191,0.337155,0.4076065,0.389182,910068.5,-31.33004,-0.1655202,1576284.881302092
PART_003_R247G182B210A255,11192,0.2394701,0.4845308,0.4531768,889485.7,-207.6452,-0.08369654,1540634.4669853167
PART_003_R247G182B210A255,11193,0.200257,0.4964788,0.4619429,882690.2,-1.010683,-0.006332699,1528864.2737441617
PART_002_R214G39B40A255,11194,0.237899,0.484812,0.4558707,889485.5,205.5114,0.09731021,1540634.1197168261
PART_002_R214G39B40A255,11195,0.3400796,0.4104915,0.3845877,910068.2,29.75433,0.1551013,1576284.3615952537
PART_002_R214G39B40A255,11196,0.4806223,0.2641969,0.2969952,945572.4,496.5589,0.1932182,1637779.664862663
PART_002_R214G39B40A255,11197,0.6459999,0.05885294,0.1626719,997062.2,78.39956,0.1571517,1726962.3940452095
PART_002_R214G39B40A255,11198,0.7985911,-0.1156064,0.0862319,1065913.0,186.6675,0.06569832,1846215.5007587743
PART_003_R247G182B210A255,11199,-2290157.0,220.0661,-251.458,1032769.0,-32.01772,1354.189,2905957.3785430873
PART_003_R247G182B210A255,11200,-2290061.0,98.69055,161.639,964427.7,-465.3569,3495.737,2834673.7466540793
PART_003_R247G182B210A255,11201,-2290204.0,-105.0596,-69.23393,913527.9,-33.07439,4584.651,2783576.4647347014
PART_003_R247G182B210A255,11202,-2290190.0,-41.04486,-87.97418,878889.5,-362.1566,4176.17,2749921.4058021
PART_003_R247G182B210A255,11203,-2290214.0,-147.4539,-54.06368,858767.2,5.184927,2459.59,2730765.483215969
PART_001_R158G218B229A255,11204,-2290232.0,-56.44239,-200.2488,852242.3,-0.951153,-0.1330984,2724614.757568487
PART_001_R158G218B229A255,11205,-2290213.0,-147.4172,-54.01722,858767.0,-7.20894,-2459.761,2730764.4912411855
PART_002_R214G39B40A255,11206,-2290189.0,-41.00654,-87.96595,878889.2,360.672,-4176.376,2749920.3050975385
PART_002_R214G39B40A255,11207,-2290204.0,-105.0634,-69.16316,913527.6,31.78153,-4584.738,2783576.1973026334
PART_002_R214G39B40A255,11208,-2290060.0,98.3759,161.5143,964427.5,464.7439,-3495.812,2834672.5570973856
PART_002_R214G39B40A255,11209,-2290156.0,219.3605,-251.5905,1032769.0,31.62453,-1354.214,2905956.260163589
PART_003_R247G182B210A255,11210,-4579947.0,484.0889,568.2131,932912.5,-240.4404,3075.312,4857132.902893921
PART_003_R247G182B210A255,11211,-4580392.0,25.25624,-320.5302,865938.8,19.15165,8493.478,4819585.557835339
PART_003_R247G182B210A255,11212,-4580294.0,-8.312135,11.68511,817671.5,-458.6953,10884.1,4794290.838465605
PART_003_R247G182B210A255,11213,-4580429.0,-315.7663,-90.56075,785364.9,70.31065,9832.221,4777986.27688982
PART_001_R158G218B229A255,11214,-4580464.0,-108.5194,-402.1429,767156.2,-70.32547,5811.549,4769066.864451308
PART_001_R158G218B229A255,11215,-4580425.0,-152.6709,-241.777,761253.0,-0.7917636,-0.1696092,4766235.923292491
PART_001_R158G218B229A255,11216,-4580463.0,-108.4794,-402.0877,767156.0,68.6164,-5811.841,4769065.854242586
PART_001_R158G218B229A255,11217,-4580428.0,-315.708,-90.51359,785364.6,-71.49269,-9832.462,4777985.2224329235
PART_002_R214G39B40A255,11218,-4580293.0,-8.146811,11.80934,817671.5,457.7127,-10884.25,4794290.022155591
PART_002_R214G39B40A255,11219,-4580390.0,25.6467,-320.4131,865939.5,-19.43975,-8493.569,4819584.276141096
PART_002_R214G39B40A255,11220,-4579945.0,484.6956,568.5595,932914.1,240.2736,-3075.311,4857132.38812875
PART_003_R247G182B210A255,11221,-6870552.0,671.6066,-1000.092,764227.9,60.20295,6641.981,6996748.9049996
PART_003_R247G182B210A255,11222,-6870223.0,220.5739,444.0161,701009.5,-604.0933,16755.21,6977077.924342015
PART_003_R247G182B210A255,11223,-6870662.0,-536.9723,-128.9274,657568.3,238.9498,21367.57,6964192.665351762
PART_001_R158G218B229A255,11224,-6870699.0,-163.5773,-615.7287,630704.7,63.74013,19071.04,6956695.124734227
PART_001_R158G218B229A255,11225,-6870636.0,-103.3757,-482.6203,615893.2,51.40967,10890.62,6952693.161585643
PART_001_R158G218B229A255,11226,-6870737.0,-179.6263,-715.1166,611096.4,-0.5645499,-0.06416401,6951344.922063927
PART_001_R158G218B229A255,11227,-6870635.0,-103.3264,-482.5825,615893.1,-52.66069,-10890.87,6952692.191092519
PART_001_R158G218B229A255,11228,-6870698.0,-163.4934,-615.6401,630704.5,-64.54124,-19071.08,6956694.168284826
PART_001_R158G218B229A255,11229,-6870661.0,-536.9899,-128.8879,657568.2,-239.6384,-21367.62,6964191.661839536
PART_002_R214G39B40A255,11230,-6870221.0,220.0588,443.914,701009.6,603.8959,-16755.11,6977075.680368811
PART_002_R214G39B40A255,11231,-6870549.0,670.3156,-1000.395,764228.1,-60.42907,-6641.989,6996745.241960753
PART_003_R247G182B210A255,11232,-9159609.0,1169.588,1808.25,522767.8,-566.486,12172.5,9205760.11948831
PART_003_R247G182B210A255,11233,-9160979.0,-716.2718,-464.644,466109.9,552.1983,33337.35,9196076.807956878
PART_001_R158G218B229A255,11234,-9161027.0,-294.6494,-1027.091,435090.3,394.5285,40755.08,9191583.222622639
PART_001_R158G218B229A255,11235,-9160854.0,43.03257,-843.5027,417103.1,115.769,33724.34,9189083.239942487
PART_001_R158G218B229A255,11236,-9161011.0,-267.0881,-1006.463,407187.5,96.36369,18846.62,9187541.94197541
PART_001_R158G218B229A255,11237,-9160833.0,132.7124,-871.9171,404160.8,-0.3036066,0.2440174,9187171.94099556
PART_001_R158G218B229A255,11238,-9161010.0,-267.0868,-1006.542,407187.4,-97.12644,-18846.63,9187540.892991932
PART_001_R158G218B229A255,11239,-9160853.0,43.07231,-843.4027,417103.0,-116.1273,-33723.84,9189082.293597229
PART_001_R158G218B229A255,11240,-9161025.0,-294.5437,-1027.222,435090.4,-394.843,-40754.92,9191581.228935232
PART_001_R158G218B229A255,11241,-9160976.0,-715.7322,-464.376,466110.4,-552.0807,-33337.0,9196074.29402775
PART_002_R214G39B40A255,11242,-9159604.0,1170.621,1808.576,522768.7,566.5269,-12172.36,9205755.972690063
PART_003_R247G182B210A255,11243,-11451630.0,807.6026,-3502.071,192001.0,871.5438,32815.41,11455252.739722095
PART_001_R158G218B229A255,11244,-11451840.0,-1035.501,-2298.861,164996.9,536.8087,70946.58,11454397.925215708
PART_001_R158G218B229A255,11245,-11451080.0,536.5424,-1577.799,154671.0,104.9256,72236.89,11454376.332661597
PART_001_R158G218B229A255,11246,-11451360.0,-475.0705,-1400.644,147852.8,125.4828,56330.17,11453701.085347576
PART_001_R158G218B229A255,11247,-11451030.0,343.1899,-1220.743,144589.8,17.51828,30400.87,11453450.679658415
PART_001_R158G218B229A255,11248,-11451260.0,-354.9426,-1234.919,143390.6,-0.06567962,0.7453809,11453158.231433151
PART_001_R158G218B229A255,11249,-11451030.0,343.1545,-1221.07,144589.8,-17.82005,-30400.36,11453450.494473875
PART_001_R158G218B229A255,11250,-11451350.0,-474.9308,-1400.572,147852.8,-125.5209,-56328.83,11453691.174264964
PART_001_R158G218B229A255,11251,-11451080.0,536.3595,-1578.492,154671.0,-105.0957,-72236.42,11454375.886040721
PART_001_R158G218B229A255,11252,-11451830.0,-1035.829,-2298.654,164997.0,-536.6958,-70945.71,11454387.856522143
PART_001_R158G218B229A255,11253,-11451620.0,806.2227,-3502.988,192001.1,-871.7465,-32815.3,11455241.600107586
PART_003_R247G182B210A255,11254,11133530.0,-782.0781,3408.534,192001.0,847.7583,-32815.83,11137328.646269482
PART_000_R31G119B180A255,11255,11133730.0,1006.522,2232.443,164997.1,521.7837,-70946.85,11136456.30411086
PART_000_R31G119B180A255,11256,11133000.0,-520.3646,1537.043,154671.2,102.1709,-72237.73,11136417.655288784
PART_000_R31G119B180A255,11257,11133260.0,460.9638,1359.493,147853.1,121.7831,-56330.16,11135722.381846976
PART_000_R31G119B180A255,11258,11132940.0,-332.4942,1189.83,144590.0,17.05539,-30401.36,11135452.475345597
PART_000_R31G119B180A255,11259,11133170.0,344.3464,1198.924,143390.8,-0.3055186,-0.09711807,11135168.461451452
PART_000_R31G119B180A255,11260,11132940.0,-332.5451,1189.947,144589.9,-17.32005,30400.46,11135452.431056097
PART_000_R31G119B180A255,11261,11133260.0,461.0903,1360.219,147853.0,-122.233,56329.93,11135721.948303578
PART_000_R31G119B180A255,11262,11132990.0,-520.5249,1537.049,154671.1,-102.1184,72236.94,11136407.716418695
PART_000_R31G119B180A255,11263,11133730.0,1006.371,2233.096,164997.2,-521.9015,70946.63,11136456.053531907
PART_000_R31G119B180A255,11264,11133520.0,-783.2061,3407.712,192001.4,-847.4026,32815.51,11137319.64327571
PART_003_R247G182B210A255,11265,8905176.0,-1138.77,-1756.776,522769.4,-550.8713,-12172.58,8952555.851958452
PART_003_R247G182B210A255,11266,8906508.0,694.6155,449.6945,466111.0,536.5625,-33337.74,8942639.811131356
PART_000_R31G119B180A255,11267,8906554.0,286.778,1000.635,435091.1,383.4715,-40755.51,8938016.268160291
PART_000_R31G119B180A255,11268,8906384.0,-42.79813,818.4975,417103.7,112.1517,-33724.39,8935441.0364926
PART_000_R31G119B180A255,11269,8906537.0,260.0905,980.7169,407188.0,93.49108,-18846.7,8933858.216486592
PART_000_R31G119B180A255,11270,8906364.0,-130.0694,846.2836,404161.2,-0.7707845,0.3073136,8933475.275953742
PART_000_R31G119B180A255,11271,8906537.0,260.0411,980.6993,407187.8,-94.62619,18847.03,8933858.224661263
PART_000_R31G119B180A255,11272,8906383.0,-42.89631,818.5395,417103.4,-113.285,33724.78,8935440.030242503
PART_000_R31G119B180A255,11273,8906552.0,286.7263,1000.584,435090.7,-383.9239,40755.55,8938014.26870102
PART_000_R31G119B180A255,11274,8906504.0,694.9996,449.8132,466110.8,-536.9361,33337.69,8942635.545420855
PART_002_R214G39B40A255,11275,8905170.0,-1137.523,-1756.465,522769.4,550.8638,12172.57,8952549.107745212
PART_003_R247G182B210A255,11276,6679704.0,-651.1456,974.0904,764227.6,58.77199,-6642.151,6809445.9538011225
PART_003_R247G182B210A255,11277,6679383.0,-214.2341,-432.5061,701009.7,-587.4518,-16755.43,6789224.130456373
PART_003_R247G182B210A255,11278,6679811.0,522.5773,126.8342,657568.9,232.1755,-21367.8,6775994.226504446
PART_000_R31G119B180A255,11279,6679845.0,158.5528,597.8736,630705.3,61.44307,-19071.13,6768288.953818745
PART_000_R31G119B180A255,11280,6679784.0,100.9473,470.8648,615893.8,49.57716,-10890.51,6764172.249828067
PART_000_R31G119B180A255,11281,6679882.0,174.1712,694.5884,611096.9,-1.220274,0.4759742,6762790.768439829
PART_000_R31G119B180A255,11282,6679784.0,100.8972,470.8076,615893.4,-51.60151,10891.42,6764172.197984376
PART_000_R31G119B180A255,11283,6679845.0,158.4476,597.7317,630704.8,-63.30432,19071.84,6768288.942020934
PART_000_R31G119B180A255,11284,6679810.0,522.44,126.7593,657568.5,-233.1658,21368.3,6775993.233712789
PART_002_R214G39B40A255,11285,6679381.0,-214.5893,-432.697,701010.0,586.8497,16755.7,6789222.526130888
PART_002_R214G39B40A255,11286,6679701.0,-651.545,973.8886,764228.9,-58.65729,6642.187,6809443.743734724
PART_003_R247G182B210A255,11287,4452728.0,-472.3465,-552.335,932915.0,-233.8927,-3075.382,4737337.782657842
PART_003_R247G182B210A255,11288,4453160.0,-25.7928,311.1026,865940.5,18.06683,-8493.775,4698844.415718249
PART_003_R247G182B210A255,11289,4453064.0,7.688455,-10.73772,817672.6,-446.3322,-10884.35,4672891.397642311
PART_003_R247G182B210A255,11290,4453194.0,306.343,87.85524,785365.6,67.62539,-9832.358,4656164.6074371915
PART_000_R31G119B180A255,11291,4453228.0,105.1903,391.7627,767156.8,-68.92738,-5811.454,4647011.587989377
PART_000_R31G119B180A255,11292,4453190.0,147.7132,234.912,761253.4,-1.620539,0.4654384,4644105.6763097085
PART_000_R31G119B180A255,11293,4453228.0,105.1155,391.6897,767156.3,66.15928,5812.364,4647011.414468472
PART_000_R31G119B180A255,11294,4453194.0,306.207,87.71901,785364.8,-70.22044,9833.093,4656164.3375715045
PART_002_R214G39B40A255,11295,4453063.0,7.587992,-10.852,817671.7,444.702,10884.9,4672890.077931028
PART_002_R214G39B40A255,11296,4453158.0,-25.56528,311.0482,865939.7,-19.29846,8494.073,4698841.997644259
PART_002_R214G39B40A255,11297,4452726.0,-471.3948,-552.2074,932914.5,233.6313,3075.514,4737335.100146976
PART_003_R247G182B210A255,11298,2226543.0,-213.8998,244.6294,1032768.0,-30.95189,-1354.328,2856091.770051363
PART_003_R247G182B210A255,11299,2226449.0,-95.98881,-156.8794,964427.3,-452.7288,-3496.023,2783529.324242343
PART_003_R247G182B210A255,11300,2226588.0,101.9076,67.52321,913528.2,-32.47762,-4584.945,2731479.6836350635
PART_003_R247G182B210A255,11301,2226574.0,39.71511,85.95545,878889.9,-352.9031,-4176.414,2697173.89838252
PART_003_R247G182B210A255,11302,2226597.0,143.1349,52.96721,858767.6,4.384694,-2459.603,2677640.9574807743
PART_000_R31G119B180A255,11303,2226614.0,54.69243,195.1697,852242.5,-1.895185,0.2756872,2671367.706871743
PART_000_R31G119B180A255,11304,2226597.0,143.0993,52.93536,858767.1,-7.660724,2460.161,2677640.506006627
PART_002_R214G39B40A255,11305,2226573.0,39.6416,85.86765,878889.0,349.8308,4176.857,2697172.2605116344
PART_002_R214G39B40A255,11306,2226588.0,101.8576,67.50011,913527.4,30.52909,4585.306,2731478.912511817
PART_002_R214G39B40A255,11307,2226449.0,-96.02377,-156.9353,964427.5,451.3906,3496.239,2783529.5686304076
PART_002_R214G39B40A255,11308,2226543.0,-213.7471,244.6521,1032770.0,30.80207,1354.393,2856093.871367192
PART_003_R247G182B210A255,11309,1.13285,-0.1983408,0.0502643,1065913.0,-181.8909,-0.08329145,1846215.4993286731
PART_003_R247G182B210A255,11310,0.7626256,-0.4445891,-0.03510001,997063.0,-77.40411,-0.1960517,1726963.7795513938
PART_003_R247G182B210A255,11311,0.3946362,-0.7701349,-0.1221971,945573.2,-484.5532,-0.2388875,1637781.0397154202
PART_003_R247G182B210A255,11312,0.1260134,-0.9770285,-0.1584198,910068.9,-31.3448,-0.1878874,1576285.5741236133
PART_003_R247G182B210A255,11313,-0.04312707,-1.063082,-0.1649359,889485.9,-202.5767,-0.1191434,1540634.811371391
PART_003_R247G182B210A255,11314,-0.09341206,-1.075023,-0.1513437,882690.2,-1.988736,0.01006453,1528864.273747312
PART_002_R214G39B40A255,11315,-0.04069117,-1.061945,-0.1691171,889485.3,199.1156,0.101481,1540633.7707873003
PART_002_R214G39B40A255,11316,0.122861,-0.9758185,-0.1509886,910067.9,28.07804,0.2047323,1576283.8418880866
PART_002_R214G39B40A255,11317,0.393833,-0.8154773,-0.1488981,945572.0,482.3669,0.2289542,1637778.9593186062
PART_002_R214G39B40A255,11318,0.7251944,-0.6132387,-0.09513088,997061.9,75.73176,0.2062648,1726961.8740731431
PART_002_R214G39B40A255,11319,1.063053,-0.5083958,-0.08182186,1065912.0,181.4994,0.08104596,1846213.7671624315
PART_003_R247G182B210A255,11320,-2226541.0,213.1696,-244.7516,1032768.0,-30.95355,1354.152,2856089.878332026
PART_003_R247G182B210A255,11321,-2226448.0,95.99447,157.2043,964427.0,-452.7389,3495.609,2783528.343162295
PART_003_R247G182B210A255,11322,-2226587.0,-101.2171,-66.94038,913527.9,-32.48356,4584.447,2731479.0839624135
PART_003_R247G182B210A255,11323,-2226573.0,-38.53926,-84.98683,878889.6,-352.9111,4176.029,2697173.6629595724
PART_003_R247G182B210A255,11324,-2226596.0,-141.8422,-52.01163,858767.3,4.383742,2459.36,2677640.7713808184
PART_001_R158G218B229A255,11325,-2226614.0,-53.31722,-194.0327,852242.2,-1.897144,-0.2545995,2671368.466674126
PART_001_R158G218B229A255,11326,-2226596.0,-141.8105,-51.99627,858766.8,-7.65566,-2459.956,2677640.3115337337
PART_002_R214G39B40A255,11327,-2226573.0,-38.44932,-84.86827,878888.8,349.8348,-4176.436,2697172.9676520554
PART_002_R214G39B40A255,11328,-2226587.0,-101.079,-66.92339,913527.1,30.53851,-4584.835,2731478.346390389
PART_002_R214G39B40A255,11329,-2226447.0,96.39729,157.4421,964427.2,451.3957,-3495.811,2783528.0074607125
PART_002_R214G39B40A255,11330,-2226541.0,213.6397,-244.5641,1032769.0,30.80733,-1354.222,2856091.219590259
PART_003_R247G182B210A255,11331,-4452726.0,471.8952,551.9296,932914.3,-233.8925,3075.207,4737335.086046341
PART_003_R247G182B210A255,11332,-4453158.0,25.16476,-310.6684,865940.0,18.0524,8493.356,4698842.149740468
PART_003_R247G182B210A255,11333,-4453063.0,-9.331185,9.991857,817672.1,-446.3373,10883.86,4672889.040678674
PART_003_R247G182B210A255,11334,-4453195.0,-308.034,-87.66984,785365.1,67.60872,9831.948,4656164.588310872
PART_001_R158G218B229A255,11335,-4453229.0,-107.4289,-392.5936,767156.3,-68.92523,5811.223,4647010.827006707
PART_001_R158G218B229A255,11336,-4453191.0,-149.5951,-234.7181,761252.9,-1.628496,-0.4665558,4644105.579984161
PART_001_R158G218B229A255,11337,-4453229.0,-107.3555,-392.5297,767155.9,66.17274,-5812.128,4647010.697963028
PART_001_R158G218B229A255,11338,-4453194.0,-307.8903,-87.51468,785364.3,-70.21834,-9832.684,4656163.374820634
PART_002_R214G39B40A255,11339,-4453063.0,-9.333986,10.04095,817671.2,444.7209,-10884.4,4672888.593595437
PART_002_R214G39B40A255,11340,-4453157.0,24.61127,-310.7047,865939.1,-19.29341,-8493.648,4698840.426582998
PART_002_R214G39B40A255,11341,-4452724.0,470.2957,551.4917,932913.9,233.6403,-3075.34,4737332.012300087
PART_003_R247G182B210A255,11342,-6679703.0,650.1092,-975.6707,764226.7,58.76987,6641.958,6809443.385997649
PART_003_R247G182B210A255,11343,-6679383.0,214.9442,434.2636,701009.0,-587.4702,16754.94,6789225.123924317
PART_003_R247G182B210A255,11344,-6679811.0,-522.2371,-127.6853,657568.3,232.1647,21367.28,6775993.795041231
PART_001_R158G218B229A255,11345,-6679845.0,-156.6575,-595.5373,630704.7,61.42398,19070.65,6768290.870039593
PART_001_R158G218B229A255,11346,-6679785.0,-100.0074,-471.31,615893.2,49.57983,10890.31,6764173.316760537
PART_001_R158G218B229A255,11347,-6679882.0,-172.0741,-692.1426,611096.3,-1.230714,-0.5408391,6762792.849226059
PART_001_R158G218B229A255,11348,-6679785.0,-99.95163,-471.2207,615892.8,-51.58455,-10891.1,6764173.282984306
PART_001_R158G218B229A255,11349,-6679845.0,-156.5579,-595.4526,630704.2,-63.30373,-19071.46,6768290.828102216
PART_001_R158G218B229A255,11350,-6679810.0,-521.9878,-127.506,657567.9,-233.1416,-21367.7,6775992.908149949
PART_002_R214G39B40A255,11351,-6679381.0,215.639,434.521,701009.3,586.8535,-16755.27,6789223.71980699
PART_002_R214G39B40A255,11352,-6679700.0,651.1623,-975.1842,764228.0,-58.6481,-6641.974,6809441.636187285
PART_003_R247G182B210A255,11353,-8905175.0,1137.954,1754.363,522768.7,-550.8818,12172.36,8952553.12726851
PART_003_R247G182B210A255,11354,-8906508.0,-694.3013,-447.2673,466110.3,536.5588,33337.2,8942641.060752435
PART_001_R158G218B229A255,11355,-8906555.0,-288.9564,-1003.294,435090.6,383.4608,40754.95,8938014.773905344
PART_001_R158G218B229A255,11356,-8906385.0,42.03483,-816.3538,417103.2,112.1389,33723.81,8935442.64432602
PART_001_R158G218B229A255,11357,-8906540.0,-262.8954,-983.3775,407187.5,93.48915,18846.54,8933858.413512295
PART_001_R158G218B229A255,11358,-8906365.0,129.104,-844.2205,404160.7,-0.7749617,-0.4407156,8933476.751931617
PART_001_R158G218B229A255,11359,-8906539.0,-262.8272,-983.2834,407187.3,-94.61751,-18846.62,8933857.470729658
PART_001_R158G218B229A255,11360,-8906384.0,42.09889,-816.5349,417102.9,-113.2785,-33724.42,8935441.554250052
PART_001_R158G218B229A255,11361,-8906553.0,-288.9604,-1003.102,435090.2,-383.9088,-40754.82,8938012.814605089
PART_001_R158G218B229A255,11362,-8906504.0,-695.078,-447.6845,466110.2,-536.9296,-33337.25,8942636.46766673
PART_002_R214G39B40A255,11363,-8905170.0,1136.09,1753.935,522768.6,550.8703,-12172.32,8952546.995192172
PART_003_R247G182B210A255,11364,-11133530.0,780.7586,-3411.624,192000.6,847.7835,32815.52,11137326.419609442
PART_001_R158G218B229A255,11365,-11133730.0,-1004.997,-2229.15,164996.9,521.7599,70946.09,11136458.688606948
PART_001_R158G218B229A255,11366,-11133000.0,520.3949,-1539.33,154670.9,102.1698,72237.04,11136416.501730671
PART_001_R158G218B229A255,11367,-11133260.0,-458.2413,-1355.677,147852.9,121.7784,56329.46,11135725.631451335
PART_001_R158G218B229A255,11368,-11132940.0,333.1409,-1191.653,144589.8,17.0489,30401.18,11135451.878339281
PART_001_R158G218B229A255,11369,-11133170.0,-341.4244,-1195.068,143390.6,-0.2980435,-0.0713688,11135171.841828272
PART_001_R158G218B229A255,11370,-11132940.0,333.2129,-1191.678,144589.7,-17.32869,-30399.97,11135451.888038782
PART_001_R158G218B229A255,11371,-11133260.0,-458.4056,-1356.572,147852.8,-122.2154,-56329.51,11135725.098795855
PART_001_R158G218B229A255,11372,-11132990.0,520.7085,-1539.087,154670.9,-102.13,-72236.03,11136406.763812447
PART_001_R158G218B229A255,11373,-11133730.0,-1004.546,-2229.899,164997.0,-521.8742,-70946.02,11136458.542887088
PART_001_R158G218B229A255,11374,-11133520.0,782.6075,-3410.407,192001.0,-847.4312,-32815.15,11137317.973960416
PART_003_R247G182B210A255,11375,10815430.0,-762.8704,3309.33,192001.5,822.9726,-32815.58,10819418.904650342
PART_000_R31G119B180A255,11376,10815620.0,976.295,2168.817,164997.3,506.9668,-70947.1,10818521.006067676
PART_000_R31G119B180A255,11377,10814910.0,-507.2201,1491.891,154671.4,98.88334,-72237.15,10818459.076663967
PART_000_R31G119B180A255,11378,10815170.0,446.2284,1320.408,147853.2,118.346,-56330.25,10817758.457682561
PART_000_R31G119B180A255,11379,10814860.0,-325.118,1154.815,144590.1,16.20269,-30400.53,10817472.766130155
PART_000_R31G119B180A255,11380,10815080.0,332.5086,1164.097,143390.8,-0.3038173,-0.06766883,10817183.244278211
PART_000_R31G119B180A255,11381,10814860.0,-325.0749,1155.429,144589.9,-17.17109,30401.32,10817472.436375916
PART_000_R31G119B180A255,11382,10815170.0,446.0107,1320.659,147852.9,-118.7011,56330.02,10817758.425184168
PART_000_R31G119B180A255,11383,10814910.0,-507.0342,1493.11,154671.1,-99.44949,72237.56,10818458.369980877
PART_000_R31G119B180A255,11384,10815620.0,976.5931,2168.655,164997.1,-506.8434,70946.67,10818520.920379918
PART_000_R31G119B180A255,11385,10815420.0,-760.9883,3310.701,192001.3,-823.4017,32815.67,10819407.273880025
PART_003_R247G182B210A255,11386,8650742.0,-1103.439,-1705.568,522768.5,-535.0175,-12172.62,8699422.134859744
PART_003_R247G182B210A255,11387,8652036.0,676.5868,437.3374,466110.7,521.4302,-33337.51,8689257.858097212
PART_000_R31G119B180A255,11388,8652081.0,280.1811,972.6219,435091.2,372.146,-40755.11,8684501.335074807
PART_000_R31G119B180A255,11389,8651916.0,-39.83727,795.7418,417103.9,108.7316,-33724.03,8681846.00596568
PART_000_R31G119B180A255,11390,8652065.0,254.6639,953.4815,407188.2,90.13209,-18846.01,8680221.700749697
PART_000_R31G119B180A255,11391,8651896.0,-124.3641,822.7918,404161.2,-1.114859,0.7962549,8679821.50119071
PART_000_R31G119B180A255,11392,8652065.0,254.6226,953.5327,407187.7,-92.60664,18847.8,8680221.637194637
PART_000_R31G119B180A255,11393,8651915.0,-39.91285,795.7001,417103.2,-110.2856,33725.24,8681844.981163215
PART_000_R31G119B180A255,11394,8652079.0,279.9946,972.6761,435090.6,-373.3858,40756.1,8684499.332516119
PART_000_R31G119B180A255,11395,8652033.0,675.9748,437.1358,466110.6,-521.541,33337.95,8689255.265155049
PART_002_R214G39B40A255,11396,8650737.0,-1104.564,-1706.034,522769.4,534.9853,12172.68,8699418.115669671
PART_003_R247G182B210A255,11397,6488856.0,-635.0175,945.55,764229.7,56.59575,-6642.011,6622349.473369621
PART_003_R247G182B210A255,11398,6488544.0,-209.7701,-420.609,701011.1,-570.9928,-16755.28,6601544.251039969
PART_003_R247G182B210A255,11399,6488958.0,506.2174,122.7454,657569.6,224.8157,-21367.49,6587947.936861929
PART_000_R31G119B180A255,11400,6488992.0,152.3604,580.2289,630705.7,59.13818,-19070.64,6580024.604809
PART_000_R31G119B180A255,11401,6488933.0,96.15973,456.7098,615894.0,47.19432,-10889.95,6575788.63380564
PART_000_R31G119B180A255,11402,6489028.0,167.246,674.0853,611096.9,-1.882804,1.123448,6574370.205246159
PART_000_R31G119B180A255,11403,6488933.0,96.03876,456.5661,615893.3,-51.09654,10892.04,6575788.578170554
PART_000_R31G119B180A255,11404,6488992.0,152.1589,580.0586,630704.5,-62.00819,19072.43,6580024.458706638
PART_000_R31G119B180A255,11405,6488958.0,506.0661,122.4932,657568.2,-227.1475,21368.76,6587947.728954527
PART_002_R214G39B40A255,11406,6488542.0,-209.2239,-420.5617,701009.6,569.9681,16756.0,6601541.520873076
PART_002_R214G39B40A255,11407,6488853.0,-633.1428,945.8027,764228.6,-57.25348,6642.306,6622345.111470285
PART_003_R247G182B210A255,11408,4325507.0,-457.2216,-536.1248,932913.2,-227.2875,-3075.386,4617934.325040566
PART_003_R247G182B210A255,11409,4325926.0,-23.55043,302.727,865939.9,17.5375,-8493.574,4578449.553525457
PART_003_R247G182B210A255,11410,4325833.0,8.965807,-9.923739,817672.8,-434.3396,-10884.09,4551808.1756361695
PART_003_R247G182B210A255,11411,4325960.0,299.4306,86.14333,785366.0,64.99566,-9831.976,4534639.047739598
PART_000_R31G119B180A255,11412,4325993.0,104.1105,381.2803,767157.0,-68.18946,-5811.02,4525241.061106142
PART_000_R31G119B180A255,11413,4325957.0,145.5218,229.0627,761253.4,-2.502888,0.9854902,4522256.492811771
PART_000_R31G119B180A255,11414,4325994.0,104.0111,381.1552,767156.1,63.02726,5812.853,4525241.673434178
PART_000_R31G119B180A255,11415,4325961.0,299.2578,85.96684,785364.4,-68.93735,9833.578,4534639.347551182
PART_002_R214G39B40A255,11416,4325833.0,8.730103,-10.12379,817671.2,431.1351,10885.28,4551807.528063558
PART_002_R214G39B40A255,11417,4325926.0,-23.88685,302.5749,865939.3,-18.9493,8494.354,4578449.448232955
PART_002_R214G39B40A255,11418,4325506.0,-457.3581,-536.3809,932914.4,226.6626,3075.608,4617934.299771845
PART_003_R247G182B210A255,11419,2162928.0,-208.4959,237.615,1032771.0,-30.65948,-1354.279,2806786.0660367934
PART_003_R247G182B210A255,11420,2162837.0,-94.17861,-152.8607,964429.4,-440.3596,-3495.961,2732911.9381900453
PART_003_R247G182B210A255,11421,2162971.0,97.8344,65.278,913529.2,-32.65416,-4584.829,2679880.7081331233
PART_003_R247G182B210A255,11422,2162957.0,36.8975,82.69972,878890.5,-343.7036,-4176.202,2644905.010526986
PART_003_R247G182B210A255,11423,2162979.0,137.2891,50.86822,858767.9,2.849723,-2459.38,2624983.0956497435
PART_000_R31G119B180A255,11424,2162996.0,51.19492,188.7081,852242.5,-2.915992,0.5736304,2618584.474818288
PART_000_R31G119B180A255,11425,2162979.0,137.2118,50.78196,858766.8,-8.860774,2460.423,2624982.0864055944
PART_002_R214G39B40A255,11426,2162957.0,36.78155,82.61819,878888.6,338.981,4177.148,2644903.199842268
PART_002_R214G39B40A255,11427,2162971.0,97.70047,65.12007,913526.9,28.64384,4585.516,2679878.477200359
PART_002_R214G39B40A255,11428,2162836.0,-94.05258,-152.8752,964426.9,438.1772,3496.414,2732908.456587519
PART_002_R214G39B40A255,11429,2162928.0,-207.8555,237.5769,1032769.0,29.52364,1354.452,2806783.6263742694
PART_003_R247G182B210A255,11430,1.424758,-0.2621859,-0.0394175,1065911.0,-176.8678,-0.1050428,1846212.0337632427
PART_003_R247G182B210A255,11431,1.094543,0.1425825,0.1494653,997062.2,-75.30286,-0.2593423,1726962.393632005
PART_003_R247G182B210A255,11432,0.8073035,0.5725834,0.3642624,945573.3,-471.661,-0.273336,1637781.2016296128
PART_003_R247G182B210A255,11433,0.5475959,0.8201958,0.5000864,910069.3,-31.3341,-0.2390969,1576286.266943035
PART_003_R247G182B210A255,11434,0.3851,0.9114359,0.5614314,889486.1,-198.2543,-0.1111072,1540635.1560944547
PART_003_R247G182B210A255,11435,0.3187286,0.9197217,0.5619781,882690.1,-3.066895,-0.01353199,1528864.1005473714
PART_002_R214G39B40A255,11436,0.3815987,0.9138052,0.5676702,889485.0,191.949,0.1380562,1540633.2484431628
PART_002_R214G39B40A255,11437,0.551614,0.8235944,0.4883219,910067.3,26.36464,0.2166568,1576282.8025685586
PART_002_R214G39B40A255,11438,0.8070131,0.6347466,0.3983043,945571.3,467.5289,0.2894325,1637777.7339740777
PART_002_R214G39B40A255,11439,1.142151,0.3574997,0.2193036,997061.3,73.26102,0.2459949,1726960.8345227537
PART_002_R214G39B40A255,11440,1.514798,0.1336644,0.1262243,1065912.0,175.9455,0.1080583,1846213.7655494853
PART_003_R247G182B210A255,11441,-2162926.0,208.4331,-237.4275,1032771.0,-30.66698,1354.078,2806784.572560636
PART_003_R247G182B210A255,11442,-2162835.0,93.40414,152.6893,964429.0,-440.3684,3495.461,2732909.5556102176
PART_003_R247G182B210A255,11443,-2162970.0,-99.41105,-65.58939,913528.9,-32.66932,4584.295,2679878.8296212074
PART_003_R247G182B210A255,11444,-2162957.0,-39.0628,-83.27645,878890.2,-343.7095,4175.725,2644903.5880225017
PART_003_R247G182B210A255,11445,-2162979.0,-139.6229,-51.34763,858767.6,2.842507,2459.158,2624981.641647146
PART_001_R158G218B229A255,11446,-2162997.0,-53.62553,-189.3492,852242.2,-2.912711,-0.6022335,2618583.7392340275
PART_001_R158G218B229A255,11447,-2162980.0,-139.5344,-51.23811,858766.5,-8.858271,-2460.144,2624981.4704012093
PART_002_R214G39B40A255,11448,-2162957.0,-38.95473,-83.23856,878888.3,338.9933,-4176.72,2644901.7565063834
PART_002_R214G39B40A255,11449,-2162971.0,-99.35964,-65.41288,913526.6,28.65442,-4584.939,2679877.379749535
PART_002_R214G39B40A255,11450,-2162835.0,92.84939,152.4722,964426.6,438.1934,-3495.93,2732906.7100873897
PART_002_R214G39B40A255,11451,-2162925.0,207.0512,-237.6399,1032769.0,29.5265,-1354.239,2806780.980001085
PART_003_R247G182B210A255,11452,-4325505.0,456.9043,536.6402,932912.4,-227.3064,3075.165,4617932.058987411
PART_003_R247G182B210A255,11453,-4325925.0,23.6453,-303.0359,865939.3,17.52019,8493.037,4578448.164193379
PART_003_R247G182B210A255,11454,-4325832.0,-7.584093,11.21792,817672.2,-434.3711,10883.5,4551808.169236439
PART_003_R247G182B210A255,11455,-4325960.0,-297.9732,-85.78166,785365.4,64.99066,9831.502,4534639.600511741
PART_001_R158G218B229A255,11456,-4325993.0,-102.0226,-379.6242,767156.4,-68.20731,5810.762,4525242.544456736
PART_001_R158G218B229A255,11457,-4325957.0,-143.8605,-228.5878,761252.8,-2.490644,-0.9820919,4522257.2115180455
PART_001_R158G218B229A255,11458,-4325993.0,-101.9157,-379.487,767155.5,63.02384,-5812.599,4525242.210251104
PART_001_R158G218B229A255,11459,-4325960.0,-297.8039,-85.63125,785363.8,-68.91032,-9833.099,4534638.932241696
PART_002_R214G39B40A255,11460,-4325832.0,-7.213727,11.49789,817670.6,431.147,-10884.7,4551807.623694034
PART_002_R214G39B40A255,11461,-4325924.0,24.39143,-302.7781,865938.7,-18.91852,-8493.824,4578447.357624516
PART_002_R214G39B40A255,11462,-4325503.0,457.8611,537.2845,932913.6,226.6667,-3075.385,4617931.662974663
PART_003_R247G182B210A255,11463,-6488854.0,635.6713,-943.5509,764228.8,56.58397,6641.773,6622348.500871564
PART_003_R247G182B210A255,11464,-6488543.0,208.3967,418.6374,701010.3,-571.0049,16754.76,6601541.365334247
PART_003_R247G182B210A255,11465,-6488958.0,-507.0939,-121.3124,657568.9,224.7876,21366.85,6587947.995179325
PART_001_R158G218B229A255,11466,-6488993.0,-155.1408,-582.5687,630705.1,59.13388,19070.21,6580022.890086254
PART_001_R158G218B229A255,11467,-6488934.0,-97.77064,-455.547,615893.3,47.17363,10889.6,6575789.200928452
PART_001_R158G218B229A255,11468,-6489030.0,-170.2745,-676.4361,611096.3,-1.86711,-1.02755,6574369.3572409935
PART_001_R158G218B229A255,11469,-6488934.0,-97.65734,-455.4541,615892.6,-51.10418,-10891.87,6575789.117342468
PART_001_R158G218B229A255,11470,-6488993.0,-154.9188,-582.3063,630703.9,-61.97637,-19071.83,6580022.798019276
PART_001_R158G218B229A255,11471,-6488958.0,-507.0736,-121.2147,657567.5,-227.1397,-21368.23,6587947.647745188
PART_002_R214G39B40A255,11472,-6488542.0,207.4576,418.5427,701008.9,570.0015,-16755.39,6601539.432890957
PART_002_R214G39B40A255,11473,-6488851.0,632.9897,-944.1874,764227.6,-57.25102,-6642.096,6622343.521026148
PART_003_R247G182B210A255,11474,-8650741.0,1104.107,1708.614,522767.5,-535.0177,12172.35,8699422.80591608
PART_003_R247G182B210A255,11475,-8652036.0,-677.2482,-440.1579,466110.0,521.4043,33336.9,8689256.004997915
PART_001_R158G218B229A255,11476,-8652081.0,-277.7259,-968.9295,435090.5,372.1255,40754.32,8684504.280770391
PART_001_R158G218B229A255,11477,-8651918.0,40.53759,-797.8678,417103.3,108.7232,33723.61,8681847.197464218
PART_001_R158G218B229A255,11478,-8652066.0,-251.4553,-949.5988,407187.5,90.1222,18845.54,8680226.129725404
PART_001_R158G218B229A255,11479,-8651899.0,125.3042,-824.7098,404160.6,-1.109049,-0.6027232,8679823.920481257
PART_001_R158G218B229A255,11480,-8652066.0,-251.4417,-949.7672,407187.0,-92.60702,-18847.71,8680225.996441273
PART_001_R158G218B229A255,11481,-8651917.0,40.66725,-797.612,417102.5,-110.2687,-33724.49,8681846.288013134
PART_001_R158G218B229A255,11482,-8652079.0,-277.4913,-969.2184,435089.9,-373.3727,-40755.56,8684502.188804083
PART_001_R158G218B229A255,11483,-8652033.0,-676.1345,-439.5232,466109.9,-521.5202,-33337.2,8689253.875811726
PART_002_R214G39B40A255,11484,-8650736.0,1105.98,1709.16,522768.4,534.9882,-12172.45,8699419.198609281
PART_003_R247G182B210A255,11485,-10815430.0,764.4313,-3305.432,192001.2,822.944,32815.19,10819421.612586774
PART_001_R158G218B229A255,11486,-10815630.0,-978.2368,-2172.628,164997.0,506.9822,70946.35,10818528.098397352
PART_001_R158G218B229A255,11487,-10814910.0,507.1308,-1488.577,154671.1,98.87358,72236.21,10818460.656243226
PART_001_R158G218B229A255,11488,-10815170.0,-449.6318,-1324.496,147852.9,118.3396,56329.77,10817754.693426771
PART_001_R158G218B229A255,11489,-10814860.0,324.276,-1151.883,144589.9,16.20852,30399.98,10817473.797794176
PART_001_R158G218B229A255,11490,-10815080.0,-336.1412,-1168.125,143390.5,-0.31528,0.307383,10817179.4030805
PART_001_R158G218B229A255,11491,-10814860.0,324.1993,-1152.638,144589.7,-17.15476,-30401.24,10817473.384737613
PART_001_R158G218B229A255,11492,-10815170.0,-449.3503,-1324.487,147852.7,-118.7147,-56329.14,10817754.82061698
PART_001_R158G218B229A255,11493,-10814910.0,506.7447,-1490.166,154670.8,-99.42081,-72236.93,10818459.670799071
PART_001_R158G218B229A255,11494,-10815620.0,-978.8738,-2172.27,164996.8,-506.8654,-70945.71,10818517.941249488
PART_001_R158G218B229A255,11495,-10815420.0,761.6329,-3307.365,192001.0,-823.3642,-32815.36,10819409.243651962
PART_003_R247G182B210A255,11496,10497330.0,-735.9359,3214.512,192001.0,799.5636,-32815.82,10501512.159781927
PART_000_R31G119B180A255,11497,10497520.0,949.6736,2104.629,164997.3,491.8471,-70946.35,10500601.891648905
PART_000_R31G119B180A255,11498,10496820.0,-490.0411,1449.307,154671.4,96.24456,-72237.19,10500504.193149338
PART_000_R31G119B180A255,11499,10497070.0,435.0377,1281.503,147853.4,114.397,-56329.06,10499788.66563304
PART_000_R31G119B180A255,11500,10496770.0,-312.9195,1121.937,144590.1,15.72689,-30400.37,10499484.821137568
PART_000_R31G119B180A255,11501,10496990.0,325.1876,1130.589,143390.8,-0.8357687,1.317159,10499200.044222118
PART_000_R31G119B180A255,11502,10496770.0,-313.0251,1122.29,144589.9,-16.6894,30401.59,10499484.69986053
PART_000_R31G119B180A255,11503,10497070.0,435.2504,1283.092,147852.8,-115.6663,56331.22,10499787.774632618
PART_000_R31G119B180A255,11504,10496820.0,-490.4505,1449.517,154670.9,-96.41136,72237.79,10500504.283188364
PART_000_R31G119B180A255,11505,10497510.0,949.1495,2105.951,164997.0,-492.2157,70947.34,10500591.503392436
PART_000_R31G119B180A255,11506,10497320.0,-738.4271,3212.838,192001.3,-798.8852,32815.7,10501504.261874948
PART_003_R247G182B210A255,11507,8396309.0,-1075.148,-1656.858,522770.5,-519.5258,-12172.38,8446375.436069453
PART_003_R247G182B210A255,11508,8397564.0,654.256,423.84,466111.9,505.4402,-33337.25,8435943.567699831
PART_000_R31G119B180A255,11509,8397607.0,270.0158,943.3305,435091.9,360.916,-40754.64,8431044.592830477
PART_000_R31G119B180A255,11510,8397447.0,-40.70887,771.6261,417104.3,104.6277,-33723.1,8428304.614457283
PART_000_R31G119B180A255,11511,8397591.0,244.7625,924.5131,407188.3,86.95919,-18845.23,8426635.661941875
PART_000_R31G119B180A255,11512,8397429.0,-123.1153,797.8221,404161.3,-2.159178,2.012864,8426220.257432925
PART_000_R31G119B180A255,11513,8397592.0,244.6518,924.4735,407187.5,-90.41385,18848.63,8426636.640266433
PART_000_R31G119B180A255,11514,8397448.0,-40.9199,771.6913,417102.9,-107.919,33726.3,8428305.514103763
PART_000_R31G119B180A255,11515,8397607.0,269.9285,943.2197,435090.1,-362.5907,40756.7,8431044.442897351
PART_000_R31G119B180A255,11516,8397562.0,655.1467,424.1039,466110.2,-506.636,33338.47,8435940.735191662
PART_002_R214G39B40A255,11517,8396304.0,-1072.308,-1656.17,522769.0,519.3765,12172.83,8446368.434581216
PART_003_R247G182B210A255,11518,6298006.0,-612.9577,918.8057,764227.8,55.3903,-6642.007,6435465.785431598
PART_003_R247G182B210A255,11519,6297704.0,-201.14,-407.5153,701010.5,-554.5444,-16754.86,6414047.021107805
PART_003_R247G182B210A255,11520,6298106.0,493.3906,119.8885,657569.9,217.8098,-21366.89,6400065.717128104
PART_000_R31G119B180A255,11521,6298139.0,150.1258,564.0154,630706.2,56.19798,-19069.9,6391910.456478848
PART_000_R31G119B180A255,11522,6298082.0,95.81042,444.278,615894.3,44.81376,-10889.0,6387547.933665077
PART_000_R31G119B180A255,11523,6298174.0,164.7944,655.1207,611096.9,-3.350955,2.106847,6386090.382879568
PART_000_R31G119B180A255,11524,6298082.0,95.67962,444.1177,615893.0,-50.60314,10893.05,6387547.721973223
PART_000_R31G119B180A255,11525,6298140.0,149.8527,563.667,630704.0,-61.46624,19073.32,6391911.127443474
PART_000_R31G119B180A255,11526,6298107.0,492.9886,119.6289,657567.5,-220.992,21369.5,6400066.3133696485
PART_002_R214G39B40A255,11527,6297704.0,-202.0018,-407.9791,701009.0,552.5604,16756.5,6414047.192428331
PART_002_R214G39B40A255,11528,6298005.0,-613.7583,918.2877,764228.2,-55.42252,6642.466,6435465.595992551
PART_003_R247G182B210A255,11529,4198287.0,-446.1356,-520.9566,932917.0,-220.8981,-3075.217,4498967.104450669
PART_003_R247G182B210A255,11530,4198693.0,-24.60713,293.2044,865942.4,15.83102,-8493.363,4458439.231088743
PART_003_R247G182B210A255,11531,4198602.0,7.161948,-10.11925,817674.1,-422.4506,-10883.64,4431072.090233825
PART_003_R247G182B210A255,11532,4198725.0,288.6399,82.75127,785366.7,61.45567,-9831.384,4413436.853811474
PART_000_R31G119B180A255,11533,4198758.0,98.91126,369.3101,767157.4,-67.49854,-5810.272,4403781.968331534
PART_000_R31G119B180A255,11534,4198722.0,138.9002,221.2875,761253.4,-4.356071,1.744336,4400712.937682844
PART_000_R31G119B180A255,11535,4198758.0,98.73453,369.1274,767155.8,59.8318,5813.656,4403781.316556166
PART_000_R31G119B180A255,11536,4198727.0,288.3225,82.42946,785363.7,-68.5647,9834.268,4413437.478523987
PART_002_R214G39B40A255,11537,4198603.0,6.932183,-10.39175,817670.4,417.6672,10885.87,4431071.242502041
PART_002_R214G39B40A255,11538,4198693.0,-24.06271,293.1161,865938.3,-19.32804,8494.734,4458436.635197544
PART_002_R214G39B40A255,11539,4198286.0,-443.8919,-520.6467,932913.5,220.0149,3075.758,4498962.803272243
PART_003_R247G182B210A255,11540,2099313.0,-201.1272,230.6897,1032768.0,-29.43264,-1354.276,2758058.7160823084
PART_003_R247G182B210A255,11541,2099224.0,-89.79538,-147.705,964428.4,-428.1046,-3495.811,2682842.4503452354
PART_003_R247G182B210A255,11542,2099355.0,96.77116,63.77797,913529.6,-32.47523,-4584.567,2628807.033964787
PART_003_R247G182B210A255,11543,2099341.0,38.21456,81.31565,878891.1,-335.3959,-4175.9,2593141.5413445607
PART_003_R247G182B210A255,11544,2099362.0,135.6562,50.06872,858768.2,1.241078,-2458.955,2572818.983274817
PART_000_R31G119B180A255,11545,2099379.0,52.28432,184.2196,852242.4,-5.026434,0.9680848,2566290.5187192922
PART_000_R31G119B180A255,11546,2099363.0,135.5683,49.98799,858766.3,-10.1629,2460.882,2572817.9710266544
PART_002_R214G39B40A255,11547,2099341.0,38.02837,81.10604,878887.8,327.0959,4177.512,2593138.350769358
PART_002_R214G39B40A255,11548,2099355.0,96.60127,63.69379,913525.8,26.8415,4585.88,2628803.1805119147
PART_002_R214G39B40A255,11549,2099224.0,-89.96825,-147.8778,964426.0,424.2299,3496.639,2682839.998726014
PART_002_R214G39B40A255,11550,2099313.0,-200.8673,230.6706,1032769.0,28.71416,1354.547,2758059.7481479403
PART_003_R247G182B210A255,11551,1.940064,0.2892024,0.07478768,1065915.0,-171.9757,-0.1169134,1846218.9605799986
PART_003_R247G182B210A255,11552,1.230805,-0.1638033,-0.09651334,997065.3,-74.52994,-0.2592003,1726967.762889181
PART_003_R247G182B210A255,11553,0.6001631,-0.7259327,-0.2876548,945574.9,-458.9194,-0.3006878,1637783.9620513807
PART_003_R247G182B210A255,11554,0.1873143,-1.082895,-0.4141575,910070.1,-32.3615,-0.2094794,1576287.6526462971
PART_003_R247G182B210A255,11555,-0.06037691,-1.235921,-0.4753612,889486.6,-194.0305,-0.1400476,1540636.0205068912
PART_003_R247G182B210A255,11556,-0.1253565,-1.258097,-0.4721221,882690.2,-5.2534,0.01943596,1528864.273770542
PART_002_R214G39B40A255,11557,-0.05729357,-1.233601,-0.4849638,889484.6,184.661,0.1021771,1540632.552950777
PART_002_R214G39B40A255,11558,0.1789688,-1.073879,-0.3967623,910066.6,23.60244,0.24196,1576281.5900020087
PART_002_R214G39B40A255,11559,0.5988249,-0.7831905,-0.3319533,945570.4,452.7496,0.2780708,1637776.1626720554
PART_002_R214G39B40A255,11560,1.168346,-0.4034978,-0.177061,997060.2,69.94332,0.2790031,1726958.9288546278
PART_002_R214G39B40A255,11561,1.82585,-0.177393,-0.1333437,1065911.0,170.7549,0.1140271,1846212.032037131
PART_003_R247G182B210A255,11562,-2099309.0,201.076,-230.8616,1032768.0,-29.4426,1354.019,2758055.586210541
PART_003_R247G182B210A255,11563,-2099221.0,90.71245,148.0596,964428.1,-428.1345,3495.257,2682840.2746777316
PART_003_R247G182B210A255,11564,-2099353.0,-94.90247,-63.0744,913529.3,-32.49269,4583.939,2628806.147840696
PART_003_R247G182B210A255,11565,-2099339.0,-35.74142,-80.25772,878890.8,-335.4138,4175.473,2593141.044459046
PART_003_R247G182B210A255,11566,-2099362.0,-133.0529,-49.08119,858767.9,1.239693,2458.672,2572820.1469706437
PART_001_R158G218B229A255,11567,-2099379.0,-49.60421,-183.0671,852242.1,-5.028954,-0.9262015,2566291.7874606154
PART_001_R158G218B229A255,11568,-2099362.0,-132.9687,-49.03416,858766.0,-10.15105,-2460.679,2572818.303752015
PART_002_R214G39B40A255,11569,-2099340.0,-35.52456,-79.98707,878887.5,327.1079,-4177.015,2593138.700217077
PART_002_R214G39B40A255,11570,-2099354.0,-94.61354,-63.0295,913525.5,26.86776,-4585.312,2628803.12511325
PART_002_R214G39B40A255,11571,-2099222.0,91.44452,148.5281,964425.7,424.2503,-3496.058,2682838.9399326523
PART_002_R214G39B40A255,11572,-2099309.0,201.766,-230.5469,1032768.0,28.73035,-1354.306,2758055.9690185846
PART_003_R247G182B210A255,11573,-4198283.0,446.3413,520.4029,932916.4,-220.9016,3074.975,4498962.835206002
PART_003_R247G182B210A255,11574,-4198691.0,24.36431,-292.7139,865941.8,15.78735,8492.812,4458437.111494999
PART_003_R247G182B210A255,11575,-4198602.0,-8.999102,8.805811,817673.6,-422.4693,10883.04,4431070.316370586
PART_003_R247G182B210A255,11576,-4198726.0,-290.6675,-82.94574,785366.1,61.42095,9830.928,4413436.4248905275
PART_001_R158G218B229A255,11577,-4198758.0,-101.7412,-371.0384,767156.9,-67.4911,5810.029,4403779.533121073
PART_001_R158G218B229A255,11578,-4198723.0,-141.2497,-221.6337,761252.9,-4.370572,-1.747511,4400712.34630941
PART_001_R158G218B229A255,11579,-4198759.0,-101.5666,-370.8729,767155.2,59.86115,-5813.406,4403779.773234778
PART_001_R158G218B229A255,11580,-4198727.0,-290.3255,-82.58883,785363.2,-68.55691,-9833.815,4413436.180097129
PART_002_R214G39B40A255,11581,-4198603.0,-8.905844,8.978374,817669.8,417.7174,-10885.27,4431069.30126827
PART_002_R214G39B40A255,11582,-4198692.0,23.35396,-292.7477,865937.8,-19.30213,-8494.173,4458435.238629754
PART_002_R214G39B40A255,11583,-4198283.0,443.1145,519.6064,932912.9,220.0423,-3075.516,4498958.781494273
PART_003_R247G182B210A255,11584,-6298004.0,611.8819,-921.2502,764226.9,55.37138,6641.743,6435461.784481505
PART_003_R247G182B210A255,11585,-6297702.0,202.6507,410.0581,701009.6,-554.599,16754.22,6414046.747306697
PART_003_R247G182B210A255,11586,-6298106.0,-492.4973,-121.4902,657569.2,217.787,21366.3,6400065.146804735
PART_001_R158G218B229A255,11587,-6298139.0,-146.9389,-560.9815,630705.4,56.16191,19069.33,6391913.279165484
PART_001_R158G218B229A255,11588,-6298083.0,-94.10525,-445.5992,615893.5,44.82669,10888.87,6387548.876953768
PART_001_R158G218B229A255,11589,-6298175.0,-161.3705,-652.163,611096.1,-3.371052,-2.244572,6386094.286083288
PART_001_R158G218B229A255,11590,-6298084.0,-93.9547,-445.3607,615892.2,-50.56898,-10892.66,6387549.698167055
PART_001_R158G218B229A255,11591,-6298140.0,-146.692,-560.7782,630703.2,-61.46647,-19072.98,6391913.8678072775
PART_001_R158G218B229A255,11592,-6298107.0,-491.9169,-121.0035,657566.8,-220.9363,-21368.74,6400065.940852528
PART_002_R214G39B40A255,11593,-6297702.0,203.9929,410.5305,701008.2,552.5841,-16755.97,6414047.192334455
PART_002_R214G39B40A255,11594,-6298003.0,613.7152,-920.2114,764227.3,-55.39174,-6642.163,6435462.355153169
PART_003_R247G182B210A255,11595,-8396307.0,1074.149,1653.093,522769.6,-519.5442,12172.1,8446370.910874972
PART_003_R247G182B210A255,11596,-8397563.0,-653.5505,-420.2384,466111.1,505.4272,33336.54,8435944.574960839
PART_001_R158G218B229A255,11597,-8397609.0,-273.1764,-947.8171,435091.2,360.8988,40754.09,8431042.660323167
PART_001_R158G218B229A255,11598,-8397449.0,39.71624,-768.9425,417103.6,104.6124,33722.4,8428307.336807199
PART_001_R158G218B229A255,11599,-8397595.0,-248.8619,-929.3547,407187.7,86.96306,18845.21,8426635.106028313
PART_001_R158G218B229A255,11600,-8397431.0,121.8087,-795.5504,404160.6,-2.165925,-2.293815,8426222.630382676
PART_001_R158G218B229A255,11601,-8397595.0,-248.7063,-929.1383,407186.9,-90.40018,-18848.08,8426635.194764396
PART_001_R158G218B229A255,11602,-8397449.0,39.85027,-769.3332,417102.2,-107.9138,-33726.08,8428307.045433672
PART_001_R158G218B229A255,11603,-8397609.0,-273.1089,-947.3289,435089.5,-362.5618,-40755.78,8431042.698558614
PART_001_R158G218B229A255,11604,-8397562.0,-655.0733,-421.1307,466109.5,-506.6157,-33337.97,8435942.12956148
PART_002_R214G39B40A255,11605,-8396303.0,1070.421,1652.403,522768.1,519.3947,-12172.49,8446364.460972685
PART_003_R247G182B210A255,11606,-10497330.0,733.9381,-3219.32,192000.5,799.5823,32815.44,10501508.728449032
PART_001_R158G218B229A255,11607,-10497520.0,-947.3228,-2099.802,164997.0,491.8149,70945.37,10500605.44475956
PART_001_R158G218B229A255,11608,-10496830.0,490.11,-1453.32,154671.0,96.23559,72236.53,10500512.187184745
PART_001_R158G218B229A255,11609,-10497080.0,-430.8931,-1276.465,147853.1,114.4011,56328.23,10499803.22587685
PART_001_R158G218B229A255,11610,-10496780.0,313.9002,-1125.687,144589.8,15.71375,30400.38,10499493.422106456
PART_001_R158G218B229A255,11611,-10496990.0,-320.7886,-1125.842,143390.5,-0.8183071,-1.667792,10499204.603631053
PART_001_R158G218B229A255,11612,-10496780.0,314.0591,-1125.829,144589.5,-16.70881,-30400.94,10499493.423059843
PART_001_R158G218B229A255,11613,-10497080.0,-431.2068,-1278.446,147852.5,-115.6398,-56330.98,10499802.09797236
PART_001_R158G218B229A255,11614,-10496830.0,490.7861,-1452.978,154670.6,-96.43138,-72236.68,10500512.681504564
PART_001_R158G218B229A255,11615,-10497510.0,-946.421,-2101.478,164996.7,-492.1729,-70946.66,10500595.074486908
PART_001_R158G218B229A255,11616,-10497320.0,737.6026,-3216.843,192000.8,-798.9228,-32815.21,10501501.817259729
PART_003_R247G182B210A255,11617,10179230.0,-720.1484,3113.463,192002.1,774.2026,-32815.23,10183624.133032763
PART_000_R31G119B180A255,11618,10179410.0,917.9887,2041.023,164997.7,477.1027,-70946.55,10182683.523237895
PART_000_R31G119B180A255,11619,10178740.0,-478.0655,1403.129,154671.8,92.5716,-72235.68,10182571.334299829
PART_000_R31G119B180A255,11620,10178980.0,419.5316,1242.258,147853.5,110.9797,-56328.73,10181837.776263628
PART_000_R31G119B180A255,11621,10178690.0,-306.6679,1086.197,144590.3,14.47776,-30398.3,10181516.99763526
PART_000_R31G119B180A255,11622,10178900.0,312.328,1095.342,143390.8,-0.8818645,1.878118,10181225.878922476
PART_000_R31G119B180A255,11623,10178690.0,-306.5882,1087.516,144589.8,-16.93398,30403.63,10181516.325087452
PART_000_R31G119B180A255,11624,10178980.0,419.1262,1243.013,147852.6,-112.1426,56331.76,10181837.612717904
PART_000_R31G119B180A255,11625,10178740.0,-477.6292,1405.755,154670.7,-94.03249,72239.23,10182569.82956639
PART_000_R31G119B180A255,11626,10179410.0,918.8196,2040.987,164996.8,-477.0343,70947.58,10182683.103671443
PART_000_R31G119B180A255,11627,10179220.0,-716.0278,3116.311,192001.0,-775.1019,32816.06,10183610.60178726
PART_003_R247G182B210A255,11628,8141874.0,-1036.73,-1604.543,522768.8,-503.5616,-12172.39,8193407.47469874
PART_003_R247G182B210A255,11629,8143090.0,637.9864,411.9134,466111.4,490.4829,-33336.57,8182693.923610375
PART_000_R31G119B180A255,11630,8143133.0,264.5322,915.6803,435092.1,349.1711,-40753.55,8177646.56990478
PART_000_R31G119B180A255,11631,8142978.0,-36.78092,749.1308,417104.8,100.9249,-33722.01,8174816.905849838
PART_000_R31G119B180A255,11632,8143119.0,240.4489,897.6635,407188.6,82.82633,-18843.48,8173101.787567047
PART_000_R31G119B180A255,11633,8142961.0,-116.3518,774.5758,404161.2,-2.975157,3.385306,8172667.464518895
PART_000_R31G119B180A255,11634,8143120.0,240.345,897.7488,407187.2,-89.20438,18850.48,8173102.632486454
PART_000_R31G119B180A255,11635,8142981.0,-36.98628,749.0204,417102.3,-105.2854,33727.53,8174819.737110057
PART_000_R31G119B180A255,11636,8143135.0,264.0345,915.7059,435089.4,-352.6041,40758.01,8177648.432553207
PART_000_R31G119B180A255,11637,8143092.0,636.5472,411.4004,466109.5,-491.2635,33339.15,8182696.592082054
PART_002_R214G39B40A255,11638,8141872.0,-1039.086,-1605.585,522768.5,503.3212,12173.1,8193407.121172144
PART_003_R247G182B210A255,11639,6107158.0,-599.2763,889.4553,764232.0,52.69036,-6641.664,6248831.278259792
PART_003_R247G182B210A255,11640,6106863.0,-198.0039,-396.0138,701013.2,-538.4382,-16754.41,6226757.175555814
PART_003_R247G182B210A255,11641,6107253.0,476.2772,115.4936,657571.3,209.6712,-21366.03,6212366.29590836
PART_000_R31G119B180A255,11642,6107285.0,143.2033,546.0821,630707.0,53.28002,-19068.64,6203965.301040181
PART_000_R31G119B180A255,11643,6107230.0,90.15231,429.7043,615894.7,41.3505,-10887.59,6199469.171751076
PART_000_R31G119B180A255,11644,6107320.0,156.988,634.2593,611096.9,-4.846493,3.681784,6197970.939991468
PART_000_R31G119B180A255,11645,6107232.0,89.88647,429.378,615892.5,-51.25131,10894.56,6199470.814831517
PART_000_R31G119B180A255,11646,6107288.0,142.7455,545.6528,630703.1,-60.85924,19074.71,6203967.557485781
PART_000_R31G119B180A255,11647,6107257.0,475.9478,114.9441,657566.4,-215.8009,21370.59,6212369.151754857
PART_002_R214G39B40A255,11648,6106866.0,-196.8299,-395.9404,701007.8,535.4508,16757.21,6226757.704270412
PART_002_R214G39B40A255,11649,6107158.0,-595.0921,890.0653,764227.0,-54.3493,6642.751,6248827.103938674
PART_003_R247G182B210A255,11650,4071065.0,-429.0429,-504.2776,932913.8,-214.3859,-3075.176,4380454.662173878
PART_003_R247G182B210A255,11651,4071459.0,-20.85519,285.2648,865941.3,15.26508,-8492.83,4338834.0984503245
PART_003_R247G182B210A255,11652,4071371.0,9.54274,-9.064407,817674.6,-411.2875,-10882.92,4310706.548606679
PART_003_R247G182B210A255,11653,4071491.0,282.92,81.46586,785367.5,58.05678,-9830.414,4292581.0049855
PART_000_R31G119B180A255,11654,4071522.0,98.99181,359.0969,767157.8,-68.12549,-5809.188,4282653.488860267
PART_000_R31G119B180A255,11655,4071489.0,137.9434,215.8477,761253.3,-6.315799,2.972285,4279497.869706415
PART_000_R31G119B180A255,11656,4071524.0,98.7609,358.809,767155.1,55.23837,5814.802,4282654.208092985
PART_000_R31G119B180A255,11657,4071494.0,282.503,81.03923,785362.6,-68.21356,9835.362,4292581.595373796
PART_002_R214G39B40A255,11658,4071375.0,8.954993,-9.540526,817668.9,403.0077,10886.73,4310707.61184328
PART_002_R214G39B40A255,11659,4071462.0,-21.67126,284.8603,865936.9,-19.32652,8495.348,4338834.866566765
PART_002_R214G39B40A255,11660,4071066.0,-429.2955,-504.8726,932912.5,212.6709,3075.967,4380455.156393234
PART_003_R247G182B210A255,11661,2035697.0,-196.1824,223.5988,1032774.0,-29.76245,-1354.134,2709959.1335660317
PART_003_R247G182B210A255,11662,2035610.0,-88.41845,-144.0887,964432.5,-416.3132,-3495.573,2633364.5209179595
PART_003_R247G182B210A255,11663,2035737.0,92.35638,61.3837,913531.7,-33.80686,-4584.19,2578293.1784352018
PART_003_R247G182B210A255,11664,2035723.0,34.76083,77.50482,878892.3,-327.1331,-4175.318,2541918.0241250177
PART_003_R247G182B210A255,11665,2035745.0,129.1892,47.63075,858768.8,-1.836325,-2458.378,2521183.7386312517
PART_000_R31G119B180A255,11666,2035761.0,48.02003,177.1423,852242.5,-7.277869,1.662847,2514521.0944026303
PART_000_R31G119B180A255,11667,2035746.0,129.0155,47.4355,858765.7,-13.01917,2461.456,2521181.536337408
PART_002_R214G39B40A255,11668,2035725.0,34.49926,77.31546,878886.6,315.1642,4178.112,2541913.9031305593
PART_002_R214G39B40A255,11669,2035739.0,92.08201,61.0479,913524.3,23.68928,4586.293,2578287.1434696987
PART_002_R214G39B40A255,11670,2035612.0,-88.05808,-144.0794,964424.2,410.5438,3496.974,2633356.807758247
PART_002_R214G39B40A255,11671,2035698.0,-194.6024,223.5893,1032767.0,26.95171,1354.659,2709951.2922471743
PART_003_R247G182B210A255,11672,2.136401,0.5569062,-0.0835905,1065912.0,-167.1461,-0.1250799,1846213.7630971717
PART_003_R247G182B210A255,11673,1.503612,1.058014,0.1467774,997064.1,-72.55966,-0.2840713,1726965.684176388
PART_003_R247G182B210A255,11674,1.067802,1.610223,0.3635246,945575.6,-447.0446,-0.240691,1637785.164633643
PART_003_R247G182B210A255,11675,0.7227099,1.900206,0.4488322,910071.2,-33.30208,-0.2025489,1576289.5579611356
PART_003_R247G182B210A255,11676,0.5424505,1.985791,0.4471449,889487.2,-191.3094,-0.06042391,1540637.058716822
PART_003_R247G182B210A255,11677,0.4604794,1.976417,0.4065212,882690.1,-7.624443,-0.02897149,1528864.1005958677
PART_002_R214G39B40A255,11678,0.5339391,1.993906,0.4606906,889483.9,175.7752,0.1109956,1540631.337397326
PART_002_R214G39B40A255,11679,0.7257224,1.905892,0.4220554,910065.3,20.74306,0.1539664,1576279.3382154726
PART_002_R214G39B40A255,11680,1.056997,1.703417,0.4204575,945568.7,436.5916,0.2712443,1637773.2050247984
PART_002_R214G39B40A255,11681,1.571194,1.377794,0.2377466,997058.7,67.00007,0.2548109,1726956.3304281468
PART_002_R214G39B40A255,11682,2.271436,1.16789,0.1782296,1065910.0,164.739,0.1273547,1846210.2983463593
PART_003_R247G182B210A255,11683,-2035693.0,197.8998,-223.3921,1032774.0,-29.78045,1353.914,2709956.851347994
PART_003_R247G182B210A255,11684,-2035608.0,88.84163,143.7253,964432.4,-416.3401,3495.046,2633362.8859529393
PART_003_R247G182B210A255,11685,-2035736.0,-93.39057,-62.29512,913531.6,-33.8431,4583.738,2578291.5121279033
PART_003_R247G182B210A255,11686,-2035723.0,-36.77969,-78.95971,878892.1,-327.1455,4174.926,2541916.423778477
PART_003_R247G182B210A255,11687,-2035745.0,-131.5586,-49.20938,858768.7,-1.84842,2458.266,2521182.0422756793
PART_001_R158G218B229A255,11688,-2035762.0,-50.52323,-178.9558,852242.3,-7.269382,-1.724719,2514519.9532687357
PART_001_R158G218B229A255,11689,-2035746.0,-131.3609,-48.96739,858765.6,-13.01197,-2461.232,2521179.8682103036
PART_002_R214G39B40A255,11690,-2035725.0,-36.52096,-78.85912,878886.5,315.193,-4177.824,2541912.3703446053
PART_002_R214G39B40A255,11691,-2035738.0,-93.19758,-61.89074,913524.2,23.7191,-4585.758,2578285.471661316
PART_002_R214G39B40A255,11692,-2035610.0,87.85886,143.3349,964424.1,410.5883,-3496.486,2633354.785074422
PART_002_R214G39B40A255,11693,-2035694.0,195.2243,-223.7277,1032767.0,26.96324,-1354.412,2709948.4688131954
PART_003_R247G182B210A255,11694,-4071061.0,429.9174,504.9163,932913.4,-214.4405,3074.915,4380451.3913973905
PART_003_R247G182B210A255,11695,-4071456.0,22.24641,-285.8342,865941.0,15.2135,8492.273,4338831.486200084
PART_003_R247G182B210A255,11696,-4071370.0,-6.421124,10.50648,817674.2,-411.3579,10882.41,4310707.527812581
PART_003_R247G182B210A255,11697,-4071491.0,-279.7428,-81.54644,785367.1,58.04982,9830.072,4292582.251469262
PART_001_R158G218B229A255,11698,-4071522.0,-95.01657,-357.5989,767157.4,-68.15641,5809.027,4282655.87492293
PART_001_R158G218B229A255,11699,-4071489.0,-134.5751,-216.0611,761252.9,-6.286658,-2.967474,4279499.157007315
PART_001_R158G218B229A255,11700,-4071524.0,-94.76632,-357.2883,767154.6,55.23198,-5814.65,4282656.560435019
PART_001_R158G218B229A255,11701,-4071493.0,-279.3339,-81.1709,785362.2,-68.15462,-9835.014,4292581.865290924
PART_002_R214G39B40A255,11702,-4071373.0,-5.634047,11.10659,817668.5,403.0422,-10886.23,4310707.799321026
PART_002_R214G39B40A255,11703,-4071459.0,23.66857,-285.2929,865936.6,-19.24397,-8494.804,4338832.6029598545
PART_002_R214G39B40A255,11704,-4071062.0,431.4394,506.1224,932912.2,212.6898,-3075.71,4380452.823443338
PART_003_R247G182B210A255,11705,-6107154.0,601.219,-886.4361,764231.4,52.66205,6641.4,6248829.572510197
PART_003_R247G182B210A255,11706,-6106862.0,196.7018,392.7891,701012.7,-538.4755,16753.94,6226753.802134876
PART_003_R247G182B210A255,11707,-6107253.0,-476.9456,-113.819,657570.7,209.61,21365.46,6212366.594159372
PART_001_R158G218B229A255,11708,-6107287.0,-146.8155,-550.4595,630706.5,53.28404,19068.46,6203963.183322027
PART_001_R158G218B229A255,11709,-6107231.0,-92.02293,-429.0144,615894.1,41.31642,10887.28,6199469.394716974
PART_001_R158G218B229A255,11710,-6107322.0,-160.9892,-638.9331,611096.4,-4.808716,-3.479766,6197968.488972754
PART_001_R158G218B229A255,11711,-6107233.0,-91.77956,-428.8084,615892.0,-51.27046,-10894.63,6199470.99928946
PART_001_R158G218B229A255,11712,-6107290.0,-146.2928,-549.8099,630702.6,-60.79677,-19074.2,6203965.577084268
PART_001_R158G218B229A255,11713,-6107257.0,-476.8177,-113.6044,657565.9,-215.7794,-21370.28,6212369.2207925655
PART_002_R214G39B40A255,11714,-6106865.0,194.9948,392.7746,701007.3,535.5393,-16756.57,6226754.097006656
PART_002_R214G39B40A255,11715,-6107154.0,595.7704,-887.7573,764226.4,-54.33425,-6642.541,6248824.432882313
PART_003_R247G182B210A255,11716,-8141872.0,1038.154,1609.216,522767.9,-503.5842,12172.08,8193408.343295446
PART_003_R247G182B210A255,11717,-8143091.0,-638.7134,-416.5997,466110.8,490.4238,33336.07,8182692.116593541
PART_001_R158G218B229A255,11718,-8143133.0,-260.5005,-910.6199,435091.4,349.1413,40752.84,8177650.974029765
PART_001_R158G218B229A255,11719,-8142980.0,38.05559,-753.4574,417104.1,100.9232,33721.99,8174817.271027184
PART_001_R158G218B229A255,11720,-8143120.0,-235.3862,-893.0555,407187.9,82.81982,18843.0,8173107.493188215
PART_001_R158G218B229A255,11721,-8142964.0,117.958,-778.9002,404160.6,-2.959965,-2.977501,8172669.010859451
PART_001_R158G218B229A255,11722,-8143122.0,-235.3457,-893.4056,407186.5,-89.21268,-18850.77,8173109.176222637
PART_001_R158G218B229A255,11723,-8142983.0,38.38521,-752.8592,417101.6,-105.261,-33726.83,8174820.398669099
PART_001_R158G218B229A255,11724,-8143136.0,-260.0141,-911.2373,435088.8,-352.5861,-40757.82,8177653.555902357
PART_001_R158G218B229A255,11725,-8143092.0,-636.449,-415.175,466108.9,-491.2126,-33338.33,8182694.650252515
PART_002_R214G39B40A255,11726,-8141870.0,1041.581,1610.12,522767.7,503.339,-12172.9,8193408.472977007
PART_003_R247G182B210A255,11727,-10179230.0,722.6778,-3107.531,192001.8,774.1831,32814.8,10183628.339320028
PART_001_R158G218B229A255,11728,-10179410.0,-920.8676,-2047.268,164997.4,477.1161,70945.99,10182678.937409522
PART_001_R158G218B229A255,11729,-10178740.0,478.0075,-1398.848,154671.6,92.57448,72234.89,10182573.418382285
PART_001_R158G218B229A255,11730,-10178980.0,-424.6301,-1249.767,147853.1,110.9663,56328.78,10181831.458347505
PART_001_R158G218B229A255,11731,-10178690.0,305.4732,-1083.324,144590.0,14.50175,30397.74,10181517.818306562
PART_001_R158G218B229A255,11732,-10178900.0,-317.7198,-1103.096,143390.5,-0.9060485,-1.378598,10181219.295439202
PART_001_R158G218B229A255,11733,-10178690.0,305.3125,-1084.958,144589.5,-16.90621,-30404.03,10181516.956443934
PART_001_R158G218B229A255,11734,-10178990.0,-424.066,-1249.935,147852.3,-112.1727,-56330.99,10181841.654615961
PART_001_R158G218B229A255,11735,-10178740.0,477.2162,-1402.286,154670.4,-93.98987,-72239.09,10182571.3397325
PART_001_R158G218B229A255,11736,-10179410.0,-922.1035,-2046.635,164996.4,-477.0643,-70946.59,10182678.599868206
PART_001_R158G218B229A255,11737,-10179220.0,717.0534,-3111.529,192000.7,-775.0467,-32815.79,10183613.483342115
PART_003_R247G182B210A255,11738,9861124.0,-688.3522,3021.145,192001.1,751.598,-32815.56,9865728.54937248
PART_000_R31G119B180A255,11739,9861300.0,893.4645,1976.545,164997.6,461.7759,-70944.72,9864771.225323457
PART_000_R31G119B180A255,11740,9860649.0,-459.3018,1361.411,154671.8,90.18631,-72235.24,9864630.247503283
PART_000_R31G119B180A255,11741,9860883.0,409.3266,1202.992,147853.8,106.5416,-56325.9,9863884.420984775
PART_000_R31G119B180A255,11742,9860603.0,-293.0346,1053.784,144590.3,13.97521,-30397.34,9863543.10787476
PART_000_R31G119B180A255,11743,9860804.0,306.2981,1062.118,143390.8,-1.992379,5.08785,9863247.20894267
PART_000_R31G119B180A255,11744,9860605.0,-293.2455,1054.648,144589.6,-16.52482,30404.74,9863544.818523394
PART_000_R31G119B180A255,11745,9860888.0,409.6935,1206.3,147852.3,-109.622,56334.5,9863887.662478447
PART_000_R31G119B180A255,11746,9860654.0,-460.2177,1362.119,154670.3,-90.93436,72240.05,9864635.384517755
PART_000_R31G119B180A255,11747,9861302.0,892.1046,1979.154,164996.3,-462.7244,70949.03,9864772.628311034
PART_000_R31G119B180A255,11748,9861121.0,-693.6384,3017.797,192000.7,-750.3001,32816.18,9865729.848785523
PART_003_R247G182B210A255,11749,7887439.0,-1012.719,-1557.401,522772.5,-488.3282,-12171.81,7940546.955460298
PART_003_R247G182B210A255,11750,7888617.0,613.4889,397.8349,466113.7,473.8194,-33335.82,7929528.420109515
PART_000_R31G119B180A255,11751,7888657.0,253.1859,885.892,435093.4,337.6465,-40752.25,7924318.612552018
PART_000_R31G119B180A255,11752,7888508.0,-38.62631,724.646,417105.4,95.89147,-33719.77,7921394.396772898
PART_000_R31G119B180A255,11753,7888644.0,229.3432,868.1153,407189.0,79.07896,-18841.47,7919628.840630702
PART_000_R31G119B180A255,11754,7888493.0,-116.2586,749.2249,404161.2,-5.189947,6.216477,7919177.239444331
PART_000_R31G119B180A255,11755,7888648.0,229.1097,868.0307,407186.7,-87.66933,18852.61,7919632.708169992
PART_000_R31G119B180A255,11756,7888514.0,-39.07068,724.7344,417101.4,-103.9492,33730.01,7921400.048110802
PART_000_R31G119B180A255,11757,7888664.0,253.0187,885.6558,435088.2,-342.1327,40759.54,7924325.037849118
PART_000_R31G119B180A255,11758,7888623.0,615.4031,398.3785,466108.2,-476.9019,33340.37,7929532.2543633375
PART_002_R214G39B40A255,11759,7887441.0,-1006.605,-1555.933,522767.1,487.814,12173.49,7940544.117485181
PART_003_R247G182B210A255,11760,5916306.0,-573.477,863.8866,764228.3,51.9644,-6641.59,6062443.989678489
PART_003_R247G182B210A255,11761,5916021.0,-187.0091,-382.3116,701012.0,-522.3421,-16753.4,6039682.857194344
PART_003_R247G182B210A255,11762,5916400.0,464.9506,113.1277,657571.8,202.2718,-21364.56,6024860.203058937
PART_000_R31G119B180A255,11763,5916431.0,142.3311,530.2875,630707.9,49.10233,-19066.85,6016198.509783273
PART_000_R31G119B180A255,11764,5916378.0,91.27409,417.8046,615895.2,37.92648,-10885.38,6011559.951679491
PART_000_R31G119B180A255,11765,5916467.0,155.9545,615.6616,611096.7,-7.96607,5.980543,6010019.497372105
PART_000_R31G119B180A255,11766,5916382.0,90.97414,417.4227,615891.7,-51.92651,10896.89,6011563.210818388
PART_000_R31G119B180A255,11767,5916438.0,141.7134,529.5113,630701.6,-61.8249,19076.78,6016204.1920756465
PART_000_R31G119B180A255,11768,5916408.0,463.9933,112.4594,657564.5,-210.3652,21372.29,6024866.549637048
PART_002_R214G39B40A255,11769,5916029.0,-188.9164,-383.3393,701005.9,517.2152,16758.37,6039690.047288127
PART_002_R214G39B40A255,11770,5916312.0,-575.0749,862.6896,764225.5,-52.42034,6643.12,6062450.154848538
PART_003_R247G182B210A255,11771,3943843.0,-420.0609,-489.7637,932921.1,-208.2823,-3074.782,4262457.020791085
PART_003_R247G182B210A255,11772,3944224.0,-23.11508,275.1858,865946.2,12.37826,-8492.257,4219681.699020057
PART_003_R247G182B210A255,11773,3944139.0,7.150259,-9.506004,817677.1,-400.2278,-10881.82,4190749.9311072994
PART_003_R247G182B210A255,11774,3944255.0,271.364,77.54082,785368.9,52.88495,-9828.999,4172106.680967004
PART_000_R31G119B180A255,11775,3944286.0,92.99687,346.7415,767158.6,-68.77437,-5807.469,4161893.2998662926
PART_000_R31G119B180A255,11776,3944254.0,130.3564,207.4115,761253.3,-10.23869,4.710062,4158644.871561405
PART_000_R31G119B180A255,11777,3944289.0,92.61215,346.33,767154.2,50.52819,5816.591,4161894.1244172743
PART_000_R31G119B180A255,11778,3944260.0,270.6715,76.83741,785360.9,-69.76707,9836.903,4172107.6063311994
PART_002_R214G39B40A255,11779,3944145.0,6.641185,-10.10949,817666.7,388.5244,10888.02,4190750.0590461288
PART_002_R214G39B40A255,11780,3944230.0,-21.9297,275.0419,865934.3,-20.86483,8496.185,4219679.518027654
PART_002_R214G39B40A255,11781,3943848.0,-415.1605,-489.071,932909.9,205.9931,3076.292,4262451.708790781
PART_003_R247G182B210A255,11782,1972081.0,-187.1072,216.784,1032770.0,-28.16929,-1354.075,2662497.3595689586
PART_003_R247G182B210A255,11783,1971997.0,-82.38644,-138.4115,964431.0,-404.7413,-3495.138,2584497.2811215725
PART_003_R247G182B210A255,11784,1972120.0,92.67502,59.96079,913532.7,-34.35462,-4583.478,2528368.109107887
PART_003_R247G182B210A255,11785,1972107.0,37.73465,76.65914,878893.7,-320.6326,-4174.54,2491263.8205397483
PART_003_R247G182B210A255,11786,1972128.0,129.0956,46.96772,858769.7,-4.985075,-2457.371,2470104.441272613
PART_000_R31G119B180A255,11787,1972144.0,50.79377,173.1058,852242.4,-11.72733,2.552534,2463303.0150188114
PART_000_R31G119B180A255,11788,1972129.0,128.9008,46.78733,858764.7,-16.06425,2462.43,2470100.189691783
PART_002_R214G39B40A255,11789,1972110.0,37.31664,76.19633,878884.6,301.0685,4178.842,2491256.927101527
PART_002_R214G39B40A255,11790,1972123.0,92.25345,59.75034,913521.7,20.67387,4586.994,2528358.7908886755
PART_002_R214G39B40A255,11791,1972001.0,-82.87122,-138.8439,964421.6,395.2819,3497.39,2584490.164940064
PART_002_R214G39B40A255,11792,1972084.0,-186.6679,216.6584,1032765.0,26.13941,1354.832,2662493.6480551055
PART_003_R247G182B210A255,11793,2.454369,1.982584,0.09356715,1065921.0,-162.5377,-0.08537771,1846229.3503200558
PART_003_R247G182B210A255,11794,1.319484,1.088459,-0.2766274,997070.3,-73.19143,-0.1404877,1726976.4229715236
PART_003_R247G182B210A255,11795,0.4557721,0.07314598,-0.7399785,945579.0,-435.3426,-0.1263565,1637791.0441487047
PART_003_R247G182B210A255,11796,0.01431509,-0.5656903,-1.115066,910073.1,-36.25239,0.00601232,1576292.8490526418
PART_003_R247G182B210A255,11797,-0.2164245,-0.8525688,-1.349526,889488.3,-188.697,-0.0334962,1540638.9630057118
PART_003_R247G182B210A255,11798,-0.2488961,-0.8946483,-1.384659,882690.3,-12.22839,0.03534327,1528864.4470952447
PART_002_R214G39B40A255,11799,-0.2149127,-0.847478,-1.370497,889483.1,166.6611,-0.04794241,1540629.9487176042
PART_002_R214G39B40A255,11800,-0.008528288,-0.5384393,-1.07776,910063.7,15.69312,0.05280802,1576276.5667587519
PART_002_R214G39B40A255,11801,0.4464427,0.007036293,-0.8161714,945566.4,420.5268,0.07504419,1637769.2086971528
PART_002_R214G39B40A255,11802,1.205304,0.7579295,-0.3785649,997056.0,62.26461,0.1771776,1726951.6533593924
PART_002_R214G39B40A255,11803,2.257051,1.287434,-0.2364398,1065908.0,159.478,0.08287097,1846206.8328593245
PART_003_R247G182B210A255,11804,-1972076.0,189.8612,-217.0462,1032770.0,-28.19878,1353.848,2662494.5789716933
PART_003_R247G182B210A255,11805,-1971994.0,86.21555,138.6014,964431.2,-404.811,3494.804,2584496.74783845
PART_003_R247G182B210A255,11806,-1972118.0,-87.64663,-59.45801,913532.8,-34.39216,4583.203,2528368.813098015
PART_003_R247G182B210A255,11807,-1972106.0,-32.06154,-76.14112,878893.8,-320.665,4174.558,2491265.585364624
PART_003_R247G182B210A255,11808,-1972127.0,-123.3307,-46.74657,858769.7,-4.983303,2457.308,2470106.0321086934
PART_001_R158G218B229A255,11809,-1972143.0,-44.99475,-172.8447,852242.4,-11.72834,-2.471898,2463304.640423012
PART_001_R158G218B229A255,11810,-1972128.0,-123.1362,-46.63532,858764.7,-16.03913,-2462.542,2470101.7533332556
PART_002_R214G39B40A255,11811,-1972108.0,-31.58021,-75.5555,878884.7,301.0957,-4178.726,2491257.973334795
PART_002_R214G39B40A255,11812,-1972121.0,-87.06486,-59.3656,913521.9,20.73379,-4586.847,2528359.620409329
PART_002_R214G39B40A255,11813,-1971998.0,87.55495,139.5249,964421.9,395.3347,-3497.007,2584490.256815121
PART_002_R214G39B40A255,11814,-1972079.0,190.8639,-216.5249,1032765.0,26.17915,-1354.651,2662491.548217509
PART_003_R247G182B210A255,11815,-3943839.0,422.7147,488.9976,932921.6,-208.2904,3074.619,4262454.520670778
PART_003_R247G182B210A255,11816,-3944222.0,24.66232,-274.8513,865946.5,12.27641,8491.97,4219680.892086176
PART_003_R247G182B210A255,11817,-3944139.0,-8.188791,6.936058,817677.4,-400.2678,10881.67,4190748.407482972
PART_003_R247G182B210A255,11818,-3944255.0,-272.9329,-79.05228,785369.0,52.82362,9829.01,4172105.281515708
PART_001_R158G218B229A255,11819,-3944287.0,-95.75777,-350.6747,767158.7,-68.74761,5807.522,4161891.131230463
PART_001_R158G218B229A255,11820,-3944255.0,-132.4959,-209.5681,761253.3,-10.26265,-4.715824,4158643.7827439695
PART_001_R158G218B229A255,11821,-3944290.0,-95.37622,-350.2985,767154.3,50.58893,-5816.638,4161891.937531563
PART_001_R158G218B229A255,11822,-3944261.0,-272.1779,-78.28094,785361.0,-69.75147,-9836.924,4172107.2139470247
PART_002_R214G39B40A255,11823,-3944145.0,-7.853578,7.377125,817666.9,388.6377,-10887.86,4190748.3185786847
PART_002_R214G39B40A255,11824,-3944228.0,22.82703,-274.859,865934.7,-20.79408,-8495.88,4219678.397934392
PART_002_R214G39B40A255,11825,-3943843.0,416.3296,487.5347,932910.5,206.0612,-3076.119,4262447.305659685
PART_003_R247G182B210A255,11826,-5916303.0,573.2462,-867.7253,764228.5,51.90319,6641.412,6062439.152105653
PART_003_R247G182B210A255,11827,-5916019.0,190.518,385.8475,701012.0,-522.4731,16753.01,6039684.345284367
PART_003_R247G182B210A255,11828,-5916399.0,-462.5416,-116.395,657571.8,202.2368,21364.58,6024858.799667865
PART_001_R158G218B229A255,11829,-5916431.0,-136.5698,-526.9802,630707.6,49.04485,19066.73,6016202.873262251
PART_001_R158G218B229A255,11830,-5916379.0,-87.83696,-421.4754,615895.0,37.97315,10885.74,6011560.761601974
PART_001_R158G218B229A255,11831,-5916467.0,-149.9666,-613.0343,611096.4,-8.002402,-6.262748,6010023.646326045
PART_001_R158G218B229A255,11832,-5916383.0,-87.48394,-420.9163,615891.5,-51.85946,-10896.7,6011564.131051923
PART_001_R158G218B229A255,11833,-5916437.0,-136.0241,-526.5402,630701.5,-61.83492,-19077.14,6016207.4389721425
PART_001_R158G218B229A255,11834,-5916408.0,-461.2861,-115.2419,657564.5,-210.2493,-21371.95,6024866.508797861
PART_002_R214G39B40A255,11835,-5916027.0,193.0892,386.7015,701006.0,517.2821,-16758.23,6039691.812335019
PART_002_R214G39B40A255,11836,-5916308.0,576.4932,-865.5539,764225.7,-52.33985,-6642.867,6062445.6213752385
PART_003_R247G182B210A255,11837,-7887437.0,1011.86,1551.429,522772.4,-488.3564,12171.69,7940541.554744646
PART_003_R247G182B210A255,11838,-7888617.0,-611.7981,-392.6243,466113.4,473.7912,33335.46,7929531.795409257
PART_001_R158G218B229A255,11839,-7888660.0,-257.5601,-893.8505,435093.2,337.6291,40752.56,7924315.432731115
PART_001_R158G218B229A255,11840,-7888509.0,37.58375,-722.0306,417105.1,95.88799,33719.57,7921396.125491175
PART_001_R158G218B229A255,11841,-7888648.0,-235.139,-877.4941,407188.6,79.10576,18842.17,7919625.21113039
PART_001_R158G218B229A255,11842,-7888495.0,114.7105,-747.9065,404160.8,-5.198226,-6.79122,7919179.055738649
PART_001_R158G218B229A255,11843,-7888652.0,-234.8032,-877.0193,407186.4,-87.64971,-18852.18,7919629.331277995
PART_001_R158G218B229A255,11844,-7888516.0,37.85536,-722.8474,417101.1,-103.9574,-33730.77,7921402.33624786
PART_001_R158G218B229A255,11845,-7888667.0,-257.2974,-892.7091,435088.0,-342.0836,-40759.08,7924322.344156965
PART_001_R158G218B229A255,11846,-7888622.0,-614.7592,-394.4914,466108.0,-476.8543,-33340.45,7929533.479052417
PART_002_R214G39B40A255,11847,-7887439.0,1004.506,1550.336,522767.0,487.8594,-12173.22,7940538.28648573
PART_003_R247G182B210A255,11848,-9861125.0,685.3778,-3028.736,192000.7,751.5797,32815.4,9865724.245525872
PART_001_R158G218B229A255,11849,-9861303.0,-889.7788,-1969.691,164997.6,461.7387,70944.21,9864779.479791438
PART_001_R158G218B229A255,11850,-9860654.0,459.482,-1368.895,154671.5,90.16124,72235.68,9864631.5916145
PART_001_R158G218B229A255,11851,-9860887.0,-402.9645,-1197.242,147853.6,106.5769,56325.7,9863894.460771305
PART_001_R158G218B229A255,11852,-9860609.0,294.5614,-1061.941,144590.1,13.95081,30398.24,9863545.792391596
PART_001_R158G218B229A255,11853,-9860808.0,-299.6355,-1057.605,143390.6,-1.951815,-5.796838,9863256.785104742
PART_001_R158G218B229A255,11854,-9860612.0,294.8967,-1062.34,144589.3,-16.56833,-30404.27,9863548.780205393
PART_001_R158G218B229A255,11855,-9860892.0,-403.5694,-1201.413,147852.1,-109.5852,-56335.49,9863897.172401698
PART_001_R158G218B229A255,11856,-9860659.0,460.8823,-1368.413,154670.0,-90.97353,-72239.56,9864637.544926614
PART_001_R158G218B229A255,11857,-9861305.0,-887.9943,-1973.263,164996.2,-462.6589,-70949.13,9864780.62196555
PART_001_R158G218B229A255,11858,-9861122.0,692.6117,-3023.739,192000.4,-750.3451,-32815.8,9865727.345979584
PART_003_R247G182B210A255,11859,9543021.0,-679.4079,2916.505,192003.0,725.0849,-32814.22,9547865.700946137
PART_000_R31G119B180A255,11860,9543190.0,858.945,1912.906,164998.5,447.175,-70944.7,9546873.802221732
PART_000_R31G119B180A255,11861,9542559.0,-449.3017,1313.435,154672.5,85.76864,-72231.79,9546706.856601983
PART_000_R31G119B180A255,11862,9542787.0,392.6914,1163.529,147854.0,103.1876,-56324.56,9545943.322413653
PART_000_R31G119B180A255,11863,9542516.0,-288.5071,1016.887,144590.6,11.95303,-30392.71,9545582.900996562
PART_000_R31G119B180A255,11864,9542713.0,291.8905,1026.2,143390.7,-2.134421,6.970468,9545285.577627674
PART_000_R31G119B180A255,11865,9542522.0,-288.3614,1019.586,144589.3,-17.56937,30409.3,9545587.576723484
PART_000_R31G119B180A255,11866,9542798.0,391.9299,1165.358,147851.8,-106.1432,56336.24,9545953.889149947
PART_000_R31G119B180A255,11867,9542571.0,-448.3793,1318.824,154669.6,-89.16391,72243.25,9546715.816563234
PART_000_R31G119B180A255,11868,9543200.0,860.9158,1913.258,164995.6,-447.3194,70949.81,9546882.599578205
PART_000_R31G119B180A255,11869,9543024.0,-670.7391,2922.261,191999.8,-726.9543,32816.96,9547861.32598298
PART_003_R247G182B210A255,11870,7633002.0,-968.1171,-1502.855,522769.0,-472.1239,-12171.74,7687775.335714443
PART_003_R247G182B210A255,11871,7634141.0,600.5762,386.7229,466112.7,459.2509,-33334.22,7676437.272331435
PART_000_R31G119B180A255,11872,7634181.0,249.5976,858.8977,435093.8,325.1204,-40749.76,7671059.8656870015
PART_000_R31G119B180A255,11873,7634037.0,-33.1891,702.5531,417106.3,91.6837,-33717.17,7668034.627608382
PART_000_R31G119B180A255,11874,7634171.0,226.7918,841.9457,407189.4,73.44903,-18837.57,7666216.9746560445
PART_000_R31G119B180A255,11875,7634025.0,-107.8538,726.3621,404161.0,-6.938704,9.501335,7665745.55751452
PART_000_R31G119B180A255,11876,7634177.0,226.5585,842.0812,407185.9,-88.11139,18856.74,7666222.58201889
PART_000_R31G119B180A255,11877,7634049.0,-33.65339,702.3013,417099.9,-102.115,33732.99,7668046.095085257
PART_000_R31G119B180A255,11878,7634196.0,248.4689,858.8192,435086.3,-333.334,40762.51,7671074.321324994
PART_000_R31G119B180A255,11879,7634156.0,597.4493,385.5623,466106.1,-461.6394,33342.0,7676453.220028
PART_002_R214G39B40A255,11880,7633012.0,-972.9447,-1505.091,522765.4,471.3695,12174.1,7687788.049819015
PART_003_R247G182B210A255,11881,5725456.0,-564.5096,832.9004,764236.1,48.23405,-6640.845,5876360.607541914
PART_003_R247G182B210A255,11882,5725179.0,-186.2618,-371.5239,701017.0,-506.8515,-16752.34,5852861.292119321
PART_003_R247G182B210A255,11883,5725544.0,446.7212,108.2593,657574.4,192.7011,-21362.61,5837572.968529605
PART_000_R31G119B180A255,11884,5725575.0,134.4336,511.9912,630709.3,45.09287,-19064.07,5828634.584878672
PART_000_R31G119B180A255,11885,5725525.0,84.40252,402.6373,615895.8,32.38947,-10882.24,5823846.347919816
PART_000_R31G119B180A255,11886,5725612.0,146.9314,594.3365,611096.6,-11.08843,9.470961,5822259.528215072
PART_000_R31G119B180A255,11887,5725531.0,83.85113,401.9439,615890.5,-54.92413,10900.29,5823851.278520986
PART_000_R31G119B180A255,11888,5725587.0,133.4512,511.0185,630699.6,-62.67663,19079.91,5828644.33938015
PART_000_R31G119B180A255,11889,5725559.0,446.0117,107.1126,657561.7,-206.9548,21374.79,5837584.433706057
PART_002_R214G39B40A255,11890,5725194.0,-183.8668,-371.417,701002.5,499.5635,16760.01,5852869.595856191
PART_002_R214G39B40A255,11891,5725467.0,-555.6665,834.2675,764221.9,-52.05866,6643.771,5876360.819429641
PART_003_R247G182B210A255,11892,3816619.0,-398.9583,-472.1419,932915.0,-201.9092,-3074.647,4144987.951345033
PART_003_R247G182B210A255,11893,3816988.0,-16.45786,268.0642,865944.2,11.86577,-8491.065,4101003.713461175
PART_003_R247G182B210A255,11894,3816906.0,11.45829,-8.084503,817678.2,-390.5743,-10880.19,4071229.1811210187
PART_003_R247G182B210A255,11895,3817020.0,267.6566,76.95716,785370.6,48.12301,-9826.852,4052041.088857739
PART_000_R31G119B180A255,11896,3817050.0,94.99814,336.9178,767159.5,-72.01498,-5805.068,4041525.003710306
PART_000_R31G119B180A255,11897,3817021.0,131.4553,202.6318,761253.0,-14.28368,7.379829,4038179.3570209392
PART_000_R31G119B180A255,11898,3817055.0,94.50311,336.3026,767152.6,42.9666,5819.103,4041526.380052726
PART_000_R31G119B180A255,11899,3817029.0,266.7492,76.01988,785358.2,-71.36659,9839.269,4052043.316627169
PART_002_R214G39B40A255,11900,3816918.0,10.16391,-9.115356,817663.0,371.5221,10889.9,4071232.4356781016
PART_002_R214G39B40A255,11901,3817001.0,-18.2557,267.1297,865930.5,-21.66765,8497.502,4101008.446075458
PART_002_R214G39B40A255,11902,3816630.0,-399.4574,-473.4344,932906.8,197.8252,3076.742,4144993.3733852045
PART_003_R247G182B210A255,11903,1908464.0,-182.9196,209.5227,1032781.0,-29.70263,-1353.726,2615740.7108072657
PART_003_R247G182B210A255,11904,1908382.0,-81.61028,-135.5532,964439.0,-393.928,-3494.5,2536296.7407352435
PART_003_R247G182B210A255,11905,1908501.0,87.99528,57.37585,913536.9,-37.78296,-4582.539,2479074.5527916104
PART_003_R247G182B210A255,11906,1908488.0,33.53959,71.9017,878896.2,-314.0118,-4173.177,2441219.6438958347
PART_003_R247G182B210A255,11907,1908509.0,121.9556,44.01572,858771.1,-11.00063,-2456.068,2419622.1524288375
PART_000_R31G119B180A255,11908,1908525.0,45.58997,164.9904,852242.6,-16.35253,4.055004,2412678.6251215767
PART_000_R31G119B180A255,11909,1908512.0,121.5893,43.59891,858763.4,-22.27591,2463.624,2419616.652117353
PART_002_R214G39B40A255,11910,1908493.0,32.98552,71.50045,878882.1,286.8827,4180.047,2441208.7224433688
PART_002_R214G39B40A255,11911,1908507.0,87.4344,56.67875,913518.1,14.81695,4587.786,2479058.9010908185
PART_002_R214G39B40A255,11912,1908389.0,-80.75597,-135.4699,964417.3,380.537,3498.02,2536276.9093301496
PART_002_R214G39B40A255,11913,1908470.0,-179.4052,209.5929,1032761.0,23.33532,1355.038,2615720.0923795733
PART_003_R247G182B210A255,11914,1.883006,3.112057,-0.1774493,1065914.0,-158.0355,-0.03237433,1846217.224792887
PART_003_R247G182B210A255,11915,1.011502,3.588622,0.015379,997068.5,-71.31576,0.007424985,1726973.3050469437
PART_003_R247G182B210A255,11916,0.6818233,4.205002,0.08418701,945580.8,-425.3005,0.2320878,1637794.1539285404
PART_003_R247G182B210A255,11917,0.5201675,4.471215,-0.07409693,910075.6,-38.86832,0.2194564,1576297.179372207
PART_003_R247G182B210A255,11918,0.5441553,4.505987,-0.2812508,889489.8,-189.0219,0.2359818,1540641.5612074635
PART_003_R247G182B210A255,11919,0.5128495,4.450049,-0.4397498,882690.5,-17.09055,-0.06214756,1528864.7936515452
PART_002_R214G39B40A255,11920,0.5227293,4.527695,-0.2533084,889481.8,154.2963,-0.1475698,1540627.6931937775
PART_002_R214G39B40A255,11921,0.5130619,4.483776,-0.1312216,910060.9,10.44686,-0.3251479,1576271.7168917602
PART_002_R214G39B40A255,11922,0.640185,4.348675,0.1818279,945562.6,401.5487,-0.1792181,1637762.6126200692
PART_002_R214G39B40A255,11923,1.097278,4.060925,0.124273,997052.1,58.25035,-0.0728713,1726944.8979441032
PART_002_R214G39B40A255,11924,2.073667,4.052056,0.2383179,1065905.0,152.454,0.02755241,1846201.6349284772
PART_003_R247G182B210A255,11925,-1908460.0,189.7896,-209.3777,1032782.0,-29.73627,1353.757,2615741.536790338
PART_003_R247G182B210A255,11926,-1908380.0,85.98369,134.6809,964440.0,-393.9846,3494.612,2536297.69420956
PART_003_R247G182B210A255,11927,-1908501.0,-86.32715,-59.80455,913537.7,-37.8517,4583.078,2479075.1473978376
PART_003_R247G182B210A255,11928,-1908489.0,-33.57019,-75.55271,878896.9,-314.0276,4173.657,2441219.745154591
PART_003_R247G182B210A255,11929,-1908510.0,-122.6969,-48.41104,858771.7,-11.01391,2456.576,2419621.5557742133
PART_001_R158G218B229A255,11930,-1908526.0,-46.52378,-169.7764,852243.2,-16.33074,-4.190229,2412677.7899131053
PART_001_R158G218B229A255,11931,-1908513.0,-122.2797,-47.90063,858764.1,-22.26002,-2463.92,2419616.218271944
PART_002_R214G39B40A255,11932,-1908494.0,-33.00547,-75.33426,878882.8,286.9398,-4180.756,2441208.757595828
PART_002_R214G39B40A255,11933,-1908507.0,-85.80904,-58.92596,913518.9,14.88077,-4588.174,2479059.5482410947
PART_002_R214G39B40A255,11934,-1908387.0,84.24027,133.9561,964418.3,380.6352,-3498.222,2536277.2873025415
PART_002_R214G39B40A255,11935,-1908466.0,184.6837,-209.8928,1032762.0,23.36309,-1355.004,2615720.1752193635
PART_003_R247G182B210A255,11936,-3816615.0,403.5829,472.8364,932916.8,-202.0402,3074.595,4144987.9321811167
PART_003_R247G182B210A255,11937,-3816986.0,21.53773,-269.2377,865945.7,11.75329,8491.194,4101004.6212137355
PART_003_R247G182B210A255,11938,-3816905.0,-4.218206,9.079148,817679.3,-390.7058,10880.72,4071232.770797936
PART_003_R247G182B210A255,11939,-3817019.0,-260.473,-78.61187,785371.6,48.13089,9827.516,4052043.336878439
PART_001_R158G218B229A255,11940,-3817049.0,-86.88527,-336.9309,767160.3,-72.05764,5805.532,4041528.341974216
PART_001_R158G218B229A255,11941,-3817020.0,-124.1986,-205.1544,761253.9,-14.21427,-7.380439,4038181.158270497
PART_001_R158G218B229A255,11942,-3817054.0,-86.34337,-336.27,767153.5,42.95092,-5819.579,4041529.8190264413
PART_001_R158G218B229A255,11943,-3817028.0,-259.5798,-77.78069,785359.2,-71.25139,-9839.939,4052045.5080232704
PART_002_R214G39B40A255,11944,-3816917.0,-2.619316,10.31439,817664.2,371.5923,-10890.45,4071236.3243023697
PART_002_R214G39B40A255,11945,-3816998.0,24.22549,-268.1497,865932.1,-21.48412,-8497.666,4101008.9722613078
PART_002_R214G39B40A255,11946,-3816625.0,406.0485,475.1019,932908.7,197.8729,-3076.714,4144993.8543414543
PART_003_R247G182B210A255,11947,-5725451.0,569.7429,-828.3547,764237.9,48.18109,6640.858,5876361.202332458
PART_003_R247G182B210A255,11948,-5725178.0,186.1649,366.0568,701018.5,-506.9263,16752.78,5852858.135097992
PART_003_R247G182B210A255,11949,-5725544.0,-446.1048,-106.8711,657575.5,192.5914,21363.17,5837574.329446887
PART_001_R158G218B229A255,11950,-5725577.0,-138.421,-520.5548,630710.3,45.1404,19065.23,5828630.7214476215
PART_001_R158G218B229A255,11951,-5725525.0,-85.80375,-404.0015,615896.6,32.34459,10882.47,5823845.243703575
PART_001_R158G218B229A255,11952,-5725614.0,-151.5455,-603.9716,611097.4,-10.99731,-9.057895,5822254.741197674
PART_001_R158G218B229A255,11953,-5725532.0,-85.30791,-403.5759,615891.3,-54.97296,-10901.28,5823851.002719623
PART_001_R158G218B229A255,11954,-5725589.0,-137.2758,-519.0923,630700.5,-62.56341,-19080.38,5828640.75720373
PART_001_R158G218B229A255,11955,-5725559.0,-445.717,-106.4371,657562.8,-206.9189,-21375.86,5837585.292961985
PART_002_R214G39B40A255,11956,-5725193.0,183.0827,366.2981,701004.0,499.7618,-16760.09,5852866.269971852
PART_002_R214G39B40A255,11957,-5725463.0,558.9049,-831.0635,764223.8,-52.01945,-6643.884,5876360.80232166
PART_003_R247G182B210A255,11958,-7632998.0,971.3168,1510.057,522769.8,-472.206,12171.74,7687776.6916265795
PART_003_R247G182B210A255,11959,-7634141.0,-600.9673,-394.7592,466113.4,459.1311,33334.89,7676433.218181374
PART_001_R158G218B229A255,11960,-7634181.0,-242.7079,-852.4685,435094.2,325.0958,40750.34,7671066.5699704625
PART_001_R158G218B229A255,11961,-7634039.0,35.69487,-711.5903,417106.6,91.71882,33718.92,7668033.440440193
PART_001_R158G218B229A255,11962,-7634171.0,-218.5496,-837.7784,407189.5,73.4671,18837.6,7666223.169438888
PART_001_R158G218B229A255,11963,-7634028.0,110.8141,-736.0668,404161.2,-6.898719,-8.659515,7665745.219541924
PART_001_R158G218B229A255,11964,-7634177.0,-218.4565,-838.4909,407186.0,-88.1424,-18858.32,7666228.431191512
PART_001_R158G218B229A255,11965,-7634052.0,36.43933,-710.2704,417100.2,-102.0883,-33733.32,7668046.555765744
PART_001_R158G218B229A255,11966,-7634196.0,-241.7587,-853.7633,435086.8,-333.3238,-40764.15,7671080.286986487
PART_001_R158G218B229A255,11967,-7634156.0,-596.4397,-391.6859,466106.9,-461.5309,-33342.03,7676450.82323256
PART_002_R214G39B40A255,11968,-7633008.0,977.6317,1511.534,522766.3,471.4192,-12174.33,7687789.788712276
PART_003_R247G182B210A255,11969,-9543021.0,683.614,-2907.485,192003.4,725.1156,32814.27,9547872.333160974
PART_001_R158G218B229A255,11970,-9543195.0,-863.1454,-1923.459,164998.5,447.1773,70945.79,9546871.451611945
PART_001_R158G218B229A255,11971,-9542563.0,449.4062,-1308.663,154672.7,85.81945,72232.7,9546713.32149586
PART_001_R158G218B229A255,11972,-9542794.0,-400.2797,-1177.876,147853.9,103.1641,56326.82,9545939.392168006
PART_001_R158G218B229A255,11973,-9542520.0,286.8831,-1016.008,144590.6,12.02553,30392.78,9545586.527605115
PART_001_R158G218B229A255,11974,-9542720.0,-299.8304,-1041.646,143390.7,-2.183977,-5.94833,9545280.886699755
PART_001_R158G218B229A255,11975,-9542526.0,286.5539,-1019.383,144589.4,-17.52173,-30411.29,9545590.796680696
PART_001_R158G218B229A255,11976,-9542804.0,-399.1573,-1178.437,147851.8,-106.2109,-56336.78,9545949.74758156
PART_001_R158G218B229A255,11977,-9542575.0,447.8295,-1315.782,154669.8,-89.10654,-72245.45,9546721.11931264
PART_001_R158G218B229A255,11978,-9543204.0,-865.5251,-1922.3,164995.7,-447.3607,-70950.03,9546879.7858915
PART_001_R158G218B229A255,11979,-9543024.0,672.4258,-2915.604,192000.2,-726.8749,-32817.32,9547865.521650638
PART_003_R247G182B210A255,11980,9224915.0,-637.9315,2829.038,192001.0,704.0992,-32814.7,9229988.04192237
PART_000_R31G119B180A255,11981,9225078.0,838.4696,1848.007,164998.3,431.4674,-70940.72,9228979.106668876
PART_000_R31G119B180A255,11982,9224469.0,-427.8475,1273.25,154672.6,83.91791,-72230.3,9228784.036978886
PART_000_R31G119B180A255,11983,9224690.0,383.953,1123.608,147854.6,97.81509,-56318.49,9228006.181488805
PART_000_R31G119B180A255,11984,9224430.0,-272.6431,985.2304,144590.7,11.42908,-30389.98,9227623.041254247
PART_000_R31G119B180A255,11985,9224622.0,287.8453,993.5136,143390.7,-4.382248,13.91435,9227324.338859506
PART_000_R31G119B180A255,11986,9224441.0,-273.0532,987.1239,144588.8,-17.3172,30412.45,9227633.428645127
PART_000_R31G119B180A255,11987,9224709.0,384.6037,1130.224,147851.0,-104.6811,56342.23,9228021.8036545
PART_000_R31G119B180A255,11988,9224492.0,-429.7383,1275.039,154668.6,-85.99076,72245.57,9228807.234072383
PART_000_R31G119B180A255,11989,9225100.0,835.3558,1853.036,164994.4,-433.6774,70952.97,9229000.211431408
PART_000_R31G119B180A255,11990,9224930.0,-648.826,2822.449,191998.8,-701.6023,32817.32,9230011.6591025
PART_003_R247G182B210A255,11991,7378565.0,-952.4767,-1458.835,522775.8,-457.397,-12170.52,7435142.482074434
PART_003_R247G182B210A255,11992,7379665.0,572.0414,371.601,466116.7,441.3184,-33332.57,7423450.686789236
PART_000_R31G119B180A255,11993,7379702.0,236.3472,828.3205,435096.1,313.1429,-40746.88,7417887.320000409
PART_000_R31G119B180A255,11994,7379564.0,-36.42645,677.6624,417107.4,84.94728,-33712.41,7414754.117596776
PART_000_R31G119B180A255,11995,7379695.0,213.8886,811.5903,407190.0,68.66827,-18833.07,7412881.103752721
PART_000_R31G119B180A255,11996,7379557.0,-109.4417,700.6375,404160.8,-11.43629,15.60756,7412390.7877679495
PART_000_R31G119B180A255,11997,7379706.0,213.4201,811.4178,407184.6,-87.90956,18861.67,7412891.701705333
PART_000_R31G119B180A255,11998,7379585.0,-37.34045,677.7535,417097.8,-102.9184,33738.49,7414774.163043181
PART_000_R31G119B180A255,11999,7379729.0,235.9957,827.8279,435083.4,-323.613,40766.16,7417912.683339203
PART_000_R31G119B180A255,12000,7379692.0,575.9473,372.6608,466102.7,-448.4594,33344.81,7423472.5869007455
PART_002_R214G39B40A255,12001,7378586.0,-939.8299,-1455.787,522761.4,456.0433,12175.05,7435152.521809047
PART_003_R247G182B210A255,12002,5534601.0,-531.298,809.6925,764229.0,48.54171,-6640.667,5690565.78826367
PART_003_R247G182B210A255,12003,5534334.0,-170.8373,-356.6846,701014.6,-491.3105,-16750.23,5666293.254362134
PART_003_R247G182B210A255,12004,5534688.0,437.9405,106.7855,657575.5,184.7309,-21359.57,5650516.961835162
PART_000_R31G119B180A255,12005,5534719.0,135.7475,496.9207,630711.0,38.6637,-19060.28,5641284.601048265
PART_000_R31G119B180A255,12006,5534672.0,87.90489,391.7119,615896.8,27.07915,-10877.56,5636335.806495473
PART_000_R31G119B180A255,12007,5534759.0,148.1626,576.3989,611096.1,-17.41531,14.43059,5634701.634995871
PART_000_R31G119B180A255,12008,5534683.0,87.26809,390.8797,615888.6,-57.92856,10905.35,5636344.802547874
PART_000_R31G119B180A255,12009,5534738.0,134.4611,495.3004,630696.1,-66.77087,19084.5,5641299.91579991
PART_000_R31G119B180A255,12010,5534713.0,435.8913,105.2763,657557.1,-203.093,21378.59,5650536.98470916
PART_002_R214G39B40A255,12011,5534361.0,-174.818,-358.8268,700997.6,479.5117,16762.61,5666316.414441777
PART_002_R214G39B40A255,12012,5534626.0,-534.4989,807.091,764217.4,-49.97847,6644.615,5690588.264549938
PART_003_R247G182B210A255,12013,3689396.0,-393.9527,-458.9276,932928.6,-196.2943,-3073.83,4028136.7183825388
PART_003_R247G182B210A255,12014,3689751.0,-20.81752,256.965,865953.2,6.851231,-8489.818,3982867.340667378
PART_003_R247G182B210A255,12015,3689672.0,8.341845,-8.825805,817682.9,-380.8209,-10877.88,3952195.927356025
PART_003_R247G182B210A255,12016,3689781.0,255.1356,72.24224,785373.3,40.01359,-9823.864,3932429.162500235
PART_000_R31G119B180A255,12017,3689813.0,88.02927,324.1016,767161.0,-75.05742,-5801.47,3921595.129690733
PART_000_R31G119B180A255,12018,3689785.0,122.5884,193.2191,761253.0,-22.21626,11.07623,3918145.799354519
PART_000_R31G119B180A255,12019,3689820.0,87.23926,323.2354,767150.8,35.26199,5822.902,3921596.602252491
PART_000_R31G119B180A255,12020,3689796.0,253.6995,70.78908,785354.5,-76.90328,9842.602,3932433.47007452
PART_002_R214G39B40A255,12021,3689691.0,7.249541,-10.09297,817657.8,354.8592,10892.69,3952199.3030016804
PART_002_R214G39B40A255,12022,3689772.0,-18.3866,256.7356,865924.1,-25.71533,8499.331,3982866.855449465
PART_002_R214G39B40A255,12023,3689414.0,-383.795,-457.456,932900.1,191.0491,3077.447,4028128.0862067435
PART_003_R247G182B210A255,12024,1844845.0,-170.3837,202.9418,1032772.0,-27.24324,-1353.553,2569679.478975289
PART_003_R247G182B210A255,12025,1844766.0,-72.45898,-128.9044,964436.3,-383.4647,-3493.493,2488771.2350652195
PART_003_R247G182B210A255,12026,1844882.0,90.69688,55.96413,913539.1,-39.40452,-4580.921,2430440.9165426935
PART_003_R247G182B210A255,12027,1844871.0,39.32665,71.92986,878899.2,-310.7632,-4171.457,2391816.811711883
PART_003_R247G182B210A255,12028,1844892.0,124.4194,43.44285,858773.0,-16.89427,-2453.903,2369769.62556854
PART_000_R31G119B180A255,12029,1844909.0,51.19016,161.6431,852242.5,-25.31781,5.918951,2362678.2301458954
PART_000_R31G119B180A255,12030,1844896.0,124.0168,43.07137,858761.3,-28.75531,2465.624,2369760.3579121786
PART_002_R214G39B40A255,12031,1844879.0,38.45343,70.96038,878877.8,268.2259,4181.498,2391800.1391831394
PART_002_R214G39B40A255,12032,1844892.0,89.78328,55.51701,913512.3,9.209497,4589.153,2430418.8491830262
PART_002_R214G39B40A255,12033,1844778.0,-73.60503,-129.8851,964411.0,362.4249,3498.801,2488751.5194913335
PART_002_R214G39B40A255,12034,1844856.0,-169.6703,202.5832,1032755.0,22.46392,1355.36,2569666.754263351
PART_003_R247G182B210A255,12035,0.9986364,6.27437,0.08216148,1065932.0,-153.8738,0.1662495,1846248.4006593018
PART_003_R247G182B210A255,12036,-0.332705,4.474361,-0.7175525,997080.6,-74.44082,0.5459029,1726994.2632618635
PART_003_R247G182B210A255,12037,-1.015829,2.617984,-1.803748,945587.4,-415.2278,0.7452238,1637805.5777097023
PART_003_R247G182B210A255,12038,-0.9923877,1.47431,-2.748646,910079.8,-45.24779,0.8736288,1576304.4544953865
PART_003_R247G182B210A255,12039,-0.8555419,0.9385639,-3.403282,889492.6,-189.2745,0.4256763,1540646.4110410323
PART_003_R247G182B210A255,12040,-0.7093564,0.8641448,-3.531374,882691.4,-26.35522,0.05916929,1528866.3528904559
PART_002_R214G39B40A255,12041,-0.8636181,0.9495132,-3.447142,889480.6,141.5843,-0.6010871,1540625.6110694618
PART_002_R214G39B40A255,12042,-1.053654,1.539373,-2.673437,910057.6,0.6799601,-0.7761751,1576266.001019505
PART_002_R214G39B40A255,12043,-1.059233,2.553406,-1.9382,945557.6,382.7428,-0.861228,1637753.9388591489
PART_002_R214G39B40A255,12044,-0.5605941,4.037953,-0.8332022,997045.8,50.45885,-0.4818436,1726933.985291383
PART_002_R214G39B40A255,12045,0.6368616,5.24993,-0.4427431,1065898.0,147.0058,-0.1641395,1846189.5092518597
PART_003_R247G182B210A255,12046,-1844843.0,180.6336,-203.3697,1032775.0,-27.31011,1353.747,2569685.1874972056
PART_003_R247G182B210A255,12047,-1844766.0,83.48935,128.454,964438.5,-383.5978,3494.511,2488777.7181778047
PART_003_R247G182B210A255,12048,-1844882.0,-78.35918,-56.47959,913541.0,-39.46162,4582.415,2430447.5541564543
PART_003_R247G182B210A255,12049,-1844871.0,-26.50017,-73.44806,878900.9,-310.8045,4173.261,2391823.0564536597
PART_003_R247G182B210A255,12050,-1844891.0,-111.6376,-45.83986,858774.5,-16.87377,2454.775,2369774.5223427825
PART_001_R158G218B229A255,12051,-1844908.0,-38.48576,-164.3509,852244.0,-25.30957,-5.769799,2362682.9758315166
PART_001_R158G218B229A255,12052,-1844895.0,-111.2256,-45.61025,858762.9,-28.70777,-2466.882,2369765.3130573835
PART_002_R214G39B40A255,12053,-1844878.0,-25.49256,-72.23072,878879.5,268.2736,-4183.057,2391805.758783719
PART_002_R214G39B40A255,12054,-1844892.0,-77.23582,-56.32566,913514.2,9.32245,-4590.931,2430425.4567778083
PART_002_R214G39B40A255,12055,-1844778.0,85.93912,130.2664,964413.3,362.5298,-3499.74,2488758.9100001436
PART_002_R214G39B40A255,12056,-1844854.0,182.0827,-202.5286,1032758.0,22.5459,-1355.675,2569673.4126043273
PART_003_R247G182B210A255,12057,-3689392.0,402.98,457.8565,932933.2,-196.2898,3074.222,4028139.895234194
PART_003_R247G182B210A255,12058,-3689751.0,27.28522,-257.316,865956.8,6.663034,8491.022,3982872.53004325
PART_003_R247G182B210A255,12059,-3689673.0,-6.143844,3.63498,817686.1,-380.8695,10879.72,3952197.465286967
PART_003_R247G182B210A255,12060,-3689782.0,-254.1797,-77.05807,785376.0,39.93279,9825.762,3932429.9216934214
PART_001_R158G218B229A255,12061,-3689813.0,-88.84756,-332.8539,767163.6,-74.96827,5802.629,3921592.1588581423
PART_001_R158G218B229A255,12062,-3689785.0,-122.6445,-199.8359,761255.5,-22.25031,-11.08303,3918144.114761994
PART_001_R158G218B229A255,12063,-3689821.0,-88.06337,-332.0655,767153.5,35.38012,-5824.085,3921594.591723357
PART_001_R158G218B229A255,12064,-3689797.0,-252.6014,-75.46656,785357.3,-76.89088,-9844.512,3932434.4208708876
PART_002_R214G39B40A255,12065,-3689692.0,-5.264683,4.615751,817661.0,355.0778,-10894.54,3952200.607837016
PART_002_R214G39B40A255,12066,-3689771.0,23.97999,-257.2388,865927.8,-25.57551,-8500.503,3982870.7078963025
PART_002_R214G39B40A255,12067,-3689410.0,390.5887,455.1475,932904.7,191.192,-3077.805,4028129.673160637
PART_003_R247G182B210A255,12068,-5534597.0,534.0446,-815.7986,764233.5,48.39237,6641.082,5690562.080363616
PART_003_R247G182B210A255,12069,-5534331.0,178.8467,361.3797,701018.1,-491.5746,16751.41,5666297.838179172
PART_003_R247G182B210A255,12070,-5534688.0,-431.9526,-113.5109,657578.5,184.7155,21362.02,5650517.675269603
PART_001_R158G218B229A255,12071,-5534717.0,-124.891,-494.5317,630713.5,38.59995,19062.11,5641289.99369537
PART_001_R158G218B229A255,12072,-5534672.0,-80.7212,-400.6871,615899.2,27.22477,10879.47,5636335.725431504
PART_001_R158G218B229A255,12073,-5534756.0,-137.1882,-576.126,611098.4,-17.47627,-14.99197,5634704.960885704
PART_001_R158G218B229A255,12074,-5534682.0,-79.95785,-399.4743,615891.0,-57.80045,-10906.14,5636343.98205076
PART_001_R158G218B229A255,12075,-5534736.0,-123.7729,-493.6469,630698.7,-66.82517,-19087.28,5641304.908327858
PART_001_R158G218B229A255,12076,-5534713.0,-429.3844,-110.9886,657560.2,-202.8803,-21380.3,5650538.474957175
PART_002_R214G39B40A255,12077,-5534358.0,183.7121,362.8906,701001.3,479.6442,-16764.29,5666321.200585107
PART_002_R214G39B40A255,12078,-5534621.0,539.9028,-811.3497,764222.1,-49.80021,-6644.897,5690585.854861963
PART_003_R247G182B210A255,12079,-7378561.0,952.6136,1449.211,522779.2,-457.4211,12171.23,7435134.523817961
PART_003_R247G182B210A255,12080,-7379664.0,-568.1006,-364.2234,466119.1,441.285,33334.13,7423455.79137767
PART_001_R158G218B229A255,12081,-7379705.0,-242.0315,-842.772,435098.1,313.1603,40750.34,7417880.698473645
PART_001_R158G218B229A255,12082,-7379564.0,35.89556,-676.6137,417109.1,85.00466,33714.37,7414754.688779476
PART_001_R158G218B229A255,12083,-7379697.0,-221.7329,-829.9155,407191.6,68.76448,18835.85,7412870.354891222
PART_001_R158G218B229A255,12084,-7379556.0,108.0766,-702.8461,404162.3,-11.4388,-16.7537,7412388.258813521
PART_001_R158G218B229A255,12085,-7379709.0,-221.0395,-828.9093,407186.3,-87.88375,-18862.15,7412882.474098796
PART_001_R158G218B229A255,12086,-7379584.0,36.42811,-678.281,417099.5,-102.9766,-33742.38,7414772.791325213
PART_001_R158G218B229A255,12087,-7379732.0,-241.2918,-840.2433,435085.4,-323.545,-40768.05,7417907.241651793
PART_001_R158G218B229A255,12088,-7379690.0,-573.798,-368.0543,466105.2,-448.3743,-33347.28,7423474.460816131
PART_002_R214G39B40A255,12089,-7378582.0,938.3131,1447.523,522764.8,456.1429,-12175.41,7435144.416212309
PART_003_R247G182B210A255,12090,-9224916.0,633.5722,-2841.182,192001.8,703.9613,32815.71,9229980.85797992
PART_001_R158G218B229A255,12091,-9225081.0,-832.605,-1838.597,164999.2,431.4457,70942.8,9228989.83386818
PART_001_R158G218B229A255,12092,-9224475.0,428.2994,-1287.493,154673.0,83.86175,72234.72,9228783.267823474
PART_001_R158G218B229A255,12093,-9224692.0,-374.0996,-1118.676,147855.1,97.93875,56320.98,9228015.639970904
PART_001_R158G218B229A255,12094,-9224435.0,275.0834,-1002.546,144591.0,11.38583,30393.41,9227620.654570479
PART_001_R158G218B229A255,12095,-9224623.0,-277.6843,-991.9475,143391.1,-4.288653,-15.30938,9227331.219073113
PART_001_R158G218B229A255,12096,-9224445.0,275.7686,-1003.458,144589.2,-17.41219,-30413.09,9227630.647473143
PART_001_R158G218B229A255,12097,-9224711.0,-375.2753,-1127.127,147851.5,-104.6361,-56347.07,9228030.125799183
PART_001_R158G218B229A255,12098,-9224498.0,431.0985,-1286.769,154669.1,-86.07438,-72248.09,9228808.134898538
PART_001_R158G218B229A255,12099,-9225103.0,-829.1204,-1845.932,164995.3,-433.5838,-70956.26,9229009.999704458
PART_001_R158G218B229A255,12100,-9224930.0,647.7706,-2831.209,191999.8,-701.6465,-32817.89,9230006.82535292
PART_003_R247G182B210A255,12101,8906808.0,-642.4664,2717.5,192004.3,675.2772,-32811.94,8912159.365627393
PART_000_R31G119B180A255,12102,8906964.0,798.5408,1784.272,164999.7,417.1701,-70940.28,8911104.189056484
PART_000_R31G119B180A255,12103,8906375.0,-421.1649,1222.259,154673.8,78.10106,-72223.22,8910881.187305203
PART_000_R31G119B180A255,12104,8906590.0,365.6843,1083.994,147854.8,94.68098,-56315.14,8910080.358096702
PART_000_R31G119B180A255,12105,8906342.0,-270.7704,946.644,144591.1,7.943966,-30380.36,8909680.024721226
PART_000_R31G119B180A255,12106,8906532.0,271.0839,956.6485,143390.4,-4.679603,18.7325,8909380.48239055
PART_000_R31G119B180A255,12107,8906359.0,-270.5034,951.9516,144588.2,-19.95964,30422.21,8909694.519341204
PART_000_R31G119B180A255,12108,8906623.0,364.2476,1087.955,147849.8,-101.3328,56346.88,8910112.434567304
PART_000_R31G119B180A255,12109,8906416.0,-419.3479,1232.886,154667.0,-85.48793,72252.58,8910916.307525044
PART_000_R31G119B180A255,12110,8907006.0,802.8211,1785.539,164992.6,-417.8709,70955.18,8911143.352848556
PART_000_R31G119B180A255,12111,8906841.0,-624.7702,2728.881,191996.5,-679.1356,32819.02,8912177.386975946
PART_003_R247G182B210A255,12112,7124123.0,-895.7447,-1399.867,522768.6,-440.6457,-12170.39,7182603.30328947
PART_003_R247G182B210A255,12113,7125184.0,565.3681,362.0326,466114.6,427.6686,-33329.33,7170548.1604734585
PART_000_R31G119B180A255,12114,7125222.0,235.9058,802.5824,435096.8,299.2714,-40741.9,7164795.688142021
PART_000_R31G119B180A255,12115,7125090.0,-28.67516,656.3007,417109.0,79.97013,-33707.0,7161549.017383688
PART_000_R31G119B180A255,12116,7125220.0,214.1188,786.784,407190.7,60.26742,-18825.06,7159616.250205735
PART_000_R31G119B180A255,12117,7125089.0,-98.50486,678.5325,404160.3,-14.92348,22.79372,7159105.928314437
PART_000_R31G119B180A255,12118,7125238.0,213.6293,786.9856,407182.8,-91.63846,18870.52,7159633.317901925
PART_000_R31G119B180A255,12119,7125124.0,-29.62285,655.7755,417094.3,-102.769,33745.33,7161581.549441372
PART_000_R31G119B180A255,12120,7125266.0,233.5751,802.2309,435078.9,-317.3384,40772.78,7164838.044002501
PART_000_R31G119B180A255,12121,7125232.0,558.9306,359.5912,466097.5,-433.5413,33348.68,7170597.201028016
PART_002_R214G39B40A255,12122,7124165.0,-905.4844,-1404.526,522756.5,438.7468,12176.48,7182649.498315632
PART_003_R247G182B210A255,12123,5343747.0,-531.411,775.4603,764243.0,42.82234,-6639.208,5505148.816336902
PART_003_R247G182B210A255,12124,5343488.0,-174.4648,-347.1351,701023.5,-476.7608,-16748.18,5480036.066349163
PART_003_R247G182B210A255,12125,5343829.0,417.9963,101.2556,657580.1,172.7109,-21355.71,5463729.2010871675
PART_000_R31G119B180A255,12126,5343860.0,126.5251,478.3283,630713.7,32.92073,-19054.75,5454181.533451466
PART_000_R31G119B180A255,12127,5343817.0,79.29389,375.857,615898.2,17.7469,-10871.13,5449063.619358404
PART_000_R31G119B180A255,12128,5343903.0,137.4314,554.6719,611095.9,-23.55687,21.69201,5447376.9459156785
PART_000_R31G119B180A255,12129,5343833.0,78.20277,374.4562,615886.2,-65.59134,10912.62,5449076.712414752
PART_000_R31G119B180A255,12130,5343890.0,124.5104,476.271,630691.6,-70.61892,19091.32,5454205.637745186
PART_000_R31G119B180A255,12131,5343869.0,416.4964,98.95006,657550.6,-203.457,21384.18,5463759.868550084
PART_002_R214G39B40A255,12132,5343531.0,-169.771,-346.9896,700989.5,460.6202,16766.34,5480062.752275427
PART_002_R214G39B40A255,12133,5343787.0,-513.4649,778.3862,764208.5,-51.14297,6646.097,5505163.167577767
PART_003_R247G182B210A255,12134,3562167.0,-365.0642,-439.441,932916.9,-190.0408,-3073.572,3911895.954587458
PART_003_R247G182B210A255,12135,3562511.0,-8.849578,251.3973,865949.5,6.847943,-8487.498,3865286.837267754
PART_003_R247G182B210A255,12136,3562436.0,15.82623,-6.796827,817685.1,-373.6862,-10874.65,3833679.700898075
PART_003_R247G182B210A255,12137,3562544.0,254.6992,72.92693,785376.8,33.10175,-9819.604,3813304.6104577016
PART_000_R31G119B180A255,12138,3562575.0,93.11133,314.9651,767163.0,-83.07227,-5796.592,3802131.6303002657
PART_000_R31G119B180A255,12139,3562551.0,127.0227,189.6594,761252.8,-30.09766,16.55059,3798573.276843065
PART_000_R31G119B180A255,12140,3562587.0,92.10742,313.72,767147.8,21.82314,5828.19,3802134.8688658634
PART_000_R31G119B180A255,12141,3562566.0,252.8514,70.99463,785348.7,-82.47174,9847.627,3813309.7857341315
PART_002_R214G39B40A255,12142,3562466.0,13.18719,-8.887599,817649.6,332.9077,10896.76,3833687.238173965
PART_002_R214G39B40A255,12143,3562546.0,-12.58286,249.4033,865915.1,-28.32181,8502.186,3865298.71148842
PART_002_R214G39B40A255,12144,3562200.0,-366.1365,-442.1247,932891.7,181.0849,3078.435,3911909.6993855666
PART_003_R247G182B210A255,12145,1781226.0,-167.6821,195.3351,1032794.0,-31.03622,-1352.801,2524423.248639199
PART_003_R247G182B210A255,12146,1781149.0,-72.70963,-127.453,964451.0,-374.074,-3492.091,2442003.785834266
PART_003_R247G182B210A255,12147,1781260.0,85.89109,53.22615,913547.0,-46.3581,-4578.947,2382521.0722268196
PART_003_R247G182B210A255,12148,1781250.0,34.23261,65.6323,878904.4,-306.7075,-4168.62,2343105.829613002
PART_003_R247G182B210A255,12149,1781272.0,116.5808,39.83262,858776.2,-28.24701,-2451.239,2320594.545982438
PART_000_R31G119B180A255,12150,1781289.0,44.80679,151.8934,852243.5,-34.29837,8.997423,2313351.9173611263
PART_000_R31G119B180A255,12151,1781278.0,115.8437,38.98071,858759.1,-41.59563,2468.044,2320580.8309138403
PART_002_R214G39B40A255,12152,1781262.0,33.11422,64.83944,878872.7,249.47,4183.942,2343080.0681792693
PART_002_R214G39B40A255,12153,1781277.0,84.75286,51.8103,913504.3,-2.339239,4590.734,2382485.6856395155
PART_002_R214G39B40A255,12154,1781167.0,-70.86913,-127.1704,964401.0,345.3623,3500.044,2441956.9223676287
PART_002_R214G39B40A255,12155,1781243.0,-160.3645,195.5834,1032745.0,17.42785,1355.759,2524372.4382899147
PART_003_R247G182B210A255,12156,-2.041717,9.115484,-0.3625081,1065921.0,-149.827,0.3743853,1846229.3471225013
PART_003_R247G182B210A255,12157,-2.508185,9.268671,-0.4009949,997077.8,-72.23552,1.143649,1726989.41326653
PART_003_R247G182B210A255,12158,-1.804429,9.802622,-0.8018397,945591.7,-408.2002,1.804201,1637813.0202629166
PART_003_R247G182B210A255,12159,-0.94434,9.915753,-1.593844,910085.3,-50.49299,1.579888,1576313.9812898324
PART_003_R247G182B210A255,12160,-0.1006204,9.830267,-2.271139,889496.3,-195.1208,1.10498,1540652.8218537755
PART_003_R247G182B210A255,12161,0.1067985,9.678387,-2.696792,882692.5,-35.78513,-0.1331794,1528868.2587577126
PART_002_R214G39B40A255,12162,-0.1541509,9.88001,-2.216285,889478.4,122.3543,-0.9655752,1540621.795652596
PART_002_R214G39B40A255,12163,-0.9896485,9.943279,-1.71004,910052.2,-9.40841,-1.809976,1576256.6480677652
PART_002_R214G39B40A255,12164,-1.927294,10.02519,-0.6323953,945549.5,357.8235,-1.724676,1637739.8923827026
PART_002_R214G39B40A255,12165,-2.429578,9.949103,-0.2925945,997037.0,44.07434,-1.292203,1726918.742752825
PART_002_R214G39B40A255,12166,-1.808444,10.54376,0.2978748,1065891.0,137.7944,-0.4072789,1846177.3827929923
PART_003_R247G182B210A255,12167,-1781228.0,186.3318,-195.4495,1032799.0,-31.07675,1353.822,2524437.3395317784
PART_003_R247G182B210A255,12168,-1781153.0,86.50258,125.433,964455.3,-374.1511,3494.609,2442016.1026100083
PART_003_R247G182B210A255,12169,-1781265.0,-77.06044,-58.96115,913550.7,-46.45066,4582.742,2382530.2453601346
PART_003_R247G182B210A255,12170,-1781253.0,-28.31026,-74.0038,878907.7,-306.6981,4171.886,2343110.910395213
PART_003_R247G182B210A255,12171,-1781274.0,-112.011,-50.31809,858779.3,-28.23914,2453.555,2320597.2594237383
PART_001_R158G218B229A255,12172,-1781290.0,-40.51092,-163.0699,852246.6,-34.24395,-9.29408,2313353.4651366444
PART_001_R158G218B229A255,12173,-1781280.0,-111.1703,-49.27996,858762.3,-41.5684,-2469.98,2320583.7653834037
PART_002_R214G39B40A255,12174,-1781266.0,-27.15791,-73.5879,878876.1,249.5624,-4187.715,2343085.89407064
PART_002_R214G39B40A255,12175,-1781281.0,-75.84722,-57.12223,913508.0,-2.236686,-4594.265,2382494.295839762
PART_002_R214G39B40A255,12176,-1781172.0,83.41234,124.0495,964405.3,345.5383,-3502.768,2441969.112242929
PART_002_R214G39B40A255,12177,-1781245.0,176.7445,-196.1997,1032750.0,17.47429,-1356.627,2524385.550918072
PART_003_R247G182B210A255,12178,-3562166.0,378.5717,439.9899,932925.2,-190.3157,3074.418,3911907.384560603
PART_003_R247G182B210A255,12179,-3562512.0,22.35999,-253.8133,865956.4,6.668402,8490.173,3865297.5273444476
PART_003_R247G182B210A255,12180,-3562436.0,0.1139156,6.02484,817691.0,-373.8724,10878.61,3833690.5573229147
PART_003_R247G182B210A255,12181,-3562543.0,-239.0724,-78.36933,785382.2,33.19557,9823.359,3813311.798198488
PART_001_R158G218B229A255,12182,-3562572.0,-76.52702,-319.2275,767168.0,-83.10064,5798.921,3802137.6301218593
PART_001_R158G218B229A255,12183,-3562548.0,-111.6185,-197.6144,761257.8,-29.93411,-16.58326,3798576.962811597
PART_001_R158G218B229A255,12184,-3562585.0,-75.41678,-317.8847,767152.8,21.77667,-5830.531,3802141.9012679975
PART_001_R158G218B229A255,12185,-3562566.0,-237.2518,-76.6689,785354.2,-82.27691,-9851.45,3813317.8489345578
PART_002_R214G39B40A255,12186,-3562467.0,3.230951,8.480792,817655.7,332.9988,-10900.74,3833699.5436694864
PART_002_R214G39B40A255,12187,-3562547.0,27.36939,-251.7143,865922.3,-27.98152,-8504.967,3865310.240274787
PART_002_R214G39B40A255,12188,-3562199.0,382.68,444.2495,932900.2,181.1669,-3079.361,3911923.3724821517
PART_003_R247G182B210A255,12189,-5343743.0,543.8698,-768.6263,764252.2,42.76231,6640.336,5505158.133693868
PART_003_R247G182B210A255,12190,-5343488.0,178.0284,337.7117,701031.2,-476.8401,16751.73,5480036.196634493
PART_003_R247G182B210A255,12191,-5343828.0,-413.7841,-101.2877,657586.4,172.5695,21359.99,5463732.5918548
PART_001_R158G218B229A255,12192,-5343860.0,-129.5541,-494.9076,630719.6,33.12365,19059.76,5454174.028156611
PART_001_R158G218B229A255,12193,-5343813.0,-78.46367,-382.2916,615903.5,17.71801,10873.12,5449058.758204843
PART_001_R158G218B229A255,12194,-5343901.0,-141.4596,-573.9582,611101.4,-23.33904,-20.86868,5447365.400846323
PART_001_R158G218B229A255,12195,-5343830.0,-77.4994,-381.4613,615891.6,-65.71521,-10916.12,5449072.53298514
PART_001_R158G218B229A255,12196,-5343891.0,-127.1729,-491.8138,630697.5,-70.43657,-19094.96,5454199.785012373
PART_001_R158G218B229A255,12197,-5343868.0,-412.8212,-100.4666,657557.1,-203.4463,-21389.48,5463762.354937426
PART_002_R214G39B40A255,12198,-5343531.0,172.515,338.5957,700997.2,460.9966,-16769.16,5480062.978176889
PART_002_R214G39B40A255,12199,-5343783.0,522.7474,-774.1062,764217.9,-51.07965,-6647.399,5505169.787480031
PART_003_R247G182B210A255,12200,-7124118.0,902.7223,1411.056,522775.3,-440.8634,12171.59,7182608.823297784
PART_003_R247G182B210A255,12201,-7125184.0,-564.5211,-376.0128,466120.0,427.4631,33333.87,7170542.751884577
PART_001_R158G218B229A255,12202,-7125220.0,-223.8567,-795.0684,435101.0,299.3178,40746.75,7164804.274329223
PART_001_R158G218B229A255,12203,-7125089.0,33.67981,-674.5489,417112.9,80.12863,33713.62,7161542.211375156
PART_001_R158G218B229A255,12204,-7125213.0,-200.3787,-785.4511,407194.3,60.37024,18826.85,7159617.413199784
PART_001_R158G218B229A255,12205,-7125086.0,104.1447,-698.8977,404164.0,-14.82001,-21.0856,7159096.24407254
PART_001_R158G218B229A255,12206,-7125231.0,-200.1903,-786.8743,407186.4,-91.72523,-18875.39,7159633.747693745
PART_001_R158G218B229A255,12207,-7125123.0,35.24309,-671.7542,417098.3,-102.7633,-33749.08,7161576.155415926
PART_001_R158G218B229A255,12208,-7125263.0,-222.1131,-797.7461,435083.4,-317.3903,-40779.76,7164843.928952166
PART_001_R158G218B229A255,12209,-7125232.0,-555.6302,-369.5915,466103.1,-433.3447,-33351.87,7170595.0087197
PART_002_R214G39B40A255,12210,-7124160.0,914.4228,1413.425,522763.5,438.8469,-12178.17,7182654.922748571
PART_003_R247G182B210A255,12211,-8906807.0,649.5917,-2703.753,192007.2,675.4785,32813.87,8912169.001940574
PART_001_R158G218B229A255,12212,-8906969.0,-804.5563,-1802.346,165001.4,417.1436,70946.67,8911097.396653594
PART_001_R158G218B229A255,12213,-8906377.0,421.7251,-1218.163,154675.5,78.29396,72229.61,8910885.756444776
PART_001_R158G218B229A255,12214,-8906593.0,-376.9077,-1111.161,147856.2,94.64218,56323.37,8910064.397289524
PART_001_R158G218B229A255,12215,-8906338.0,268.6898,-951.4723,144592.5,8.136064,30382.58,8909672.664499681
PART_001_R158G218B229A255,12216,-8906532.0,-282.6781,-986.6701,143391.7,-4.778742,-16.67264,8909359.746410819
PART_001_R158G218B229A255,12217,-8906356.0,268.0265,-958.1875,144589.6,-19.8754,-30428.14,8909687.295272207
PART_001_R158G218B229A255,12218,-8906626.0,-374.6931,-1112.466,147851.2,-101.4822,-56351.65,8910098.124229912
PART_001_R158G218B229A255,12219,-8906418.0,418.6695,-1232.396,154668.6,-85.42637,-72261.51,8910918.51266082
PART_001_R158G218B229A255,12220,-8907011.0,-809.0852,-1800.138,164994.5,-417.9321,-70959.8,8911138.141212288
PART_001_R158G218B229A255,12221,-8906839.0,627.5803,-2719.971,191999.3,-679.0305,-32821.54,8912181.451319488
PART_003_R247G182B210A255,12222,8588697.0,-582.0381,2639.37,192000.2,657.5668,-32812.76,8594293.383285597
PART_000_R31G119B180A255,12223,8588845.0,785.6873,1718.832,164999.2,400.7962,-70932.43,8593225.159739101
PART_000_R31G119B180A255,12224,8588279.0,-395.2165,1184.876,154673.8,77.41935,-72219.97,8592972.450645395
PART_000_R31G119B180A255,12225,8588488.0,359.0854,1043.054,147856.0,87.5803,-56303.12,8592157.997166684
PART_000_R31G119B180A255,12226,8588253.0,-251.4369,916.3362,144591.3,7.497395,-30374.07,8591732.542773614
PART_000_R31G119B180A255,12227,8588440.0,270.0909,925.1187,143390.4,-9.113287,33.0161,8591432.927663835
PART_000_R31G119B180A255,12228,8588282.0,-252.2193,920.1951,144587.2,-20.00973,30429.95,8591760.379074402
PART_000_R31G119B180A255,12229,8588541.0,360.272,1055.833,147848.1,-102.0257,56359.72,8592204.697537435
PART_000_R31G119B180A255,12230,8588348.0,-398.8967,1188.823,154664.6,-82.2466,72258.63,8593041.755884986
PART_000_R31G119B180A255,12231,8588918.0,779.0717,1728.31,164989.8,-405.6299,70962.1,8593296.877058709
PART_000_R31G119B180A255,12232,8588760.0,-603.9821,2626.575,191993.8,-652.7248,32820.06,8594373.346997362
PART_003_R247G182B210A255,12233,6869681.0,-896.3129,-1361.955,522780.5,-426.8988,-12168.08,6930250.727512541
PART_003_R247G182B210A255,12234,6870703.0,529.331,345.1047,466121.5,407.4416,-33326.34,6917780.867732206
PART_000_R31G119B180A255,12235,6870737.0,219.5451,770.8358,435100.6,286.7921,-40736.41,6911811.554002265
PART_000_R31G119B180A255,12236,6870613.0,-33.93536,631.2209,417111.1,70.2945,-33697.83,6908442.035240579
PART_000_R31G119B180A255,12237,6870740.0,198.4615,755.4713,407192.0,53.80014,-18815.88,6906445.719676765
PART_000_R31G119B180A255,12238,6870620.0,-102.5839,652.7812,404160.0,-23.73757,35.25927,6905915.972096557
PART_000_R31G119B180A255,12239,6870769.0,197.5629,755.1342,407180.3,-94.03528,18881.32,6906473.650070576
PART_000_R31G119B180A255,12240,6870666.0,-35.76934,631.237,417089.9,-107.9447,33757.24,6908492.678524624
PART_000_R31G119B180A255,12241,6870808.0,218.7689,769.836,435072.3,-309.2903,40781.29,6911878.462256473
PART_000_R31G119B180A255,12242,6870779.0,536.9861,347.0763,466089.6,-422.9095,33355.09,6917845.536020432
PART_002_R214G39B40A255,12243,6869752.0,-870.9637,-1355.758,522746.8,423.742,12178.74,6930297.911181313
PART_003_R247G182B210A255,12244,5152886.0,-483.9649,756.9293,764228.9,45.40529,-6639.004,5320065.640398136
PART_003_R247G182B210A255,12245,5152636.0,-151.0982,-330.1814,701018.8,-461.8846,-16744.37,5294077.967380363
PART_003_R247G182B210A255,12246,5152967.0,413.2959,101.473,657582.1,164.2222,-21350.16,5277217.7024195865
PART_000_R31G119B180A255,12247,5153000.0,131.181,464.6318,630717.1,22.66168,-19047.54,5267337.046113524
PART_000_R31G119B180A255,12248,5152961.0,86.53436,366.8777,615900.3,9.287014,-10861.98,5262036.131566029
PART_000_R31G119B180A255,12249,5153049.0,142.1618,538.0998,611095.4,-35.90948,31.79783,5260296.719664469
PART_000_R31G119B180A255,12250,5152986.0,85.25251,365.172,615882.6,-73.07975,10923.24,5262056.241905362
PART_000_R31G119B180A255,12251,5153046.0,128.6532,461.415,630684.5,-81.09339,19101.27,5267373.729908217
PART_000_R31G119B180A255,12252,5153030.0,409.2099,98.32504,657540.7,-202.9505,21392.6,5277267.791675307
PART_002_R214G39B40A255,12253,5152708.0,-159.057,-334.4436,700978.0,436.6271,16772.21,5294138.045440089
PART_002_R214G39B40A255,12254,5152956.0,-490.4217,751.5033,764197.1,-48.84216,6648.04,5320125.523817309
PART_003_R247G182B210A255,12255,3434938.0,-367.8008,-428.7536,932941.5,-185.1737,-3072.047,3796406.627692264
PART_003_R247G182B210A255,12256,3435269.0,-17.16534,238.4704,865965.4,-1.760254,-8485.24,3748361.9277091413
PART_003_R247G182B210A255,12257,3435196.0,11.66615,-7.756237,817693.7,-365.5821,-10870.41,3715747.836820448
PART_003_R247G182B210A255,12258,3435301.0,240.8032,67.17344,785382.1,20.04924,-9813.926,3694725.8469475447
PART_000_R31G119B180A255,12259,3435334.0,84.83757,301.8403,767166.6,-90.05785,-5789.606,3683195.0472423476
PART_000_R31G119B180A255,12260,3435313.0,116.3105,178.9917,761253.3,-45.54903,23.99909,3679521.8093476
PART_000_R31G119B180A255,12261,3435352.0,83.28784,300.1074,767144.6,8.398514,5836.018,3683199.8354369625
PART_000_R31G119B180A255,12262,3435335.0,237.9453,64.3065,785341.2,-96.10445,9854.738,3694734.3677229593
PART_002_R214G39B40A255,12263,3435243.0,9.387964,-10.308,817638.5,311.6702,10902.8,3715757.350055652
PART_002_R214G39B40A255,12264,3435321.0,-12.40027,238.1251,865900.6,-37.74911,8506.249,3748362.7913976847
PART_002_R214G39B40A255,12265,3434989.0,-347.5807,-425.7349,932875.9,174.0468,3079.997,3796393.9204473626
PART_003_R247G182B210A255,12266,1717601.0,-148.7375,189.2254,1032777.0,-26.48532,-1352.468,2479914.156582435
PART_003_R247G182B210A255,12267,1717528.0,-58.11982,-118.9449,964446.1,-365.0895,-3490.133,2395978.367469725
PART_003_R247G182B210A255,12268,1717638.0,92.33465,51.70341,913551.8,-49.08238,-4575.747,2335342.885677047
PART_003_R247G182B210A255,12269,1717630.0,44.50919,67.23709,878910.8,-308.9221,-4165.282,2295117.8182693017
PART_003_R247G182B210A255,12270,1717652.0,123.0382,39.35904,858780.8,-38.65294,-2446.943,2272131.3380663083
PART_000_R31G119B180A255,12271,1717671.0,54.9095,149.7944,852244.3,-51.7009,12.68974,2264730.252517101
PART_000_R31G119B180A255,12272,1717662.0,122.2468,38.64184,858755.8,-54.61843,2472.101,2272111.203386615
PART_002_R214G39B40A255,12273,1717649.0,42.77116,65.28419,878864.3,221.5608,4186.902,2295080.085855906
PART_002_R214G39B40A255,12274,1717663.0,90.50896,50.85334,913492.1,-13.37174,4593.54,2335292.300249539
PART_002_R214G39B40A255,12275,1717557.0,-60.6146,-121.0465,964386.8,321.1299,3501.635,2395929.228147424
PART_002_R214G39B40A255,12276,1717630.0,-147.6776,188.4026,1032732.0,16.34258,1356.406,2479877.9452485675
PART_003_R247G182B210A255,12277,-6.475574,15.1707,-0.005472456,1065952.0,-146.2326,0.9524368,1846283.039903961
PART_003_R247G182B210A255,12278,-6.836138,11.6421,-1.6436,997099.8,-79.46875,2.54754,1727027.5193863865
PART_003_R247G182B210A255,12279,-5.987805,8.333371,-3.973242,945604.2,-400.1758,3.169735,1637834.6649785435
PART_003_R247G182B210A255,12280,-4.191793,6.369018,-6.02726,910094.0,-62.56748,3.13742,1576329.0514406827
PART_003_R247G182B210A255,12281,-2.815867,5.4228,-7.526868,889502.8,-200.0736,1.632205,1540664.082092112
PART_003_R247G182B210A255,12282,-2.151365,5.31265,-7.825683,882695.4,-53.74377,0.08715235,1528873.283283786
PART_002_R214G39B40A255,12283,-2.856088,5.442676,-7.615017,889477.1,102.7835,-2.008662,1540619.5397013784
PART_002_R214G39B40A255,12284,-4.34792,6.501505,-5.883282,910045.9,-28.73869,-2.997355,1576245.7368576273
PART_002_R214G39B40A255,12285,-6.138189,8.287828,-4.213157,945539.1,333.2867,-3.429708,1637721.8635488253
PART_002_R214G39B40A255,12286,-7.315288,11.09547,-1.743845,997022.9,29.75085,-2.443505,1726894.3199610983
PART_002_R214G39B40A255,12287,-7.167463,13.66684,-0.8381518,1065876.0,131.8898,-0.9314718,1846151.4007950765
PART_003_R247G182B210A255,12288,-1717612.0,174.9095,-189.927,1032786.0,-26.60925,1354.028,2479941.8452615086
PART_003_R247G182B210A255,12289,-1717539.0,83.95122,116.9383,964453.3,-365.2834,3495.123,2396003.508888179
PART_003_R247G182B210A255,12290,-1717645.0,-65.35572,-54.77704,913558.1,-49.10972,4582.163,2335364.2556136185
PART_003_R247G182B210A255,12291,-1717634.0,-17.5144,-73.54549,878916.6,-308.9231,4171.743,2295135.2510705306
PART_003_R247G182B210A255,12292,-1717652.0,-96.33729,-47.70097,858786.2,-38.56367,2450.262,2272144.4100681418
PART_001_R158G218B229A255,12293,-1717670.0,-28.49823,-159.1859,852249.7,-51.66121,-12.42731,2264742.045584095
PART_001_R158G218B229A255,12294,-1717662.0,-95.51951,-47.27328,858761.3,-54.54151,-2476.267,2272124.292174644
PART_002_R214G39B40A255,12295,-1717652.0,-15.50336,-71.0945,878870.2,221.6132,-4192.941,2295097.171636354
PART_002_R214G39B40A255,12296,-1717671.0,-63.28749,-54.59321,913498.5,-13.20919,-4600.585,2335314.371276174
PART_002_R214G39B40A255,12297,-1717569.0,88.39781,120.4694,964394.2,321.2802,-3506.522,2395956.5398849077
PART_002_R214G39B40A255,12298,-1717641.0,177.0061,-188.6298,1032740.0,16.48267,-1358.275,2479905.6430006074
PART_003_R247G182B210A255,12299,-3434943.0,390.2874,427.2769,932956.3,-185.0685,3074.143,3796431.573872104
PART_003_R247G182B210A255,12300,-3435276.0,34.184,-240.551,865977.7,-2.001345,8490.786,3748383.751281959
PART_003_R247G182B210A255,12301,-3435202.0,-1.641448,-2.358425,817704.5,-365.534,10877.64,3715760.5356640825
PART_003_R247G182B210A255,12302,-3435303.0,-233.3306,-78.76807,785391.9,20.02152,9820.745,3694732.0934861717
PART_001_R158G218B229A255,12303,-3435333.0,-79.93923,-319.7905,767176.1,-89.7878,5793.556,3683193.9841042096
PART_001_R158G218B229A255,12304,-3435311.0,-110.5362,-194.5945,761262.5,-45.58425,-23.99871,3679521.0647755126
PART_001_R158G218B229A255,12305,-3435352.0,-78.40844,-318.2363,767154.1,8.611263,-5840.115,3683199.613456417
PART_001_R158G218B229A255,12306,-3435337.0,-230.1757,-75.60527,785351.2,-96.15853,-9861.569,3694741.0173889734
PART_002_R214G39B40A255,12307,-3435248.0,0.3719468,-0.3585407,817649.4,312.0123,-10910.14,3715768.8137232442
PART_002_R214G39B40A255,12308,-3435329.0,28.2989,-240.2505,865913.1,-37.56766,-8511.727,3748385.135369798
PART_002_R214G39B40A255,12309,-3434995.0,366.6989,422.2298,932890.8,174.2981,-3081.998,3796417.4027006254
PART_003_R247G182B210A255,12310,-5152885.0,493.6978,-766.7006,764245.1,45.102,6641.213,5320071.646428512
PART_003_R247G182B210A255,12311,-5152636.0,168.0855,336.1954,701031.8,-462.3186,16750.15,5294094.380232583
PART_003_R247G182B210A255,12312,-5152967.0,-399.9866,-114.6881,657593.6,164.3753,21359.01,5277222.153735641
PART_001_R158G218B229A255,12313,-5152993.0,-110.7781,-465.2676,630727.3,22.67497,19054.51,5267343.607672262
PART_001_R158G218B229A255,12314,-5152954.0,-71.93912,-386.0646,615910.3,9.699093,10867.59,5262030.576423962
PART_001_R158G218B229A255,12315,-5153037.0,-121.9012,-543.6313,611105.0,-36.00303,-32.88629,5260295.526308913
PART_001_R158G218B229A255,12316,-5152979.0,-70.37909,-383.5731,615892.6,-72.84232,-10926.64,5262051.193967263
PART_001_R158G218B229A255,12317,-5153039.0,-108.6193,-463.5953,630695.0,-81.30061,-19110.09,5267379.483505814
PART_001_R158G218B229A255,12318,-5153030.0,-394.9767,-109.4717,657552.4,-202.6289,-21399.98,5277273.76064175
PART_002_R214G39B40A255,12319,-5152707.0,177.1443,338.7911,700991.6,436.7897,-16779.0,5294153.456845687
PART_002_R214G39B40A255,12320,-5152954.0,504.4573,-757.7576,764213.7,-48.50437,-6650.027,5320134.5195108
PART_003_R247G182B210A255,12321,-6869675.0,899.1166,1346.263,522793.8,-426.8369,12171.16,6930241.41527896
PART_003_R247G182B210A255,12322,-6870701.0,-520.7915,-334.6494,466131.5,407.4864,33333.41,6917790.437297469
PART_001_R158G218B229A255,12323,-6870736.0,-226.4272,-796.7906,435109.3,286.9651,40747.93,6911796.088234621
PART_001_R158G218B229A255,12324,-6870604.0,35.12565,-634.1752,417118.9,70.54922,33705.49,6908433.733023789
PART_001_R158G218B229A255,12325,-6870732.0,-208.5857,-789.8579,407199.6,54.07988,18823.52,6906417.03101338
PART_001_R158G218B229A255,12326,-6870606.0,102.393,-662.6833,404167.4,-23.70969,-37.49291,6905898.323780809
PART_001_R158G218B229A255,12327,-6870761.0,-207.2073,-787.7854,407188.0,-94.00277,-18884.32,6906446.042904811
PART_001_R158G218B229A255,12328,-6870656.0,36.13199,-637.5124,417097.8,-108.148,-33768.69,6908481.3928845
PART_001_R158G218B229A255,12329,-6870807.0,-224.5975,-791.3998,435081.1,-309.2399,-40789.63,6911865.664801771
PART_001_R158G218B229A255,12330,-6870776.0,-531.619,-342.3698,466099.8,-422.8185,-33363.98,6917849.749107097
PART_002_R214G39B40A255,12331,-6869747.0,871.726,1343.751,522760.2,423.9291,-12181.07,6930290.423880691
PART_003_R247G182B210A255,12332,-8588695.0,575.6813,-2658.955,192004.7,657.1006,32817.14,8594278.779317012
PART_001_R158G218B229A255,12333,-8588846.0,-776.2952,-1706.154,165002.9,400.8616,70941.95,8593237.635539683
PART_001_R158G218B229A255,12334,-8588280.0,396.2285,-1211.325,154676.6,77.30362,72234.43,8592961.258729162
PART_001_R158G218B229A255,12335,-8588480.0,-343.7193,-1041.53,147858.8,87.92937,56312.62,8592158.77415836
PART_001_R158G218B229A255,12336,-8588245.0,255.3934,-950.4631,144593.8,7.421075,30383.33,8591709.696206188
PART_001_R158G218B229A255,12337,-8588425.0,-254.5075,-930.9537,143393.0,-8.899853,-35.68867,8591422.937554536
PART_001_R158G218B229A255,12338,-8588274.0,256.7596,-952.3038,144589.8,-20.20875,-30433.62,8591738.778613133
PART_001_R158G218B229A255,12339,-8588532.0,-346.0141,-1058.098,147850.9,-101.9845,-56373.73,8592202.116797483
PART_001_R158G218B229A255,12340,-8588349.0,401.6447,-1210.09,154667.7,-82.43134,-72269.29,8593033.940964371
PART_001_R158G218B229A255,12341,-8588918.0,-769.6049,-1720.764,164993.5,-405.5198,-70973.96,8593305.884985365
PART_001_R158G218B229A255,12342,-8588759.0,603.3525,-2639.256,191998.7,-652.7477,-32823.58,8594366.069730578
PART_003_R247G182B210A255,12343,8270584.0,-612.7632,2514.714,192006.0,624.1069,-32807.49,8276512.959708741
PART_000_R31G119B180A255,12344,8270725.0,735.6226,1654.963,165001.4,387.1702,-70931.71,8275378.720657571
PART_000_R31G119B180A255,12345,8270177.0,-394.0637,1128.961,154676.0,69.04438,-72206.64,8275093.181415694
PART_000_R31G119B180A255,12346,8270383.0,338.4627,1003.581,147856.5,85.14258,-56296.29,8274250.963420928
PART_000_R31G119B180A255,12347,8270160.0,-253.6974,875.3854,144592.3,1.319399,-30355.22,8273807.535646555
PART_000_R31G119B180A255,12348,8270350.0,249.7074,886.9066,143390.0,-9.589572,43.89193,8273510.236698233
PART_000_R31G119B180A255,12349,8270204.0,-253.2022,885.4609,144586.2,-25.79489,30450.15,8273846.959554652
PART_000_R31G119B180A255,12350,8270465.0,335.7523,1011.531,147845.8,-98.98892,56371.09,8274331.255372888
PART_000_R31G119B180A255,12351,8270286.0,-390.6818,1149.206,154661.2,-84.36579,72273.85,8275191.238992317
PART_000_R31G119B180A255,12352,8270842.0,744.3789,1658.117,164985.7,-389.1083,70968.01,8275489.681421483
PART_000_R31G119B180A255,12353,8270692.0,-577.5058,2536.793,191988.3,-632.0246,32823.82,8276591.186085715
PART_003_R247G182B210A255,12354,6615231.0,-816.306,-1294.354,522766.1,-408.8611,-12168.15,6677989.4317822475
PART_003_R247G182B210A255,12355,6616213.0,533.8719,338.4033,466117.3,396.0111,-33320.7,6665105.461387755
PART_000_R31G119B180A255,12356,6616250.0,224.089,747.5225,435102.0,270.8185,-40727.62,6658922.868432994
PART_000_R31G119B180A255,12357,6616131.0,-22.79124,611.2331,417114.3,64.43638,-33687.75,6655422.917631551
PART_000_R31G119B180A255,12358,6616260.0,202.9987,733.4434,407193.9,40.49042,-18800.51,6653358.706134062
PART_000_R31G119B180A255,12359,6616151.0,-87.84084,632.2105,404159.6,-30.28085,50.03557,6652810.522098807
PART_000_R31G119B180A255,12360,6616304.0,202.0168,733.7103,407177.0,-104.1709,18899.61,6653400.554806341
PART_000_R31G119B180A255,12361,6616213.0,-24.59123,610.2064,417083.1,-111.2413,33772.44,6655501.258491499
PART_000_R31G119B180A255,12362,6616359.0,219.5906,746.5444,435062.8,-308.3156,40795.83,6659027.456523676
PART_000_R31G119B180A255,12363,6616337.0,521.1574,333.539,466077.9,-408.9102,33364.17,6665229.656878159
PART_002_R214G39B40A255,12364,6615350.0,-835.7171,-1303.844,522734.9,404.5886,12182.07,6678114.397298738
PART_003_R247G182B210A255,12365,4962025.0,-501.6208,716.3423,764253.5,35.91096,-6636.449,5135465.912582559
PART_003_R247G182B210A255,12366,4961783.0,-162.9408,-322.709,701034.2,-448.4668,-16741.18,5108511.3839080995
PART_003_R247G182B210A255,12367,4962100.0,390.4701,95.11937,657590.2,148.3834,-21343.52,5091038.038343775
PART_000_R31G119B180A255,12368,4962133.0,119.9478,446.1604,630722.6,14.61231,-19037.57,5080794.745681642
PART_000_R31G119B180A255,12369,4962100.0,75.18914,350.4817,615903.8,-6.663963,-10849.74,5075301.953000826
PART_000_R31G119B180A255,12370,4962190.0,128.8349,516.4411,611096.0,-47.37598,46.18018,5073503.996996458
PART_000_R31G119B180A255,12371,4962137.0,73.11719,347.7697,615878.6,-89.80324,10938.28,5075331.863153096
PART_000_R31G119B180A255,12372,4962204.0,115.9713,442.0273,630675.8,-90.93838,19115.86,5080851.49945784
PART_000_R31G119B180A255,12373,4962195.0,387.3639,90.63858,657527.0,-211.2121,21404.97,5091110.617429712
PART_002_R214G39B40A255,12374,4961890.0,-154.0526,-322.5285,700960.3,414.984,16780.69,5108580.870554837
PART_002_R214G39B40A255,12375,4962132.0,-466.3856,722.4116,764176.6,-53.27191,6651.424,5135515.0654762015
PART_003_R247G182B210A255,12376,3307700.0,-324.5725,-405.6371,932918.6,-178.734,-3071.803,3681621.176731856
PART_003_R247G182B210A255,12377,3308020.0,3.863504,235.8635,865958.3,0.2859716,-8481.375,3632088.9976147437
PART_003_R247G182B210A255,12378,3307953.0,23.84463,-4.653231,817698.2,-362.1879,-10864.84,3598435.0950515834
PART_003_R247G182B210A255,12379,3308057.0,245.2681,70.29477,785389.6,10.31606,-9806.295,3576729.822770139
PART_000_R31G119B180A255,12380,3308092.0,94.49428,294.0952,767171.5,-106.3873,-5780.399,3564820.3128031697
PART_000_R31G119B180A255,12381,3308077.0,125.8117,177.8744,761254.3,-60.1312,34.70876,3561024.176874179
PART_000_R31G119B180A255,12382,3308119.0,92.54315,291.6867,767139.7,-16.42616,5846.852,3564827.179897823
PART_000_R31G119B180A255,12383,3308109.0,241.6836,66.49825,785330.3,-109.5497,9865.323,3576742.7575354343
PART_002_R214G39B40A255,12384,3308024.0,18.7607,-8.677106,817621.5,279.3956,10911.67,3598452.6685777185
PART_002_R214G39B40A255,12385,3308103.0,-3.573519,231.8301,865880.7,-44.29965,8512.556,3632114.531994943
PART_002_R214G39B40A255,12386,3307784.0,-327.0362,-411.0254,932855.9,160.1866,3082.226,3681652.5431261
PART_003_R247G182B210A255,12387,1653975.0,-149.5558,180.9708,1032816.0,-34.40097,-1351.031,2436331.9913664362
PART_003_R247G182B210A255,12388,1653905.0,-60.77246,-120.0695,964472.1,-357.2069,-3487.535,2350820.49969507
PART_003_R247G182B210A255,12389,1654010.0,87.27314,49.12933,913566.1,-61.39793,-4572.21,2288972.533391962
PART_003_R247G182B210A255,12390,1654004.0,37.90723,58.58342,878921.4,-308.1936,-4159.975,2247916.8850299926
PART_003_R247G182B210A255,12391,1654028.0,114.2062,35.20965,858788.4,-59.2427,-2441.964,2224439.692386237
PART_000_R31G119B180A255,12392,1654048.0,46.67887,137.709,852247.9,-68.27184,18.73156,2216878.273345193
PART_000_R31G119B180A255,12393,1654043.0,112.7758,33.52801,858752.8,-80.27173,2476.954,2224410.888949046
PART_002_R214G39B40A255,12394,1654031.0,35.73555,57.11192,878854.8,193.7594,4191.993,2247860.1131650507
PART_002_R214G39B40A255,12395,1654048.0,84.97999,46.30957,913475.5,-36.74956,4596.926,2288893.50976382
PART_002_R214G39B40A255,12396,1653947.0,-57.05475,-119.2858,964364.9,299.0918,3504.311,2350716.579560725
PART_002_R214G39B40A255,12397,1654018.0,-135.0664,181.5709,1032707.0,6.540663,1357.269,2436217.451499707
PART_003_R247G182B210A255,12398,-15.44712,20.57625,-0.6884477,1065931.0,-142.5692,1.444668,1846246.666144867
PART_003_R247G182B210A255,12399,-13.43146,19.89395,-1.304624,997094.9,-75.29596,4.031769,1727019.031953253
PART_003_R247G182B210A255,12400,-9.354032,20.14254,-2.69953,945613.1,-397.5187,5.562474,1637850.0784714848
PART_003_R247G182B210A255,12401,-5.531174,19.95037,-4.744783,910105.8,-71.24936,4.756348,1576349.4909150356
PART_003_R247G182B210A255,12402,-2.537386,19.69706,-6.265246,889511.7,-215.4428,3.05015,1540679.5037179324
PART_003_R247G182B210A255,12403,-1.689072,19.38322,-7.201164,882699.6,-71.13389,-0.2832103,1528880.5601783902
PART_002_R214G39B40A255,12404,-2.665768,19.79536,-6.162522,889474.5,70.29841,-2.866114,1540615.0310496986
PART_002_R214G39B40A255,12405,-5.686859,19.99792,-4.970908,910036.3,-48.42314,-5.253529,1576229.1107932571
PART_002_R214G39B40A255,12406,-9.673082,20.4682,-2.406723,945522.7,296.0038,-5.472223,1637693.43661527
PART_002_R214G39B40A255,12407,-13.45287,20.81218,-1.251194,997003.6,18.22688,-4.371195,1726860.8910962522
PART_002_R214G39B40A255,12408,-15.26931,22.68447,0.353132,1065858.0,117.9546,-1.566804,1846120.2212561474
PART_003_R247G182B210A255,12409,-1654001.0,190.4583,-181.742,1032830.0,-34.38144,1354.644,2436381.0794118512
PART_003_R247G182B210A255,12410,-1653929.0,92.56658,115.848,964483.8,-357.2031,3496.129,2350861.5238137697
PART_003_R247G182B210A255,12411,-1654029.0,-64.17415,-61.10126,913576.4,-61.41979,4583.765,2289002.6840401944
PART_003_R247G182B210A255,12412,-1654016.0,-19.52087,-75.6451,878930.8,-308.0512,4169.71,2247937.2821639287
PART_003_R247G182B210A255,12413,-1654035.0,-98.1547,-56.90438,858797.6,-59.138,2448.334,2224453.4749402944
PART_001_R158G218B229A255,12414,-1654052.0,-30.97097,-160.5697,852257.0,-68.14195,-19.37944,2216889.085959918
PART_001_R158G218B229A255,12415,-1654049.0,-96.52994,-54.8553,858762.0,-80.2426,-2482.68,2224424.1347316587
PART_002_R214G39B40A255,12416,-1654043.0,-17.30501,-74.9457,878864.5,193.8581,-4202.848,2247880.601020623
PART_002_R214G39B40A255,12417,-1654067.0,-61.55728,-57.3591,913486.0,-36.66427,-4608.051,2288924.348116477
PART_002_R214G39B40A255,12418,-1653972.0,87.09341,113.1512,964376.7,299.3206,-3513.367,2350757.142885242
PART_002_R214G39B40A255,12419,-1654045.0,172.7551,-182.7293,1032721.0,6.575408,-1360.528,2436265.996112314
PART_003_R247G182B210A255,12420,-3307717.0,355.1888,405.6018,932941.7,-179.2446,3075.012,3681667.759178671
PART_003_R247G182B210A255,12421,-3308035.0,25.70498,-240.4422,865977.9,0.1499901,8490.426,3632128.12267209
PART_003_R247G182B210A255,12422,-3307961.0,8.118421,-0.07643274,817715.3,-362.2921,10876.97,3598466.733892252
PART_003_R247G182B210A255,12423,-3308058.0,-213.9588,-82.86395,785405.6,10.7211,9817.12,3576750.041143608
PART_001_R158G218B229A255,12424,-3308086.0,-62.35013,-306.8097,767186.7,-106.3028,5786.949,3564833.607341082
PART_001_R158G218B229A255,12425,-3308070.0,-95.21147,-195.9259,761269.5,-59.75496,-34.85473,3561033.2517607138
PART_001_R158G218B229A255,12426,-3308114.0,-60.17649,-304.1824,767155.1,-16.56865,-5853.386,3564841.736132064
PART_001_R158G218B229A255,12427,-3308109.0,-210.4513,-79.59083,785346.5,-109.2924,-9876.429,3576761.9072766695
PART_002_R214G39B40A255,12428,-3308032.0,13.95249,4.658069,817639.1,279.372,-10923.87,3598485.3199644974
PART_002_R214G39B40A255,12429,-3308118.0,34.86176,-236.5585,865900.7,-43.81138,-8521.919,3632154.6597825494
PART_002_R214G39B40A255,12430,-3307801.0,362.2807,413.6001,932879.7,160.252,-3085.67,3681702.9093201645
PART_003_R247G182B210A255,12431,-4962028.0,527.7219,-706.035,764280.3,35.97194,6640.503,5135498.383933295
PART_003_R247G182B210A255,12432,-4961788.0,174.224,306.6402,701056.7,-448.3275,16752.33,5108523.288450188
PART_003_R247G182B210A255,12433,-4962099.0,-378.7814,-98.20533,657609.2,148.3562,21356.62,5091048.7826971775
PART_001_R158G218B229A255,12434,-4962127.0,-119.5996,-476.5012,630740.6,15.2804,19051.19,5080781.099231643
PART_001_R158G218B229A255,12435,-4962086.0,-68.97011,-366.2544,615920.8,-6.584433,10855.77,5075289.824488991
PART_001_R158G218B229A255,12436,-4962177.0,-129.9754,-552.2217,611113.1,-46.86558,-44.57752,5073479.4098490765
PART_001_R158G218B229A255,12437,-4962123.0,-67.1777,-364.7169,615895.8,-90.11229,-10947.2,5075319.115418093
PART_001_R158G218B229A255,12438,-4962198.0,-114.8598,-470.2538,630693.9,-90.70117,-19126.81,5080839.265095928
PART_001_R158G218B229A255,12439,-4962194.0,-376.6244,-96.7482,657546.6,-211.408,-21420.05,5091119.68283497
PART_002_R214G39B40A255,12440,-4961896.0,164.4796,308.9719,700982.8,415.5545,-16790.42,5108594.536070867
PART_002_R214G39B40A255,12441,-4962136.0,487.3637,-716.9665,764203.8,-53.25295,-6655.759,5135543.857553818
PART_003_R247G182B210A255,12442,-6615225.0,830.402,1312.004,522787.5,-409.3585,12172.44,6678004.263091342
PART_003_R247G182B210A255,12443,-6616210.0,-530.3222,-362.514,466134.2,395.7493,33334.54,6665096.031901302
PART_001_R158G218B229A255,12444,-6616239.0,-203.0988,-738.9767,435116.3,271.1438,40742.56,6658929.690154971
PART_001_R158G218B229A255,12445,-6616116.0,32.37691,-645.4151,417127.8,64.93912,33705.09,6655398.586764696
PART_001_R158G218B229A255,12446,-6616233.0,-179.9717,-737.9331,407206.6,40.82588,18806.38,6653343.458173899
PART_001_R158G218B229A255,12447,-6616127.0,98.3832,-670.7703,404172.5,-30.02204,-46.6231,6652775.079504843
PART_001_R158G218B229A255,12448,-6616276.0,-179.6263,-740.727,407190.0,-104.3827,-18911.43,6653382.845752596
PART_001_R158G218B229A255,12449,-6616198.0,35.49227,-639.681,417096.7,-111.3241,-33784.03,6655479.852480445
PART_001_R158G218B229A255,12450,-6616346.0,-200.1056,-744.4484,435077.6,-308.6011,-40814.93,6659028.514446803
PART_001_R158G218B229A255,12451,-6616335.0,-513.1946,-349.4534,466095.3,-408.6382,-33375.28,6665227.541889755
PART_002_R214G39B40A255,12452,-6615343.0,852.1536,1315.699,522757.1,404.7239,-12187.4,6678126.719266806
PART_003_R247G182B210A255,12453,-8270579.0,624.8817,-2493.58,192015.2,624.8092,32814.25,8276525.294602589
PART_001_R158G218B229A255,12454,-8270724.0,-744.107,-1685.575,165007.6,387.0856,70950.69,8275359.047828068
PART_001_R158G218B229A255,12455,-8270167.0,395.6216,-1126.981,154681.7,69.61448,72225.85,8275085.778146503
PART_001_R158G218B229A255,12456,-8270367.0,-355.0183,-1052.362,147861.5,85.0745,56317.5,8274203.024864325
PART_001_R158G218B229A255,12457,-8270132.0,251.2269,-890.7559,144597.2,1.790092,30362.38,8273770.969855884
PART_001_R158G218B229A255,12458,-8270325.0,-266.537,-941.2003,143395.0,-9.784068,-39.79751,8273449.96448207
PART_001_R158G218B229A255,12459,-8270175.0,249.9052,-903.6881,144591.1,-25.63877,-30464.34,8273807.631627395
PART_001_R158G218B229A255,12460,-8270450.0,-350.6938,-1054.894,147851.0,-99.30455,-56385.41,8274287.70059949
PART_001_R158G218B229A255,12461,-8270274.0,389.8608,-1154.576,154666.8,-84.34512,-72297.91,8275177.098272959
PART_001_R158G218B229A255,12462,-8270842.0,-752.5929,-1681.192,164992.1,-389.2149,-70983.47,8275474.82981099
PART_001_R158G218B229A255,12463,-8270686.0,582.0751,-2525.473,191997.4,-631.9175,-32831.69,8276593.8541175565
PART_003_R247G182B210A255,12464,7952464.0,-515.8048,2454.405,191997.6,613.0632,-32809.37,7958649.025191626
PART_000_R31G119B180A255,12465,7952595.0,736.728,1588.892,165000.4,369.6908,-70917.46,7957514.5668241605
PART_000_R31G119B180A255,12466,7952071.0,-360.7918,1096.607,154675.9,70.95878,-72201.08,7957197.783628326
PART_000_R31G119B180A255,12467,7952270.0,334.8931,960.9993,147858.8,74.93836,-56273.98,7956342.159184707
PART_000_R31G119B180A255,12468,7952065.0,-228.9836,847.1803,144592.8,1.347233,-30342.37,7955872.4222875
PART_000_R31G119B180A255,12469,7952256.0,253.3987,857.4843,143390.4,-18.13954,72.09896,7955578.199147889
PART_000_R31G119B180A255,12470,7952133.0,-230.4566,854.6004,144584.4,-26.36401,30467.69,7955938.394949884
PART_000_R31G119B180A255,12471,7952396.0,337.1049,984.9031,147842.6,-104.0189,56397.98,7956456.767517267
PART_000_R31G119B180A255,12472,7952239.0,-367.6077,1104.589,154656.3,-81.127,72288.69,7957366.330654393
PART_000_R31G119B180A255,12473,7952783.0,723.4111,1606.362,164979.5,-379.7906,70983.17,7957700.809725197
PART_000_R31G119B180A255,12474,7952643.0,-559.1749,2429.843,191981.9,-603.5786,32826.71,7958860.881229894
PART_003_R247G182B210A255,12475,6360781.0,-847.9776,-1268.25,522786.4,-397.0024,-12164.23,6425990.840386353
PART_003_R247G182B210A255,12476,6361724.0,483.9438,318.4069,466128.9,371.8052,-33316.4,6412611.55196966
PART_000_R31G119B180A255,12477,6361753.0,202.5329,714.0129,435108.8,258.3196,-40718.53,6406169.214202397
PART_000_R31G119B180A255,12478,6361643.0,-31.14079,586.5839,417118.8,50.02635,-33671.5,6402525.602383675
PART_000_R31G119B180A255,12479,6361772.0,182.9083,700.9664,407197.3,31.61522,-18783.09,6400391.215156545
PART_000_R31G119B180A255,12480,6361678.0,-95.76632,607.2405,404160.3,-47.02514,74.37458,6399822.672951807
PART_000_R31G119B180A255,12481,6361837.0,181.2599,700.3331,407173.4,-111.448,18922.29,6400453.62372255
PART_000_R31G119B180A255,12482,6361765.0,-34.72714,586.3041,417074.8,-125.2133,33797.55,6402642.135409681
PART_000_R31G119B180A255,12483,6361919.0,200.7986,712.041,435049.5,-303.8707,40815.11,6406325.6594000375
PART_000_R31G119B180A255,12484,6361908.0,498.4311,321.907,466060.8,-403.7202,33378.63,6412771.286443489
PART_002_R214G39B40A255,12485,6360966.0,-798.4854,-1255.841,522713.5,390.1571,12187.4,6426125.693569561
PART_003_R247G182B210A255,12486,4771153.0,-427.7213,706.9529,764225.6,43.55309,-6636.739,4951244.704669732
PART_003_R247G182B210A255,12487,4770919.0,-126.1094,-301.9264,701025.1,-433.8205,-16735.34,4923297.639751707
PART_003_R247G182B210A255,12488,4771228.0,391.6809,98.48681,657594.5,140.3449,-21334.7,4905194.715530937
PART_000_R31G119B180A255,12489,4771262.0,129.2273,435.0109,630730.1,-1.661713,-19025.13,4894568.044060797
PART_000_R31G119B180A255,12490,4771237.0,87.92005,345.2744,615909.6,-19.87458,-10832.94,4888867.118099793
PART_000_R31G119B180A255,12491,4771331.0,138.583,502.5692,611096.8,-70.70134,65.84656,4887009.155837647
PART_000_R31G119B180A255,12492,4771292.0,85.44321,341.9386,615873.5,-105.6348,10959.84,4888910.837049555
PART_000_R31G119B180A255,12493,4771367.0,124.4839,428.8881,630662.8,-114.211,19136.92,4894650.984493817
PART_000_R31G119B180A255,12494,4771370.0,383.9726,92.28672,657507.4,-217.6792,21423.37,4905305.735185933
PART_002_R214G39B40A255,12495,4771086.0,-141.4767,-310.0788,700935.7,382.5335,16793.89,4923433.274823472
PART_002_R214G39B40A255,12496,4771323.0,-440.8366,695.9703,764150.7,-50.66784,6655.909,4951385.525139995
PART_003_R247G182B210A255,12497,3180463.0,-342.8538,-399.7762,932961.3,-174.8198,-3069.292,3567770.404209153
PART_003_R247G182B210A255,12498,3180769.0,-12.54974,219.6996,865985.6,-13.92174,-8478.121,3516623.579671435
PART_003_R247G182B210A255,12499,3180703.0,17.51548,-5.407919,817713.6,-355.1236,-10858.12,3481831.950799343
PART_003_R247G182B210A255,12500,3180804.0,228.7304,63.33587,785400.8,-10.40178,-9796.556,3459398.2555457824
PART_000_R31G119B180A255,12501,3180843.0,83.87814,281.3174,767180.8,-119.2071,-5767.746,3447085.66857995
PART_000_R31G119B180A255,12502,3180834.0,111.829,165.832,761257.8,-89.25694,49.06808,3443161.644299296
PART_000_R31G119B180A255,12503,3180883.0,80.95436,277.9914,767135.9,-40.40969,5862.588,3447095.9572473085
PART_000_R31G119B180A255,12504,3180880.0,223.244,57.9076,785316.9,-139.3697,9880.33,3459416.7321202485
PART_002_R214G39B40A255,12505,3180807.0,12.87803,-10.37061,817599.4,248.7744,10924.82,3481851.486410663
PART_002_R214G39B40A255,12506,3180889.0,-3.567684,219.2425,865850.0,-65.14345,8521.687,3516628.4107383853
PART_002_R214G39B40A255,12507,3180586.0,-303.9739,-393.7486,932820.9,152.5282,3085.752,3567749.9530350193
PART_003_R247G182B210A255,12508,1590339.0,-119.9532,175.7632,1032784.0,-24.81731,-1350.662,2393537.819033878
PART_003_R247G182B210A255,12509,1590275.0,-37.73893,-107.9373,964462.8,-349.4094,-3484.408,2306471.0093999775
PART_003_R247G182B210A255,12510,1590380.0,98.61496,47.30302,913576.0,-63.88496,-4566.714,2243435.3984152977
PART_003_R247G182B210A255,12511,1590379.0,54.53886,63.2752,878935.2,-318.8556,-4154.293,2201533.859611553
PART_003_R247G182B210A255,12512,1590404.0,126.1347,35.08627,858799.8,-76.30902,-2434.051,2177557.707657359
PART_000_R31G119B180A255,12513,1590428.0,63.22733,138.176,852252.4,-100.9583,25.70359,2169825.664084448
PART_000_R31G119B180A255,12514,1590425.0,124.6368,33.78098,858749.0,-105.3492,2485.138,2177514.1417504903
PART_002_R214G39B40A255,12515,1590418.0,51.19508,59.4619,878840.0,147.3856,4198.227,2201450.795334989
PART_002_R214G39B40A255,12516,1590435.0,95.16878,45.84532,913451.3,-58.89405,4603.034,2243324.013344333
PART_002_R214G39B40A255,12517,1590340.0,-42.91914,-112.2779,964334.4,261.8569,3507.885,2306358.117864355
PART_002_R214G39B40A255,12518,1590407.0,-118.6502,174.0838,1032677.0,4.873866,1358.718,2393444.636105819
PART_003_R247G182B210A255,12519,-27.86214,30.25774,-0.2359503,1065987.0,-139.3501,2.790185,1846343.660676745
PART_003_R247G182B210A255,12520,-23.98335,23.75508,-3.311705,997133.2,-88.66036,7.008815,1727085.3716812935
PART_003_R247G182B210A255,12521,-18.43781,18.22329,-7.770416,945635.7,-390.7865,8.368691,1637889.218098279
PART_003_R247G182B210A255,12522,-12.15424,15.14248,-11.61573,910123.7,-91.97641,7.810422,1576380.4979121503
PART_003_R247G182B210A255,12523,-7.825307,13.64409,-14.52719,889527.0,-227.3257,4.095449,1540706.0092431572
PART_003_R247G182B210A255,12524,-6.000183,13.54433,-15.04362,882708.4,-104.8107,0.09984272,1528895.8080549766
PART_002_R214G39B40A255,12525,-7.951517,13.66579,-14.69665,889474.7,38.07603,-4.893416,1540615.3740957135
PART_002_R214G39B40A255,12526,-12.52624,15.36541,-11.35333,910025.5,-86.82885,-7.661151,1576210.4096506857
PART_002_R214G39B40A255,12527,-18.86933,18.19874,-8.195107,945501.8,259.7351,-8.940461,1637657.218446153
PART_002_R214G39B40A255,12528,-24.99145,23.08941,-3.317582,996973.2,-9.919093,-6.852414,1726808.2368144353
PART_002_R214G39B40A255,12529,-29.18793,27.99641,-1.542313,1065824.0,111.0099,-2.705793,1846061.3306098448
PART_003_R247G182B210A255,12530,-1590391.0,173.4665,-176.8066,1032804.0,-25.00013,1355.36,2393615.7028567577
PART_003_R247G182B210A255,12531,-1590317.0,88.60864,102.9906,964480.0,-349.5465,3498.233,2306537.44040735
PART_003_R247G182B210A255,12532,-1590408.0,-46.90725,-55.03671,913591.4,-63.67874,4583.668,2243489.7497617416
PART_003_R247G182B210A255,12533,-1590393.0,-3.535849,-78.17152,878949.7,-318.6396,4170.382,2201574.4728966383
PART_003_R247G182B210A255,12534,-1590409.0,-75.62365,-53.75649,858813.7,-76.01672,2442.334,2177589.458720389
PART_001_R158G218B229A255,12535,-1590430.0,-13.31572,-159.1619,852266.2,-100.833,-25.26918,2169853.9937318554
PART_001_R158G218B229A255,12536,-1590430.0,-74.09598,-53.03515,858763.1,-105.2565,-2495.265,2177545.9338792483
PART_002_R214G39B40A255,12537,-1590434.0,0.3057046,-73.36448,878854.6,147.35,-4213.64,2201493.5093808863
PART_002_R214G39B40A255,12538,-1590464.0,-43.31755,-55.01374,913467.1,-58.78845,-4621.374,2243379.115407706
PART_002_R214G39B40A255,12539,-1590383.0,96.5535,109.8054,964352.1,261.9269,-3521.648,2306427.674415005
PART_002_R214G39B40A255,12540,-1590459.0,176.5245,-174.9585,1032698.0,5.050024,-1364.191,2393525.3236043677
PART_003_R247G182B210A255,12541,-3180497.0,388.648,397.8982,932997.3,-174.3079,3075.334,3567848.550481873
PART_003_R247G182B210A255,12542,-3180798.0,47.66078,-225.1759,866015.9,-13.93338,8493.345,3516685.708055504
PART_003_R247G182B210A255,12543,-3180721.0,6.637949,-12.6715,817740.6,-354.5933,10876.77,3481870.365958298
PART_003_R247G182B210A255,12544,-3180810.0,-209.1911,-86.41591,785425.7,-10.11524,9813.551,3459419.24719104
PART_001_R158G218B229A255,12545,-3180840.0,-67.79816,-314.0741,767205.2,-118.4616,5777.269,3447091.5482936995
PART_001_R158G218B229A255,12546,-3180827.0,-94.80244,-196.2587,761281.8,-89.26134,-49.03362,3443164.9083139747
PART_001_R158G218B229A255,12547,-3180880.0,-64.95293,-311.164,767160.5,-40.06404,-5872.648,3447101.7448706576
PART_001_R158G218B229A255,12548,-3180886.0,-203.1418,-80.32966,785342.3,-139.7085,-9897.31,3459438.624877972
PART_002_R214G39B40A255,12549,-3180826.0,10.87296,-8.852053,817626.8,249.1183,-10943.87,3481890.3937385203
PART_002_R214G39B40A255,12550,-3180919.0,37.3152,-224.3361,865880.7,-65.16124,-8536.754,3516691.2926014774
PART_002_R214G39B40A255,12551,-3180622.0,344.583,388.4613,932857.0,152.8663,-3091.547,3567826.126639847
PART_003_R247G182B210A255,12552,-4771168.0,450.0421,-722.5045,764266.8,43.03444,6643.0,4951281.529937236
PART_003_R247G182B210A255,12553,-4770928.0,158.485,309.7892,701058.5,-434.3161,16751.33,4923340.289274635
PART_003_R247G182B210A255,12554,-4771226.0,-365.6769,-122.3148,657624.4,141.1476,21356.93,4905206.14224449
PART_001_R158G218B229A255,12555,-4771245.0,-92.65708,-440.7368,630757.5,-1.307493,19042.67,4894577.3055908475
PART_001_R158G218B229A255,12556,-4771212.0,-60.45118,-380.7751,615936.5,-18.79708,10845.9,4888849.057625429
PART_001_R158G218B229A255,12557,-4771300.0,-102.5399,-517.5228,611123.3,-70.8329,-67.91022,4886999.130592617
PART_001_R158G218B229A255,12558,-4771268.0,-57.40437,-375.8668,615900.6,-105.2099,-10968.56,4888894.845087573
PART_001_R158G218B229A255,12559,-4771348.0,-88.70679,-437.7513,630690.8,-114.87,-19157.99,4894656.654348144
PART_001_R158G218B229A255,12560,-4771369.0,-356.3317,-111.9869,657537.7,-217.3702,-21442.79,4905321.061374264
PART_002_R214G39B40A255,12561,-4771093.0,175.0102,314.0746,700970.4,382.453,-16811.87,4923473.247492863
PART_002_R214G39B40A255,12562,-4771337.0,470.0936,-704.8537,764192.7,-50.14266,-6661.851,4951428.308447034
PART_003_R247G182B210A255,12563,-6360777.0,855.7724,1242.517,522821.7,-396.5508,12172.63,6425986.662611481
PART_003_R247G182B210A255,12564,-6361716.0,-467.1589,-302.7622,466156.0,372.252,33335.55,6412625.909496342
PART_001_R158G218B229A255,12565,-6361739.0,-210.5964,-758.548,435132.7,258.9908,40746.71,6406134.607122876
PART_001_R158G218B229A255,12566,-6361611.0,36.00273,-595.4287,417140.7,50.81119,33690.75,6402496.414729699
PART_001_R158G218B229A255,12567,-6361735.0,-195.6427,-760.3859,407219.0,32.33558,18800.29,6400322.880531125
PART_001_R158G218B229A255,12568,-6361630.0,98.38984,-628.7972,404181.5,-46.90291,-78.6391,6399769.569948505
PART_001_R158G218B229A255,12569,-6361800.0,-192.9978,-756.2143,407195.2,-111.4015,-18930.28,6400387.480619075
PART_001_R158G218B229A255,12570,-6361731.0,37.81935,-601.9933,417097.3,-125.7893,-33824.06,6402606.914501506
PART_001_R158G218B229A255,12571,-6361905.0,-206.3892,-747.3862,435073.7,-303.9801,-40836.95,6406296.782653122
PART_001_R158G218B229A255,12572,-6361899.0,-487.4493,-318.0591,466088.4,-403.8214,-33401.35,6412776.086567469
PART_002_R214G39B40A255,12573,-6360962.0,804.1273,1238.992,522748.8,390.4374,-12194.21,6426124.837908795
PART_003_R247G182B210A255,12574,-7952456.0,506.3389,-2485.948,192011.0,611.7576,32821.23,7958621.668809304
PART_001_R158G218B229A255,12575,-7952583.0,-721.8123,-1571.241,165010.7,370.0545,70943.29,7957520.1781849135
PART_001_R158G218B229A255,12576,-7952050.0,362.7425,-1142.634,154684.6,70.72094,72236.11,7957156.243041452
PART_001_R158G218B229A255,12577,-7952227.0,-310.897,-964.6409,147867.1,75.82574,56297.64,7956310.322488101
PART_001_R158G218B229A255,12578,-7952017.0,235.3285,-907.2758,144600.9,1.202771,30362.95,7955798.269879516
PART_001_R158G218B229A255,12579,-7952196.0,-229.4757,-874.5448,143398.3,-17.66129,-77.08645,7955522.087701366
PART_001_R158G218B229A255,12580,-7952085.0,237.9994,-910.6403,144592.7,-26.76103,-30477.24,7955866.752752802
PART_001_R158G218B229A255,12581,-7952351.0,-315.3751,-996.174,147850.9,-104.017,-56430.08,7956418.168133017
PART_001_R158G218B229A255,12582,-7952218.0,372.8983,-1140.145,154665.5,-81.53177,-72316.18,7957331.514454462
PART_001_R158G218B229A255,12583,-7952768.0,-709.2251,-1599.586,164989.9,-379.7408,-71013.42,7957697.751320698
PART_001_R158G218B229A255,12584,-7952634.0,559.8163,-2447.454,191996.0,-603.5379,-32836.91,7958844.563914434
PART_003_R247G182B210A255,12585,7634343.0,-596.7537,2305.004,192007.6,570.2472,-32799.95,7640941.562313242
PART_000_R31G119B180A255,12586,7634463.0,668.0751,1524.884,165003.9,357.5743,-70917.71,7639702.363018913
PART_000_R31G119B180A255,12587,7633954.0,-368.7287,1032.498,154680.1,58.02038,-72177.7,7639345.177682234
PART_000_R31G119B180A255,12588,7634150.0,310.8737,921.7333,147860.2,74.48797,-56261.77,7638450.174520426
PART_000_R31G119B180A255,12589,7633959.0,-237.7586,802.183,144595.5,-9.667407,-30307.04,7637964.469534225
PART_000_R31G119B180A255,12590,7634161.0,227.3554,816.2339,143390.5,-18.62611,94.79088,7637678.332582977
PART_000_R31G119B180A255,12591,7634059.0,-236.8204,820.6803,144583.2,-38.23504,30508.1,7638056.405955632
PART_000_R31G119B180A255,12592,7634338.0,305.7859,936.7339,147838.5,-101.6371,56423.93,7638635.430724619
PART_000_R31G119B180A255,12593,7634207.0,-362.7561,1069.83,154649.7,-88.61529,72321.04,7639578.577756498
PART_000_R31G119B180A255,12594,7634748.0,685.1632,1531.561,164971.1,-361.9947,70997.99,7639975.365600874
PART_000_R31G119B180A255,12595,7634622.0,-527.9373,2347.114,191970.2,-586.425,32835.04,7641162.510215419
PART_003_R247G182B210A255,12596,6106320.0,-724.239,-1184.042,522758.1,-375.9092,-12165.5,6174064.309773982
PART_003_R247G182B210A255,12597,6107218.0,507.8574,316.7185,466120.9,365.6865,-33308.09,6160211.911950407
PART_000_R31G119B180A255,12598,6107252.0,214.4083,694.9975,435112.1,239.4864,-40704.79,6153528.405040446
PART_000_R31G119B180A255,12599,6107145.0,-15.42551,568.5728,417126.2,43.90824,-33654.39,6149733.562721563
PART_000_R31G119B180A255,12600,6107279.0,193.8699,683.7903,407202.9,9.989662,-18755.15,6147519.411378864
PART_000_R31G119B180A255,12601,6107201.0,-75.60015,588.8787,404161.9,-58.59547,103.3146,6146935.034852477
PART_000_R31G119B180A255,12602,6107374.0,191.9638,684.0543,407169.2,-133.8177,18958.83,6147609.780791849
PART_000_R31G119B180A255,12603,6107325.0,-18.64776,566.6647,417063.2,-135.3352,33830.1,6149904.93344557
PART_000_R31G119B180A255,12604,6107494.0,206.2062,692.6741,435031.2,-313.8605,40846.34,6153759.4553574715
PART_000_R31G119B180A255,12605,6107503.0,483.6217,307.4621,466036.8,-391.9405,33399.42,6160493.4420498
PART_002_R214G39B40A255,12606,6106607.0,-762.5342,-1203.04,522687.2,366.9878,12195.05,6174358.706936892
PART_003_R247G182B210A255,12607,4580282.0,-479.3579,654.046,764267.6,26.97717,-6632.802,4767665.144223736
PART_003_R247G182B210A255,12608,4580055.0,-153.7663,-297.9137,701050.9,-420.9917,-16731.87,4738589.461026405
PART_003_R247G182B210A255,12609,4580345.0,363.373,91.04367,657609.0,119.3011,-21324.93,4719766.109926264
PART_000_R31G119B180A255,12610,4580380.0,114.2413,417.4444,630742.4,-11.73696,-19008.75,4708719.325367693
PART_000_R31G119B180A255,12611,4580361.0,71.57649,328.5245,615919.4,-46.79658,-10811.04,4702796.523038578
PART_000_R31G119B180A255,12612,4580464.0,120.6805,481.7681,611101.8,-91.03687,93.15633,4700875.177079612
PART_000_R31G119B180A255,12613,4580441.0,67.79264,323.4698,615868.9,-139.578,10989.98,4702860.150020159
PART_000_R31G119B180A255,12614,4580532.0,106.6636,409.4799,630648.3,-135.714,19167.36,4708838.856850128
PART_000_R31G119B180A255,12615,4580553.0,357.0753,82.60887,657481.2,-242.2128,21450.19,4719923.409019369
PART_002_R214G39B40A255,12616,4580295.0,-137.4748,-297.7287,700899.4,354.9883,16812.88,4738747.093659292
PART_002_R214G39B40A255,12617,4580532.0,-412.1499,666.3541,764106.8,-62.05274,6663.573,4767789.92067291
PART_003_R247G182B210A255,12618,3053212.0,-274.7166,-369.7247,932916.5,-167.0151,-3069.76,3454721.2890953682
PART_003_R247G182B210A255,12619,3053507.0,22.54897,222.6562,865972.1,-5.471987,-8472.969,3401925.1485071834
PART_003_R247G182B210A255,12620,3053447.0,35.25208,-0.4948521,817723.2,-356.3252,-10849.95,3365976.7816072074
PART_003_R247G182B210A255,12621,3053549.0,239.4438,71.02007,785417.5,-22.4907,-9784.286,3342774.696315462
PART_000_R31G119B180A255,12622,3053590.0,99.31015,276.2091,767193.8,-149.3105,-5751.472,3330033.565963517
PART_000_R31G119B180A255,12623,3053592.0,128.0663,169.3755,761264.4,-114.8611,69.16577,3325971.493265359
PART_000_R31G119B180A255,12624,3053648.0,95.65024,271.735,767130.6,-86.82251,5884.218,3330047.487160798
PART_000_R31G119B180A255,12625,3053659.0,232.7516,63.84885,785298.6,-168.0106,9902.323,3342798.7587061636
PART_002_R214G39B40A255,12626,3053599.0,25.90953,-7.882339,817566.9,195.2934,10944.06,3366009.2313627824
PART_002_R214G39B40A255,12627,3053688.0,8.205275,214.8172,865808.7,-80.06589,8535.701,3401973.2676099734
PART_002_R214G39B40A255,12628,3053401.0,-280.558,-380.2511,932776.6,130.2825,3090.834,3454782.3036765526
PART_003_R247G182B210A255,12629,1526702.0,-129.8605,166.3817,1032849.0,-40.07883,-1348.247,2351829.0614965633
PART_003_R247G182B210A255,12630,1526641.0,-47.01495,-113.7598,964506.5,-341.5902,-3480.449,2263124.666089668
PART_003_R247G182B210A255,12631,1526743.0,91.70834,45.8995,913601.1,-83.19906,-4561.504,2198817.2855052007
PART_003_R247G182B210A255,12632,1526742.0,44.06087,51.18335,878957.1,-320.8215,-4145.408,2156048.3149600276
PART_003_R247G182B210A255,12633,1526772.0,114.6608,31.21394,858818.2,-112.0876,-2425.552,2131556.6665256587
PART_000_R31G119B180A255,12634,1526798.0,50.86618,123.0691,852264.1,-129.9925,37.12732,2123654.6149304924
PART_000_R31G119B180A255,12635,1526802.0,111.9632,27.99045,858747.5,-155.2404,2494.795,2131495.068361728
PART_002_R214G39B40A255,12636,1526799.0,39.97876,48.62356,878824.3,102.1677,4209.063,2155928.9276890066
PART_002_R214G39B40A255,12637,1526822.0,87.10975,40.37984,913419.3,-106.4834,4610.69,2198649.365795925
PART_002_R214G39B40A255,12638,1526733.0,-39.89883,-111.767,964288.7,229.4055,3514.063,2262905.3251917246
PART_002_R214G39B40A255,12639,1526799.0,-102.4134,167.6061,1032623.0,-15.04102,1360.771,2351585.006364025
PART_003_R247G182B210A255,12640,-48.36882,37.65347,-1.172964,1065944.0,-135.2424,3.608884,1846269.1824016292
PART_003_R247G182B210A255,12641,-38.99793,35.63269,-2.792974,997123.0,-77.67864,9.798865,1727067.703929263
PART_003_R247G182B210A255,12642,-26.83272,35.60493,-5.744308,945653.2,-393.2179,12.77726,1637919.5314141398
PART_003_R247G182B210A255,12643,-16.42977,35.15419,-9.715381,910148.5,-103.5258,10.68617,1576423.4554876871
PART_003_R247G182B210A255,12644,-8.957754,34.87995,-12.3521,889547.8,-258.2667,6.577511,1540742.051016796
PART_003_R247G182B210A255,12645,-6.79297,34.35316,-14.10758,882721.5,-135.2843,-0.591676,1528918.5055590116
PART_002_R214G39B40A255,12646,-9.246791,35.03634,-12.1683,889474.0,-19.451,-6.422856,1540614.1611012432
PART_002_R214G39B40A255,12647,-16.85544,35.18592,-10.13371,910009.8,-125.0247,-11.73975,1576183.2247549107
PART_002_R214G39B40A255,12648,-27.58247,35.9861,-5.248123,945469.7,197.1136,-12.75341,1637601.5941075399
PART_002_R214G39B40A255,12649,-39.37587,36.67421,-2.928611,996931.8,-32.29457,-10.57121,1726736.5315409268
PART_002_R214G39B40A255,12650,-48.58745,40.59357,0.4427731,1065781.0,86.95477,-3.985001,1845986.8495194349
PART_003_R247G182B210A255,12651,-1526788.0,204.0295,-168.4915,1032878.0,-39.75544,1357.305,2351946.5088633876
PART_003_R247G182B210A255,12652,-1526711.0,105.324,106.0531,964531.8,-341.1245,3501.246,2263221.399982189
PART_003_R247G182B210A255,12653,-1526793.0,-47.42343,-67.80524,913624.0,-82.80747,4587.961,2198888.4798940723
PART_003_R247G182B210A255,12654,-1526772.0,-6.547284,-81.41784,878978.5,-320.2402,4167.156,2156098.433989009
PART_003_R247G182B210A255,12655,-1526789.0,-80.61334,-69.86047,858839.1,-111.6832,2439.316,2131592.503689178
PART_001_R158G218B229A255,12656,-1526809.0,-17.0818,-163.3746,852284.9,-129.7015,-38.52303,2123685.2241895986
PART_001_R158G218B229A255,12657,-1526819.0,-77.60557,-65.91639,858768.5,-155.2613,-2507.54,2131531.39252585
PART_002_R214G39B40A255,12658,-1526830.0,-2.547071,-80.41685,878846.1,102.1247,-4233.243,2155979.679437613
PART_002_R214G39B40A255,12659,-1526874.0,-42.12647,-60.35534,913442.4,-106.6667,-4636.511,2198723.110837079
PART_002_R214G39B40A255,12660,-1526806.0,95.60482,100.7283,964314.3,229.4768,-3535.849,2263002.4759364943
PART_002_R214G39B40A255,12661,-1526889.0,171.8567,-169.5123,1032653.0,-15.15636,-1369.001,2351704.905758352
PART_003_R247G182B210A255,12662,-3053276.0,331.1757,368.3127,932967.4,-167.8548,3077.793,3454843.440449741
PART_003_R247G182B210A255,12663,-3053555.0,31.49974,-230.1144,866015.4,-5.08825,8494.675,3402022.3714916273
PART_003_R247G182B210A255,12664,-3053472.0,21.01389,-10.60616,817761.9,-355.8301,10877.81,3366048.420721884
PART_003_R247G182B210A255,12665,-3053553.0,-183.7532,-93.74775,785454.2,-21.17482,9808.119,3342819.481382602
PART_001_R158G218B229A255,12666,-3053580.0,-42.94414,-301.2856,767229.3,-148.8438,5765.756,3330063.3564025396
PART_001_R158G218B229A255,12667,-3053576.0,-73.50454,-201.728,761299.9,-114.0277,-69.6435,3325991.3773707002
PART_001_R158G218B229A255,12668,-3053638.0,-38.86607,-296.3061,767166.3,-87.23781,-5898.38,3330077.838342374
PART_001_R158G218B229A255,12669,-3053663.0,-177.3456,-87.76933,785335.8,-167.8593,-9927.051,3342843.228353036
PART_002_R214G39B40A255,12670,-3053625.0,31.46151,-1.731603,817606.5,194.6579,-10972.0,3366083.6086189854
PART_002_R214G39B40A255,12671,-3053736.0,47.80561,-223.2437,865853.1,-79.71915,-8558.276,3402071.780922436
PART_002_R214G39B40A255,12672,-3053465.0,343.8705,383.279,932828.7,130.0881,-3099.507,3454910.416690298
PART_003_R247G182B210A255,12673,-4580312.0,526.6842,-638.329,764328.1,27.63197,6642.975,4767753.390578706
PART_003_R247G182B210A255,12674,-4580075.0,177.0086,271.6147,701102.3,-419.83,16758.02,4738630.405368699
PART_003_R247G182B210A255,12675,-4580343.0,-339.8417,-98.00855,657653.5,119.895,21354.79,4719791.212288002
PART_001_R158G218B229A255,12676,-4580361.0,-108.1469,-467.7882,630784.7,-9.836153,19038.17,4708696.682616699
PART_001_R158G218B229A255,12677,-4580323.0,-56.19361,-356.5503,615960.2,-46.37586,10824.31,4702769.482083947
PART_001_R158G218B229A255,12678,-4580425.0,-116.4574,-540.7108,611142.9,-89.87761,-90.11099,4700826.554467672
PART_001_R158G218B229A255,12679,-4580403.0,-53.02099,-353.8407,615910.2,-140.3287,-11008.69,4702831.904011893
PART_001_R158G218B229A255,12680,-4580513.0,-99.09112,-455.6357,630691.0,-135.551,-19191.71,4708819.067961247
PART_001_R158G218B229A255,12681,-4580550.0,-335.3403,-95.58897,657526.7,-243.1919,-21483.85,4719944.218681602
PART_002_R214G39B40A255,12682,-4580316.0,160.0288,277.0108,700950.9,355.5029,-16836.32,4738791.381157838
PART_002_R214G39B40A255,12683,-4580563.0,451.0535,-659.8183,764168.2,-62.37542,-6674.136,4767871.1004695855
PART_003_R247G182B210A255,12684,-6106319.0,749.7619,1212.607,522809.1,-376.9521,12176.01,6174103.089576481
PART_003_R247G182B210A255,12685,-6107210.0,-500.3277,-356.9502,466161.3,365.6021,33340.13,6160197.462235973
PART_001_R158G218B229A255,12686,-6107217.0,-179.1596,-682.8757,435147.2,240.6401,40738.64,6153525.295764822
PART_001_R158G218B229A255,12687,-6107095.0,32.13607,-625.7863,417159.9,45.26406,33691.29,6149671.270494162
PART_001_R158G218B229A255,12688,-6107205.0,-156.1203,-693.7543,407235.3,10.87961,18768.14,6147466.262556347
PART_001_R158G218B229A255,12689,-6107130.0,93.96757,-652.2446,404194.7,-57.97772,-96.60287,6146848.620768971
PART_001_R158G218B229A255,12690,-6107299.0,-155.5458,-699.1416,407202.0,-134.2926,-18983.09,6147552.617243381
PART_001_R158G218B229A255,12691,-6107275.0,38.09042,-614.3011,417097.3,-135.6674,-33855.66,6149848.648228745
PART_001_R158G218B229A255,12692,-6107457.0,-174.4563,-693.9238,435067.4,-314.8462,-40888.19,6153746.384186754
PART_001_R158G218B229A255,12693,-6107494.0,-468.0131,-331.0047,466078.3,-391.7907,-33426.0,6160490.437897211
PART_002_R214G39B40A255,12694,-6106604.0,790.2086,1218.118,522739.8,366.9942,-12207.74,6174390.318084264
PART_003_R247G182B210A255,12695,-7634326.0,617.023,-2271.907,192029.8,572.3225,32816.59,7640953.1208538655
PART_001_R158G218B229A255,12696,-7634441.0,-680.0548,-1574.686,165019.5,357.3882,70961.14,7639651.739942135
PART_001_R158G218B229A255,12697,-7633904.0,372.0843,-1031.681,154694.2,59.52656,72220.81,7639299.379090764
PART_001_R158G218B229A255,12698,-7634082.0,-335.4539,-1001.195,147873.3,74.33317,56306.33,7638331.980086445
PART_001_R158G218B229A255,12699,-7633867.0,235.0393,-829.2922,144608.3,-8.57723,30322.8,7637858.532473498
PART_001_R158G218B229A255,12700,-7634071.0,-251.832,-903.202,143403.6,-19.00435,-86.76374,7637533.428690302
PART_001_R158G218B229A255,12701,-7633965.0,232.4261,-853.4559,144596.1,-37.93208,-30536.83,7637944.964250766
PART_001_R158G218B229A255,12702,-7634270.0,-327.1187,-1005.381,147852.0,-102.2642,-56454.96,7638523.988307274
PART_001_R158G218B229A255,12703,-7634154.0,361.5235,-1083.684,154663.9,-88.77186,-72373.13,7639520.423918161
PART_001_R158G218B229A255,12704,-7634725.0,-695.6463,-1565.675,164987.1,-362.2153,-71034.48,7639932.160733786
PART_001_R158G218B229A255,12705,-7634604.0,534.7869,-2333.676,191992.0,-586.4279,-32853.68,7641156.543332384
PART_003_R247G182B210A255,12706,7316214.0,-430.4116,2278.345,191991.2,572.8592,-32804.73,7323065.278446348
PART_000_R31G119B180A255,12707,7316316.0,693.9468,1457.773,165002.5,338.3635,-70893.55,7321850.466220015
PART_000_R31G119B180A255,12708,7315828.0,-323.9674,1008.11,154680.4,65.67603,-72170.04,7321457.460043298
PART_000_R31G119B180A255,12709,7316013.0,311.3786,875.0151,147865.6,58.83289,-56222.14,7320549.339976905
PART_000_R31G119B180A255,12710,7315847.0,-204.7947,774.879,144597.8,-7.972129,-30282.59,7320035.802932869
PART_000_R31G119B180A255,12711,7316056.0,238.1649,788.2112,143392.8,-34.781,148.5438,7319757.606334172
PART_000_R31G119B180A255,12712,7315993.0,-207.5439,788.3949,144581.4,-39.55646,30545.16,7320178.636565968
PART_000_R31G119B180A255,12713,7316289.0,315.5558,918.3111,147833.4,-115.2643,56478.23,7320805.393636786
PART_000_R31G119B180A255,12714,7316202.0,-336.0139,1023.138,154640.8,-85.57254,72354.88,7321832.633201607
PART_000_R31G119B180A255,12715,7316746.0,668.3021,1489.261,164959.0,-358.7213,71030.48,7322278.207288843
PART_000_R31G119B180A255,12716,7316644.0,-514.7519,2231.673,191956.4,-554.0577,32842.39,7323558.034422096
PART_003_R247G182B210A255,12717,5851861.0,-815.0707,-1180.579,522792.5,-367.7361,-12159.61,5922527.88022362
PART_003_R247G182B210A255,12718,5852715.0,432.3421,291.3593,466140.4,334.8453,-33304.02,5908064.473765823
PART_000_R31G119B180A255,12719,5852731.0,183.8912,658.0127,435125.1,229.0271,-40691.76,5901059.416783256
PART_000_R31G119B180A255,12720,5852634.0,-28.93991,544.5936,417137.2,22.48324,-33627.58,5897093.342793197
PART_000_R31G119B180A255,12721,5852768.0,166.1156,648.1803,407213.4,-1.584835,-18723.84,5894798.361511311
PART_000_R31G119B180A255,12722,5852715.0,-89.87973,564.6364,404167.5,-89.50385,148.9988,5894196.198650553
PART_000_R31G119B180A255,12723,5852905.0,163.2329,647.0238,407166.6,-149.8735,19004.42,5894929.38168007
PART_000_R31G119B180A255,12724,5852892.0,-35.76237,543.4487,417050.5,-166.6699,33881.21,5897339.306637833
PART_000_R31G119B180A255,12725,5853087.0,180.0615,654.2258,435007.2,-316.8534,40888.24,5901394.263553861
PART_000_R31G119B180A255,12726,5853124.0,458.8686,297.2392,466003.0,-398.2008,33431.1,5908423.21675109
PART_002_R214G39B40A255,12727,5852286.0,-720.6376,-1156.033,522642.8,353.621,12207.21,5922849.751071852
PART_003_R247G182B210A255,12728,4389397.0,-357.8962,662.2669,764213.6,45.85378,-6635.281,4584503.265341395
PART_003_R247G182B210A255,12729,4389173.0,-95.7039,-270.6397,701034.5,-404.4313,-16724.91,4554298.562345135
PART_003_R247G182B210A255,12730,4389453.0,371.6219,99.61979,657619.7,115.2384,-21313.16,4534752.81119673
PART_000_R31G119B180A255,12731,4389487.0,128.6746,410.0039,630760.3,-36.537,-18989.16,4523260.9000106305
PART_000_R31G119B180A255,12732,4389478.0,91.37392,329.2723,615936.1,-66.13513,-10781.86,4517095.458181556
PART_000_R31G119B180A255,12733,4389591.0,136.5851,471.7742,611109.8,-133.7337,129.9067,4515108.47519874
PART_000_R31G119B180A255,12734,4389592.0,86.75186,322.9918,615865.7,-170.326,11032.28,4517184.555090678
PART_000_R31G119B180A255,12735,4389705.0,120.1215,398.7783,630627.9,-184.1546,19210.56,4523429.470975581
PART_000_R31G119B180A255,12736,4389753.0,357.7788,87.95184,657445.4,-262.6952,21489.33,4534982.227170255
PART_002_R214G39B40A255,12737,4389530.0,-124.465,-285.6795,700850.5,304.6724,16841.86,4554580.059380408
PART_002_R214G39B40A255,12738,4389772.0,-384.6476,640.5419,764052.0,-59.00401,6673.716,4584804.870547238
PART_003_R247G182B210A255,12739,2925962.0,-324.8046,-372.9451,932987.9,-163.8912,-3066.241,3342861.4821325336
PART_003_R247G182B210A255,12740,2926242.0,-11.3789,200.6619,866017.1,-27.52791,-8469.98,3288238.202109405
PART_003_R247G182B210A255,12741,2926180.0,23.0769,-0.1459721,817751.0,-346.6467,-10841.31,3250994.516977179
PART_003_R247G182B210A255,12742,2926276.0,216.3045,62.41978,785442.1,-53.88396,-9769.249,3226967.592327625
PART_000_R31G119B180A255,12743,2926324.0,82.98396,264.8104,767218.0,-169.378,-5729.982,3213770.902187805
PART_000_R31G119B180A255,12744,2926334.0,106.8319,155.5525,761278.4,-168.1177,95.77675,3209563.4272260135
PART_000_R31G119B180A255,12745,2926406.0,77.65975,258.65,767130.6,-129.5204,5914.972,3213789.201890328
PART_000_R31G119B180A255,12746,2926433.0,206.1229,52.53731,785277.9,-229.562,9933.302,3227000.6966809877
PART_002_R214G39B40A255,12747,2926396.0,13.83644,-9.51664,817526.3,146.0205,10972.21,3251029.051470031
PART_002_R214G39B40A255,12748,2926497.0,4.920103,200.236,865747.2,-124.7765,8556.016,3288245.5272200922
PART_002_R214G39B40A255,12749,2926233.0,-252.4209,-361.1804,932702.5,121.3346,3098.779,3342823.047311791
PART_003_R247G182B210A255,12750,1463051.0,-85.0039,162.789,1032785.0,-18.62168,-1348.56,2310918.5399216916
PART_003_R247G182B210A255,12751,1462997.0,-13.1691,-94.54825,964487.8,-332.4543,-3476.854,2220645.0788457613
PART_003_R247G182B210A255,12752,1463099.0,106.9295,43.35508,913621.4,-80.18823,-4553.563,2155136.4743264527
PART_003_R247G182B210A255,12753,1463106.0,67.65311,61.9583,878987.0,-343.1915,-4137.165,2111491.339427986
PART_003_R247G182B210A255,12754,1463137.0,132.0668,32.0611,858846.4,-137.395,-2411.971,2086479.9733581143
PART_000_R31G119B180A255,12755,1463171.0,74.76435,128.7661,852280.4,-189.5271,49.71092,2078392.9714516976
PART_000_R31G119B180A255,12756,1463180.0,129.3155,29.82654,858748.0,-201.6537,2511.148,2086390.7339715823
PART_002_R214G39B40A255,12757,1463187.0,61.36867,54.70078,878800.9,19.67175,4222.357,2111320.184301592
PART_002_R214G39B40A255,12758,1463213.0,100.705,41.15403,913374.0,-150.7147,4624.377,2154902.5814276496
PART_002_R214G39B40A255,12759,1463134.0,-23.60541,-103.2916,964226.1,164.9832,3522.508,2220400.864637687
PART_002_R214G39B40A255,12760,1463197.0,-84.13246,159.6521,1032556.0,-18.01324,1364.22,2310704.7129322593
PART_003_R247G182B210A255,12761,-75.31,48.9352,-0.6671351,1066035.0,-131.2168,6.304646,1846426.7998440124
PART_003_R247G182B210A255,12762,-60.15092,38.02885,-5.794799,997185.2,-98.92631,15.07597,1727175.441753212
PART_003_R247G182B210A255,12763,-43.99569,29.77035,-13.19586,945692.5,-383.3086,17.31784,1637987.5944166968
PART_003_R247G182B210A255,12764,-28.7204,25.71587,-19.18655,910184.5,-135.8689,15.5776,1576485.816861358
PART_003_R247G182B210A255,12765,-18.7909,23.77778,-23.91882,889582.9,-278.7429,8.06661,1540802.8567152678
PART_003_R247G182B210A255,12766,-14.84033,23.88514,-24.48423,882745.2,-196.5022,0.04088767,1528959.575062271
PART_002_R214G39B40A255,12767,-19.11348,23.74324,-24.2262,889481.3,-74.11402,-9.717087,1540626.810098069
PART_002_R214G39B40A255,12768,-29.53663,25.96419,-18.73071,909993.0,-200.7223,-15.5557,1576154.1499290722
PART_002_R214G39B40A255,12769,-45.06559,29.64525,-13.92422,945429.8,137.5366,-18.53402,1637532.4675219406
PART_002_R214G39B40A255,12770,-62.16094,37.11109,-5.515958,996868.1,-89.2362,-14.84832,1726626.2069086852
PART_002_R214G39B40A255,12771,-77.70102,45.22027,-2.672693,1065705.0,77.85035,-6.021802,1845855.2139542613
PART_003_R247G182B210A255,12772,-1463192.0,172.3654,-163.9382,1032824.0,-18.80568,1358.89,2311087.4128975556
PART_003_R247G182B210A255,12773,-1463106.0,94.99198,85.31519,964521.8,-332.0956,3506.466,2220785.2459739954
PART_003_R247G182B210A255,12774,-1463171.0,-23.60146,-56.95813,913652.2,-79.16027,4588.588,2155248.4119365844
PART_003_R247G182B210A255,12775,-1463145.0,14.80178,-88.05538,879016.5,-342.2788,4169.318,2111574.919954649
PART_003_R247G182B210A255,12776,-1463155.0,-49.55533,-63.41772,858875.2,-136.591,2428.163,2086546.1489504531
PART_001_R158G218B229A255,12777,-1463182.0,6.866972,-164.1312,852309.1,-189.2019,-49.04202,2078452.3106113125
PART_001_R158G218B229A255,12778,-1463198.0,-46.89042,-62.33827,858777.0,-201.6281,-2531.276,2086456.7377226374
PART_002_R214G39B40A255,12779,-1463228.0,21.81021,-78.8259,878830.7,19.24803,-4253.522,2111406.4596106345
PART_002_R214G39B40A255,12780,-1463286.0,-17.87021,-57.72472,913405.7,-151.0695,-4662.394,2155015.198092598
PART_002_R214G39B40A255,12781,-1463244.0,108.8314,98.32842,964260.9,164.4985,-3552.348,2220545.277229408
PART_002_R214G39B40A255,12782,-1463338.0,176.8902,-161.6892,1032596.0,-17.95234,-1376.444,2310876.3737787507
PART_003_R247G182B210A255,12783,-2926067.0,400.6635,371.1239,933058.9,-162.0889,3079.765,3343045.289250951
PART_003_R247G182B210A255,12784,-2926319.0,68.41581,-211.4983,866077.9,-26.31947,8502.726,3288375.575624794
PART_003_R247G182B210A255,12785,-2926224.0,18.403,-27.96941,817806.3,-344.5531,10879.39,3251082.247320582
PART_003_R247G182B210A255,12786,-2926291.0,-181.9496,-100.4157,785493.9,-52.58776,9803.202,3227017.675188606
PART_001_R158G218B229A255,12787,-2926317.0,-52.46799,-315.6084,767269.2,-167.4999,5748.322,3213792.0672759577
PART_001_R158G218B229A255,12788,-2926320.0,-75.28972,-204.1206,761329.2,-168.0213,-95.63298,3209579.052587169
PART_001_R158G218B229A255,12789,-2926400.0,-47.4528,-310.4062,767182.2,-129.0402,-5934.916,3213810.994586482
PART_001_R158G218B229A255,12790,-2926448.0,-170.8484,-89.02846,785330.7,-230.7851,-9967.125,3227052.6054136045
PART_002_R214G39B40A255,12791,-2926442.0,26.71523,-21.06979,817582.1,145.8123,-11011.5,3251117.438057092
PART_002_R214G39B40A255,12792,-2926577.0,50.44756,-209.402,865808.7,-125.8458,-8588.353,3288386.115315406
PART_002_R214G39B40A255,12793,-2926341.0,319.8271,353.4632,932774.0,121.533,-3111.659,3343003.6099701263
PART_003_R247G182B210A255,12794,-4389455.0,396.1732,-686.5122,764298.0,45.13406,6648.862,4584607.790629491
PART_003_R247G182B210A255,12795,-4389202.0,148.8243,282.5891,701103.6,-404.4362,16759.08,4554390.154796073
PART_003_R247G182B210A255,12796,-4389450.0,-328.6002,-137.4308,657682.7,117.9829,21358.14,4534780.470790523
PART_001_R158G218B229A255,12797,-4389448.0,-69.1194,-418.741,630819.4,-35.1923,19023.87,4523272.878224266
PART_001_R158G218B229A255,12798,-4389422.0,-45.79711,-383.9051,615994.6,-63.51816,10806.78,4517060.758382799
PART_001_R158G218B229A255,12799,-4389522.0,-77.75243,-494.4211,611167.6,-133.9197,-133.7469,4515082.462766201
PART_001_R158G218B229A255,12800,-4389537.0,-40.09164,-374.5536,615924.5,-169.592,-11049.24,4517152.910089079
PART_001_R158G218B229A255,12801,-4389665.0,-62.28188,-413.6977,630688.2,-185.9972,-19251.88,4523437.232445489
PART_001_R158G218B229A255,12802,-4389751.0,-311.9646,-117.7026,657509.4,-262.9254,-21529.08,4535016.464021737
PART_002_R214G39B40A255,12803,-4389558.0,178.1923,289.2862,700922.2,303.3824,-16879.87,4554668.196560398
PART_002_R214G39B40A255,12804,-4389830.0,433.8739,-652.2955,764137.6,-58.44726,-6686.981,4584921.205926211
PART_003_R247G182B210A255,12805,-5851868.0,828.9289,1138.389,522867.4,-365.96,12177.89,5922540.744667016
PART_003_R247G182B210A255,12806,-5852697.0,-403.269,-264.7794,466199.0,336.6695,33344.29,5908088.7605695315
PART_001_R158G218B229A255,12807,-5852686.0,-194.8667,-728.4037,435177.5,231.043,40748.2,5900987.20609748
PART_001_R158G218B229A255,12808,-5852549.0,39.35504,-554.9339,417186.3,24.51515,33665.03,5897020.087252555
PART_001_R158G218B229A255,12809,-5852669.0,-183.2161,-738.0163,407262.4,0.102946,18756.78,5894657.465537813
PART_001_R158G218B229A255,12810,-5852597.0,96.83574,-594.3151,404215.8,-89.15238,-157.0026,5894077.6933325585
PART_001_R158G218B229A255,12811,-5852807.0,-178.317,-729.7615,407215.9,-149.7741,-19019.39,5894793.893919512
PART_001_R158G218B229A255,12812,-5852804.0,42.4325,-567.6195,417100.6,-168.1196,-33932.39,5897254.804699098
PART_001_R158G218B229A255,12813,-5853043.0,-185.6732,-705.8098,435060.3,-317.5227,-40932.2,5901334.925630731
PART_001_R158G218B229A255,12814,-5853103.0,-440.6986,-294.571,466062.5,-399.1782,-33478.26,5908427.615914752
PART_002_R214G39B40A255,12815,-5852293.0,733.1483,1133.951,522717.7,353.8673,-12222.13,5922871.859220072
PART_003_R247G182B210A255,12816,-7316189.0,415.4268,-2328.465,192021.2,569.4761,32830.17,7323010.497955409
PART_001_R158G218B229A255,12817,-7316267.0,-670.9399,-1429.785,165025.0,339.5888,70947.95,7321830.08672265
PART_001_R158G218B229A255,12818,-7315746.0,326.9865,-1079.849,154700.7,65.14712,72239.33,7321344.542271837
PART_001_R158G218B229A255,12819,-7315889.0,-274.2108,-877.4165,147884.7,60.94364,56267.95,7320445.013692494
PART_001_R158G218B229A255,12820,-7315706.0,214.4639,-864.1427,144617.1,-8.290946,30321.51,7319856.753813905
PART_001_R158G218B229A255,12821,-7315896.0,-201.7299,-810.3004,143411.4,-33.73599,-157.6257,7319605.964470631
PART_001_R158G218B229A255,12822,-7315852.0,219.5988,-869.663,144600.9,-40.30293,-30562.63,7320004.521632045
PART_001_R158G218B229A255,12823,-7316160.0,-282.9062,-935.7348,147852.7,-115.3911,-56539.45,7320686.681919115
PART_001_R158G218B229A255,12824,-7316119.0,345.4301,-1074.119,154661.9,-86.4225,-72409.47,7321731.900166767
PART_001_R158G218B229A255,12825,-7316690.0,-647.836,-1483.487,164981.9,-359.0081,-71092.98,7322238.734830157
PART_001_R158G218B229A255,12826,-7316617.0,517.7586,-2254.087,191987.8,-553.8745,-32864.65,7323524.145716416
PART_003_R247G182B210A255,12827,6998084.0,-606.5036,2082.466,192008.6,511.0344,-32788.66,7005475.337855276
PART_000_R31G119B180A255,12828,6998165.0,592.0082,1393.141,165008.0,329.6048,-70898.18,7004083.475661205
PART_000_R31G119B180A255,12829,6997678.0,-346.5541,928.6202,154688.9,44.73198,-72130.44,7003629.056372853
PART_000_R31G119B180A255,12830,6997861.0,282.3693,832.4004,147869.7,63.55915,-56201.49,7002665.941523995
PART_000_R31G119B180A255,12831,6997708.0,-223.9883,718.4055,144605.5,-27.51017,-30218.12,7002137.520196961
PART_000_R31G119B180A255,12832,6997944.0,203.0938,735.164,143395.8,-34.49376,193.1957,7001881.316183251
PART_000_R31G119B180A255,12833,6997918.0,-222.1622,751.2049,144581.8,-62.99918,30622.7,7002333.887332948
PART_000_R31G119B180A255,12834,6998258.0,272.9149,859.0584,147827.8,-114.071,56532.84,7003059.393705442
PART_000_R31G119B180A255,12835,6998223.0,-336.559,995.2146,154629.5,-103.8764,72420.42,7004140.361851203
PART_000_R31G119B180A255,12836,6998792.0,624.0031,1405.77,164942.9,-338.5918,71064.44,7004688.0213544285
PART_000_R31G119B180A255,12837,6998726.0,-474.5567,2161.534,191933.0,-544.008,32860.21,7006005.991425761
PART_003_R247G182B210A255,12838,5597391.0,-610.7565,-1064.943,522738.6,-339.41,-12164.78,5671012.046530311
PART_003_R247G182B210A255,12839,5598185.0,488.1614,297.2899,466127.6,341.0702,-33294.0,5656008.222486634
PART_000_R31G119B180A255,12840,5598200.0,205.2596,644.8016,435134.8,207.1324,-40672.69,5648723.268783767
PART_000_R31G119B180A255,12841,5598099.0,-8.05865,526.2959,417156.2,18.81079,-33600.2,5644577.606751504
PART_000_R31G119B180A255,12842,5598243.0,186.0423,635.727,407230.5,-36.67736,-18674.97,5642187.594474863
PART_000_R31G119B180A255,12843,5598214.0,-62.76862,545.1354,404178.5,-108.649,203.3387,5641576.098193253
PART_000_R31G119B180A255,12844,5598437.0,182.4406,635.7012,407166.1,-195.0611,19074.42,5642371.944730039
PART_000_R31G119B180A255,12845,5598470.0,-13.51578,522.8603,417034.6,-189.7276,33947.35,5644929.23073574
PART_000_R31G119B180A255,12846,5598708.0,191.0993,639.6688,434975.7,-349.0455,40952.39,5649205.57279704
PART_000_R31G119B180A255,12847,5598790.0,443.4754,280.4122,465957.7,-391.307,33476.38,5656598.705792608
PART_002_R214G39B40A255,12848,5598021.0,-685.6363,-1102.46,522589.1,321.8603,12224.07,5671648.485534669
PART_003_R247G182B210A255,12849,4198517.0,-475.2301,585.5982,764283.7,16.02301,-6630.07,4402227.056901948
PART_003_R247G182B210A255,12850,4198291.0,-154.2667,-272.7184,701078.0,-389.5079,-16724.45,4370676.223145597
PART_003_R247G182B210A255,12851,4198540.0,331.7632,89.52618,657647.6,88.63549,-21301.31,4350268.012205218
PART_000_R31G119B180A255,12852,4198571.0,105.2525,392.961,630790.0,-45.57853,-18964.39,4338280.051382209
PART_000_R31G119B180A255,12853,4198569.0,64.51824,309.9864,615963.9,-110.2899,-10744.48,4331857.602783841
PART_000_R31G119B180A255,12854,4198700.0,109.2743,450.578,611130.5,-167.8019,179.7621,4329800.555381186
PART_000_R31G119B180A255,12855,4198731.0,57.87748,300.8867,615867.2,-236.1942,11090.33,4331983.623038519
PART_000_R31G119B180A255,12856,4198879.0,91.31291,378.1368,630609.0,-227.4215,19271.54,4338517.174735554
PART_000_R31G119B180A255,12857,4198968.0,319.2809,74.1207,657400.0,-320.0315,21545.2,4350585.896434284
PART_002_R214G39B40A255,12858,4198795.0,-125.3767,-272.6456,700781.3,265.0645,16882.86,4371005.526980221
PART_002_R214G39B40A255,12859,4199055.0,-350.4297,610.1294,763962.9,-85.08324,6690.546,4402502.170156374
PART_003_R247G182B210A255,12860,2798697.0,-216.1952,-329.9646,932900.6,-151.284,-3069.531,3231899.200322672
PART_003_R247G182B210A255,12861,2798961.0,42.65318,213.6678,865992.6,-1.730353,-8465.818,3175454.2738717874
PART_003_R247G182B210A255,12862,2798900.0,43.81078,6.972923,817772.9,-351.4352,-10831.82,3136926.6769519905
PART_003_R247G182B210A255,12863,2798997.0,232.2208,77.38911,785480.7,-64.21257,-9751.691,3112031.9310320816
PART_000_R31G119B180A255,12864,2799046.0,103.0584,263.0537,767252.8,-221.1325,-5702.756,3098348.2836046023
PART_000_R31G119B180A255,12865,2799074.0,129.575,166.123,761303.7,-210.4714,132.0097,3093984.1233963813
PART_000_R31G119B180A255,12866,2799162.0,96.41288,255.0557,767132.3,-215.8711,5956.736,3098371.6077209096
PART_000_R31G119B180A255,12867,2799217.0,220.126,64.282,785252.8,-286.3794,9977.63,3112070.7763291965
PART_002_R214G39B40A255,12868,2799209.0,27.37877,-5.976967,817468.5,49.91284,11012.75,3136979.313519409
PART_002_R214G39B40A255,12869,2799332.0,15.75873,198.9048,865666.6,-156.7124,8586.48,3175533.972747196
PART_002_R214G39B40A255,12870,2799095.0,-230.0066,-350.0371,932609.4,81.25584,3110.128,3232006.563849269
PART_003_R247G182B210A255,12871,1399399.0,-118.0491,151.6057,1032889.0,-46.81946,-1345.069,2271311.328311542
PART_003_R247G182B210A255,12872,1399348.0,-40.58951,-109.0717,964557.6,-318.9623,-3472.439,2179342.752344803
PART_003_R247G182B210A255,12873,1399446.0,91.96187,45.41332,913665.1,-106.2252,-4548.086,2112503.419661875
PART_003_R247G182B210A255,12874,1399450.0,45.76751,44.59865,879033.4,-342.8019,-4124.0,2067966.2403516243
PART_003_R247G182B210A255,12875,1399489.0,112.0019,30.29955,858890.8,-196.8295,-2398.788,2042417.1757079905
PART_000_R31G119B180A255,12876,1399526.0,51.25835,109.6394,852314.8,-237.4759,70.57619,2034150.8282682335
PART_000_R31G119B180A255,12877,1399549.0,107.0274,24.27497,858756.2,-296.2664,2529.999,2042292.7674229029
PART_002_R214G39B40A255,12878,1399565.0,38.31083,40.47163,878779.7,-57.80711,4245.318,2067725.148853822
PART_002_R214G39B40A255,12879,1399605.0,82.75987,34.76501,913315.6,-246.7698,4641.73,2112162.552471813
PART_002_R214G39B40A255,12880,1399538.0,-27.68008,-104.2493,964134.8,111.5859,3536.989,2178898.0169604127
PART_002_R214G39B40A255,12881,1399604.0,-68.33005,153.7906,1032442.0,-59.14903,1369.214,2270811.940594421
PART_003_R247G182B210A255,12882,-113.3406,52.17453,-1.69444,1065946.0,-123.7515,6.981593,1846272.6483969057
PART_003_R247G182B210A255,12883,-87.55823,49.36364,-4.420617,997162.0,-68.79427,18.86442,1727135.2559292098
PART_003_R247G182B210A255,12884,-59.76173,50.18517,-8.843242,945725.2,-388.8621,23.72065,1638044.2381562865
PART_003_R247G182B210A255,12885,-37.5502,50.38482,-14.75151,910235.5,-145.3463,19.27038,1576574.1552870192
PART_003_R247G182B210A255,12886,-22.5247,50.88173,-18.00139,889630.3,-333.71,11.52533,1540884.9897369975
PART_003_R247G182B210A255,12887,-18.25107,50.19788,-20.79043,882781.2,-246.8935,-1.198757,1529021.9517584944
PART_002_R214G39B40A255,12888,-23.1224,51.02237,-17.68481,889490.3,-177.7712,-11.64245,1540642.425003464
PART_002_R214G39B40A255,12889,-38.5432,50.18432,-15.47205,909970.4,-273.291,-21.42497,1576115.0397186382
PART_002_R214G39B40A255,12890,-61.34431,50.26866,-8.028486,945369.2,24.13829,-23.97951,1637427.490226128
PART_002_R214G39B40A255,12891,-88.88848,49.93907,-5.044225,996782.1,-133.5995,-20.59282,1726477.2613976
PART_002_R214G39B40A255,12892,-114.8996,55.86856,0.7457235,1065607.0,32.39608,-8.029917,1845685.4719794549
PART_003_R247G182B210A255,12893,-1399609.0,222.1279,-156.0305,1032940.0,-45.49485,1363.571,2271541.03787031
PART_003_R247G182B210A255,12894,-1399508.0,120.0938,97.33896,964602.3,-316.9723,3512.842,2179526.7986986553
PART_003_R247G182B210A255,12895,-1399556.0,-32.11806,-79.48973,913706.3,-104.5021,4597.24,2112638.597860263
PART_003_R247G182B210A255,12896,-1399517.0,6.633244,-88.93317,879072.7,-341.0691,4162.954,2068064.6597446536
PART_003_R247G182B210A255,12897,-1399528.0,-63.43133,-87.04426,858929.8,-195.6695,2423.085,2042490.3835582465
PART_001_R158G218B229A255,12898,-1399554.0,-2.345433,-167.8543,852353.7,-236.8774,-73.51322,2034215.7941678937
PART_001_R158G218B229A255,12899,-1399589.0,-58.13326,-79.60504,858795.3,-296.5001,-2552.81,2042367.379576962
PART_002_R214G39B40A255,12900,-1399634.0,13.29666,-87.88363,878819.7,-58.43279,-4289.414,2067824.5455914668
PART_002_R214G39B40A255,12901,-1399719.0,-22.02954,-64.90548,913357.2,-247.9598,-4690.039,2112302.51049775
PART_002_R214G39B40A255,12902,-1399702.0,102.6537,86.77721,964180.0,110.8025,-3579.354,2179082.03933317
PART_002_R214G39B40A255,12903,-1399820.0,164.4401,-156.2931,1032493.0,-59.83083,-1385.747,2271043.5202067136
PART_003_R247G182B210A255,12904,-2798862.0,295.6625,325.9626,932991.8,-152.5147,3085.242,3232153.795497078
PART_003_R247G182B210A255,12905,-2799076.0,34.8966,-222.8003,866070.6,0.5217666,8507.358,3175649.938775692
PART_003_R247G182B210A255,12906,-2798961.0,36.96096,-24.28137,817844.2,-348.9461,10883.57,3137065.7149717095
PART_003_R247G182B210A255,12907,-2799011.0,-149.8162,-107.7856,785549.8,-60.60831,9793.986,3112120.6287850263
PART_001_R158G218B229A255,12908,-2799031.0,-19.54951,-297.6851,767320.3,-219.6962,5728.069,3098407.1033567037
PART_001_R158G218B229A255,12909,-2799049.0,-47.65363,-209.3695,761371.6,-208.7211,-133.3591,3094029.127869089
PART_001_R158G218B229A255,12910,-2799147.0,-12.24243,-288.4961,767200.5,-216.9867,-5981.596,3098431.780340743
PART_001_R158G218B229A255,12911,-2799233.0,-138.7762,-97.36879,785322.6,-286.8939,-10022.4,3112160.138763611
PART_002_R214G39B40A255,12912,-2799271.0,54.70043,-8.054802,817541.6,47.29594,-11064.58,3137122.69339063
PART_002_R214G39B40A255,12913,-2799448.0,62.91599,-211.2505,865746.5,-157.582,-8630.305,3175731.166142542
PART_002_R214G39B40A255,12914,-2799261.0,319.0762,353.82,932702.1,80.05468,-3127.516,3232270.8515286674
PART_003_R247G182B210A255,12915,-4198611.0,545.2913,-561.1356,764394.7,18.65062,6650.682,4402419.697324173
PART_003_R247G182B210A255,12916,-4198342.0,187.1705,232.7576,701173.8,-385.0358,16774.46,4370768.500171183
PART_003_R247G182B210A255,12917,-4198538.0,-297.1396,-96.06856,657732.3,91.14872,21355.94,4350318.849906482
PART_001_R158G218B229A255,12918,-4198529.0,-96.49104,-464.3005,630872.1,-40.74456,19016.65,4338245.632507368
PART_001_R158G218B229A255,12919,-4198491.0,-40.19237,-343.3164,616044.3,-109.0792,10767.18,4331812.114522322
PART_001_R158G218B229A255,12920,-4198618.0,-101.8935,-530.6833,611211.4,-165.2786,-174.13,4329720.04856015
PART_001_R158G218B229A255,12921,-4198652.0,-34.90119,-338.76,615948.5,-237.9492,-11123.1,4331934.770034243
PART_001_R158G218B229A255,12922,-4198838.0,-79.92507,-441.3688,630692.0,-227.7411,-19314.43,4338489.181899636
PART_001_R158G218B229A255,12923,-4198964.0,-288.315,-92.32903,657486.8,-323.2931,-21606.91,4350628.459602682
PART_002_R214G39B40A255,12924,-4198848.0,158.0375,244.4017,700877.1,264.4886,-16927.8,4371105.162682758
PART_002_R214G39B40A255,12925,-4199151.0,406.2521,-602.7221,764075.8,-86.65059,-6711.489,4402682.764632438
PART_003_R247G182B210A255,12926,-5597409.0,650.2413,1112.951,522837.4,-341.5275,12185.02,5671100.455299069
PART_003_R247G182B210A255,12927,-5598164.0,-478.7687,-360.6864,466206.0,341.9272,33354.78,5655981.172909041
PART_001_R158G218B229A255,12928,-5598118.0,-150.4691,-617.1443,435204.9,210.3703,40733.39,5648700.375934362
PART_001_R158G218B229A255,12929,-5597979.0,32.66468,-606.7433,417224.8,22.06712,33665.57,5644447.29870708
PART_001_R158G218B229A255,12930,-5598079.0,-127.6834,-635.6917,407297.1,-34.63021,18696.15,5642068.487712793
PART_001_R158G218B229A255,12931,-5598053.0,90.71971,-627.9615,404246.2,-107.2582,-190.369,5641403.677827559
PART_001_R158G218B229A255,12932,-5598271.0,-126.8522,-645.8602,407233.4,-196.0592,-19116.65,5642244.789778693
PART_001_R158G218B229A255,12933,-5598350.0,43.63724,-584.117,417104.0,-190.6284,-33990.72,5644810.958112384
PART_001_R158G218B229A255,12934,-5598620.0,-144.0529,-639.1337,435047.9,-351.8563,-41028.21,5649160.275364011
PART_001_R158G218B229A255,12935,-5598767.0,-419.2244,-310.2287,466038.3,-392.009,-33526.42,5656593.996302728
PART_002_R214G39B40A255,12936,-5598035.0,725.1539,1120.579,522690.5,321.1183,-12248.82,5671718.945262442
PART_003_R247G182B210A255,12937,-6998042.0,638.9343,-2029.097,192052.3,516.7212,32821.41,7005480.285633908
PART_001_R158G218B229A255,12938,-6998085.0,-609.6328,-1468.328,165039.8,329.2425,70979.58,7003961.92077764
PART_001_R158G218B229A255,12939,-6997536.0,352.4512,-917.3425,154717.8,48.4426,72207.38,7003500.055706126
PART_001_R158G218B229A255,12940,-6997677.0,-319.6965,-942.0353,147897.7,63.08202,56279.07,7002412.305434251
PART_001_R158G218B229A255,12941,-6997481.0,220.9519,-740.055,144632.5,-25.10315,30243.81,7001900.344727038
PART_001_R158G218B229A255,12942,-6997717.0,-239.3193,-847.6987,143423.8,-35.23419,-177.7041,7001581.849727043
PART_001_R158G218B229A255,12943,-6997687.0,215.8137,-783.8623,144608.9,-62.39561,-30671.77,7002085.877781802
PART_001_R158G218B229A255,12944,-6998074.0,-303.888,-947.4919,147856.6,-115.2105,-56584.28,7002818.951467438
PART_001_R158G218B229A255,12945,-6998073.0,333.6476,-1012.637,154658.5,-104.5668,-72513.55,7003985.151542663
PART_001_R158G218B229A255,12946,-6998710.0,-637.5676,-1449.311,164975.4,-339.0805,-71132.4,7004581.94588842
PART_001_R158G218B229A255,12947,-6998678.0,483.0318,-2146.891,191976.2,-544.4914,-32896.44,7005973.652047884
PART_003_R247G182B210A255,12948,6679949.0,-310.0762,2118.504,191977.6,541.8078,-32800.14,6687558.471008336
PART_000_R31G119B180A255,12949,6679987.0,660.2998,1322.362,165007.7,307.8053,-70857.84,6686234.282799243
PART_000_R31G119B180A255,12950,6679509.0,-284.7182,912.4363,154691.7,64.82101,-72120.6,6685734.180130055
PART_000_R31G119B180A255,12951,6679668.0,287.9291,769.9275,147883.3,38.39981,-56131.12,6684755.74998287
PART_000_R31G119B180A255,12952,6679549.0,-178.6216,679.1148,144613.8,-21.06537,-30172.46,6684198.005427766
PART_000_R31G119B180A255,12953,6679803.0,224.5379,696.3094,143404.8,-64.43916,292.3008,6683959.342929439
PART_000_R31G119B180A255,12954,6679846.0,-183.7239,702.3261,144582.9,-65.02733,30695.11,6684490.876938338
PART_000_R31G119B180A255,12955,6680237.0,295.8456,845.645,147822.2,-144.3704,56635.94,6685291.2173631955
PART_000_R31G119B180A255,12956,6680288.0,-305.0055,938.7667,154615.4,-101.3178,72490.2,6686516.103329188
PART_000_R31G119B180A255,12957,6680902.0,612.8632,1377.735,164921.1,-347.6269,71129.86,6687146.597216204
PART_000_R31G119B180A255,12958,6680896.0,-471.8173,2030.623,191905.9,-504.0272,32876.85,6688623.886530543
PART_003_R247G182B210A255,12959,5342927.0,-812.9955,-1104.809,522797.2,-338.7051,-12156.69,5420102.49318358
PART_003_R247G182B210A255,12960,5343660.0,366.0014,261.5539,466161.6,299.4375,-33294.22,5404312.588689919
PART_000_R31G119B180A255,12961,5343632.0,158.7784,597.5077,435162.3,204.5464,-40655.5,5396611.838992676
PART_000_R31G119B180A255,12962,5343534.0,-31.14747,497.7518,417185.0,-11.99366,-33557.15,5392250.993540614
PART_000_R31G119B180A255,12963,5343676.0,144.0494,585.3615,407261.8,-49.54104,-18620.01,5389768.304800378
PART_000_R31G119B180A255,12964,5343688.0,-88.37367,513.092,404201.4,-164.1349,285.9295,5389143.608857667
PART_000_R31G119B180A255,12965,5343951.0,139.2814,583.2413,407173.7,-225.991,19161.1,5390030.083888343
PART_000_R31G119B180A255,12966,5344054.0,-43.72576,494.3134,417020.8,-254.436,34045.56,5392745.311590944
PART_000_R31G119B180A255,12967,5344357.0,150.546,590.3646,434937.8,-366.4767,41037.33,5397291.690736898
PART_000_R31G119B180A255,12968,5344508.0,412.9806,270.6825,465896.2,-421.1248,33541.79,5405059.25460424
PART_002_R214G39B40A255,12969,5343834.0,-636.5054,-1056.706,522502.7,310.6836,12250.19,5420801.473484525
PART_003_R247G182B210A255,12970,4007625.0,-270.9415,627.1665,764181.4,59.58251,-6638.897,4220388.967015974
PART_003_R247G182B210A255,12971,4007383.0,-65.89928,-235.9221,701051.4,-364.6333,-16719.72,4187551.3500517164
PART_003_R247G182B210A255,12972,4007611.0,344.6191,104.0451,657675.8,97.96993,-21288.79,4166307.7166382927
PART_000_R31G119B180A255,12973,4007631.0,122.2456,386.5066,630834.6,-80.85751,-18935.3,4153793.446020051
PART_000_R31G119B180A255,12974,4007641.0,90.94864,314.6583,616011.1,-135.2991,-10695.58,4147084.9043302583
PART_000_R31G119B180A255,12975,4007790.0,130.0987,440.0405,611162.7,-243.6076,245.8316,4144955.4564766595
PART_000_R31G119B180A255,12976,4007866.0,82.6095,303.1846,615879.4,-292.1772,11169.51,4147256.9937966783
PART_000_R31G119B180A255,12977,4008064.0,107.3955,366.6014,630584.9,-324.0249,19355.65,4154120.0646593305
PART_000_R31G119B180A255,12978,4008213.0,320.9587,82.88684,657342.3,-367.2752,21624.04,4166755.6609196435
PART_002_R214G39B40A255,12979,4008109.0,-118.0993,-262.7151,700690.6,177.8666,16943.37,4188105.470555953
PART_002_R214G39B40A255,12980,4008404.0,-325.4646,584.9659,763853.6,-81.04692,6712.336,4220996.947692986
PART_003_R247G182B210A255,12981,2671439.0,-331.234,-350.0586,933015.1,-147.7785,-3065.604,3122496.800387771
PART_003_R247G182B210A255,12982,2671677.0,-29.60281,180.5189,866064.9,-33.29805,-8466.904,3063963.9576604078
PART_003_R247G182B210A255,12983,2671604.0,15.47326,8.999401,817825.1,-327.9198,-10824.16,3023949.080957131
PART_003_R247G182B210A255,12984,2671685.0,191.4329,63.93891,785536.8,-108.3327,-9730.507,2998117.204289319
PART_000_R31G119B180A255,12985,2671744.0,71.37689,251.8074,767315.0,-247.1022,-5668.148,2983917.907874719
PART_000_R31G119B180A255,12986,2671785.0,90.52374,146.4817,761348.5,-304.9967,179.4948,2979388.673221021
PART_000_R31G119B180A255,12987,2671904.0,62.0102,240.7369,767151.6,-289.9046,6014.433,2983946.317445162
PART_000_R31G119B180A255,12988,2671993.0,173.1867,46.63517,785228.6,-408.4569,10038.8,2998168.4324674476
PART_002_R214G39B40A255,12989,2672034.0,-2.560194,-8.277418,817400.8,-34.67085,11070.51,3024003.0640494935
PART_002_R214G39B40A255,12990,2672192.0,-1.198698,180.6695,865549.8,-250.1805,8629.795,3063965.325191904
PART_002_R214G39B40A255,12991,2671999.0,-200.8015,-327.5858,932459.6,70.16123,3127.417,3122412.955082614
PART_003_R247G182B210A255,12992,1335735.0,-56.6989,150.5905,1032760.0,1.843058,-1348.308,2232453.295586009
PART_003_R247G182B210A255,12993,1335689.0,1.786068,-76.2942,964520.1,-300.4047,-3471.567,2138947.901737411
PART_003_R247G182B210A255,12994,1335783.0,102.8533,40.63773,913706.4,-83.20836,-4539.241,2070933.2556510163
PART_003_R247G182B210A255,12995,1335795.0,71.74488,66.36495,879097.7,-379.0142,-4114.499,2025500.7571196186
PART_003_R247G182B210A255,12996,1335833.0,129.3791,32.18757,858958.8,-228.7495,-2376.892,1999420.3553850718
PART_000_R31G119B180A255,12997,1335884.0,78.69967,124.4574,852363.3,-342.6736,92.25519,1990950.6880971577
PART_000_R31G119B180A255,12998,1335916.0,124.449,28.62161,858775.6,-378.3859,2561.904,1999243.3056968965
PART_002_R214G39B40A255,12999,1335954.0,60.11018,52.84041,878748.8,-209.0298,4272.942,2025160.6015912124
PART_002_R214G39B40A255,13000,1336007.0,92.01341,37.95999,913236.3,-332.8984,4671.832,2070460.9376926674
PART_002_R214G39B40A255,13001,1335961.0,-18.77328,-93.60808,964011.3,-8.315532,3556.566,2138441.7797238054
PART_002_R214G39B40A255,13002,1336030.0,-58.32968,145.2526,1032298.0,-64.40528,1377.356,2231990.8710452137
PART_003_R247G182B210A255,13003,-160.6058,54.7071,-1.249489,1066083.0,-115.3575,11.7689,1846509.942146857
PART_003_R247G182B210A255,13004,-122.0314,38.82737,-8.445755,997254.9,-97.70536,26.42285,1727296.169729308
PART_003_R247G182B210A255,13005,-86.75166,28.86477,-18.41876,945790.2,-362.1913,28.7569,1638156.8036707444
PART_003_R247G182B210A255,13006,-57.16548,25.50089,-25.2457,910307.0,-190.4502,24.97264,1576698.0112391983
PART_003_R247G182B210A255,13007,-38.98944,24.07409,-31.18163,889708.4,-361.2359,12.4688,1541020.2810403898
PART_003_R247G182B210A255,13008,-31.96536,24.94207,-30.96383,882840.3,-354.7896,-0.2166243,1529124.3790881943
PART_002_R214G39B40A255,13009,-39.69369,23.74479,-31.6909,889519.2,-270.1178,-15.74753,1540692.5211480558
PART_002_R214G39B40A255,13010,-58.77641,25.34994,-24.48682,909948.3,-419.8667,-25.43479,1576076.8579583785
PART_002_R214G39B40A255,13011,-89.05765,28.03465,-19.58651,945296.2,-79.61367,-31.2086,1637301.056477571
PART_002_R214G39B40A255,13012,-125.5813,36.92275,-7.450571,996652.0,-249.0749,-26.03091,1726251.9620917034
PART_002_R214G39B40A255,13013,-164.2295,47.45513,-4.232547,1065442.0,19.474,-10.88582,1845399.6868228097
PART_003_R247G182B210A255,13014,-1336036.0,152.6396,-150.6415,1032821.0,1.808748,1365.926,2232746.7799124527
PART_003_R247G182B210A255,13015,-1335911.0,89.13582,63.29594,964573.0,-298.4277,3522.57,2139182.682979193
PART_003_R247G182B210A255,13016,-1335928.0,-4.80565,-55.99363,913755.5,-79.99729,4597.105,2071118.8187246418
PART_003_R247G182B210A255,13017,-1335879.0,28.54415,-98.27826,879146.2,-376.3337,4166.313,2025642.1653103107
PART_003_R247G182B210A255,13018,-1335878.0,-25.79392,-67.54725,859006.8,-226.8433,2401.518,1999535.157363489
PART_001_R158G218B229A255,13019,-1335917.0,24.16738,-165.1254,852411.5,-341.9485,-91.30152,1991055.6060306015
PART_001_R158G218B229A255,13020,-1335962.0,-21.56361,-66.20018,858824.1,-378.6781,-2594.683,1999358.4849468276
PART_002_R214G39B40A255,13021,-1336041.0,40.64517,-80.8352,878797.7,-210.5949,-4323.439,2025305.9698786044
PART_002_R214G39B40A255,13022,-1336155.0,3.128865,-59.23158,913286.8,-334.784,-4735.914,2070647.5281547275
PART_002_R214G39B40A255,13023,-1336188.0,112.3475,87.88531,964065.2,-10.64196,-3608.772,2138684.2053218
PART_002_R214G39B40A255,13024,-1336336.0,159.4737,-148.9142,1032359.0,-64.9262,-1399.503,2232287.904909751
PART_003_R247G182B210A255,13025,-2671680.0,420.5873,350.0575,933125.8,-142.4407,3090.571,3122840.54708782
PART_003_R247G182B210A255,13026,-2671843.0,89.91229,-197.5917,866162.1,-28.23772,8524.269,3064210.456442419
PART_003_R247G182B210A255,13027,-2671696.0,26.97151,-43.1106,817915.9,-321.7523,10886.56,3024108.3846285185
PART_003_R247G182B210A255,13028,-2671719.0,-157.4292,-111.4365,785624.0,-104.5483,9785.035,2998210.563431035
PART_001_R158G218B229A255,13029,-2671738.0,-39.43692,-311.1162,767402.5,-242.8117,5695.849,2983967.951672769
PART_001_R158G218B229A255,13030,-2671767.0,-57.22383,-202.9711,761435.8,-304.7144,-179.0464,2979429.0664838566
PART_001_R158G218B229A255,13031,-2671899.0,-31.16034,-302.1928,767239.6,-289.4058,-6046.415,2983996.213678781
PART_001_R158G218B229A255,13032,-2672029.0,-138.0944,-90.62773,785317.3,-411.9478,-10092.8,2998266.7872324716
PART_002_R214G39B40A255,13033,-2672129.0,42.16856,-31.24579,817492.4,-36.99053,-11136.09,3024162.0488233096
PART_002_R214G39B40A255,13034,-2672362.0,58.96037,-192.6025,865648.0,-254.5656,-8685.998,3064217.271119797
PART_002_R214G39B40A255,13035,-2672245.0,274.8003,317.0713,932571.5,69.47344,-3150.679,3122750.975905344
PART_003_R247G182B210A255,13036,-4007776.0,313.0054,-663.549,764320.9,58.849,6662.417,4220610.95106312
PART_003_R247G182B210A255,13037,-4007454.0,133.0652,259.4023,701165.9,-362.6554,16778.07,4187720.8803203744
PART_003_R247G182B210A255,13038,-4007609.0,-291.2433,-152.7414,657783.1,105.6486,21362.68,4166359.9927492053
PART_001_R158G218B229A255,13039,-4007560.0,-41.01672,-381.1568,630937.8,-77.26344,18988.98,4153814.47390432
PART_001_R158G218B229A255,13040,-4007537.0,-30.51796,-375.2384,616114.6,-129.424,10734.9,4147030.771348608
PART_001_R158G218B229A255,13041,-4007664.0,-48.57299,-448.7408,611265.9,-243.9707,-252.8862,4144914.5014320742
PART_001_R158G218B229A255,13042,-4007763.0,-20.30545,-357.8677,615983.4,-290.9324,-11194.34,4147207.6868564887
PART_001_R158G218B229A255,13043,-4007990.0,-29.95605,-373.0666,630690.2,-328.6297,-19421.49,4154131.792588133
PART_001_R158G218B229A255,13044,-4008212.0,-263.206,-116.1473,657451.2,-369.5124,-21688.45,4166819.0239131334
PART_002_R214G39B40A255,13045,-4008178.0,183.4851,269.0654,700809.7,172.7585,-17009.05,4188266.4145276076
PART_002_R214G39B40A255,13046,-4008555.0,383.9903,-598.4134,763993.4,-81.14315,-6736.017,4221237.766796116
PART_003_R247G182B210A255,13047,-5342966.0,825.9765,1035.75,522925.5,-333.0338,12189.73,5420150.64873612
PART_003_R247G182B210A255,13048,-5343622.0,-324.4076,-208.7734,466264.2,305.1403,33361.53,5404349.4714211365
PART_001_R158G218B229A255,13049,-5343529.0,-181.3858,-694.8283,435256.7,209.7257,40748.14,5396475.42729718
PART_001_R158G218B229A255,13050,-5343355.0,45.45867,-484.0552,417275.1,-7.405988,33612.32,5392109.441490945
PART_001_R158G218B229A255,13051,-5343472.0,-173.0571,-691.693,407353.0,-45.94606,18673.02,5389520.209323935
PART_001_R158G218B229A255,13052,-5343450.0,97.71404,-520.9528,404291.5,-163.3386,-300.7806,5388928.639493595
PART_001_R158G218B229A255,13053,-5343746.0,-164.3173,-675.4973,407265.5,-225.6808,-19179.69,5389789.719989
PART_001_R158G218B229A255,13054,-5343869.0,50.16187,-508.0599,417112.8,-257.7488,-34126.32,5392581.247271543
PART_001_R158G218B229A255,13055,-5344253.0,-162.1241,-649.8409,435033.3,-368.6071,-41105.79,5397178.198531083
PART_001_R158G218B229A255,13056,-5344465.0,-392.2277,-265.7146,466000.2,-424.8454,-33622.15,5405057.849315736
PART_002_R214G39B40A255,13057,-5343872.0,651.4671,1031.461,522631.6,310.394,-12276.16,5420871.322065844
PART_003_R247G182B210A255,13058,-6679888.0,284.0541,-2195.988,192032.1,533.3378,32844.48,6687451.220778832
PART_001_R158G218B229A255,13059,-6679850.0,-626.7419,-1268.119,165048.0,311.282,70948.96,6686147.165927604
PART_001_R158G218B229A255,13060,-6679297.0,287.5119,-1004.733,154730.1,63.47058,72231.73,6685483.958141817
PART_001_R158G218B229A255,13061,-6679381.0,-231.6125,-737.277,147919.4,43.16715,56198.3,6684517.528329978
PART_001_R158G218B229A255,13062,-6679230.0,191.7014,-773.7522,144651.5,-21.90757,30233.82,6683841.780586846
PART_001_R158G218B229A255,13063,-6679454.0,-170.2546,-682.7124,143440.4,-62.23329,-308.5198,6683646.796873151
PART_001_R158G218B229A255,13064,-6679527.0,201.4253,-781.4201,144621.1,-66.32044,-30715.42,6684144.2065052735
PART_001_R158G218B229A255,13065,-6679940.0,-248.3365,-841.9814,147858.7,-144.8314,-56730.57,6685024.86368593
PART_001_R158G218B229A255,13066,-6680073.0,319.8886,-990.5921,154655.3,-102.9598,-72573.13,6686288.337509729
PART_001_R158G218B229A255,13067,-6680752.0,-585.6538,-1367.568,164962.4,-349.0609,-71235.33,6687021.853550417
PART_001_R158G218B229A255,13068,-6680829.0,477.5332,-2054.026,191962.6,-503.5472,-32915.27,6688553.595615721
PART_003_R247G182B210A255,13069,6361815.0,-664.4048,1835.335,192008.8,440.956,-32772.26,6370170.379702869
PART_000_R31G119B180A255,13070,6361798.0,500.3429,1253.311,165017.3,306.2815,-70871.12,6368522.5249856515
PART_000_R31G119B180A255,13071,6361286.0,-330.2608,797.4825,154710.8,29.84179,-72049.85,6367917.107783457
PART_000_R31G119B180A255,13072,6361437.0,251.2766,702.9721,147896.0,55.56755,-56092.45,6366857.1109459605
PART_000_R31G119B180A255,13073,6361327.0,-214.7082,579.8751,144635.2,-55.48347,-30054.62,6366288.293405319
PART_000_R31G119B180A255,13074,6361636.0,174.7317,594.642,143417.6,-60.96422,375.9478,6366099.642671761
PART_000_R31G119B180A255,13075,6361748.0,-211.0586,635.7867,144591.2,-109.9471,30834.96,6366687.400148841
PART_000_R31G119B180A255,13076,6362235.0,233.982,747.1822,147818.4,-144.8182,56738.25,6367652.693442415
PART_000_R31G119B180A255,13077,6362394.0,-314.5074,911.9953,154599.1,-140.8621,72611.49,6368969.866894838
PART_000_R31G119B180A255,13078,6363097.0,557.9216,1274.744,164893.8,-322.9196,71198.11,6369781.86037312
PART_000_R31G119B180A255,13079,6363185.0,-415.281,1981.634,191862.0,-508.1507,32912.05,6371329.903361328
PART_003_R247G182B210A255,13080,5088459.0,-462.6366,-930.6524,522697.7,-293.4732,-12171.28,5169099.406427704
PART_003_R247G182B210A255,13081,5089089.0,471.4095,275.269,466145.8,333.1422,-33283.71,5152691.197267096
PART_000_R31G119B180A255,13082,5089041.0,189.5906,585.3534,435191.6,180.9408,-40629.37,5144659.596802123
PART_000_R31G119B180A255,13083,5088917.0,-6.807748,462.5326,417234.8,-5.83044,-33511.55,5140075.973282808
PART_000_R31G119B180A255,13084,5089075.0,175.1216,561.9606,407311.2,-105.5567,-18535.27,5137477.151301869
PART_000_R31G119B180A255,13085,5089123.0,-54.22135,469.2781,404242.6,-193.2106,383.9953,5136856.789535359
PART_000_R31G119B180A255,13086,5089454.0,168.4942,560.712,407192.5,-312.4605,19287.36,5137836.55840149
PART_000_R31G119B180A255,13087,5089649.0,-15.5203,456.3307,417009.4,-300.3885,34169.22,5140766.186581674
PART_000_R31G119B180A255,13088,5090050.0,166.5537,574.3348,434891.5,-442.2328,41159.02,5145611.016851348
PART_000_R31G119B180A255,13089,5090308.0,391.7668,245.7706,465818.1,-423.8193,33632.41,5153866.883561757
PART_002_R214G39B40A255,13090,5089759.0,-607.8618,-1004.017,522400.4,260.8148,12284.58,5170397.566000474
PART_003_R247G182B210A255,13091,3816747.0,-513.9336,504.7271,764296.9,4.614412,-6632.8,4039823.611914744
PART_003_R247G182B210A255,13092,3816478.0,-184.6937,-250.3073,701125.6,-340.1238,-16728.92,4005338.4108009627
PART_003_R247G182B210A255,13093,3816644.0,279.4376,83.2955,657733.5,68.68358,-21276.72,3983037.1882565734
PART_000_R31G119B180A255,13094,3816647.0,78.49326,360.8919,630908.0,-79.17816,-18898.49,3969927.410369766
PART_000_R31G119B180A255,13095,3816661.0,40.48311,277.7058,616086.0,-205.0976,-10632.88,3962917.1094067725
PART_000_R31G119B180A255,13096,3816842.0,81.77577,404.2601,611229.1,-296.754,333.311,3960710.9845878184
PART_000_R31G119B180A255,13097,3816973.0,29.32799,261.8178,615908.2,-415.3803,11275.14,3963153.073663667
PART_000_R31G119B180A255,13098,3817246.0,53.83443,334.0496,630573.9,-405.4308,19469.64,3970377.1226558755
PART_000_R31G119B180A255,13099,3817483.0,255.3326,55.92734,657273.2,-488.6713,21732.44,3983645.324493723
PART_002_R214G39B40A255,13100,3817481.0,-135.2501,-250.7564,700568.3,115.3872,17025.84,4005982.065813271
PART_002_R214G39B40A255,13101,3817843.0,-288.198,552.9319,763681.8,-137.7712,6747.119,4040381.3323829337
PART_003_R247G182B210A255,13102,2544176.0,-161.8384,-283.7992,932846.7,-121.7439,-3076.592,3014067.467408297
PART_003_R247G182B210A255,13103,2544377.0,43.7657,210.3352,866023.4,34.88182,-8469.755,2953542.3864465547
PART_003_R247G182B210A255,13104,2544287.0,26.76729,15.12598,817876.4,-330.6485,-10816.64,2912113.750272471
PART_003_R247G182B210A255,13105,2544361.0,204.0864,85.63135,785626.7,-104.0105,-9707.656,2885298.3323658146
PART_000_R31G119B180A255,13106,2544415.0,87.67598,247.5071,767403.9,-331.1639,-5623.886,2870542.865924555
PART_000_R31G119B180A255,13107,2544487.0,113.0175,160.462,761425.8,-369.8354,242.1362,2865837.8498205175
PART_000_R31G119B180A255,13108,2544637.0,76.0062,233.7353,767183.4,-447.8301,6091.037,2870577.004068824
PART_000_R31G119B180A255,13109,2544785.0,182.8655,62.28852,785207.1,-514.3857,10123.08,2885353.6441096226
PART_002_R214G39B40A255,13110,2544885.0,-0.8544493,-6.503483,817307.6,-213.7721,11150.74,2912182.4602023936
PART_002_R214G39B40A255,13111,2545105.0,-5.273721,183.2067,865401.7,-314.4162,8692.369,2953657.7176387548
PART_002_R214G39B40A255,13112,2544970.0,-193.6376,-321.1891,932272.7,-7.186486,3151.336,3014234.4886018625
PART_003_R247G182B210A255,13113,1272075.0,-144.7805,136.8628,1032915.0,-49.42531,-1344.033,2195206.267146395
PART_003_R247G182B210A255,13114,1272025.0,-71.62178,-107.5957,964625.0,-265.6565,-3469.76,2099956.2090764693
PART_003_R247G182B210A255,13115,1272108.0,62.04039,49.97102,913782.1,-110.3864,-4538.002,2030559.3495592037
PART_003_R247G182B210A255,13116,1272108.0,18.24999,38.64603,879196.6,-360.6209,-4097.287,1984237.1644242378
PART_003_R247G182B210A255,13117,1272157.0,83.83879,33.98722,859062.6,-323.0699,-2358.317,1957604.7085804124
PART_000_R31G119B180A255,13118,1272211.0,25.3833,97.15323,852454.1,-415.988,129.0808,1948948.3037681275
PART_000_R31G119B180A255,13119,1272271.0,74.82397,22.9687,858816.1,-552.8764,2597.135,1957361.8766788426
PART_002_R214G39B40A255,13120,1272328.0,4.988598,32.63454,878730.8,-342.7576,4319.675,1983766.735120268
PART_002_R214G39B40A255,13121,1272416.0,43.66054,29.65948,913136.8,-522.8288,4709.091,2029894.8194887172
PART_002_R214G39B40A255,13122,1272397.0,-49.62238,-96.32668,963836.5,-101.225,3589.054,2099085.731593268
PART_002_R214G39B40A255,13123,1272486.0,-59.27408,140.1227,1032063.0,-149.299,1388.939,2194216.4285103176
PART_003_R247G182B210A255,13124,-214.2398,32.23028,-1.793047,1065897.0,-96.77133,10.21789,1846187.7818233015
PART_003_R247G182B210A255,13125,-159.4769,33.38568,-4.27805,997201.2,-20.28467,28.35673,1727203.153899866
PART_003_R247G182B210A255,13126,-107.9144,39.65361,-7.724745,945849.0,-362.3584,34.56776,1638258.650802161
PART_003_R247G182B210A255,13127,-69.49911,43.82297,-13.18647,910409.4,-182.5242,26.65302,1576875.3719089604
PART_003_R247G182B210A255,13128,-45.0374,47.4905,-14.22879,889812.3,-451.058,15.44105,1541200.3132068957
PART_003_R247G182B210A255,13129,-38.53122,47.00193,-17.74528,882930.4,-432.1203,-2.315103,1529280.4974570584
PART_002_R214G39B40A255,13130,-46.13692,47.22777,-13.69367,889556.7,-455.9868,-16.40415,1540757.6054864437
PART_002_R214G39B40A255,13131,-71.47376,42.5722,-14.28745,909923.0,-552.5525,-30.81158,1576033.1615587103
PART_002_R214G39B40A255,13132,-110.7951,38.0992,-6.436619,945186.2,-291.4299,-35.56331,1637110.6053414806
PART_002_R214G39B40A255,13133,-162.9159,31.62769,-6.003219,996479.0,-335.1673,-32.10748,1725952.364455482
PART_002_R214G39B40A255,13134,-219.3937,36.05645,1.778161,1065227.0,-70.36495,-12.94995,1845027.3053852532
PART_003_R247G182B210A255,13135,-1272485.0,219.2355,-144.6332,1032979.0,-45.37471,1375.439,2195553.60472509
PART_003_R247G182B210A255,13136,-1272323.0,114.8231,94.61341,964683.2,-259.6961,3532.416,2100226.407745425
PART_003_R247G182B210A255,13137,-1272308.0,-39.514,-90.98377,913838.6,-105.3504,4609.984,2030755.6153941709
PART_003_R247G182B210A255,13138,-1272234.0,2.207836,-84.18492,879252.2,-356.4017,4150.346,1984384.1399278392
PART_003_R247G182B210A255,13139,-1272235.0,-64.26465,-92.34555,859119.1,-320.3165,2391.526,1957717.2949439178
PART_001_R158G218B229A255,13140,-1272273.0,-3.525159,-154.2314,852510.9,-414.9059,-135.0539,1949051.8144447284
PART_001_R158G218B229A255,13141,-1272351.0,-55.51503,-78.5147,858872.7,-553.7135,-2628.322,1957476.7246813262
PART_002_R214G39B40A255,13142,-1272456.0,12.00718,-84.06585,878787.4,-344.9642,-4383.165,1983913.421818873
PART_002_R214G39B40A255,13143,-1272623.0,-21.59021,-62.76656,913193.3,-526.7406,-4780.023,2030097.8637827337
PART_002_R214G39B40A255,13144,-1272702.0,82.8447,73.72438,963895.4,-104.5663,-3655.112,2099355.3276025285
PART_002_R214G39B40A255,13145,-1272904.0,116.7476,-141.8673,1032128.0,-151.5569,-1415.546,2194566.7850262173
PART_003_R247G182B210A255,13146,-2544513.0,215.1682,275.6635,932969.7,-123.4997,3100.22,3014485.3061488136
PART_003_R247G182B210A255,13147,-2544599.0,17.38791,-213.7777,866129.2,41.9652,8531.956,2953852.086452343
PART_003_R247G182B210A255,13148,-2544405.0,44.2367,-28.81621,817976.4,-323.1904,10892.06,2912326.980474371
PART_003_R247G182B210A255,13149,-2544397.0,-122.6533,-103.0687,785727.5,-95.44883,9764.623,2885441.2078470467
PART_001_R158G218B229A255,13150,-2544404.0,-2.308838,-266.7629,767504.5,-327.797,5658.357,2870643.3084740075
PART_001_R158G218B229A255,13151,-2544458.0,-27.76976,-186.4784,761527.6,-366.4246,-245.6033,2865919.5451260284
PART_001_R158G218B229A255,13152,-2544627.0,10.05629,-250.1529,767284.9,-450.5467,-6124.131,2870680.6083624717
PART_001_R158G218B229A255,13153,-2544823.0,-105.0237,-85.64338,785308.7,-516.8825,-10186.26,2885494.799994733
PART_002_R214G39B40A255,13154,-2545006.0,72.26134,0.2604173,817410.3,-221.463,-11225.96,2912404.0109256865
PART_002_R214G39B40A255,13155,-2545330.0,63.18059,-195.5184,865509.6,-319.2846,-8760.235,2953966.681283065
PART_002_R214G39B40A255,13156,-2545313.0,259.1781,327.172,932395.0,-11.23695,-3179.21,3014667.8809617735
PART_003_R247G182B210A255,13157,-3816968.0,580.6389,-465.5391,764450.6,12.69316,6666.882,4040169.844376216
PART_003_R247G182B210A255,13158,-3816587.0,198.9629,196.356,701263.9,-326.7723,16805.61,4005496.962284506
PART_003_R247G182B210A255,13159,-3816645.0,-256.1646,-69.7791,657860.0,75.68266,21352.98,3983119.6696176277
PART_001_R158G218B229A255,13160,-3816576.0,-91.41549,-434.6653,631034.4,-68.14198,18971.0,3969878.794927808
PART_001_R158G218B229A255,13161,-3816530.0,-25.66563,-279.8638,616212.3,-202.5803,10659.69,3962856.174095523
PART_001_R158G218B229A255,13162,-3816706.0,-92.77333,-474.2863,611356.7,-291.562,-323.2327,3960599.978849807
PART_001_R158G218B229A255,13163,-3816841.0,-17.54535,-272.5043,616035.9,-419.2557,-11320.36,3963086.4089638693
PART_001_R158G218B229A255,13164,-3817177.0,-62.63494,-392.3781,630701.3,-407.1111,-19525.37,3970340.051460261
PART_001_R158G218B229A255,13165,-3817482.0,-240.0082,-64.40985,657402.6,-497.4902,-21821.57,3983713.1644852264
PART_002_R214G39B40A255,13166,-3817594.0,149.7559,220.4834,700705.5,110.9212,-17093.19,4006155.0858300193
PART_002_R214G39B40A255,13167,-3818067.0,329.922,-544.6282,763839.9,-142.8352,-6780.706,4040706.4496952263
PART_003_R247G182B210A255,13168,-5088528.0,508.5434,1015.368,522848.4,-297.9481,12200.83,5169277.574387668
PART_003_R247G182B210A255,13169,-5089047.0,-474.7678,-367.2609,466265.8,336.7415,33376.19,5152637.001537263
PART_001_R158G218B229A255,13170,-5088877.0,-115.829,-505.2079,435302.6,188.6793,40709.28,5144603.566340205
PART_001_R158G218B229A255,13171,-5088688.0,31.32624,-541.4502,417347.1,1.143033,33603.39,5139851.493951855
PART_001_R158G218B229A255,13172,-5088774.0,-94.79074,-494.7107,407421.5,-101.5019,18555.22,5137278.554426218
PART_001_R158G218B229A255,13173,-5088829.0,86.19376,-527.6947,404355.6,-190.3003,-359.4766,5136579.1194038885
PART_001_R158G218B229A255,13174,-5089149.0,-93.92129,-513.3923,407304.0,-314.4173,-19346.28,5137622.00210354
PART_001_R158G218B229A255,13175,-5089418.0,50.86096,-497.204,417122.9,-302.298,-34219.2,5140563.383883168
PART_001_R158G218B229A255,13176,-5089878.0,-109.4719,-548.1605,435006.0,-449.2468,-41267.17,5145513.700515284
PART_001_R158G218B229A255,13177,-5090264.0,-368.0931,-271.021,465941.4,-427.2918,-33704.11,5153857.492491836
PART_002_R214G39B40A255,13178,-5089821.0,646.0203,1024.497,522553.0,257.563,-12323.54,5170534.012316655
PART_003_R247G182B210A255,13179,-6361724.0,711.9198,-1746.069,192077.2,455.868,32823.18,6370154.765639606
PART_001_R158G218B229A255,13180,-6361596.0,-529.1364,-1353.445,165069.4,305.5086,70991.89,6368264.47207924
PART_001_R158G218B229A255,13181,-6360967.0,338.2275,-733.7463,154758.4,38.48817,72150.96,6367641.1620514095
PART_001_R158G218B229A255,13182,-6361046.0,-310.4547,-808.0176,147944.8,53.88264,56197.41,6366390.61837325
PART_001_R158G218B229A255,13183,-6360871.0,210.0541,-526.3607,144681.1,-50.42025,30079.13,6365860.543304997
PART_001_R158G218B229A255,13184,-6361180.0,-230.5029,-675.7623,143467.3,-62.45089,-346.6409,6365578.952541876
PART_001_R158G218B229A255,13185,-6361284.0,199.9948,-603.2669,144637.5,-108.7453,-30900.91,6366238.605196132
PART_001_R158G218B229A255,13186,-6361841.0,-281.0582,-811.1997,147868.3,-146.5786,-56793.67,6367208.523127013
PART_001_R158G218B229A255,13187,-6362058.0,305.746,-903.3386,154647.1,-142.9195,-72740.94,6368642.102773971
PART_001_R158G218B229A255,13188,-6362888.0,-577.5119,-1312.573,164946.7,-323.9151,-71293.39,6369551.742392464
PART_001_R158G218B229A255,13189,-6363081.0,420.7708,-1967.014,191929.7,-510.1612,-32968.6,6371243.08212027
PART_003_R247G182B210A255,13190,6043679.0,-126.599,1986.154,191952.2,530.2409,-32795.29,6052155.474843454
PART_000_R31G119B180A255,13191,6043552.0,638.5119,1166.962,165024.0,280.561,-70796.2,6050648.3643786535
PART_000_R31G119B180A255,13192,6043017.0,-244.9938,772.6158,154722.6,75.93547,-72027.19,6049979.164779445
PART_000_R31G119B180A255,13193,6043115.0,262.3399,578.7695,147930.6,13.52952,-55957.79,6048900.763356803
PART_000_R31G119B180A255,13194,6043055.0,-151.2404,470.713,144660.4,-37.14489,-29965.03,6048310.265302188
PART_000_R31G119B180A255,13195,6043401.0,211.6775,486.3968,143446.2,-115.4312,552.8666,6048157.444722244
PART_000_R31G119B180A255,13196,6043636.0,-160.6677,507.7178,144605.0,-111.3563,30961.45,6048888.055718766
PART_000_R31G119B180A255,13197,6044234.0,277.2594,705.8493,147818.7,-206.4199,56913.65,6049966.248651639
PART_000_R31G119B180A255,13198,6044562.0,-277.3638,814.8113,154581.8,-138.6036,72733.52,6051531.975876618
PART_000_R31G119B180A255,13199,6045397.0,554.1961,1261.576,164858.7,-356.4665,71314.6,6052490.553034465
PART_000_R31G119B180A255,13200,6045638.0,-433.1718,1821.983,191812.6,-453.1488,32943.46,6054335.59732429
PART_003_R247G182B210A255,13201,4834004.0,-872.1087,-1053.961,522799.6,-308.8513,-12158.91,4919075.962171545
PART_003_R247G182B210A255,13202,4834522.0,265.8836,216.25,466209.0,273.728,-33292.17,4901596.6754234955
PART_000_R31G119B180A255,13203,4834373.0,114.0622,502.0134,435255.0,199.7272,-40600.22,4893002.16329293
PART_000_R31G119B180A255,13204,4834238.0,-49.01107,399.3124,417309.9,-47.80043,-33436.75,4888144.893063894
PART_000_R31G119B180A255,13205,4834386.0,105.3771,448.5142,407397.1,-114.0424,-18436.09,4885442.388994231
PART_000_R31G119B180A255,13206,4834504.0,-101.24,384.4541,404314.4,-290.024,527.7242,4884820.509829983
PART_000_R31G119B180A255,13207,4834913.0,98.03202,444.4115,407237.8,-366.2613,19438.9,4885941.373581539
PART_000_R31G119B180A255,13208,4835241.0,-71.33327,390.0696,417011.0,-426.8346,34340.43,4889094.743457294
PART_000_R31G119B180A255,13209,4835784.0,97.01559,488.5758,434843.9,-485.0741,41312.39,4894319.5441854205
PART_000_R31G119B180A255,13210,4836200.0,346.1593,228.5792,465716.4,-500.5832,33754.25,4903075.063491572
PART_002_R214G39B40A255,13211,4835837.0,-548.4732,-960.3071,522242.0,254.8947,12335.44,4920496.235779922
PART_003_R247G182B210A255,13212,3625880.0,-169.3304,608.1,764107.5,101.46,-6655.946,3859679.922003063
PART_003_R247G182B210A255,13213,3625536.0,-59.10901,-204.143,701090.4,-291.5067,-16731.14,3823727.1143504633
PART_003_R247G182B210A255,13214,3625647.0,284.6163,94.74451,657808.0,112.3962,-21264.23,3800451.4782018503
PART_000_R31G119B180A255,13215,3625614.0,87.25971,333.9067,631017.9,-124.8227,-18852.48,3786709.2633637344
PART_000_R31G119B180A255,13216,3625638.0,66.80677,261.9095,616210.7,-230.0171,-10550.45,3779357.1055801734
PART_000_R31G119B180A255,13217,3625852.0,99.331,362.4482,611328.5,-427.155,447.4615,3777075.2230909355
PART_000_R31G119B180A255,13218,3626065.0,52.31298,241.3971,615973.8,-510.4478,11412.91,3779675.268173043
PART_000_R31G119B180A255,13219,3626437.0,62.46195,299.6142,630565.1,-590.6826,19619.58,3787311.0791255925
PART_000_R31G119B180A255,13220,3626802.0,246.3596,57.46664,657195.4,-582.9667,21876.88,3801282.03030987
PART_002_R214G39B40A255,13221,3626944.0,-150.7899,-250.2291,700412.8,-45.53946,17141.67,3824760.526908362
PART_002_R214G39B40A255,13222,3627418.0,-279.7531,527.342,763475.9,-130.2011,6789.867,3860840.381257625
PART_003_R247G182B210A255,13223,2416933.0,-405.8427,-334.836,933021.9,-114.7821,-3073.24,2907743.697403545
PART_003_R247G182B210A255,13224,2417079.0,-109.9588,153.691,866137.6,-6.224004,-8481.175,2844813.5366269494
PART_003_R247G182B210A255,13225,2416946.0,-42.77782,14.5242,817978.3,-266.0677,-10814.77,2801662.514470871
PART_003_R247G182B210A255,13226,2416981.0,118.484,51.52941,785755.0,-159.8619,-9677.536,2773788.032027535
PART_000_R31G119B180A255,13227,2417046.0,16.52184,221.3382,767556.2,-353.9572,-5569.277,2758452.0079087364
PART_000_R31G119B180A255,13228,2417135.0,30.74179,114.1547,761549.3,-532.5288,323.6317,2753554.894727786
PART_000_R31G119B180A255,13229,2417347.0,0.6202458,201.9104,767262.7,-569.7437,6192.415,2758490.372734885
PART_000_R31G119B180A255,13230,2417563.0,87.03497,22.41724,785198.1,-747.4791,10234.56,2773854.7800927497
PART_002_R214G39B40A255,13231,2417764.0,-77.19646,-16.81107,817208.9,-360.1333,11259.96,2801728.3880785317
PART_002_R214G39B40A255,13232,2418072.0,-62.76939,155.9704,865192.7,-504.2339,8777.482,2844776.614817832
PART_002_R214G39B40A255,13233,2418036.0,-179.1973,-292.9013,931982.0,-20.00899,3186.368,2907549.0570441363
PART_003_R247G182B210A255,13234,1208425.0,-78.41577,139.0031,1032657.0,59.48011,-1355.538,2158556.1757253697
PART_003_R247G182B210A255,13235,1208361.0,-36.61152,-49.90845,964552.0,-218.3015,-3479.456,2061882.3925246815
PART_003_R247G182B210A255,13236,1208423.0,42.84165,36.8901,913866.8,-34.02252,-4532.165,1991408.7999008142
PART_003_R247G182B210A255,13237,1208427.0,28.54658,76.31985,879333.3,-409.3635,-4089.973,1944196.733667678
PART_003_R247G182B210A255,13238,1208465.0,81.50821,31.11153,859219.7,-350.96,-2324.251,1917040.327911163
PART_000_R31G119B180A255,13239,1208544.0,39.81054,122.195,852580.8,-596.0845,164.5225,1908157.758023059
PART_000_R31G119B180A255,13240,1208621.0,72.85721,25.90444,858892.0,-689.6131,2656.441,1916704.0355922836
PART_002_R214G39B40A255,13241,1208725.0,7.18226,51.53499,878704.5,-619.5969,4372.974,1943545.3352882755
PART_002_R214G39B40A255,13242,1208847.0,24.51576,35.23627,913009.1,-682.6687,4770.99,1990493.7514396764
PART_002_R214G39B40A255,13243,1208880.0,-76.32224,-83.81898,963603.8,-330.4471,3630.952,2060878.7401295456
PART_002_R214G39B40A255,13244,1208995.0,-87.40901,131.1023,1031768.0,-156.5266,1406.895,2157604.6325445906
PART_003_R247G182B210A255,13245,-276.6125,-3.142863,-1.580608,1066074.0,-75.75637,17.98178,1846494.3579200096
PART_003_R247G182B210A255,13246,-199.3092,-21.03857,-8.930533,997323.9,-51.8403,35.80756,1727415.6797157868
PART_003_R247G182B210A255,13247,-137.8717,-27.34687,-17.47613,945952.5,-286.4232,34.78924,1638437.8718518757
PART_003_R247G182B210A255,13248,-92.70558,-24.53003,-19.39552,910548.6,-236.5493,28.47419,1577116.4935442307
PART_003_R247G182B210A255,13249,-67.23461,-22.47114,-23.11869,889979.6,-475.2112,12.707,1541490.1054450977
PART_003_R247G182B210A255,13250,-57.40587,-19.59899,-19.77353,883066.4,-616.1838,-0.8955165,1529516.2440783374
PART_002_R214G39B40A255,13251,-68.5206,-23.87635,-23.83781,889640.5,-606.2987,-18.8206,1540902.905303435
PART_002_R214G39B40A255,13252,-95.418,-26.6269,-18.17189,909902.5,-828.4554,-30.12994,1575998.0157482973
PART_002_R214G39B40A255,13253,-142.0571,-30.96934,-19.11434,945059.4,-472.742,-39.33342,1636891.1073982308
PART_002_R214G39B40A255,13254,-204.101,-26.76415,-6.288231,996221.8,-565.4501,-34.77298,1725507.0624930528
PART_002_R214G39B40A255,13255,-279.6072,-20.31206,-5.878721,1064879.0,-87.79297,-15.32639,1844424.5576697618
PART_003_R247G182B210A255,13256,-1208942.0,57.75279,-134.5146,1032716.0,59.66691,1376.181,2158925.8186090845
PART_003_R247G182B210A255,13257,-1208727.0,28.25877,39.82584,964603.8,-212.5377,3544.857,2062164.5336801356
PART_003_R247G182B210A255,13258,-1208660.0,-22.77611,-34.90738,913917.7,-26.13564,4600.993,1991629.8535104461
PART_003_R247G182B210A255,13259,-1208568.0,7.037967,-85.99284,879387.6,-403.0118,4149.982,1944366.4787660732
PART_003_R247G182B210A255,13260,-1208552.0,-32.31611,-31.71771,859275.4,-347.1479,2347.855,1917185.4598519932
PART_001_R158G218B229A255,13261,-1208615.0,10.18792,-126.6749,852637.3,-594.7147,-163.2136,1908292.8718572462
PART_001_R158G218B229A255,13262,-1208709.0,-26.60456,-30.61496,858948.3,-690.7642,-2696.217,1916848.4739815313
PART_002_R214G39B40A255,13263,-1208873.0,26.43305,-53.34773,878758.6,-623.8152,-4431.224,1943721.0459709438
PART_002_R214G39B40A255,13264,-1209089.0,-14.95527,-44.60415,913061.7,-688.2889,-4851.984,1990713.7537374033
PART_002_R214G39B40A255,13265,-1209256.0,65.14623,85.86844,963655.3,-337.43,-3700.164,2061169.2608389459
PART_002_R214G39B40A255,13266,-1209526.0,68.52008,-136.2201,1031824.0,-158.6778,-1438.113,2157975.8741230806
PART_003_R247G182B210A255,13267,-2417385.0,417.8829,341.4848,933128.6,-100.773,3110.5,2908230.059565442
PART_003_R247G182B210A255,13268,-2417370.0,85.52837,-173.5832,866239.1,8.428235,8558.374,2845135.35367023
PART_003_R247G182B210A255,13269,-2417104.0,8.660444,-33.31125,818080.9,-251.0831,10887.88,2801866.711405564
PART_003_R247G182B210A255,13270,-2417048.0,-156.5083,-78.12809,785858.5,-151.2837,9739.571,2773906.8689692505
PART_001_R158G218B229A255,13271,-2417055.0,-48.95597,-244.9615,767664.1,-345.2739,5595.684,2758525.5686166757
PART_001_R158G218B229A255,13272,-2417129.0,-60.6024,-131.7818,761658.0,-532.1662,-322.39,2753618.9799181307
PART_001_R158G218B229A255,13273,-2417358.0,-36.52981,-230.1697,767370.9,-569.5287,-6229.326,2758562.4370260066
PART_001_R158G218B229A255,13274,-2417634.0,-125.0878,-40.79546,785303.4,-755.8345,-10294.82,2773982.1699360935
PART_002_R214G39B40A255,13275,-2417928.0,34.10482,-13.7494,817311.1,-367.8789,-11340.65,2801928.5452214205
PART_002_R214G39B40A255,13276,-2418369.0,32.31113,-161.9589,865294.4,-516.8236,-8851.168,2845107.0530614057
PART_002_R214G39B40A255,13277,-2418493.0,159.1596,280.1718,932092.0,-23.33046,-3219.006,2908021.4145058114
PART_003_R247G182B210A255,13278,-3626193.0,153.5039,-659.7284,764268.2,100.9303,6685.604,3860037.866737008
PART_003_R247G182B210A255,13279,-3625678.0,93.04231,259.3298,701221.4,-284.8602,16803.38,3823977.021230563
PART_003_R247G182B210A255,13280,-3625653.0,-264.5509,-132.3306,657938.9,130.9075,21353.03,3800518.315937809
PART_001_R158G218B229A255,13281,-3625509.0,-16.45393,-260.107,631150.2,-117.4326,18904.98,3786744.889696771
PART_001_R158G218B229A255,13282,-3625490.0,-25.65565,-272.2352,616346.9,-218.0543,10595.59,3779296.9257829273
PART_001_R158G218B229A255,13283,-3625669.0,-23.59041,-286.2275,611465.9,-428.3078,-460.3639,3777039.2244237335
PART_001_R158G218B229A255,13284,-3625918.0,-8.35723,-240.4955,616110.4,-508.2276,-11432.59,3779622.7379490775
PART_001_R158G218B229A255,13285,-3626330.0,-0.231934,-247.6824,630699.9,-600.87,-19694.12,3787331.7864697822
PART_001_R158G218B229A255,13286,-3626811.0,-220.544,-65.96043,657327.3,-590.3115,-21949.06,3801368.548013926
PART_002_R214G39B40A255,13287,-3627084.0,175.6154,271.5699,700549.1,-60.26298,-17227.56,3824991.226199056
PART_002_R214G39B40A255,13288,-3627735.0,286.3147,-538.0859,763629.5,-132.7509,-6821.772,3861227.537843895
PART_003_R247G182B210A255,13289,-4834122.0,851.2498,940.0795,522956.6,-292.7734,12206.87,4919176.142406434
PART_003_R247G182B210A255,13290,-4834459.0,-227.137,-100.1099,466341.0,288.8627,33370.66,4901650.195377992
PART_001_R158G218B229A255,13291,-4834186.0,-177.2265,-606.866,435383.4,211.2689,40713.06,4892771.508501766
PART_001_R158G218B229A255,13292,-4833929.0,52.42212,-284.479,417436.4,-38.97286,33479.85,4887931.063231978
PART_001_R158G218B229A255,13293,-4834051.0,-170.7958,-504.2864,407529.0,-107.2877,18501.73,4885084.699394363
PART_001_R158G218B229A255,13294,-4834114.0,98.11572,-276.0565,404444.5,-288.6357,-555.2018,4884518.945333222
PART_001_R158G218B229A255,13295,-4834577.0,-155.8364,-472.4672,407370.5,-365.1501,-19440.22,4885599.625425067
PART_001_R158G218B229A255,13296,-4834923.0,58.23337,-328.7805,417140.2,-433.6062,-34430.89,4888839.057894115
PART_001_R158G218B229A255,13297,-4835596.0,-138.4434,-518.2267,434973.2,-490.1688,-41379.32,4894134.859115511
PART_001_R158G218B229A255,13298,-4836127.0,-347.4532,-206.606,465849.3,-511.3216,-33857.16,4903053.269976447
PART_002_R214G39B40A255,13299,-4835954.0,539.5172,939.583,522401.1,252.7916,-12368.5,4920647.566789312
PART_003_R247G182B210A255,13300,-6043558.0,77.65294,-2101.082,192026.6,509.2812,32853.17,6051960.887842353
PART_001_R158G218B229A255,13301,-6043251.0,-593.8261,-1044.784,165077.8,289.4705,70903.11,6050439.239032126
PART_001_R158G218B229A255,13302,-6042580.0,241.7546,-846.3793,154779.3,72.00754,72153.63,6049513.112007182
PART_001_R158G218B229A255,13303,-6042568.0,-180.4127,-409.6048,147983.1,23.77036,56009.82,6048485.0363828465
PART_001_R158G218B229A255,13304,-6042473.0,164.4485,-474.7105,144719.2,-39.65121,30037.14,6047738.682435823
PART_001_R158G218B229A255,13305,-6042775.0,-134.1983,-311.67,143499.2,-110.9918,-581.5989,6047661.746911905
PART_001_R158G218B229A255,13306,-6043053.0,182.593,-481.7264,144664.3,-113.2866,-30956.83,6048333.698526818
PART_001_R158G218B229A255,13307,-6043669.0,-212.1501,-591.6558,147872.0,-207.6331,-57013.72,6049498.121464027
PART_001_R158G218B229A255,13308,-6044119.0,296.5212,-810.7165,154640.3,-141.2827,-72807.14,6051108.260484097
PART_001_R158G218B229A255,13309,-6045072.0,-523.867,-1224.821,164914.5,-361.1386,-71445.82,6052208.684197754
PART_001_R158G218B229A255,13310,-6045503.0,438.0211,-1833.9,191888.7,-451.9992,-32990.79,6054205.290574261
PART_003_R247G182B210A255,13311,5725537.0,-811.6148,1538.506,192010.4,348.0945,-32740.03,5735105.617478111
PART_000_R31G119B180A255,13312,5725267.0,380.5359,1075.712,165042.8,293.9206,-70808.89,5732983.955954589
PART_000_R31G119B180A255,13313,5724624.0,-325.0699,561.2214,154768.1,15.71807,-71875.81,5732131.065944935
PART_000_R31G119B180A255,13314,5724705.0,213.1829,404.6848,147966.3,58.42786,-55862.09,5730947.055854237
PART_000_R31G119B180A255,13315,5724655.0,-214.9968,216.6646,144716.4,-97.65142,-29740.4,5730370.622679262
PART_000_R31G119B180A255,13316,5725104.0,137.3125,207.4945,143486.3,-102.5312,702.5831,5730323.573374214
PART_000_R31G119B180A255,13317,5725460.0,-207.5595,307.6008,144637.5,-194.7926,31189.35,5731142.825858963
PART_000_R31G119B180A255,13318,5726241.0,182.2139,471.5849,147828.5,-207.4825,57069.46,5732488.3816218395
PART_000_R31G119B180A255,13319,5726778.0,-301.9588,749.8487,154565.3,-218.3412,72921.49,5734199.703982783
PART_000_R31G119B180A255,13320,5727827.0,479.9766,1107.379,164818.5,-321.7564,71423.2,5735478.228859169
PART_000_R31G119B180A255,13321,5728302.0,-347.2735,1805.43,191735.1,-485.4262,33002.75,5737477.699017017
PART_003_R247G182B210A255,13322,4579570.0,-259.7956,-772.3367,522621.7,-224.7787,-12190.56,4668729.471187377
PART_003_R247G182B210A255,13323,4579872.0,443.0895,224.5737,466203.2,365.4753,-33271.29,4650540.557789642
PART_000_R31G119B180A255,13324,4579653.0,147.7568,459.3273,435337.8,178.0766,-40549.44,4641544.074717742
PART_000_R31G119B180A255,13325,4579448.0,-28.60284,279.7032,417436.3,-15.77376,-33342.52,4636409.01302444
PART_000_R31G119B180A255,13326,4579627.0,147.4682,338.4276,407527.7,-201.6334,-18282.9,4633572.889039744
PART_000_R31G119B180A255,13327,4579800.0,-64.29936,223.768,404436.3,-328.7308,697.6663,4632984.537077247
PART_000_R31G119B180A255,13328,4580340.0,135.6543,333.4056,407317.1,-524.3186,19645.53,4634247.1310068555
PART_000_R31G119B180A255,13329,4580831.0,-41.59753,268.0655,417034.7,-508.8095,34540.35,4637705.147032507
PART_000_R31G119B180A255,13330,4581576.0,112.886,435.8499,434793.5,-642.5922,41512.55,4643342.761327956
PART_000_R31G119B180A255,13331,4582222.0,306.2944,175.3118,465596.9,-518.9309,33911.29,4652778.079397033
PART_002_R214G39B40A255,13332,4582124.0,-539.4371,-914.8947,522058.9,167.5175,12397.05,4671254.921801782
PART_003_R247G182B210A255,13333,3435040.0,-646.6864,397.489,764296.7,-2.769142,-6646.64,3681431.448264924
PART_003_R247G182B210A255,13334,3434602.0,-292.0766,-247.7498,701221.6,-241.256,-16754.94,3643394.381224758
PART_003_R247G182B210A255,13335,3434580.0,165.1657,31.98438,657933.9,89.83284,-21245.06,3618790.9312281194
PART_000_R31G119B180A255,13336,3434501.0,-4.223631,256.3885,631195.7,-89.90511,-18787.83,3604332.68891131
PART_000_R31G119B180A255,13337,3434522.0,-36.1766,144.6724,616398.5,-336.2685,-10441.23,3596628.628901321
PART_000_R31G119B180A255,13338,3434792.0,4.071287,249.0763,611510.7,-501.9132,594.4657,3594268.2787406575
PART_000_R31G119B180A255,13339,3435103.0,-53.99573,117.6957,616083.7,-732.205,11588.39,3597053.7506008674
PART_000_R31G119B180A255,13340,3435619.0,-45.87401,208.8098,630602.7,-732.0919,19808.52,3605145.7972128238
PART_000_R31G119B180A255,13341,3436159.0,119.9735,-15.4023,657110.7,-824.0072,22062.92,3619899.8794073802
PART_002_R214G39B40A255,13342,3436513.0,-210.9667,-250.0374,700215.2,-146.2129,17288.78,3644585.9365416546
PART_002_R214G39B40A255,13343,3437171.0,-249.6988,490.9946,763160.6,-249.7681,6854.871,3682485.436962303
PART_003_R247G182B210A255,13344,2289734.0,-153.164,-228.8535,932702.9,-55.96197,-3100.68,2802425.6459441003
PART_003_R247G182B210A255,13345,2289774.0,-30.25373,207.9008,866075.2,156.9332,-8500.16,2737358.9165600897
PART_003_R247G182B210A255,13346,2289575.0,-75.36787,1.540885,818098.3,-253.1755,-10809.38,2692680.4349222598
PART_003_R247G182B210A255,13347,2289584.0,102.4456,60.86911,785958.6,-110.4464,-9645.409,2663699.0969992895
PART_000_R31G119B180A255,13348,2289629.0,3.660105,180.6925,767769.3,-484.1852,-5495.158,2647730.967872287
PART_000_R31G119B180A255,13349,2289771.0,30.41575,99.29796,761753.3,-620.7165,426.8784,2642642.654283703
PART_000_R31G119B180A255,13350,2290037.0,-16.10105,157.8727,767381.0,-850.4208,6321.517,2647770.3221070846
PART_000_R31G119B180A255,13351,2290369.0,66.22137,20.06271,785217.4,-930.5147,10379.0,2663760.0119985053
PART_002_R214G39B40A255,13352,2290690.0,-119.6213,-32.65318,817077.3,-693.7115,11401.94,2692739.6643823846
PART_002_R214G39B40A255,13353,2291141.0,-117.1611,158.9118,864938.8,-623.2446,8893.584,2737485.5833018236
PART_002_R214G39B40A255,13354,2291246.0,-223.6306,-296.7389,931624.1,-173.5539,3231.856,2802642.041877812
PART_003_R247G182B210A255,13355,1144791.0,-285.1493,122.6042,1032862.0,-35.05549,-1350.477,2123946.7633003504
PART_003_R247G182B210A255,13356,1144703.0,-215.3437,-115.4843,964698.7,-127.2721,-3484.962,2025510.039884734
PART_003_R247G182B210A255,13357,1144733.0,-65.7192,56.68585,913999.2,-46.74907,-4542.843,1953629.8331430159
PART_003_R247G182B210A255,13358,1144700.0,-103.3852,20.74529,879540.8,-336.0071,-4068.29,1905586.1957453948
PART_003_R247G182B210A255,13359,1144750.0,-29.78541,29.42391,859450.2,-494.3907,-2299.517,1877880.05857626
PART_000_R31G119B180A255,13360,1144832.0,-86.63267,67.9785,852799.1,-695.7082,227.1867,1868813.0467983475
PART_000_R31G119B180A255,13361,1144958.0,-45.92889,9.645628,859016.1,-1000.448,2716.936,1877424.1649958924
PART_002_R214G39B40A255,13362,1145106.0,-126.419,13.3159,878719.2,-841.9272,4460.416,1904705.0674368767
PART_002_R214G39B40A255,13363,1145305.0,-102.3349,18.24672,912853.7,-1046.127,4842.518,1952382.9358526357
PART_002_R214G39B40A255,13364,1145405.0,-181.035,-89.90011,963286.2,-490.2966,3697.306,2023873.9115255834
PART_002_R214G39B40A255,13365,1145585.0,-148.2332,125.6728,1031303.0,-329.5852,1431.165,2122063.8532999977
PART_003_R247G182B210A255,13366,-312.4182,-108.5785,-0.4665104,1065689.0,-28.44852,8.065546,1845827.5141687687
PART_003_R247G182B210A255,13367,-220.8518,-86.46958,2.444489,997205.1,130.8752,26.92032,1727209.925246453
PART_003_R247G182B210A255,13368,-146.5248,-61.39859,7.995779,946054.6,-261.0027,31.50369,1638614.7026856209
PART_003_R247G182B210A255,13369,-96.48463,-44.52953,10.84412,910748.3,-175.4298,20.30243,1577462.3609026612
PART_003_R247G182B210A255,13370,-67.52053,-31.98846,19.83018,890195.8,-612.6689,10.69422,1541864.7214442925
PART_003_R247G182B210A255,13371,-61.44801,-31.34247,17.21609,883272.2,-722.2435,-4.142371,1529872.8403247038
PART_002_R214G39B40A255,13372,-69.17997,-33.97682,20.73291,889746.8,-932.0473,-13.53889,1541087.5111996413
PART_002_R214G39B40A255,13373,-99.59495,-49.37021,9.513757,909891.0,-1056.224,-27.61102,1575978.5067394788
PART_002_R214G39B40A255,13374,-150.472,-68.69024,9.942325,944868.3,-866.4881,-33.90672,1636560.5971642467
PART_002_R214G39B40A255,13375,-228.0583,-95.42424,-1.539843,995888.1,-722.6131,-34.69975,1724929.2542433348
PART_002_R214G39B40A255,13376,-325.798,-105.8446,4.694304,1064426.0,-267.4678,-14.83647,1843639.994309407
PART_003_R247G182B210A255,13377,-1145427.0,121.1598,-133.9366,1032879.0,-24.4807,1392.818,2124267.2463300386
PART_003_R247G182B210A255,13378,-1145135.0,27.03106,112.2771,964723.7,-112.7342,3552.042,2025736.1739219243
PART_003_R247G182B210A255,13379,-1145011.0,-127.2971,-80.31478,914033.2,-35.13711,4609.587,1953777.4451951652
PART_003_R247G182B210A255,13380,-1144882.0,-69.69503,-21.5675,879579.4,-327.6791,4105.503,1905696.97570575
PART_003_R247G182B210A255,13381,-1144876.0,-132.3786,-31.17923,859493.5,-489.0048,2324.849,1877966.447539212
PART_001_R158G218B229A255,13382,-1144941.0,-68.56861,-59.3053,852844.1,-694.1616,-238.749,1868896.541505058
PART_001_R158G218B229A255,13383,-1145089.0,-119.2173,-5.710237,859059.0,-1002.589,-2739.363,1877513.8888070157
PART_002_R214G39B40A255,13384,-1145292.0,-58.48044,-25.04609,878758.5,-847.3329,-4517.56,1904812.5861908058
PART_002_R214G39B40A255,13385,-1145595.0,-98.15882,-26.14589,912885.2,-1055.886,-4907.646,1952536.6254474455
PART_002_R214G39B40A255,13386,-1145843.0,-33.36861,71.28952,963310.9,-499.3812,-3768.741,2024091.566402104
PART_002_R214G39B40A255,13387,-1146222.0,-60.00563,-122.4584,1031323.0,-335.4475,-1461.503,2122381.6520084883
PART_003_R247G182B210A255,13388,-2290283.0,4.822797,214.9705,932772.5,-59.35604,3121.468,2802877.540254844
PART_003_R247G182B210A255,13389,-2290114.0,-71.42857,-183.8238,866135.2,173.6432,8558.322,2737668.347490663
PART_003_R247G182B210A255,13390,-2289755.0,7.217418,21.20234,818165.1,-236.0694,10877.11,2692875.8844370744
PART_003_R247G182B210A255,13391,-2289651.0,-134.9747,-3.07026,786038.3,-93.09825,9683.225,2663838.5072250916
PART_001_R158G218B229A255,13392,-2289643.0,-22.9917,-109.3763,767854.3,-478.2644,5520.122,2647839.644219054
PART_001_R158G218B229A255,13393,-2289764.0,-45.84843,-23.82629,761841.3,-614.7751,-435.125,2642738.700592899
PART_001_R158G218B229A255,13394,-2290053.0,-3.658542,-79.84122,767466.5,-856.231,-6342.621,2647883.8535345937
PART_001_R158G218B229A255,13395,-2290441.0,-109.8831,25.118,785295.8,-937.1319,-10431.18,2663892.5248920866
PART_002_R214G39B40A255,13396,-2290875.0,46.9284,72.5134,817145.5,-712.0184,-11468.01,2692946.020086095
PART_002_R214G39B40A255,13397,-2291491.0,-1.730813,-157.1694,864996.4,-637.6481,-8965.018,2737784.790587748
PART_002_R214G39B40A255,13398,-2291813.0,88.53338,309.479,931679.7,-184.2257,-3263.088,2803111.1837305557
PART_003_R247G182B210A255,13399,-3435465.0,606.4262,-332.5872,764388.6,18.5478,6688.684,3681896.9597918694
PART_003_R247G182B210A255,13400,-3434796.0,188.4328,187.9131,701326.5,-207.2926,16834.95,3643561.8867749623
PART_003_R247G182B210A255,13401,-3434597.0,-235.9007,55.64061,658042.5,104.4814,21299.88,3618875.293008482
PART_001_R158G218B229A255,13402,-3434422.0,-112.9194,-267.3275,631315.6,-67.78567,18845.45,3604260.2884566216
PART_001_R158G218B229A255,13403,-3434365.0,-29.24093,-14.45238,616525.3,-333.1169,10443.72,3596574.867630993
PART_001_R158G218B229A255,13404,-3434642.0,-109.0556,-209.7779,611639.6,-492.0261,-577.1692,3594159.3382545956
PART_001_R158G218B229A255,13405,-3434944.0,-18.3744,-2.994986,616211.6,-739.9853,-11624.46,3596988.200655184
PART_001_R158G218B229A255,13406,-3435544.0,-66.13356,-190.6201,630722.1,-736.1545,-19837.22,3605092.7574045514
PART_001_R158G218B229A255,13407,-3436172.0,-208.79,62.7517,657220.5,-844.0474,-22140.51,3619953.7790084486
PART_002_R214G39B40A255,13408,-3436714.0,106.7274,236.7323,700314.6,-160.3106,-17351.81,3644778.2487651147
PART_002_R214G39B40A255,13409,-3437597.0,163.6853,-479.9875,763263.2,-263.0693,-6892.917,3682912.031615249
PART_003_R247G182B210A255,13410,-4579751.0,276.0781,930.2875,522761.4,-235.4425,12212.84,4669039.604839297
PART_003_R247G182B210A255,13411,-4579815.0,-507.2951,-344.236,466315.3,374.8365,33366.18,4650429.655955524
PART_001_R158G218B229A255,13412,-4579391.0,-76.05794,-235.2972,435451.3,193.6972,40587.34,4641464.399333917
PART_001_R158G218B229A255,13413,-4579109.0,19.51336,-272.7334,417561.9,-3.020947,33420.95,4636108.766252361
PART_001_R158G218B229A255,13414,-4579187.0,-61.49408,-57.25425,407653.5,-195.3253,18261.27,4633352.401694423
PART_001_R158G218B229A255,13415,-4579395.0,72.33513,-124.6919,404568.4,-323.2084,-652.6418,4632671.712472721
PART_001_R158G218B229A255,13416,-4579895.0,-61.67019,-90.59262,407444.1,-527.713,-19696.09,4633998.0143465195
PART_001_R158G218B229A255,13417,-4580491.0,53.15689,-186.2277,417160.7,-511.556,-34541.16,4637449.463658193
PART_001_R158G218B229A255,13418,-4581301.0,-76.49574,-317.4136,434910.4,-657.9312,-41602.75,4643183.083919642
PART_001_R158G218B229A255,13419,-4582162.0,-322.7016,-164.0138,465710.8,-529.0477,-33966.64,4652751.889884698
PART_002_R214G39B40A255,13420,-4582297.0,524.6515,937.6572,522191.5,157.5518,-12439.13,4671473.359642006
PART_003_R247G182B210A255,13421,-5725378.0,869.3517,-1383.714,192077.7,386.0493,32791.2,5735060.589188649
PART_001_R158G218B229A255,13422,-5724860.0,-435.387,-1181.428,165101.4,291.6785,70920.65,5732506.601731816
PART_001_R158G218B229A255,13423,-5724037.0,330.543,-334.0822,154821.9,34.77619,71924.23,5731667.15716515
PART_001_R158G218B229A255,13424,-5724034.0,-312.6437,-387.9652,148029.5,52.47205,55937.61,5730242.604503594
PART_001_R158G218B229A255,13425,-5723908.0,203.4505,97.25153,144772.0,-87.62068,29715.92,5729779.222707601
PART_001_R158G218B229A255,13426,-5724376.0,-228.377,-84.41567,143552.8,-105.629,-648.6047,5729617.2299051955
PART_001_R158G218B229A255,13427,-5724701.0,183.8438,-33.20526,144693.8,-192.445,-31238.12,5730514.845963777
PART_001_R158G218B229A255,13428,-5725566.0,-259.2528,-376.0572,147892.2,-209.1649,-57053.64,5731827.842440998
PART_001_R158G218B229A255,13429,-5726159.0,276.0954,-626.6904,154619.7,-223.4603,-73018.22,5733638.186928606
PART_001_R158G218B229A255,13430,-5727409.0,-515.0532,-1092.639,164876.3,-323.2252,-71488.15,5735058.099267869
PART_001_R158G218B229A255,13431,-5728120.0,335.2791,-1790.41,191802.1,-491.6274,-33061.85,5737305.256635574
PART_003_R247G182B210A255,13432,5407380.0,171.2864,1894.419,191909.0,560.0977,-32770.98,5416853.482361333
PART_000_R31G119B180A255,13433,5406839.0,629.0517,931.2375,165074.6,261.1718,-70632.1,5414996.599492449
PART_000_R31G119B180A255,13434,5406113.0,-211.4184,447.7435,154805.6,113.7045,-71774.87,5414067.7650411455
PART_000_R31G119B180A255,13435,5406107.0,229.0641,64.06299,148051.8,-15.09319,-55564.14,5412894.640488647
PART_000_R31G119B180A255,13436,5406146.0,-126.0272,-161.1556,144783.6,-52.37505,-29543.52,5412344.453787451
PART_000_R31G119B180A255,13437,5406677.0,196.2174,-176.9121,143564.1,-199.5518,1007.797,5412382.749600538
PART_000_R31G119B180A255,13438,5407239.0,-143.3587,-107.6527,144688.4,-190.203,31370.02,5413441.367627437
PART_000_R31G119B180A255,13439,5408222.0,256.804,267.3378,147853.3,-325.1361,57307.18,5414929.82831507
PART_000_R31G119B180A255,13440,5409054.0,-259.8775,507.403,154556.9,-213.1662,73069.38,5417029.42563449
PART_000_R31G119B180A255,13441,5410401.0,485.472,1087.612,164770.0,-402.7196,71581.99,5418555.9649466
PART_000_R31G119B180A255,13442,5411235.0,-404.7699,1589.919,191650.9,-399.984,33043.11,5421118.027113665
PART_003_R247G182B210A255,13443,4325141.0,-1048.217,-1058.747,522802.9,-277.2799,-12159.56,4419996.731703119
PART_003_R247G182B210A255,13444,4325207.0,94.06403,107.168,466328.9,274.2971,-33272.61,4400256.195642199
PART_000_R31G119B180A255,13445,4324771.0,19.70208,255.1059,435487.5,244.868,-40457.95,4390479.994978222
PART_000_R31G119B180A255,13446,4324542.0,-109.6701,67.95066,417622.7,-70.20335,-33180.8,4385016.87810307
PART_000_R31G119B180A255,13447,4324700.0,23.32639,-0.4101097,407743.7,-191.7524,-18086.67,4382085.947626715
PART_000_R31G119B180A255,13448,4325004.0,-152.6724,-78.21199,404627.7,-492.4321,937.4661,4381533.097470508
PART_000_R31G119B180A255,13449,4325674.0,13.01755,-8.702739,407467.4,-607.2141,19874.54,4383002.627709061
PART_000_R31G119B180A255,13450,4326401.0,-147.439,45.16676,417098.3,-743.3441,34788.24,4386767.991603495
PART_000_R31G119B180A255,13451,4327410.0,-14.1888,229.9334,434764.6,-722.7768,41734.04,4392929.691997839
PART_000_R31G119B180A255,13452,4328383.0,225.4598,119.1721,465449.5,-685.4721,34098.82,4403047.472301463
PART_002_R214G39B40A255,13453,4328678.0,-465.6478,-877.083,521784.6,176.1164,12480.49,4422726.641109863
PART_003_R247G182B210A255,13454,3244276.0,-67.93877,612.1733,763954.1,206.7159,-6694.587,3503508.7725756015
PART_003_R247G182B210A255,13455,3243613.0,-131.231,-207.5819,701193.9,-136.9915,-16757.2,3463810.82458523
PART_003_R247G182B210A255,13456,3243460.0,129.8155,-4.870855,658121.6,207.7041,-21211.4,3438073.524112358
PART_000_R31G119B180A255,13457,3243298.0,-30.99509,123.7165,631453.8,-142.6466,-18691.5,3422854.2323484486
PART_000_R31G119B180A255,13458,3243331.0,-30.73655,6.921611,616702.0,-343.9624,-10291.54,3414755.538720953
PART_000_R31G119B180A255,13459,3243662.0,-5.013417,57.29402,611769.7,-718.5126,783.0142,3412325.2305228384
PART_000_R31G119B180A255,13460,3244110.0,-54.87385,-28.98556,616293.1,-878.5197,11799.81,3415317.4553433326
PART_000_R31G119B180A255,13461,3244806.0,-70.84934,66.41078,630664.6,-1071.777,20036.25,3423916.136119105
PART_000_R31G119B180A255,13462,3245587.0,71.74283,-68.96312,657041.5,-989.8321,22285.25,3439539.1264239326
PART_002_R214G39B40A255,13463,3246233.0,-286.8384,-283.8657,699972.8,-448.5427,17479.32,3465643.4259568946
PART_002_R214G39B40A255,13464,3247177.0,-289.5297,459.7227,762793.9,-228.1416,6926.513,3505611.778040181
PART_003_R247G182B210A255,13465,2162569.0,-637.7996,-335.4183,932957.7,-40.17812,-3095.573,2700012.703398486
PART_003_R247G182B210A255,13466,2162480.0,-345.9567,96.99835,866255.4,106.7821,-8521.777,2632160.981180501
PART_003_R247G182B210A255,13467,2162177.0,-238.4453,-26.43894,818303.2,-90.75881,-10809.95,2585496.6889072857
PART_003_R247G182B210A255,13468,2162096.0,-86.40861,-52.06792,786244.3,-172.4826,-9588.444,2555342.3880801653
PART_000_R31G119B180A255,13469,2162159.0,-159.5007,74.0958,768118.4,-477.8262,-5404.464,2538744.2135642315
PART_000_R31G119B180A255,13470,2162322.0,-149.2753,-51.01861,762054.4,-891.3091,560.6971,2533427.244070724
PART_000_R31G119B180A255,13471,2162703.0,-185.578,40.74064,767613.1,-1033.816,6480.699,2538782.4579198444
PART_000_R31G119B180A255,13472,2163154.0,-138.4312,-98.8175,785276.6,-1356.244,10554.74,2555399.418831529
PART_002_R214G39B40A255,13473,2163671.0,-302.82,-82.68722,816964.8,-934.3088,11580.57,2585537.812806358
PART_002_R214G39B40A255,13474,2164319.0,-272.9643,105.3981,864589.8,-995.2867,9038.806,2632001.9288519314
PART_002_R214G39B40A255,13475,2164652.0,-262.307,-259.4783,931085.2,-179.9241,3294.797,2699562.8249635478
PART_003_R247G182B210A255,13476,1081249.0,-256.3524,125.3009,1032361.0,202.7207,-1380.392,2089630.2915919472
PART_003_R247G182B210A255,13477,1081084.0,-232.4292,-15.08252,964565.9,-13.26438,-3518.027,1990027.5131665093
PART_003_R247G182B210A255,13478,1081041.0,-175.2084,13.82768,914171.8,149.6702,-4542.031,1917294.013252502
PART_003_R247G182B210A255,13479,1080996.0,-154.0546,69.15549,879822.5,-390.8405,-4065.175,1868410.3126760775
PART_003_R247G182B210A255,13480,1081017.0,-100.5192,-8.382383,859792.2,-487.7227,-2244.722,1840233.463334672
PART_000_R31G119B180A255,13481,1081139.0,-128.4656,85.11417,853094.4,-993.2356,281.4436,1830907.3717807804
PART_000_R31G119B180A255,13482,1081298.0,-115.5219,-15.0093,859230.2,-1207.737,2818.023,1839620.702533316
PART_002_R214G39B40A255,13483,1081536.0,-193.2976,24.38066,878733.9,-1335.624,4549.547,1867214.5296013728
PART_002_R214G39B40A255,13484,1081814.0,-205.8864,17.82443,912671.5,-1320.011,4955.21,1915596.9605809683
PART_002_R214G39B40A255,13485,1082034.0,-307.9695,-81.05634,962870.5,-925.2424,3775.174,1988120.3977982968
PART_002_R214G39B40A255,13486,1082302.0,-282.3611,116.9297,1030727.0,-330.1929,1466.254,2087763.879064694
PART_003_R247G182B210A255,13487,-348.7558,-244.2609,-0.3612052,1065862.0,20.85847,20.49849,1846127.1645231568
PART_003_R247G182B210A255,13488,-226.1175,-252.4962,-2.06087,997337.3,108.7795,27.35395,1727438.9032510112
PART_003_R247G182B210A255,13489,-146.412,-240.3868,2.345285,946213.8,-69.59148,13.89198,1638890.3947423187
PART_003_R247G182B210A255,13490,-101.392,-217.8811,19.82368,911011.5,-226.2946,6.492481,1577918.2664302362
PART_003_R247G182B210A255,13491,-81.87334,-205.3806,27.14598,890535.4,-603.9277,-2.440601,1542452.9265968811
PART_003_R247G182B210A255,13492,-73.34522,-198.2399,38.60767,883559.9,-1024.769,-2.207502,1530371.6814054062
PART_002_R214G39B40A255,13493,-83.55189,-210.101,26.40402,889952.7,-1158.024,-7.80018,1541444.6113866542
PART_002_R214G39B40A255,13494,-104.6182,-226.4895,21.69944,909891.7,-1554.776,-10.31865,1575980.969331349
PART_002_R214G39B40A255,13495,-151.9982,-252.7889,0.622859,944664.1,-1167.193,-21.23813,1636207.481553864
PART_002_R214G39B40A255,13496,-227.7919,-270.999,4.089145,995401.1,-1167.592,-23.76351,1724086.4847233037
PART_002_R214G39B40A255,13497,-341.5305,-289.9427,-6.599303,1063722.0,-281.7162,-12.75872,1842420.6403517767
PART_003_R247G182B210A255,13498,-1081890.0,-249.7482,-108.9944,1032321.0,201.9739,1382.094,2089775.9911426192
PART_003_R247G182B210A255,13499,-1081501.0,-191.2969,28.26916,964531.5,-1.092998,3553.304,1990092.7271177333
PART_003_R247G182B210A255,13500,-1081302.0,-158.3102,55.4377,914149.5,165.0604,4564.491,1917334.9541474595
PART_003_R247G182B210A255,13501,-1081155.0,-126.2666,17.69247,879815.9,-378.7715,4082.331,1868437.1135826018
PART_003_R247G182B210A255,13502,-1081132.0,-140.5469,141.3714,859792.8,-482.01,2233.244,1840270.085709889
PART_001_R158G218B229A255,13503,-1081243.0,-107.3904,52.9031,853096.5,-991.2543,-279.3252,1830942.8248336215
PART_001_R158G218B229A255,13504,-1081415.0,-135.359,140.6301,859230.4,-1210.423,-2836.617,1839653.0474570608
PART_002_R214G39B40A255,13505,-1081704.0,-98.42512,78.30953,878723.9,-1344.576,-4563.444,1867243.0971997885
PART_002_R214G39B40A255,13506,-1082079.0,-159.6082,30.41687,912648.7,-1332.455,-4999.389,1915624.8210664168
PART_002_R214G39B40A255,13507,-1082471.0,-136.5831,113.8564,962828.4,-941.6669,-3820.309,1988185.338455222
PART_002_R214G39B40A255,13508,-1082979.0,-230.4528,-121.6393,1030668.0,-335.6564,-1492.091,2087893.3980539911
PART_003_R247G182B210A255,13509,-2163230.0,302.9641,359.826,932872.1,-6.912688,3134.617,2700329.323446578
PART_003_R247G182B210A255,13510,-2162867.0,-16.8851,-107.038,866213.9,140.9618,8576.866,2632285.3093085913
PART_003_R247G182B210A255,13511,-2162380.0,-97.24219,80.17839,818296.1,-60.9001,10828.77,2585542.0533019244
PART_003_R247G182B210A255,13512,-2162205.0,-232.5609,127.4338,786255.1,-158.0869,9600.1,2555341.6724982737
PART_001_R158G218B229A255,13513,-2162215.0,-133.2388,51.82956,768143.8,-463.3208,5390.654,2538743.8277965696
PART_001_R158G218B229A255,13514,-2162371.0,-137.664,191.7427,762083.2,-891.9605,-557.4202,2533432.6697320105
PART_001_R158G218B229A255,13515,-2162763.0,-117.3077,75.51014,767636.5,-1033.974,-6490.722,2538775.375726106
PART_001_R158G218B229A255,13516,-2163267.0,-186.2742,193.1495,785286.0,-1372.614,-10560.83,2555406.356211987
PART_002_R214G39B40A255,13517,-2163883.0,-59.51352,111.131,816949.9,-952.2183,-11615.96,2585561.8893098454
PART_002_R214G39B40A255,13518,-2164711.0,-108.2562,-80.48755,864543.4,-1024.236,-9083.16,2632132.5341534675
PART_002_R214G39B40A255,13519,-2165309.0,-147.9166,246.722,931009.2,-188.8279,-3321.161,2699841.6097432873
PART_003_R247G182B210A255,13520,-3244805.0,-188.6029,-680.7582,763958.9,205.0812,6706.18,3503851.2523769937
PART_003_R247G182B210A255,13521,-3243839.0,-15.94993,341.0242,701189.2,-124.09,16782.74,3464013.564981778
PART_003_R247G182B210A255,13522,-3243496.0,-279.1448,39.69409,658148.0,246.0243,21244.18,3438069.2593403705
PART_001_R158G218B229A255,13523,-3243202.0,-20.55108,145.4587,631503.0,-132.8117,18663.42,3422893.1443588836
PART_001_R158G218B229A255,13524,-3243219.0,-61.00029,177.1473,616763.7,-323.0065,10304.55,3414726.5581922717
PART_001_R158G218B229A255,13525,-3243499.0,-28.97539,269.4661,611837.4,-722.7508,-806.6637,3412345.880326208
PART_001_R158G218B229A255,13526,-3244002.0,-33.73073,234.2857,616353.2,-873.6994,-11770.1,3415302.5250953455
PART_001_R158G218B229A255,13527,-3244707.0,-0.4871317,163.4383,630713.0,-1090.684,-20047.62,3423924.3897203878
PART_001_R158G218B229A255,13528,-3245631.0,-216.5771,157.8625,657063.2,-1006.593,-22290.02,3439566.8112854883
PART_002_R214G39B40A255,13529,-3246460.0,110.9473,352.5312,699965.7,-483.133,-17529.5,3465802.329530492
PART_002_R214G39B40A255,13530,-3247723.0,57.29595,-458.4271,762760.4,-236.5086,-6947.221,3505988.791260417
PART_003_R247G182B210A255,13531,-4325426.0,893.8852,864.525,522832.4,-235.3215,12205.97,4420115.949500726
PART_003_R247G182B210A255,13532,-4325138.0,-115.102,154.2328,466379.5,309.1376,33279.47,4400322.759761168
PART_001_R158G218B229A255,13533,-4324531.0,-200.7142,-304.2748,435562.8,266.1611,40506.43,4390153.981871668
PART_001_R158G218B229A255,13534,-4324146.0,52.99949,326.0636,417707.8,-57.53446,33103.38,4384815.249823078
PART_001_R158G218B229A255,13535,-4324330.0,-190.5588,172.8989,407844.7,-181.6952,18124.69,4381752.068633645
PART_001_R158G218B229A255,13536,-4324545.0,87.8404,520.8622,404725.7,-491.0987,-988.5625,4381293.688409128
PART_001_R158G218B229A255,13537,-4325304.0,-166.033,235.3952,407568.0,-603.1203,-19796.24,4382700.835736685
PART_001_R158G218B229A255,13538,-4325995.0,56.1837,245.8166,417184.5,-754.8157,-34798.57,4386490.908843586
PART_001_R158G218B229A255,13539,-4327167.0,-125.5934,-131.2371,434836.2,-731.5645,-41697.42,4392690.303958875
PART_001_R158G218B229A255,13540,-4328302.0,-322.8475,-40.29174,465496.4,-711.2301,-34151.0,4402974.8585402705
PART_002_R214G39B40A255,13541,-4328962.0,350.157,877.5997,521820.9,169.9165,-12495.17,4422961.352363628
PART_003_R247G182B210A255,13542,-5407198.0,-265.123,-2056.276,191953.7,508.1272,32801.48,5416549.543320962
PART_001_R158G218B229A255,13543,-5406307.0,-577.3353,-644.4807,165102.2,282.2306,70644.32,5414637.4348230455
PART_001_R158G218B229A255,13544,-5405396.0,184.9682,-390.3995,154852.9,101.4329,71793.29,5413372.041562764
PART_001_R158G218B229A255,13545,-5405281.0,-117.5712,478.5719,148091.5,5.587204,55468.77,5412396.689901098
PART_001_R158G218B229A255,13546,-5405335.0,127.3415,493.4661,144842.7,-60.12718,29571.41,5411706.19778119
PART_001_R158G218B229A255,13547,-5405805.0,-93.70834,803.8224,143607.0,-191.2246,-1059.187,5411879.484345206
PART_001_R158G218B229A255,13548,-5406426.0,160.6821,497.6467,144747.0,-192.0408,-31258.91,5412835.490198654
PART_001_R158G218B229A255,13549,-5407365.0,-176.8083,172.1402,147894.3,-327.7185,-57295.66,5414336.33647873
PART_001_R158G218B229A255,13550,-5408330.0,274.0223,-301.7152,154604.2,-215.7638,-72992.12,5416417.167255157
PART_001_R158G218B229A255,13551,-5409827.0,-465.8155,-963.5477,164800.0,-415.4297,-71632.99,5418059.40834762
PART_001_R158G218B229A255,13552,-5411032.0,393.5298,-1561.95,191690.2,-397.0128,-33056.25,5420928.1652995115
PART_003_R247G182B210A255,13553,5089145.0,-1122.381,1135.591,192021.3,205.3338,-32634.78,5100308.3415941885
PART_000_R31G119B180A255,13554,5088268.0,211.9435,753.0807,165114.5,303.6205,-70561.01,5097282.278802262
PART_000_R31G119B180A255,13555,5087321.0,-340.2047,-39.33433,154915.0,5.582836,-71372.9,5096081.253488319
PART_000_R31G119B180A255,13556,5087323.0,158.0635,-483.9443,148141.7,87.11805,-55266.09,5094851.758158934
PART_000_R31G119B180A255,13557,5087415.0,-235.1777,-917.3426,144919.4,-159.3002,-29081.57,5094428.09343053
PART_000_R31G119B180A255,13558,5088138.0,80.55624,-1021.401,143668.9,-162.9791,1263.368,5094689.7563554635
PART_000_R31G119B180A255,13559,5088905.0,-219.9454,-776.5368,144782.2,-339.2163,31673.82,5095872.965155084
PART_000_R31G119B180A255,13560,5090169.0,104.0284,-393.5777,147908.3,-319.6587,57435.6,5097727.136353437
PART_000_R31G119B180A255,13561,5091351.0,-309.3329,257.2525,154558.0,-365.1696,73247.42,5099988.322142361
PART_000_R31G119B180A255,13562,5093111.0,375.5641,790.4892,164725.5,-343.6154,71664.97,5102024.374453249
PART_000_R31G119B180A255,13563,5094479.0,-265.5177,1616.402,191520.9,-488.126,33110.7,5104916.040225981
PART_003_R247G182B210A255,13564,4070771.0,34.20245,-581.2852,522490.3,-105.5788,-12208.79,4170472.3329451163
PART_003_R247G182B210A255,13565,4070366.0,367.3053,51.31341,466373.6,481.4884,-33172.86,4149938.623285442
PART_000_R31G119B180A255,13566,4069778.0,36.88253,64.9608,435702.3,228.6394,-40293.69,4139693.089661318
PART_000_R31G119B180A255,13567,4069417.0,-110.6358,-352.4896,417922.9,16.21478,-32924.4,4133917.048989274
PART_000_R31G119B180A255,13568,4069670.0,70.87874,-456.2404,408057.4,-326.5905,-17782.51,4130891.4228357226
PART_000_R31G119B180A255,13569,4070058.0,-125.8777,-648.7145,404938.5,-531.871,1218.449,4130430.4839111245
PART_000_R31G119B180A255,13570,4070962.0,50.62231,-469.9144,407697.5,-881.8692,20155.6,4132107.4050673335
PART_000_R31G119B180A255,13571,4071936.0,-128.799,-373.7568,417237.6,-869.7306,35020.58,4136260.6915207477
PART_000_R31G119B180A255,13572,4073302.0,-11.30572,16.61166,434752.6,-1024.885,41973.19,4142956.1230990556
PART_000_R31G119B180A255,13573,4074717.0,141.4648,-25.88756,465297.8,-719.9974,34299.44,4154020.311443508
PART_002_R214G39B40A255,13574,4075570.0,-501.9243,-857.1883,521476.3,12.18128,12565.88,4175176.2643924477
PART_003_R247G182B210A255,13575,3053528.0,-960.7063,232.2839,764263.3,1.034761,-6663.356,3328466.1754584
PART_003_R247G182B210A255,13576,3052622.0,-566.8039,-327.2977,701434.5,-33.13344,-16770.27,3286047.0895145545
PART_003_R247G182B210A255,13577,3052211.0,-97.04928,-210.8695,658398.9,210.6488,-21129.37,3258640.617426287
PART_000_R31G119B180A255,13578,3051966.0,-225.4885,-153.6819,631863.0,-31.88995,-18532.09,3242597.1983229597
PART_000_R31G119B180A255,13579,3052002.0,-243.0602,-394.3649,617133.5,-500.6976,-10080.34,3234119.44920965
PART_000_R31G119B180A255,13580,3052430.0,-198.7776,-342.1634,612212.9,-805.7205,1017.338,3231624.844451497
PART_000_R31G119B180A255,13581,3053042.0,-270.1445,-438.087,616598.1,-1259.377,12046.4,3234848.9326322014
PART_000_R31G119B180A255,13582,3053973.0,-292.4181,-235.2801,630854.0,-1289.356,20280.62,3243999.374037593
PART_000_R31G119B180A255,13583,3055066.0,-179.8122,-289.8583,656984.4,-1441.569,22535.43,3260564.135187566
PART_002_R214G39B40A255,13584,3056117.0,-442.3746,-334.7646,699692.0,-598.1881,17687.68,3288141.2113580387
PART_002_R214G39B40A255,13585,3057501.0,-287.5059,411.2562,762243.8,-474.4714,7028.504,3330334.8293009475
PART_003_R247G182B210A255,13586,2035576.0,-279.7709,-167.7674,932370.9,90.59586,-3149.55,2598549.0140843308
PART_003_R247G182B210A255,13587,2035214.0,-297.5414,177.0128,866180.4,467.1089,-8556.577,2528510.8770692875
PART_003_R247G182B210A255,13588,2034738.0,-387.3696,-123.3149,818576.5,-41.20829,-10777.4,2480271.935997924
PART_003_R247G182B210A255,13589,2034604.0,-186.2376,-137.2559,786683.8,-17.47707,-9518.002,2448909.4771951805
PART_000_R31G119B180A255,13590,2034622.0,-257.6405,-123.4243,768591.1,-672.3866,-5265.625,2431613.3387632505
PART_000_R31G119B180A255,13591,2034883.0,-224.6704,-219.8207,762533.6,-986.3024,720.9101,2426114.241205685
PART_000_R31G119B180A255,13592,2035348.0,-290.0991,-159.2525,767933.7,-1512.106,6666.975,2431637.89227588
PART_000_R31G119B180A255,13593,2036002.0,-247.0828,-206.9138,785431.4,-1638.217,10757.44,2448936.750072721
PART_002_R214G39B40A255,13594,2036736.0,-455.9295,-173.1565,816816.9,-1538.804,11783.56,2480235.508917636
PART_002_R214G39B40A255,13595,2037681.0,-448.6637,89.59141,864192.8,-1188.985,9218.322,2528561.3582072924
PART_002_R214G39B40A255,13596,2038334.0,-430.9483,-286.8316,930434.8,-485.8984,3367.026,2598736.2669472713
PART_003_R247G182B210A255,13597,1017735.0,-686.0235,109.4592,1032587.0,19.58581,-1369.628,2057932.2739328402
PART_003_R247G182B210A255,13598,1017489.0,-624.652,-154.5055,964756.6,202.8217,-3528.067,1956624.7273729558
PART_003_R247G182B210A255,13599,1017373.0,-433.938,36.8595,914409.0,179.6874,-4566.793,1882537.1510889044
PART_003_R247G182B210A255,13600,1017240.0,-457.5834,-70.68137,880244.0,-188.5972,-4027.224,1832989.9161219045
PART_003_R247G182B210A255,13601,1017274.0,-358.9558,-55.80478,860272.1,-698.3638,-2208.031,1804297.307988947
PART_000_R31G119B180A255,13602,1017396.0,-414.8865,-63.2976,853573.9,-1100.483,383.6593,1794812.1228524682
PART_000_R31G119B180A255,13603,1017643.0,-387.8701,-90.54944,859538.1,-1736.532,2906.031,1803478.8263241267
PART_002_R214G39B40A255,13604,1017962.0,-497.3746,-76.59078,878856.8,-1673.114,4690.225,1831412.9356388282
PART_002_R214G39B40A255,13605,1018393.0,-507.0511,-35.30365,912456.1,-1984.934,5067.397,1880290.9700054345
PART_002_R214G39B40A255,13606,1018764.0,-579.8804,-97.83397,962332.1,-1177.439,3891.327,1953681.0400461203
PART_002_R214G39B40A255,13607,1019208.0,-492.7603,105.7907,1029846.0,-676.6022,1509.466,2054491.7171632368
PART_003_R247G182B210A255,13608,-249.3326,-562.0698,3.548611,1065102.0,131.9198,-12.59834,1844810.8587970424
PART_003_R247G182B210A255,13609,-144.8978,-471.3644,24.67943,997096.6,504.9744,-12.52416,1727022.2480792936
PART_003_R247G182B210A255,13610,-83.02204,-394.7303,57.15519,946388.7,15.96497,-16.69132,1639193.361556106
PART_003_R247G182B210A255,13611,-53.06794,-346.3588,85.24332,911385.4,-42.2381,-26.5085,1578565.8665936985
PART_003_R247G182B210A255,13612,-42.69937,-313.6535,120.1693,890957.3,-803.2093,-18.67014,1543183.985085192
PART_003_R247G182B210A255,13613,-46.70902,-310.0991,122.4874,883991.6,-1142.155,-6.41496,1531119.6892652411
PART_002_R214G39B40A255,13614,-44.0516,-321.1028,121.5763,890199.1,-1706.344,12.91969,1541872.951423074
PART_002_R214G39B40A255,13615,-55.54268,-361.7205,84.36007,909939.5,-1906.857,15.67629,1576064.9562063105
PART_002_R214G39B40A255,13616,-84.19865,-418.841,59.76435,944350.2,-1876.668,12.58374,1635665.8117508239
PART_002_R214G39B40A255,13617,-156.4156,-498.6102,16.39944,994795.1,-1423.443,-2.745854,1723037.4800459587
PART_002_R214G39B40A255,13618,-278.5273,-560.2785,11.54525,1062817.0,-638.7814,-3.574378,1840853.442261081
PART_003_R247G182B210A255,13619,-1018370.0,-244.956,-121.4055,1032368.0,44.10566,1406.618,2057683.5068040707
PART_003_R247G182B210A255,13620,-1017841.0,-285.5901,186.9675,964595.5,232.0207,3532.396,1956341.2585476695
PART_003_R247G182B210A255,13621,-1017563.0,-423.4401,15.93934,914291.2,200.35,4535.411,1882250.5181430003
PART_003_R247G182B210A255,13622,-1017378.0,-320.6613,218.7235,880146.8,-177.3058,3960.183,1832751.1611017063
PART_003_R247G182B210A255,13623,-1017396.0,-377.913,241.5335,860187.8,-690.7802,2176.593,1804090.0640775037
PART_001_R158G218B229A255,13624,-1017517.0,-305.9393,280.7387,853494.3,-1099.472,-404.2599,1794624.5119087924
PART_001_R158G218B229A255,13625,-1017770.0,-360.8494,287.6583,859450.3,-1740.505,-2868.46,1803269.204729736
PART_002_R214G39B40A255,13626,-1018102.0,-316.0078,204.6963,878756.2,-1682.348,-4657.982,1831155.242129677
PART_002_R214G39B40A255,13627,-1018597.0,-381.1575,118.7949,912326.3,-2003.915,-5031.71,1879994.3206515776
PART_002_R214G39B40A255,13628,-1019106.0,-401.9427,107.0583,962166.0,-1195.824,-3896.262,1953360.3876528274
PART_002_R214G39B40A255,13629,-1019807.0,-562.8156,-88.18937,1029635.0,-689.1804,-1515.998,2054214.1349094184
PART_003_R247G182B210A255,13630,-2036194.0,-527.3532,146.146,932104.4,79.49534,3128.042,2598421.709567191
PART_003_R247G182B210A255,13631,-2035544.0,-348.1534,-76.23825,865947.4,496.3249,8522.602,2528317.414900609
PART_003_R247G182B210A255,13632,-2034906.0,-158.9669,256.1001,818390.7,-12.01567,10732.73,2480055.6053824704
PART_003_R247G182B210A255,13633,-2034690.0,-264.3245,406.4061,786543.8,9.653821,9435.519,2448769.7657922967
PART_001_R158G218B229A255,13634,-2034696.0,-156.799,447.5424,768470.5,-667.4605,5225.268,2431522.9089608956
PART_001_R158G218B229A255,13635,-2034953.0,-177.7794,578.8028,762417.9,-977.8299,-738.8615,2426045.736259197
PART_001_R158G218B229A255,13636,-2035424.0,-129.8183,498.474,767809.8,-1521.999,-6616.039,2431550.0185607574
PART_001_R158G218B229A255,13637,-2036095.0,-235.1048,449.6736,785281.1,-1649.444,-10705.63,2448769.3452581684
PART_002_R214G39B40A255,13638,-2036910.0,-111.7396,344.6676,816622.7,-1573.597,-11731.47,2480023.222576857
PART_002_R214G39B40A255,13639,-2038031.0,-251.2881,-42.02937,863935.7,-1220.118,-9214.04,2528316.9231885527
PART_002_R214G39B40A255,13640,-2038998.0,-364.2975,317.8622,930104.7,-509.2,-3370.645,2598603.0155737447
PART_003_R247G182B210A255,13641,-3054188.0,536.9001,-120.9197,763928.0,50.93951,6683.934,3328697.5215168856
PART_003_R247G182B210A255,13642,-3052903.0,88.24272,283.389,701227.3,41.96659,16763.83,3285932.684666445
PART_003_R247G182B210A255,13643,-3052274.0,-284.3385,488.2068,658257.8,229.9412,21021.76,3258563.362369933
PART_001_R158G218B229A255,13644,-3051984.0,-208.0747,356.1466,631763.5,3.913906,18465.0,3242446.101646708
PART_001_R158G218B229A255,13645,-3051956.0,-92.75134,867.905,617059.6,-503.9816,9977.328,3234097.8736321055
PART_001_R158G218B229A255,13646,-3052448.0,-197.957,713.4667,612139.4,-789.0321,-989.1235,3231588.1214384544
PART_001_R158G218B229A255,13647,-3052995.0,-81.81142,883.9102,616521.1,-1272.156,-12004.44,3234804.493166717
PART_001_R158G218B229A255,13648,-3054003.0,-138.2403,491.8105,630745.8,-1293.606,-20166.04,3243880.435195894
PART_001_R158G218B229A255,13649,-3055127.0,-243.6829,495.1661,656831.7,-1478.096,-22466.93,3260425.465178832
PART_002_R214G39B40A255,13650,-3056410.0,-43.19314,380.0873,699465.1,-629.5722,-17650.93,3288063.574652385
PART_002_R214G39B40A255,13651,-3058153.0,-223.6254,-389.1785,761934.2,-504.0426,-7033.381,3330496.3865274577
PART_003_R247G182B210A255,13652,-4071174.0,-143.3996,892.5436,522367.8,-135.1003,12162.89,4170917.980122029
PART_003_R247G182B210A255,13653,-4070355.0,-614.888,-188.7588,466275.4,498.2319,33158.69,4149705.589883951
PART_001_R158G218B229A255,13654,-4069493.0,-37.71001,493.5707,435645.6,252.4557,40094.94,4139663.3839991265
PART_001_R158G218B229A255,13655,-4069143.0,-24.2165,640.1259,417907.3,32.79603,32861.15,4133716.3069889587
PART_001_R158G218B229A255,13656,-4069286.0,-40.79993,1250.638,408048.5,-322.356,17607.52,4130914.4828695105
PART_001_R158G218B229A255,13657,-4069804.0,29.89617,1203.298,404942.1,-522.8611,-1139.035,4130407.23116236
PART_001_R158G218B229A255,13658,-4070575.0,-45.59314,1191.286,407687.0,-885.9594,-20115.0,4132080.3718282524
PART_001_R158G218B229A255,13659,-4071663.0,32.30353,807.0619,417216.5,-868.7027,-34818.18,4136146.253407962
PART_001_R158G218B229A255,13660,-4073008.0,-63.22632,338.0426,434692.3,-1052.716,-41871.63,4142782.7421290027
PART_001_R158G218B229A255,13661,-4074707.0,-308.4526,141.8527,465187.8,-741.6702,-34211.33,4153946.366098386
PART_002_R214G39B40A255,13662,-4075974.0,297.7679,888.1332,521306.2,-13.01056,-12562.55,4175422.4073362406
PART_003_R247G182B210A255,13663,-5088963.0,1159.271,-859.6837,191975.0,299.8911,32612.61,5100277.080933713
PART_001_R158G218B229A255,13664,-5087638.0,-331.5102,-809.6661,165109.6,295.2014,70485.41,5096561.920031752
PART_001_R158G218B229A255,13665,-5086491.0,329.0128,671.1788,154909.4,44.80764,71125.18,5095551.554335901
PART_001_R158G218B229A255,13666,-5086497.0,-334.882,894.753,148169.7,67.00439,55135.18,5094142.045842497
PART_001_R158G218B229A255,13667,-5086554.0,201.1823,1880.627,144925.9,-141.208,28875.28,5094029.44474198
PART_001_R158G218B229A255,13668,-5087375.0,-238.4837,1735.867,143704.9,-169.599,-1167.53,5094208.780134353
PART_001_R158G218B229A255,13669,-5088024.0,163.2511,1665.523,144789.9,-334.6837,-31599.0,5095408.106489142
PART_001_R158G218B229A255,13670,-5089344.0,-240.4596,954.762,147932.9,-317.0522,-57142.57,5097107.751473844
PART_001_R158G218B229A255,13671,-5090472.0,240.0429,179.9884,154552.5,-375.9546,-73080.86,5099286.78084069
PART_001_R158G218B229A255,13672,-5092470.0,-451.9502,-617.173,164712.7,-343.3213,-71507.62,5101425.067830982
PART_001_R158G218B229A255,13673,-5094263.0,201.2225,-1592.122,191477.7,-504.7087,-33096.38,5104675.3868502695
PART_003_R247G182B210A255,13674,4770791.0,681.1774,1845.744,191836.8,678.3197,-32622.96,4781421.565990149
PART_000_R31G119B180A255,13675,4769316.0,627.2677,420.407,165218.0,253.5603,-70047.16,4778910.931579312
PART_000_R31G119B180A255,13676,4768242.0,-198.7306,-508.912,155011.8,201.3186,-70929.43,4777728.040314227
PART_000_R31G119B180A255,13677,4768190.0,177.3004,-1496.28,148341.4,-48.82037,-54509.91,4776699.390572535
PART_000_R31G119B180A255,13678,4768513.0,-110.906,-2144.984,145076.9,-58.51949,-28595.82,4776512.633826516
PART_000_R31G119B180A255,13679,4769436.0,170.1084,-2295.146,143855.3,-330.8375,1766.735,4777002.554993533
PART_000_R31G119B180A255,13680,4770490.0,-142.5479,-2072.745,144922.3,-312.7501,31814.28,4778513.477184962
PART_000_R31G119B180A255,13681,4772050.0,227.6449,-1183.669,147999.7,-530.9741,57570.5,4780447.760039704
PART_000_R31G119B180A255,13682,4773631.0,-266.0825,-435.136,154595.6,-342.4077,73206.1,4783166.061979276
PART_000_R31G119B180A255,13683,4775928.0,394.7079,672.4574,164674.2,-513.4385,71723.81,4785517.566697785
PART_000_R31G119B180A255,13684,4778053.0,-396.8938,1285.029,191386.9,-338.5355,33097.24,4789438.661761629
PART_003_R247G182B210A255,13685,3816311.0,-1427.904,-1193.314,522814.4,-248.431,-12095.52,3923605.3026886224
PART_003_R247G182B210A255,13686,3815423.0,-210.8825,-216.9279,466630.4,325.0731,-33060.86,3900717.3906056695
PART_000_R31G119B180A255,13687,3814444.0,-180.6033,-506.7536,436044.4,388.3706,-39932.37,3889446.426262374
PART_000_R31G119B180A255,13688,3814119.0,-267.208,-1062.974,418352.9,-55.15904,-32491.09,3883400.9070156915
PART_000_R31G119B180A255,13689,3814368.0,-154.7087,-1487.106,408551.7,-271.4634,-17344.35,3880375.4851115867
PART_000_R31G119B180A255,13690,3815030.0,-291.8296,-1661.062,405386.1,-797.5528,1596.899,3880068.2763626026
PART_000_R31G119B180A255,13691,3816101.0,-167.8284,-1500.124,408094.4,-985.6306,20401.34,3881992.8670923747
PART_000_R31G119B180A255,13692,3817438.0,-327.7747,-1109.416,417467.4,-1279.227,35232.04,3886500.4997064085
PART_000_R31G119B180A255,13693,3819192.0,-246.4661,-548.5339,434828.7,-1138.872,42125.18,3893818.1127825463
PART_000_R31G119B180A255,13694,3821195.0,-9.366432,-215.9786,465124.5,-1050.551,34471.83,3905762.7928113732
PART_002_R214G39B40A255,13695,3822852.0,-402.2332,-841.1379,521025.5,64.04034,12657.4,3928591.9265240347
PART_003_R247G182B210A255,13696,2862990.0,15.57329,639.4979,763653.1,443.9808,-6737.002,3153485.6272763116
PART_003_R247G182B210A255,13697,2861533.0,-384.707,-355.931,701465.6,184.2315,-16702.58,3109258.6901436886
PART_003_R247G182B210A255,13698,2860867.0,-235.8666,-446.3234,658836.7,465.5912,-20958.75,3080588.8472568733
PART_000_R31G119B180A255,13699,2860502.0,-338.102,-654.4984,632427.0,-87.10736,-18260.28,3063691.1424055807
PART_000_R31G119B180A255,13700,2860588.0,-301.0515,-969.8249,617809.7,-453.7374,-9771.197,3054824.6138683665
PART_000_R31G119B180A255,13701,2861140.0,-281.925,-1044.099,612802.7,-1150.06,1310.521,3052295.444885034
PART_000_R31G119B180A255,13702,2861956.0,-339.8637,-1028.333,617135.8,-1448.568,12293.73,3055771.2901227395
PART_000_R31G119B180A255,13703,2863161.0,-401.3226,-743.1219,631108.3,-1878.642,20514.76,3065474.5585057423
PART_000_R31G119B180A255,13704,2864636.0,-320.0257,-550.7854,657018.1,-1685.905,22755.74,3083052.7968162433
PART_002_R214G39B40A255,13705,2866216.0,-643.0993,-474.9721,699358.7,-1159.444,17913.52,3112342.1431194562
PART_002_R214G39B40A255,13706,2868228.0,-428.281,356.3102,761628.6,-400.9398,7113.504,3157107.1272162637
PART_003_R247G182B210A255,13707,1908591.0,-1160.829,-369.1216,932721.5,121.112,-3121.995,2501115.388134604
PART_003_R247G182B210A255,13708,1907952.0,-898.7348,-65.46553,866472.4,397.9391,-8543.211,2427892.8991494426
PART_003_R247G182B210A255,13709,1907279.0,-732.415,-265.7925,818988.3,324.7362,-10728.83,2377433.196285721
PART_003_R247G182B210A255,13710,1906987.0,-583.333,-504.4716,787289.5,-78.36509,-9356.235,2344869.0910470737
PART_000_R31G119B180A255,13711,1907061.0,-608.807,-520.6865,769331.5,-579.0996,-5092.475,2326956.740495637
PART_000_R31G119B180A255,13712,1907349.0,-599.5827,-706.0111,763190.9,-1417.142,927.8554,2321176.5384430774
PART_000_R31G119B180A255,13713,1908007.0,-650.9009,-574.7178,768502.6,-1744.573,6866.25,2326965.596305294
PART_000_R31G119B180A255,13714,1908838.0,-667.6707,-573.2709,785674.1,-2373.984,10957.34,2344836.9090249157
PART_002_R214G39B40A255,13715,1909903.0,-853.0123,-364.1658,816766.5,-1886.984,11997.64,2377355.6254611635
PART_002_R214G39B40A255,13716,1911223.0,-803.1171,-40.09635,863658.9,-1888.788,9404.816,2427422.847377691
PART_002_R214G39B40A255,13717,1912373.0,-587.6165,-237.8432,929490.4,-447.7132,3457.888,2500128.6013843147
PART_003_R247G182B210A255,13718,954514.4,-793.5927,97.38799,1031666.0,525.4794,-1431.995,2026024.2300306861
PART_003_R247G182B210A255,13719,954033.4,-781.5718,12.19246,964545.9,442.6025,-3592.428,1924058.2232260443
PART_003_R247G182B210A255,13720,953729.9,-744.017,-101.0652,914755.2,614.6608,-4548.499,1849540.921048147
PART_003_R247G182B210A255,13721,953565.7,-654.9106,-57.74944,880800.7,-240.686,-4010.412,1799290.2906903368
PART_003_R247G182B210A255,13722,953543.8,-592.1738,-232.9259,860966.2,-588.5957,-2106.802,1770264.263328908
PART_000_R31G119B180A255,13723,953733.6,-598.4515,-137.9409,854193.4,-1570.062,458.9872,1760470.8227252893
PART_000_R31G119B180A255,13724,954033.4,-618.7856,-238.5098,860046.8,-2002.263,3053.141,1769203.0397071224
PART_002_R214G39B40A255,13725,954505.6,-728.3918,-136.8019,878992.4,-2513.238,4799.807,1797186.1905762053
PART_002_R214G39B40A255,13726,955089.4,-798.6366,-78.96156,912251.1,-2395.069,5231.848,1846548.1477088134
PART_002_R214G39B40A255,13727,955704.3,-926.1235,-115.3003,961640.2,-1979.764,4003.194,1920594.2372896113
PART_002_R214G39B40A255,13728,956379.5,-855.4938,99.97753,1028790.0,-629.8565,1565.429,2022528.1876526698
PART_003_R247G182B210A255,13729,-135.6829,-900.3354,5.811103,1065147.0,233.5818,10.78371,1844888.9591964548
PART_003_R247G182B210A255,13730,-3.741855,-870.7226,20.35868,997189.3,507.4662,-30.32642,1727182.980624672
PART_003_R247G182B210A255,13731,41.56503,-808.9325,60.09442,946632.1,440.6907,-74.39611,1639615.3015049107
PART_003_R247G182B210A255,13732,28.75368,-738.7569,124.0762,911866.4,-69.54451,-76.77476,1579399.1572301171
PART_003_R247G182B210A255,13733,1.462774,-702.5609,158.5614,891604.7,-696.9994,-51.93157,1544305.3194339157
PART_000_R31G119B180A255,13734,-2.798129,-688.1715,185.9603,884546.3,-1616.047,-3.579771,1532081.897331091
PART_002_R214G39B40A255,13735,1.687035,-716.4032,158.1027,890648.9,-1996.963,38.34653,1542653.2370071628
PART_002_R214G39B40A255,13736,29.7059,-765.7095,126.1824,910001.4,-2759.614,70.67138,1576176.1399443168
PART_002_R214G39B40A255,13737,40.35482,-845.1088,59.36453,944061.0,-2317.753,65.21441,1635166.7942745972
PART_002_R214G39B40A255,13738,15.14759,-926.5806,33.15379,993927.3,-2248.154,42.59375,1721537.2506050891
PART_002_R214G39B40A255,13739,-85.9935,-1024.971,-4.651223,1061478.0,-607.8285,10.89107,1838534.3909886978
PART_003_R247G182B210A255,13740,-954707.3,-1064.8,-58.47613,1031262.0,516.9016,1354.149,2025069.120883905
PART_003_R247G182B210A255,13741,-954037.5,-785.9825,66.9909,964191.4,459.1861,3475.688,1923157.3837432896
PART_003_R247G182B210A255,13742,-953684.5,-579.5798,335.0222,914447.0,634.5532,4380.085,1848778.0418175147
PART_003_R247G182B210A255,13743,-953521.7,-529.3858,384.2886,880536.3,-225.5895,3860.623,1798650.4116033344
PART_003_R247G182B210A255,13744,-953545.6,-499.2225,685.9638,860722.0,-586.2472,1982.7,1769736.773661418
PART_001_R158G218B229A255,13745,-953758.4,-478.9857,619.2015,853949.6,-1568.949,-453.3637,1759968.0356283155
PART_001_R158G218B229A255,13746,-954033.5,-501.2108,677.9045,859797.8,-2005.404,-2978.78,1768656.268570046
PART_002_R214G39B40A255,13747,-954467.2,-495.5983,493.9701,878713.9,-2526.446,-4639.977,1796525.7881129081
PART_002_R214G39B40A255,13748,-955033.3,-612.9208,274.3086,911931.7,-2413.897,-5097.067,1845730.0817279655
PART_002_R214G39B40A255,13749,-955737.1,-708.7723,224.5843,961251.9,-2009.969,-3909.219,1919647.0955681906
PART_002_R214G39B40A255,13750,-956648.3,-1017.985,-99.64168,1028318.0,-639.4788,-1541.832,2021491.9799313522
PART_003_R247G182B210A255,13751,-1909167.0,-143.3447,434.2807,931916.1,192.7156,3127.969,2500181.3268249785
PART_003_R247G182B210A255,13752,-1908178.0,-383.4787,90.36376,865869.3,461.83,8455.267,2426929.7893854617
PART_003_R247G182B210A255,13753,-1907367.0,-423.1709,505.9809,818514.5,367.1046,10523.81,2376644.291246758
PART_003_R247G182B210A255,13754,-1907092.0,-500.1089,838.3115,786874.4,-69.04317,9172.113,2344229.6417920697
PART_001_R158G218B229A255,13755,-1907204.0,-403.7265,1014.408,768949.9,-564.3941,4946.433,2326482.2364952615
PART_001_R158G218B229A255,13756,-1907520.0,-400.6305,1231.025,762817.3,-1423.166,-919.0577,2320753.761900124
PART_001_R158G218B229A255,13757,-1908155.0,-388.921,1048.313,768110.7,-1742.005,-6768.967,2326466.0081221606
PART_001_R158G218B229A255,13758,-1908946.0,-440.4528,947.9566,785243.1,-2395.633,-10756.4,2344190.613901446
PART_002_R214G39B40A255,13759,-1910004.0,-375.321,549.8532,816258.4,-1914.203,-11826.84,2376491.790109149
PART_002_R214G39B40A255,13760,-1911439.0,-535.1386,147.7994,863032.3,-1940.869,-9285.315,2426438.3914392474
PART_002_R214G39B40A255,13761,-1912895.0,-904.5542,227.7294,928711.4,-464.0725,-3429.486,2499084.6696349
PART_003_R247G182B210A255,13762,-2863658.0,-942.8739,-727.3712,762986.5,431.5228,6658.688,3153146.624095101
PART_003_R247G182B210A255,13763,-2861794.0,-294.9653,661.0485,700878.0,190.5643,16506.31,3108925.967037971
PART_003_R247G182B210A255,13764,-2860987.0,-408.0715,675.9956,658363.6,529.0224,20746.91,3080200.3299648627
PART_001_R158G218B229A255,13765,-2860564.0,-113.4327,1354.649,632032.9,-92.93025,17947.79,3063615.859375218
PART_001_R158G218B229A255,13766,-2860783.0,-202.2045,1633.302,617440.3,-427.6203,9656.294,3054857.4965327787
PART_001_R158G218B229A255,13767,-2861263.0,-126.1143,1922.974,612450.9,-1164.258,-1353.248,3052420.199555771
PART_001_R158G218B229A255,13768,-2862161.0,-162.7285,1730.382,616757.0,-1434.494,-12110.81,3055825.510158881
PART_001_R158G218B229A255,13769,-2863223.0,-96.39185,1373.145,630695.4,-1902.032,-20272.06,3065334.7923289826
PART_001_R158G218B229A255,13770,-2864778.0,-329.6518,878.537,656518.2,-1710.198,-22499.19,3082710.244154589
PART_002_R214G39B40A255,13771,-2866490.0,-113.4146,658.8401,698729.5,-1224.812,-17760.61,3111904.3139697444
PART_002_R214G39B40A255,13772,-2868949.0,-488.2546,-331.6682,760821.6,-418.1404,-7064.741,3156772.879328151
PART_003_R247G182B210A255,13773,-3816915.0,893.6695,835.6683,522228.3,-145.6187,12086.78,3923524.834777867
PART_003_R247G182B210A255,13774,-3815456.0,-14.56155,787.2712,466244.8,392.6228,32755.28,3900772.3834160026
PART_001_R158G218B229A255,13775,-3814374.0,-294.4084,644.164,435770.5,414.0301,39687.07,3889112.6613487205
PART_001_R158G218B229A255,13776,-3813938.0,28.1296,2069.713,418119.4,-51.94098,32014.47,3883513.1801846577
PART_001_R158G218B229A255,13777,-3814436.0,-263.0442,2248.203,408353.6,-265.5464,17246.78,3880547.7097928887
PART_001_R158G218B229A255,13778,-3814941.0,40.5518,2835.131,405180.5,-799.9925,-1691.567,3880370.7986791395
PART_001_R158G218B229A255,13779,-3816172.0,-224.0592,2364.383,407890.0,-970.4737,-20102.93,3882226.257285002
PART_001_R158G218B229A255,13780,-3817260.0,16.4051,1919.518,417222.8,-1290.2,-34919.42,3886483.650909695
PART_001_R158G218B229A255,13781,-3819128.0,-153.2052,971.9162,434532.1,-1143.027,-41726.56,3893654.868402598
PART_001_R158G218B229A255,13782,-3821231.0,-359.2052,437.2419,464716.7,-1101.347,-34252.04,3905574.619475525
PART_002_R214G39B40A255,13783,-3823462.0,-22.58757,885.6156,520460.4,52.21577,-12579.98,3928775.137994675
PART_003_R247G182B210A255,13784,-4770676.0,-849.4694,-2063.306,191685.3,548.0552,32499.05,4781093.603345464
PART_001_R158G218B229A255,13785,-4768640.0,-578.2487,231.532,165085.8,299.6182,69643.69,4778554.757288649
PART_001_R158G218B229A255,13786,-4767452.0,107.5379,932.8586,154947.1,162.3896,70506.73,4777080.581441231
PART_001_R158G218B229A255,13787,-4767423.0,-40.94546,2867.923,148257.7,-11.00349,53928.16,4776659.248813446
PART_001_R158G218B229A255,13788,-4767974.0,70.94801,3306.5,145045.5,-82.13709,28434.35,4776529.126948807
PART_001_R158G218B229A255,13789,-4768814.0,-52.04383,3917.173,143779.4,-317.0028,-1860.367,4777244.271698151
PART_001_R158G218B229A255,13790,-4769958.0,131.1589,3343.466,144885.5,-310.1681,-31411.87,4778600.184543501
PART_001_R158G218B229A255,13791,-4771242.0,-149.2618,2360.955,147917.6,-534.6873,-57137.72,4780245.031253121
PART_001_R158G218B229A255,13792,-4772850.0,247.3597,1138.599,154519.8,-337.4506,-72618.73,4782694.121378407
PART_001_R158G218B229A255,13793,-4775198.0,-419.6161,-328.2276,164542.1,-543.6793,-71378.59,4784919.318823968
PART_001_R158G218B229A255,13794,-4777923.0,327.1213,-1168.406,191200.0,-329.7825,-32949.06,4789306.841572889
PART_003_R247G182B210A255,13795,4452047.0,-1724.681,496.8462,192050.5,-52.38434,-32228.78,4465418.146309785
PART_000_R31G119B180A255,13796,4449905.0,-32.78092,-44.52151,165294.7,351.1508,-69543.45,4460770.646073467
PART_000_R31G119B180A255,13797,4448550.0,-388.7055,-1760.174,155267.3,-3.695058,-69741.61,4459380.511393919
PART_000_R31G119B180A255,13798,4448741.0,67.11094,-3167.304,148540.0,162.5821,-53543.35,4458687.232249048
PART_000_R31G119B180A255,13799,4449344.0,-293.3907,-4353.636,145379.5,-247.8697,-27574.33,4459040.572366824
PART_000_R31G119B180A255,13800,4450631.0,-13.81395,-4740.267,144093.3,-242.0672,2177.63,4460000.045109342
PART_000_R31G119B180A255,13801,4452003.0,-262.9466,-4136.856,145146.5,-564.093,32019.12,4461638.027390397
PART_000_R31G119B180A255,13802,4453807.0,-24.5343,-3041.756,148170.9,-493.4437,57284.44,4463829.268149056
PART_000_R31G119B180A255,13803,4455822.0,-353.1791,-1302.651,154656.1,-616.1807,72983.12,4466482.443230941
PART_000_R31G119B180A255,13804,4458712.0,218.0701,-14.19285,164661.6,-390.4537,71442.64,4469435.832092279
PART_000_R31G119B180A255,13805,4461912.0,-154.8504,1356.947,191173.3,-538.6908,33065.54,4473949.002187595
PART_003_R247G182B210A255,13806,3561916.0,514.3289,-357.9903,522251.8,117.6284,-12120.8,3674965.430260295
PART_003_R247G182B210A255,13807,3560055.0,186.2135,-523.8823,466815.3,748.0157,-32606.19,3651319.606883319
PART_000_R31G119B180A255,13808,3558888.0,-213.2536,-1189.607,436545.5,367.2757,-39331.83,3639647.63832867
PART_000_R31G119B180A255,13809,3558439.0,-314.5926,-2379.184,419003.5,126.3477,-31708.08,3633426.3197955303
PART_000_R31G119B180A255,13810,3559035.0,-112.9925,-3023.473,409229.4,-475.7641,-16677.3,3630584.3766225423
PART_000_R31G119B180A255,13811,3559826.0,-296.6009,-3429.771,406083.4,-808.4724,2030.838,3630476.9296798767
PART_000_R31G119B180A255,13812,3561287.0,-146.6153,-3043.455,408637.7,-1431.829,20621.84,3632680.956400723
PART_000_R31G119B180A255,13813,3562853.0,-340.9971,-2398.917,417895.9,-1426.493,35216.68,3637488.9913023673
PART_000_R31G119B180A255,13814,3565097.0,-274.1454,-1271.514,434958.0,-1678.944,42131.36,3645315.814131886
PART_000_R31G119B180A255,13815,3567795.0,-175.2575,-627.0209,464998.9,-1069.355,34504.65,3658451.9834279986
PART_002_R214G39B40A255,13816,3570543.0,-516.7111,-888.2409,520529.7,-256.3081,12701.1,3683358.794636722
PART_003_R247G182B210A255,13817,2672313.0,-1538.635,-61.03528,764148.5,18.10264,-6603.907,2982856.5994309494
PART_003_R247G182B210A255,13818,2670363.0,-1130.865,-674.7051,701906.3,378.4414,-16554.6,2935047.0194489923
PART_003_R247G182B210A255,13819,2669288.0,-642.4156,-1076.93,659424.5,522.4064,-20589.2,2904390.351512231
PART_000_R31G119B180A255,13820,2668873.0,-724.3402,-1549.357,633300.1,166.5586,-17777.82,2886712.3840049813
PART_000_R31G119B180A255,13821,2669053.0,-713.2285,-2215.847,618707.8,-677.9572,-9311.098,2877555.404624801
PART_000_R31G119B180A255,13822,2669786.0,-657.1955,-2301.354,613769.2,-1208.614,1655.913,2875032.294865744
PART_000_R31G119B180A255,13823,2670844.0,-754.2972,-2274.716,617836.4,-2063.422,12516.59,2878741.034072706
PART_000_R31G119B180A255,13824,2672336.0,-829.3658,-1671.483,631668.8,-2144.682,20629.03,2889008.79003616
PART_000_R31G119B180A255,13825,2674254.0,-796.6697,-1192.727,657100.1,-2484.399,22891.82,2907557.043793526
PART_002_R214G39B40A255,13826,2676496.0,-969.266,-690.4899,699038.5,-1327.637,18051.94,2938540.6742034173
PART_002_R214G39B40A255,13827,2679416.0,-467.6308,276.908,760715.0,-901.5949,7220.224,2985967.568280694
PART_003_R247G182B210A255,13828,1782037.0,-656.1626,-124.3858,931691.8,393.974,-3197.744,2404418.2607878963
PART_003_R247G182B210A255,13829,1780775.0,-933.7647,16.80712,866426.6,1143.229,-8536.934,2329184.6431442685
PART_003_R247G182B210A255,13830,1779760.0,-1106.772,-632.8187,819581.2,425.8554,-10525.4,2277304.4510860303
PART_003_R247G182B210A255,13831,1779441.0,-851.5569,-937.302,788172.7,289.0862,-9130.448,2243544.7862477554
PART_000_R31G119B180A255,13832,1779462.0,-882.1929,-1215.604,770292.7,-859.7184,-4792.055,2224936.57945836
PART_000_R31G119B180A255,13833,1779950.0,-838.2557,-1395.873,764202.2,-1458.163,1155.724,2219059.6013134783
PART_000_R31G119B180A255,13834,1780706.0,-936.5029,-1264.076,769224.1,-2512.57,7048.796,2224886.261646485
PART_000_R31G119B180A255,13835,1781831.0,-956.7101,-1044.811,786168.2,-2727.157,11116.59,2243449.009047554
PART_002_R214G39B40A255,13836,1783211.0,-1219.584,-691.12,816678.4,-2935.275,12151.59,2276973.7458040398
PART_002_R214G39B40A255,13837,1785052.0,-1204.24,-136.196,863121.0,-2133.346,9582.946,2328954.1492648395
PART_002_R214G39B40A255,13838,1786852.0,-982.241,-320.3245,928380.8,-1055.821,3533.407,2404346.4482135414
PART_003_R247G182B210A255,13839,891275.6,-1552.093,98.79553,1031845.0,142.0591,-1389.572,1997445.4238279937
PART_003_R247G182B210A255,13840,890608.4,-1536.976,-290.6843,964785.8,907.9939,-3560.137,1894013.8511937934
PART_003_R247G182B210A255,13841,890183.6,-1278.099,-120.157,915200.7,722.3048,-4548.444,1818382.1476008787
PART_003_R247G182B210A255,13842,889856.5,-1278.514,-441.1296,881615.7,222.2284,-3896.314,1767812.3518163944
PART_000_R31G119B180A255,13843,889873.4,-1128.795,-470.2366,861896.0,-887.1922,-2030.036,1738363.4364339728
PART_000_R31G119B180A255,13844,890065.1,-1186.504,-577.4887,855158.5,-1616.838,616.9365,1728491.8777255688
PART_000_R31G119B180A255,13845,890502.0,-1182.163,-528.2942,860704.2,-2847.284,3136.076,1736953.3716612146
PART_002_R214G39B40A255,13846,891098.0,-1351.331,-433.4642,879390.6,-2940.426,4963.805,1765143.291568903
PART_002_R214G39B40A255,13847,891938.2,-1427.668,-252.4452,912006.3,-3547.91,5338.246,1814509.239063128
PART_002_R214G39B40A255,13848,892844.6,-1509.505,-166.9789,960821.3,-2301.259,4155.041,1888986.703461736
PART_002_R214G39B40A255,13849,893918.8,-1357.702,64.84807,1027235.0,-1312.843,1622.344,1991455.94110863
PART_003_R247G182B210A255,13850,392.6349,-1687.334,9.378503,1063778.0,470.0809,-76.37921,1842518.7261670404
PART_003_R247G182B210A255,13851,392.4988,-1410.362,73.69172,996770.0,1300.713,-135.2391,1726458.5735869827
PART_003_R247G182B210A255,13852,324.8856,-1210.601,163.3071,946942.9,627.8721,-158.4035,1640154.2492251901
PART_003_R247G182B210A255,13853,247.1277,-1097.229,242.2912,912537.0,355.9073,-151.7217,1580561.1595227148
PART_000_R31G119B180A255,13854,182.59,-1026.093,326.6507,892371.7,-969.6993,-94.75221,1545634.5805392067
PART_000_R31G119B180A255,13855,146.3636,-1017.299,340.8607,885381.2,-1678.575,-6.559643,1533528.5061518315
PART_000_R31G119B180A255,13856,186.3886,-1048.195,327.6552,891140.5,-2866.188,88.43374,1543509.1704753905
PART_002_R214G39B40A255,13857,254.9681,-1140.073,242.3583,910217.9,-3209.503,141.4971,1576554.0802463857
PART_002_R214G39B40A255,13858,343.1745,-1278.837,164.7465,943584.9,-3536.661,154.716,1634349.2159247447
PART_002_R214G39B40A255,13859,384.219,-1478.519,57.45644,992926.8,-2579.854,106.6015,1719806.3435747449
PART_002_R214G39B40A255,13860,340.9222,-1675.457,24.98334,1059801.0,-1311.145,38.63715,1835631.5450370254
PART_003_R247G182B210A255,13861,-890995.5,-1234.586,-99.15341,1030925.0,192.6386,1383.054,1995272.1502460102
PART_003_R247G182B210A255,13862,-890117.0,-1105.06,402.6397,964064.7,951.3016,3353.075,1892084.4450696493
PART_003_R247G182B210A255,13863,-889703.3,-1172.585,349.917,914607.4,742.4375,4221.525,1816705.0242584737
PART_003_R247G182B210A255,13864,-889555.5,-961.9837,910.0597,881075.1,219.923,3547.404,1766404.064824407
PART_000_R31G119B180A255,13865,-889714.7,-1008.4,1056.656,861379.2,-886.2324,1847.393,1737116.3903945053
PART_000_R31G119B180A255,13866,-889960.0,-921.1868,1232.372,854652.5,-1620.217,-647.3682,1727313.250799104
PART_000_R31G119B180A255,13867,-890341.0,-991.2039,1134.703,860174.9,-2850.178,-2932.656,1735681.710999707
PART_002_R214G39B40A255,13868,-890780.0,-983.7578,863.6058,878831.1,-2944.41,-4666.768,1763663.28826617
PART_002_R214G39B40A255,13869,-891454.6,-1116.965,538.0716,911371.5,-3571.115,-4997.003,1812756.0747537294
PART_002_R214G39B40A255,13870,-892274.1,-1323.174,245.041,960078.6,-2324.404,-3928.393,1886930.9670349346
PART_002_R214G39B40A255,13871,-893468.2,-1775.313,-16.5431,1026336.0,-1334.033,-1539.05,1989169.87214579
PART_003_R247G182B210A255,13872,-1782036.0,-1795.245,87.89805,930397.2,350.5819,3036.614,2401990.4290184216
PART_003_R247G182B210A255,13873,-1780585.0,-1063.246,251.0492,865288.9,1166.462,8204.328,2327105.2562174546
PART_003_R247G182B210A255,13874,-1779616.0,-634.6188,998.7436,818583.1,447.4218,10137.06,2275571.774117288
PART_003_R247G182B210A255,13875,-1779423.0,-669.8636,1647.219,787289.4,305.4722,8713.898,2242273.7301941076
PART_001_R158G218B229A255,13876,-1779603.0,-556.5158,2058.692,769453.3,-877.374,4570.94,2223939.284462098
PART_001_R158G218B229A255,13877,-1780151.0,-576.3701,2338.022,763364.7,-1451.28,-1189.105,2218167.7780274116
PART_001_R158G218B229A255,13878,-1780843.0,-523.8061,2136.245,768367.1,-2520.032,-6797.918,2223870.7102502976
PART_001_R158G218B229A255,13879,-1781822.0,-647.1663,1698.296,785244.7,-2728.328,-10759.82,2242089.2794347797
PART_002_R214G39B40A255,13880,-1783059.0,-590.5288,1139.189,815636.1,-2977.495,-11737.11,2275193.756307541
PART_002_R214G39B40A255,13881,-1784893.0,-934.6554,280.9297,861887.4,-2177.651,-9316.142,2326693.291977056
PART_002_R214G39B40A255,13882,-1786948.0,-1453.352,394.3691,926873.0,-1096.535,-3432.295,2401793.7612846517
PART_003_R247G182B210A255,13883,-2673032.0,137.348,260.5807,762448.0,121.4443,6525.796,2981655.992992453
PART_003_R247G182B210A255,13884,-2670632.0,-272.1128,676.4304,700665.2,519.0758,16245.39,2933759.276507616
PART_003_R247G182B210A255,13885,-2669459.0,-511.044,1742.603,658418.9,507.4886,19986.61,2903626.8092368753
PART_001_R158G218B229A255,13886,-2669276.0,-477.2846,2231.727,632389.8,196.8735,17345.7,2886239.2559137815
PART_001_R158G218B229A255,13887,-2669496.0,-308.2678,3370.67,617862.4,-718.1276,8925.595,2877481.336484208
PART_001_R158G218B229A255,13888,-2670468.0,-456.8161,3395.399,612908.0,-1186.568,-1612.095,2875107.0743340617
PART_001_R158G218B229A255,13889,-2671291.0,-304.8078,3379.079,616969.3,-2072.92,-12237.94,2878617.0229238933
PART_001_R158G218B229A255,13890,-2672766.0,-381.4571,2447.302,630723.2,-2127.877,-20123.35,2888575.838607199
PART_001_R158G218B229A255,13891,-2674432.0,-455.4363,1728.998,656031.8,-2524.229,-22356.71,2906655.863973088
PART_002_R214G39B40A255,13892,-2676788.0,-463.007,858.1501,697736.0,-1372.346,-17690.63,2937295.382088251
PART_002_R214G39B40A255,13893,-2680097.0,-1105.761,-215.7081,759076.8,-955.7229,-7091.984,2984648.3358310307
PART_003_R247G182B210A255,13894,-3562710.0,-937.8061,1003.83,521199.3,26.88076,11844.82,3675392.173506565
PART_003_R247G182B210A255,13895,-3560317.0,-880.3815,370.9063,465959.1,758.1378,32212.17,3650823.5688788085
PART_001_R158G218B229A255,13896,-3558937.0,-24.24566,2418.589,435834.8,377.6855,38426.46,3639896.4162417925
PART_001_R158G218B229A255,13897,-3558883.0,-147.8674,3300.111,418391.7,122.4307,31213.64,3633862.3855679734
PART_001_R158G218B229A255,13898,-3559417.0,-65.55587,4815.85,408633.9,-496.3217,16101.17,3631543.011545613
PART_001_R158G218B229A255,13899,-3560614.0,-80.49824,4976.218,405506.9,-797.7079,-1899.007,3631631.7628106438
PART_001_R158G218B229A255,13900,-3561685.0,-84.08114,4697.741,408027.7,-1428.215,-20291.93,3633559.7052670713
PART_001_R158G218B229A255,13901,-3563305.0,-52.17482,3591.475,417256.5,-1397.119,-34484.02,3638083.214683204
PART_001_R158G218B229A255,13902,-3565179.0,-114.9215,2109.28,434210.7,-1711.209,-41413.06,3645323.985198332
PART_001_R158G218B229A255,13903,-3568085.0,-391.3776,956.283,464078.9,-1098.142,-33973.86,3658253.900858112
PART_002_R214G39B40A255,13904,-3571385.0,-166.8367,957.437,519295.7,-310.4193,-12521.75,3683353.119699253
PART_003_R247G182B210A255,13905,-4452120.0,1638.876,3.515971,191574.7,179.9317,31936.72,4465629.838793873
PART_001_R158G218B229A255,13906,-4449343.0,-245.0717,131.5491,165026.9,317.4962,68832.58,4460052.000600254
PART_001_R158G218B229A255,13907,-4447971.0,329.2411,3239.186,155006.7,68.90596,68611.88,4459431.782969672
PART_001_R158G218B229A255,13908,-4448548.0,-391.8227,4470.082,148375.1,98.41502,52802.77,4458940.845616794
PART_001_R158G218B229A255,13909,-4449278.0,197.9251,6621.078,145149.9,-221.1633,26889.47,4460025.973811111
PART_001_R158G218B229A255,13910,-4450905.0,-270.0494,6739.827,143939.3,-255.8209,-2016.03,4461117.232094667
PART_001_R158G218B229A255,13911,-4451919.0,125.9989,6262.203,144919.1,-554.8789,-31573.36,4462516.910163834
PART_001_R158G218B229A255,13912,-4453645.0,-229.4596,4622.817,147985.1,-469.6505,-56271.85,4464273.92960706
PART_001_R158G218B229A255,13913,-4455196.0,185.7891,2414.229,154393.0,-633.2119,-71994.74,4466253.7913914835
PART_001_R158G218B229A255,13914,-4458177.0,-396.5,535.57,164359.8,-376.3781,-70600.74,4468999.783891308
PART_001_R158G218B229A255,13915,-4461969.0,-31.06648,-1287.186,190713.2,-578.7029,-32772.76,4473882.509983199
PART_003_R247G182B210A255,13916,4132750.0,1603.468,1791.994,191682.5,988.8402,-31958.82,4144742.0245689047
PART_000_R31G119B180A255,13917,4129484.0,624.6164,-919.6528,165575.0,246.9116,-67952.97,4141250.597084513
PART_000_R31G119B180A255,13918,4128244.0,-227.7708,-3340.62,155465.9,364.7515,-68103.9,4140478.7069947137
PART_000_R31G119B180A255,13919,4128766.0,94.04764,-6040.197,148974.7,-99.2574,-51515.74,4140753.3168054246
PART_000_R31G119B180A255,13920,4130083.0,-116.5172,-7929.814,145697.7,-44.80622,-26312.11,4142057.4622925883
PART_000_R31G119B180A255,13921,4131880.0,121.4314,-8488.603,144486.9,-516.3509,2935.657,4143637.729364825
PART_000_R31G119B180A255,13922,4133486.0,-173.3381,-7793.789,145470.8,-477.8768,31721.66,4145503.911462714
PART_000_R31G119B180A255,13923,4135542.0,180.763,-5535.691,148399.4,-846.2569,56666.99,4147359.1088900757
PART_000_R31G119B180A255,13924,4137712.0,-315.1498,-3215.816,154828.1,-526.777,71947.99,4150027.196990448
PART_000_R31G119B180A255,13925,4141303.0,271.3301,-494.8677,164633.8,-723.4723,70834.87,4153033.0962438327
PART_000_R31G119B180A255,13926,4145860.0,-420.85,767.0057,190966.5,-246.9189,32743.71,4159247.8120020316
PART_003_R247G182B210A255,13927,3306999.0,-2080.197,-1633.943,522786.5,-248.657,-11703.29,3430576.759316275
PART_003_R247G182B210A255,13928,3304307.0,-700.1443,-1168.76,467310.8,440.7205,-31980.78,3403355.4423058676
PART_000_R31G119B180A255,13929,3302640.0,-556.0241,-2768.934,437260.7,686.6372,-38031.09,3390626.757829415
PART_000_R31G119B180A255,13930,3302632.0,-599.4006,-4517.199,419903.7,21.90661,-30467.16,3384676.7240796285
PART_000_R31G119B180A255,13931,3303392.0,-502.8138,-5919.267,410241.8,-333.2913,-15623.69,3382199.477555266
PART_000_R31G119B180A255,13932,3304809.0,-593.3544,-6423.73,407001.6,-1209.251,2569.514,3382597.457024141
PART_000_R31G119B180A255,13933,3306339.0,-520.3287,-5901.139,409536.7,-1503.912,20577.55,3384904.603316437
PART_000_R31G119B180A255,13934,3308305.0,-693.5783,-4556.231,418470.6,-2090.09,34910.56,3389880.573086656
PART_000_R31G119B180A255,13935,3310838.0,-689.2719,-2787.956,435338.6,-1757.017,41635.34,3398078.2778699347
PART_000_R31G119B180A255,13936,3314369.0,-430.5361,-1186.453,464864.4,-1690.587,34280.9,3412071.6719697304
PART_002_R214G39B40A255,13937,3318586.0,-342.079,-949.2,519806.2,-73.11309,12656.36,3439240.4650099752
PART_003_R247G182B210A255,13938,2482026.0,171.6779,659.5473,763053.2,939.8353,-6654.538,2811632.3283733
PART_003_R247G182B210A255,13939,2478930.0,-912.885,-955.4227,702101.8,801.1552,-16135.22,2762127.802459419
PART_003_R247G182B210A255,13940,2477540.0,-953.0056,-1919.224,660342.3,994.6473,-19875.9,2730323.654736276
PART_000_R31G119B180A255,13941,2477129.0,-972.0109,-3102.771,634419.0,113.8608,-16951.18,2711935.446909831
PART_000_R31G119B180A255,13942,2477557.0,-882.9787,-4045.972,620070.2,-504.8616,-8603.498,2702627.981348059
PART_000_R31G119B180A255,13943,2478573.0,-873.4906,-4432.941,614944.4,-1719.177,2064.512,2700182.3151133144
PART_000_R31G119B180A255,13944,2479850.0,-946.8793,-4110.42,619026.1,-2220.571,12583.46,2704122.968150214
PART_000_R31G119B180A255,13945,2481626.0,-1081.697,-3195.364,632320.4,-3102.262,20528.48,2714750.446356237
PART_000_R31G119B180A255,13946,2483947.0,-1085.306,-2051.118,657458.9,-2731.177,22726.9,2734248.5436002146
PART_002_R214G39B40A255,13947,2486972.0,-1357.945,-1113.228,698648.7,-2347.854,18062.3,2767038.549381833
PART_002_R214G39B40A255,13948,2491067.0,-740.5254,147.2314,759741.7,-654.5477,7214.632,2817565.1195450076
PART_003_R247G182B210A255,13949,1655235.0,-2016.569,-467.0067,932141.6,445.0814,-3065.996,2313138.524209434
PART_003_R247G182B210A255,13950,1653494.0,-1923.583,-544.6266,866925.8,997.709,-8280.828,2234505.81956712
PART_003_R247G182B210A255,13951,1652253.0,-1722.105,-1133.924,820376.5,1183.934,-10218.94,2180374.153154794
PART_003_R247G182B210A255,13952,1651749.0,-1585.794,-2006.575,789379.5,233.878,-8609.9,2145645.4390852097
PART_000_R31G119B180A255,13953,1652010.0,-1546.234,-2461.229,771729.4,-565.5451,-4408.266,2126621.7600520034
PART_000_R31G119B180A255,13954,1652538.0,-1533.857,-2800.358,765489.0,-2097.287,1441.715,2120374.932560956
PART_000_R31G119B180A255,13955,1653581.0,-1617.564,-2526.408,770455.1,-2703.969,7160.704,2126538.589889023
PART_000_R31G119B180A255,13956,1654871.0,-1732.878,-2079.542,786794.2,-3919.444,11116.68,2145335.1675238824
PART_002_R214G39B40A255,13957,1656675.0,-1962.748,-1283.515,816899.1,-3312.859,12182.85,2180000.8367667086
PART_002_R214G39B40A255,13958,1659102.0,-1868.195,-465.8854,862393.3,-3401.509,9650.27,2233377.5915145003
PART_002_R214G39B40A255,13959,1661846.0,-1298.566,-259.6338,926847.1,-839.7305,3604.103,2311168.699339155
PART_003_R247G182B210A255,13960,828728.1,-1948.99,14.58692,1030313.0,1202.17,-1489.96,1968004.7801290583
PART_003_R247G182B210A255,13961,827506.6,-1936.832,-34.90487,964553.3,1337.996,-3619.484,1864815.3692965056
PART_003_R247G182B210A255,13962,826708.4,-1922.369,-525.6176,915876.4,1592.99,-4394.543,1789421.0796143422
PART_000_R31G119B180A255,13963,826387.6,-1729.761,-622.5352,882673.0,180.8919,-3772.872,1738459.1894183403
PART_000_R31G119B180A255,13964,826340.1,-1652.727,-1074.458,863202.2,-538.0611,-1806.348,1708934.880221439
PART_000_R31G119B180A255,13965,826663.2,-1629.109,-995.3139,856334.9,-2305.234,702.2374,1698672.8313113977
PART_000_R31G119B180A255,13966,827162.8,-1704.802,-1064.779,861786.6,-3076.842,3284.218,1707214.2829468742
PART_000_R31G119B180A255,13967,827968.4,-1875.198,-752.2398,879789.2,-4285.764,4983.23,1734913.9716067833
PART_002_R214G39B40A255,13968,829024.9,-2041.84,-449.1332,911926.7,-4020.726,5467.791,1784466.285713394
PART_002_R214G39B40A255,13969,830347.8,-2230.482,-276.5281,959779.9,-3735.998,4225.999,1858814.5183397366
PART_002_R214G39B40A255,13970,831910.5,-2097.499,69.99421,1025469.0,-1076.048,1677.881,1961769.1666255556
PART_003_R247G182B210A255,13971,928.8592,-2327.878,25.41798,1063481.0,653.2774,-17.71354,1842005.7745867658
PART_003_R247G182B210A255,13972,919.6876,-2207.633,65.57321,996781.6,1326.683,-174.4512,1726480.2009912222
PART_003_R247G182B210A255,13973,785.836,-2042.684,168.6755,947345.6,1478.059,-275.3173,1640854.7999910915
PART_000_R31G119B180A255,13974,584.0686,-1874.631,314.8197,913395.5,382.2617,-259.7532,1582049.3401738382
PART_000_R31G119B180A255,13975,425.7906,-1794.677,395.7335,893529.3,-642.0753,-150.9195,1547640.138929785
PART_000_R31G119B180A255,13976,390.4827,-1772.064,444.4258,886354.6,-2365.983,-0.4182418,1535218.2322468795
PART_000_R31G119B180A255,13977,438.7006,-1831.228,393.9467,892049.6,-3123.333,145.1362,1545086.356289421
PART_000_R31G119B180A255,13978,608.9742,-1947.22,312.1322,910408.4,-4576.126,256.6567,1576895.4461965228
PART_002_R214G39B40A255,13979,812.9412,-2135.734,168.9861,943290.9,-4033.091,270.38,1633844.9722671607
PART_002_R214G39B40A255,13980,1011.36,-2360.861,87.99098,991514.9,-4048.201,211.2016,1717371.1884909465
PART_002_R214G39B40A255,13981,1106.998,-2658.012,0.8633722,1057487.0,-1082.057,74.75366,1831625.24252085
PART_003_R247G182B210A255,13982,-826776.9,-2977.276,50.86717,1028977.0,1159.012,1208.602,1964061.858758093
PART_003_R247G182B210A255,13983,-825786.1,-2163.253,244.738,963369.6,1332.227,3120.453,1861349.285788029
PART_003_R247G182B210A255,13984,-825401.5,-1591.188,1063.322,914805.4,1583.729,3783.96,1786481.0462336692
PART_000_R31G119B180A255,13985,-825437.4,-1481.25,1384.949,881694.1,172.4478,3250.628,1735931.6868468784
PART_000_R31G119B180A255,13986,-825690.4,-1370.343,2094.883,862264.8,-563.9145,1448.702,1706716.4455836876
PART_000_R31G119B180A255,13987,-826122.5,-1368.162,2085.573,855385.4,-2311.076,-681.0757,1696511.152827314
PART_000_R31G119B180A255,13988,-826491.5,-1393.127,2055.825,860829.2,-3068.471,-2987.281,1704928.355645765
PART_000_R31G119B180A255,13989,-826987.2,-1447.67,1563.443,878766.0,-4285.58,-4424.704,1732285.558468115
PART_002_R214G39B40A255,13990,-827641.5,-1695.901,911.2463,910810.1,-4021.968,-4898.602,1781345.5374893905
PART_002_R214G39B40A255,13991,-828634.7,-2040.689,527.2469,958486.7,-3769.627,-3777.207,1855144.8968000899
PART_002_R214G39B40A255,13992,-830082.0,-2817.692,-58.8805,1023927.0,-1082.55,-1518.552,1957535.7085757335
PART_003_R247G182B210A255,13993,-1654673.0,-1436.531,619.5618,929432.6,581.3142,2971.401,2308280.016122044
PART_003_R247G182B210A255,13994,-1652758.0,-1380.282,630.6712,864822.9,1076.226,7811.223,2230317.4034743994
PART_003_R247G182B210A255,13995,-1651718.0,-1239.406,1731.342,818617.5,1186.724,9464.396,2177077.939306102
PART_003_R247G182B210A255,13996,-1651625.0,-1184.774,2816.846,787746.7,177.318,7965.794,2142988.201836063
PART_001_R158G218B229A255,13997,-1652195.0,-1073.83,3626.966,770149.3,-586.4875,3971.205,2124481.8134025866
PART_001_R158G218B229A255,13998,-1652843.0,-1064.171,4015.412,763918.9,-2120.804,-1416.247,2118377.9685841613
PART_001_R158G218B229A255,13999,-1653771.0,-1069.448,3647.722,768840.1,-2678.936,-6804.686,2124322.5944542997
PART_001_R158G218B229A255,14000,-1654724.0,-1115.122,2962.002,785097.6,-3909.524,-10423.39,2142588.955369628
PART_002_R214G39B40A255,14001,-1656144.0,-1180.537,1758.747,815026.5,-3309.852,-11499.69,2176467.6179444045
PART_002_R214G39B40A255,14002,-1658287.0,-1591.747,735.8742,860209.8,-3456.109,-9094.918,2229050.790099379
PART_002_R214G39B40A255,14003,-1661080.0,-2626.366,247.1563,924205.7,-851.7278,-3420.275,2306024.3094253065
PART_003_R247G182B210A255,14004,-2482356.0,-2619.496,-787.2428,760552.1,875.4297,6322.817,2808750.739240792
PART_003_R247G182B210A255,14005,-2479002.0,-980.3917,1596.835,699909.2,722.239,15331.56,2759947.3829348288
PART_003_R247G182B210A255,14006,-2477857.0,-823.8042,2525.571,658432.1,1051.225,19047.39,2728679.4242482292
PART_001_R158G218B229A255,14007,-2477703.0,-431.0003,4566.693,632705.7,10.07941,15941.42,2711271.671830073
PART_001_R158G218B229A255,14008,-2478709.0,-583.7268,5632.567,618372.0,-511.1542,8181.046,2702573.149848383
PART_001_R158G218B229A255,14009,-2479607.0,-447.35,6265.615,613286.8,-1758.987,-2132.96,2700241.688047698
PART_001_R158G218B229A255,14010,-2481017.0,-529.2098,5754.091,617298.5,-2170.683,-12057.21,2704083.4652348547
PART_001_R158G218B229A255,14011,-2482215.0,-428.8207,4529.12,630522.0,-3085.247,-19639.29,2713936.5151900277
PART_001_R158G218B229A255,14012,-2484312.0,-729.0482,2821.138,655458.6,-2719.406,-21832.55,2732644.1699173087
PART_002_R214G39B40A255,14013,-2487089.0,-723.5702,1526.719,696284.6,-2429.804,-17339.71,2764592.1212074887
PART_002_R214G39B40A255,14014,-2491533.0,-1747.208,-107.4929,756812.0,-670.5399,-6971.846,2814526.4072100655
PART_003_R247G182B210A255,14015,-3308159.0,636.0271,894.4765,520410.1,-8.651766,11528.36,3429556.6011178056
PART_003_R247G182B210A255,14016,-3304781.0,-20.77138,2346.603,465638.4,535.2725,30803.03,3403318.097976212
PART_001_R158G218B229A255,14017,-3303480.0,-557.7129,3286.294,435897.7,664.567,37022.39,3390595.9031858128
PART_001_R158G218B229A255,14018,-3303602.0,-72.59552,6623.65,418635.4,-47.77517,29002.95,3385817.9107146286
PART_001_R158G218B229A255,14019,-3305254.0,-452.5288,7853.34,409029.0,-369.5598,15171.63,3384056.162691298
PART_001_R158G218B229A255,14020,-3306360.0,-108.235,8865.693,405762.5,-1227.329,-2732.487,3384524.76249209
PART_001_R158G218B229A255,14021,-3308200.0,-389.7614,8010.036,408299.0,-1448.163,-19802.87,3386852.674643107
PART_001_R158G218B229A255,14022,-3309352.0,-127.446,6289.424,417145.3,-2063.34,-33754.16,3390826.5356377307
PART_001_R158G218B229A255,14023,-3311705.0,-291.9799,3832.878,433893.9,-1705.212,-40359.01,3398355.386650532
PART_001_R158G218B229A255,14024,-3314930.0,-554.3954,1697.64,463105.6,-1761.282,-33285.59,3411640.1186706945
PART_002_R214G39B40A255,14025,-3319792.0,-810.5662,1036.433,517490.2,-80.53502,-12327.11,3438839.2720563198
PART_003_R247G182B210A255,14026,-4133217.0,-1852.819,-2088.44,190929.7,656.4139,31380.99,4144817.807657099
PART_001_R158G218B229A255,14027,-4129297.0,-582.4916,2313.098,164949.0,339.3336,66393.98,4141629.6652512616
PART_001_R158G218B229A255,14028,-4128407.0,-13.57651,4512.029,155026.0,243.6175,66534.66,4140980.0969415335
PART_001_R158G218B229A255,14029,-4129406.0,45.07507,8945.631,148468.8,-43.9727,49729.89,4142794.703692889
PART_001_R158G218B229A255,14030,-4131572.0,-18.14409,10712.3,145322.7,-113.3569,25664.51,4144818.200542296
PART_001_R158G218B229A255,14031,-4133230.0,-22.08433,11884.17,143991.7,-498.978,-3101.044,4146684.3240181096
PART_001_R158G218B229A255,14032,-4135005.0,87.6776,10764.7,145072.0,-453.1041,-30682.28,4148399.4994061566
PART_001_R158G218B229A255,14033,-4136173.0,-146.495,8066.049,147896.9,-843.6305,-55155.53,4149156.421164883
PART_001_R158G218B229A255,14034,-4137962.0,203.6124,4895.155,154334.6,-483.474,-70117.28,4150910.5667136293
PART_001_R158G218B229A255,14035,-4141113.0,-406.4701,1297.68,163997.8,-785.3972,-69371.19,4153027.164382376
PART_001_R158G218B229A255,14036,-4146391.0,198.2854,-508.5202,190081.9,-218.8188,-32145.86,4159659.35715338
PART_003_R247G182B210A255,14037,3812032.0,-2811.632,-679.0683,192042.4,-590.2596,-30765.8,3828626.7232716084
PART_000_R31G119B180A255,14038,3807813.0,-362.578,-2213.962,165658.0,455.6756,-65897.65,3821597.9509194805
PART_000_R31G119B180A255,14039,3806698.0,-476.3935,-6568.32,156031.8,-41.20927,-64619.88,3821435.8506025495
PART_000_R31G119B180A255,14040,3808503.0,-83.98723,-10718.57,149329.8,300.491,-48588.72,3823601.927073892
PART_000_R31G119B180A255,14041,3810877.0,-410.6731,-13893.27,146306.4,-365.0954,-24008.79,3826673.217930707
PART_000_R31G119B180A255,14042,3813376.0,-168.2954,-14972.59,144955.9,-330.2176,3531.299,3829212.7741246033
PART_000_R31G119B180A255,14043,3815389.0,-355.4034,-13492.32,145916.9,-863.3086,31145.61,3831056.3366700085
PART_000_R31G119B180A255,14044,3817006.0,-233.8377,-10360.92,148823.9,-707.5845,54732.4,3832168.329654302
PART_000_R31G119B180A255,14045,3819293.0,-449.3135,-5771.232,155006.2,-993.4712,70075.16,3833745.340115821
PART_000_R31G119B180A255,14046,3823162.0,-27.57933,-2166.354,164742.8,-429.2563,69058.56,3836754.9377373224
PART_000_R31G119B180A255,14047,3829536.0,45.74735,884.5097,190586.7,-679.7112,32242.01,3843679.7687527463
PART_003_R247G182B210A255,14048,3051925.0,1502.971,-134.7647,521661.7,541.0389,-11529.96,3182273.638153452
PART_003_R247G182B210A255,14049,3047485.0,-106.6683,-2229.155,467749.1,1250.767,-30302.19,3154903.3230017447
PART_000_R31G119B180A255,14050,3046037.0,-650.0952,-4821.362,438277.0,603.1427,-36046.58,3142481.113002044
PART_000_R31G119B180A255,14051,3046304.0,-683.0799,-8164.206,421134.3,346.9206,-28164.93,3137104.32942737
PART_000_R31G119B180A255,14052,3048224.0,-460.5426,-10330.15,411530.9,-617.0387,-14105.9,3135814.9316213555
PART_000_R31G119B180A255,14053,3049838.0,-626.8513,-11216.44,408372.7,-1125.196,3152.009,3136572.8919508364
PART_000_R31G119B180A255,14054,3051929.0,-517.9518,-10270.68,410601.1,-2157.57,20218.57,3139158.6964875413
PART_000_R31G119B180A255,14055,3053637.0,-737.5244,-8023.813,419500.0,-2140.916,33714.64,3143704.249925158
PART_000_R31G119B180A255,14056,3056485.0,-732.0245,-4843.021,435764.4,-2667.213,40502.48,3151789.265691539
PART_000_R31G119B180A255,14057,3060694.0,-695.0347,-2278.714,464903.6,-1550.293,33384.32,3166813.920778209
PART_002_R214G39B40A255,14058,3066736.0,-512.4197,-1129.625,518992.9,-726.3879,12411.63,3196628.065700283
PART_003_R247G182B210A255,14059,2290899.0,-2181.024,-630.1762,763750.9,19.59359,-6156.005,2646643.569803674
PART_003_R247G182B210A255,14060,2287113.0,-1970.405,-1769.602,702830.0,1123.785,-15310.25,2592693.6277155136
PART_003_R247G182B210A255,14061,2285357.0,-1546.879,-3659.131,661481.1,1155.419,-18541.34,2558998.1274912646
PART_000_R31G119B180A255,14062,2285291.0,-1619.754,-5626.871,636095.3,608.2957,-15509.96,2540416.353947161
PART_000_R31G119B180A255,14063,2286203.0,-1570.929,-7464.468,621731.5,-791.926,-7551.899,2531254.731973932
PART_000_R31G119B180A255,14064,2287578.0,-1499.012,-7873.595,616835.3,-1636.208,2498.349,2529029.5040455665
PART_000_R31G119B180A255,14065,2289129.0,-1643.782,-7469.895,620388.3,-3133.319,12404.96,2533013.267616715
PART_000_R31G119B180A255,14066,2290968.0,-1798.019,-5695.84,633651.9,-3262.013,19870.86,2543912.079645302
PART_000_R31G119B180A255,14067,2293631.0,-1868.182,-3734.024,657864.6,-4077.271,22114.67,2563879.3963089036
PART_002_R214G39B40A255,14068,2297433.0,-1875.786,-1761.853,698436.9,-2362.06,17627.23,2598259.0603612233
PART_002_R214G39B40A255,14069,2303108.0,-713.5194,3.224905,758266.6,-1679.597,7171.914,2651605.238008734
PART_003_R247G182B210A255,14070,1529204.0,-1161.593,-191.9237,930472.2,960.6315,-3089.528,2222139.237057487
PART_003_R247G182B210A255,14071,1526301.0,-1981.314,-543.8038,867002.2,2481.85,-8002.112,2142134.683171925
PART_003_R247G182B210A255,14072,1524589.0,-2363.289,-2223.665,821590.2,1318.175,-9372.914,2087263.81914349
PART_000_R31G119B180A255,14073,1524392.0,-2061.049,-3431.041,790990.9,1003.328,-7882.252,2051667.9159855316
PART_000_R31G119B180A255,14074,1524693.0,-2047.56,-4450.325,773514.1,-924.1579,-3713.71,2032148.3792863654
PART_000_R31G119B180A255,14075,1525669.0,-2003.584,-4895.357,767422.7,-1933.818,1719.633,2026090.4373651678
PART_000_R31G119B180A255,14076,1526736.0,-2152.516,-4475.559,771848.1,-3840.214,7079.402,2031871.1151546733
PART_000_R31G119B180A255,14077,1528280.0,-2264.354,-3518.492,788021.0,-4180.615,10852.5,2051298.1642061502
PART_002_R214G39B40A255,14078,1530350.0,-2606.641,-2223.241,817018.5,-5059.636,11867.76,2086246.7480055573
PART_002_R214G39B40A255,14079,1533447.0,-2534.489,-791.5195,861848.0,-3519.752,9530.781,2141312.822134888
PART_002_R214G39B40A255,14080,1537303.0,-1921.912,-464.5608,925094.5,-2064.406,3570.515,2221356.0712232967
PART_003_R247G182B210A255,14081,765837.9,-2921.601,98.71162,1030391.0,330.2575,-1328.814,1942627.3090164426
PART_003_R247G182B210A255,14082,764315.7,-3118.164,-696.8007,964902.2,2292.205,-3349.301,1838548.488666564
PART_000_R31G119B180A255,14083,763456.7,-2820.182,-729.6546,916792.0,1812.981,-4193.048,1762716.093652507
PART_000_R31G119B180A255,14084,762940.7,-2807.682,-1639.955,884158.6,1136.414,-3382.613,1711936.112547848
PART_000_R31G119B180A255,14085,763068.1,-2587.61,-1876.52,864895.0,-910.9979,-1600.236,1682208.3630983578
PART_000_R31G119B180A255,14086,763415.9,-2660.886,-2204.36,858145.9,-2126.32,927.9524,1672059.6342687365
PART_000_R31G119B180A255,14087,764101.9,-2693.711,-1957.828,863030.6,-4318.161,3222.502,1679870.3287539217
PART_000_R31G119B180A255,14088,765000.3,-2963.285,-1563.312,880829.5,-4637.271,5000.059,1707751.8081835583
PART_000_R31G119B180A255,14089,766379.2,-3144.453,-951.3447,911758.5,-5933.752,5358.609,1756299.027163776
PART_002_R214G39B40A255,14090,768135.1,-3239.134,-423.6111,958776.0,-3932.626,4284.578,1830494.4791568404
PART_002_R214G39B40A255,14091,770459.1,-3001.626,-37.50905,1023001.0,-2431.63,1700.152,1932764.134764634
PART_003_R247G182B210A255,14092,2461.777,-4026.127,4.986786,1061430.0,1112.636,-213.4602,1838460.490347777
PART_003_R247G182B210A255,14093,2045.884,-3297.591,151.0179,996254.2,2817.493,-377.6591,1725576.296141524
PART_000_R31G119B180A255,14094,1590.892,-2832.821,332.1205,947981.9,1805.563,-421.4584,1641960.701885452
PART_000_R31G119B180A255,14095,1241.057,-2608.434,480.139,914569.8,1244.828,-364.9658,1584086.8896738726
PART_000_R31G119B180A255,14096,1012.091,-2477.836,629.0327,894856.2,-956.64,-220.9087,1549940.8819036204
PART_000_R31G119B180A255,14097,909.6995,-2462.526,662.7241,887886.5,-2210.124,6.078057,1537872.7401013367
PART_000_R31G119B180A255,14098,1040.355,-2533.752,622.6732,892926.7,-4392.318,232.827,1546616.8790542902
PART_000_R31G119B180A255,14099,1296.243,-2715.335,475.2005,911079.0,-4942.716,374.5121,1578062.7421044183
PART_000_R31G119B180A255,14100,1684.596,-3006.322,320.8854,942664.0,-6040.336,426.9787,1632780.977951756
PART_002_R214G39B40A255,14101,2078.131,-3447.962,119.2016,990135.6,-4254.019,323.8363,1714987.951469945
PART_002_R214G39B40A255,14102,2404.551,-3953.404,46.52776,1054711.0,-2481.927,127.0576,1826826.5929032604
PART_003_R247G182B210A255,14103,-762265.1,-3540.826,-49.58055,1027845.0,418.3169,1237.059,1935904.1178240264
PART_003_R247G182B210A255,14104,-761087.2,-2945.472,934.7289,962875.5,2307.575,2720.05,1832801.5533966199
PART_000_R31G119B180A255,14105,-760835.8,-2787.741,1238.594,915061.6,1770.818,3296.006,1757771.4357385424
PART_000_R31G119B180A255,14106,-761089.7,-2337.244,2599.55,882525.4,1047.994,2521.451,1707644.892519661
PART_000_R31G119B180A255,14107,-761728.5,-2354.572,3067.456,863277.6,-956.3033,1158.485,1678257.1082553586
PART_000_R31G119B180A255,14108,-762236.9,-2240.963,3499.275,856549.2,-2142.774,-948.455,1668243.2080934853
PART_000_R31G119B180A255,14109,-762712.3,-2342.097,3167.553,861379.9,-4299.565,-2702.496,1675823.9588768955
PART_000_R31G119B180A255,14110,-763053.9,-2414.241,2435.442,879130.1,-4584.797,-4190.774,1703235.1624250235
PART_000_R31G119B180A255,14111,-763657.9,-2702.873,1541.77,909908.6,-5913.488,-4418.207,1751075.384808313
PART_002_R214G39B40A255,14112,-764617.2,-3301.702,605.4639,956679.9,-3914.853,-3578.241,1824386.1494303534
PART_002_R214G39B40A255,14113,-766349.9,-4373.566,136.4821,1020500.0,-2451.162,-1421.85,1925707.5747851916
PART_003_R247G182B210A255,14114,-1526704.0,-4723.465,103.7555,926780.5,803.5194,2601.784,2213726.1612328594
PART_003_R247G182B210A255,14115,-1524270.0,-2763.392,1113.309,863737.8,2389.726,7006.864,2135225.794953306
PART_003_R247G182B210A255,14116,-1523322.0,-1798.734,2958.195,818620.5,1218.927,8278.363,2081567.21625624
PART_000_R31G119B180A255,14117,-1523819.0,-1662.186,4845.751,788241.4,902.4017,6804.34,2047199.2268553472
PART_000_R31G119B180A255,14118,-1524699.0,-1513.242,6100.633,770824.8,-1044.428,3145.973,2028372.6854902068
PART_000_R31G119B180A255,14119,-1525875.0,-1524.229,6741.662,764708.0,-1944.106,-1758.758,2022540.3109571626
PART_000_R31G119B180A255,14120,-1526697.0,-1473.603,6158.561,769098.6,-3801.429,-6423.855,2027981.8874138084
PART_000_R31G119B180A255,14121,-1527701.0,-1652.973,4803.352,785151.8,-4090.08,-9875.802,2046570.241809303
PART_002_R214G39B40A255,14122,-1528998.0,-1743.019,3105.217,813900.0,-5025.53,-10694.63,2080301.4921278933
PART_002_R214G39B40A255,14123,-1531439.0,-2542.801,1076.455,858289.7,-3509.924,-8691.951,2133850.367103217
PART_002_R214G39B40A255,14124,-1534972.0,-3894.583,626.3876,920797.6,-2109.074,-3228.49,2212417.1682869554
PART_003_R247G182B210A255,14125,-2290947.0,-1238.531,1012.951,758722.0,197.9032,5835.368,2641023.413658583
PART_003_R247G182B210A255,14126,-2287023.0,-1336.349,1808.472,699049.9,1320.271,14304.32,2588086.7044917103
PART_003_R247G182B210A255,14127,-2285739.0,-1178.548,4968.694,658304.5,928.7533,16808.96,2556216.4714097274
PART_001_R158G218B229A255,14128,-2286707.0,-1141.092,7142.873,633043.9,521.3034,14314.35,2538831.0197758637
PART_001_R158G218B229A255,14129,-2287922.0,-881.5324,9648.107,618808.4,-968.546,6582.739,2530543.618374701
PART_001_R158G218B229A255,14130,-2289959.0,-1082.317,10198.82,613827.4,-1626.09,-2430.947,2528889.6293548318
PART_001_R158G218B229A255,14131,-2290864.0,-894.1856,9555.455,617380.0,-3084.296,-11587.87,2532174.140029873
PART_001_R158G218B229A255,14132,-2292409.0,-1005.782,7327.593,630505.4,-3124.7,-18567.01,2542315.4694117364
PART_001_R158G218B229A255,14133,-2294052.0,-1086.549,4796.052,654460.2,-4019.052,-20516.11,2560757.5863651815
PART_002_R214G39B40A255,14134,-2297393.0,-1515.26,2093.316,694483.7,-2343.798,-16540.59,2593667.779492328
PART_002_R214G39B40A255,14135,-2303046.0,-3054.34,175.4542,753380.4,-1748.558,-6710.596,2645806.2887024423
PART_003_R247G182B210A255,14136,-3053322.0,-2500.7,1541.798,518271.3,250.5723,10650.59,3182140.12892266
PART_003_R247G182B210A255,14137,-3048648.0,-1515.844,1975.635,464952.6,1171.404,29022.54,3153845.171417605
PART_001_R158G218B229A255,14138,-3047407.0,-120.4098,7195.779,435840.6,489.7656,33471.89,3143491.1358471387
PART_001_R158G218B229A255,14139,-3049202.0,-461.3076,10225.37,418868.2,210.9171,26720.55,3139428.089188879
PART_001_R158G218B229A255,14140,-3051181.0,-223.9871,13657.36,409270.8,-743.9205,12681.04,3139088.1843971414
PART_001_R158G218B229A255,14141,-3053879.0,-339.3769,14510.06,406126.9,-1123.28,-2955.444,3140782.5848831413
PART_001_R158G218B229A255,14142,-3054980.0,-271.097,13342.87,408284.8,-2103.181,-19193.4,3142328.1801905646
PART_001_R158G218B229A255,14143,-3056512.0,-287.7543,10514.9,417145.8,-1983.842,-31889.43,3146225.220932439
PART_001_R158G218B229A255,14144,-3058070.0,-342.933,6466.954,433180.2,-2632.942,-38326.74,3152447.7533802865
PART_001_R158G218B229A255,14145,-3061962.0,-736.6543,2920.803,461896.0,-1525.725,-31847.85,3166291.818475479
PART_002_R214G39B40A255,14146,-3068356.0,-1154.519,1337.798,515045.3,-821.7522,-11781.53,3195560.826743855
PART_000_R31G119B180A255,14147,-3813245.0,2334.906,1602.791,190427.0,-21.22523,29774.96,3829791.6503183297
PART_001_R158G218B229A255,14148,-3808506.0,-279.3429,2523.371,164693.4,325.9034,63636.74,3821883.366551325
PART_001_R158G218B229A255,14149,-3808102.0,313.7952,9560.982,155051.2,65.66894,61409.95,3823973.0248187426
PART_001_R158G218B229A255,14150,-3811402.0,-508.8397,13623.35,148593.9,108.7969,46488.42,3827490.909136042
PART_001_R158G218B229A255,14151,-3814284.0,165.3903,18257.5,145373.5,-348.3387,22293.84,3832004.003891434
PART_001_R158G218B229A255,14152,-3817738.0,-338.0177,19208.39,144205.2,-354.5247,-3279.47,3835356.4637828483
PART_001_R158G218B229A255,14153,-3818824.0,37.41971,17578.48,144992.3,-840.3956,-29835.19,3836240.0792712434
PART_001_R158G218B229A255,14154,-3819994.0,-239.462,13712.39,148006.5,-604.5093,-52212.88,3836392.7663459126
PART_001_R158G218B229A255,14155,-3820773.0,82.74145,8045.447,154022.7,-998.7137,-67156.74,3835899.946907455
PART_001_R158G218B229A255,14156,-3824059.0,-375.1647,3283.492,163658.0,-353.8827,-66618.86,3837737.278749037
PART_001_R158G218B229A255,14157,-3830887.0,-468.4742,-665.1923,189024.8,-767.4245,-31232.03,3844667.9726336873
PART_003_R247G182B210A255,14158,3489441.0,3381.698,1544.616,191155.6,1742.878,-29566.87,3503037.269461414
PART_000_R31G119B180A255,14159,3483623.0,634.0562,-4511.673,166318.5,170.2083,-61130.08,3499050.907939922
PART_000_R31G119B180A255,14160,3484190.0,-293.4233,-11160.12,156266.1,615.7349,-59471.37,3501924.6976244217
PART_000_R31G119B180A255,14161,3487791.0,-5.071994,-18187.78,150195.2,-181.8191,-43314.66,3507388.487328595
PART_000_R31G119B180A255,14162,3492366.0,-134.7682,-23252.3,146821.3,-6.898933,-20808.38,3513517.1100057317
PART_000_R31G119B180A255,14163,3496084.0,55.54158,-24771.95,145658.6,-714.5642,4374.985,3517575.4775249185
PART_000_R31G119B180A255,14164,3497659.0,-229.6114,-22669.78,146567.3,-649.877,29228.29,3518697.425927617
PART_000_R31G119B180A255,14165,3498988.0,123.0902,-17100.29,149237.1,-1248.218,51491.24,3518151.281006712
PART_000_R31G119B180A255,14166,3499808.0,-404.9032,-10553.19,155479.4,-701.6221,65740.96,3517471.129890683
PART_000_R31G119B180A255,14167,3503928.0,144.1775,-3601.219,164739.4,-1070.751,66173.33,3519118.5743795643
PART_000_R31G119B180A255,14168,3512096.0,-463.8493,-329.0111,190231.0,-54.33797,30834.57,3528316.7242908343
PART_003_R247G182B210A255,14169,2794891.0,-2764.314,-2782.918,522236.2,-358.5706,-10144.71,2940310.9326720713
PART_003_R247G182B210A255,14170,2789603.0,-1226.926,-3755.058,468509.3,585.8055,-27998.05,2908031.8513087477
PART_000_R31G119B180A255,14171,2788128.0,-1062.928,-8899.92,439516.3,1199.874,-32011.68,2895532.5268816273
PART_000_R31G119B180A255,14172,2790354.0,-1120.288,-13881.75,422780.4,203.9208,-24804.02,2892436.773963402
PART_000_R31G119B180A255,14173,2793089.0,-1029.487,-17655.41,413316.8,-328.6989,-11612.08,2892529.432235722
PART_000_R31G119B180A255,14174,2796120.0,-1087.134,-19003.91,409977.7,-1623.186,3712.163,2894667.5254959534
PART_000_R31G119B180A255,14175,2797692.0,-1064.738,-17326.79,412379.8,-2061.384,18941.04,2896563.066064557
PART_000_R31G119B180A255,14176,2799415.0,-1277.429,-13574.73,420587.5,-3133.78,31512.63,2900372.45850015
PART_000_R31G119B180A255,14177,2801524.0,-1367.996,-8543.638,436807.8,-2461.419,37691.44,2907413.0860143965
PART_000_R31G119B180A255,14178,2806353.0,-989.4518,-3679.638,464847.9,-2709.132,31655.2,2922329.55642509
PART_000_R31G119B180A255,14179,2814569.0,-60.69142,-1441.309,517734.7,-147.884,11767.72,2954757.4004009888
PART_003_R247G182B210A255,14180,2100122.0,1116.434,553.1662,761672.7,1933.458,-5999.275,2479427.7727076267
PART_003_R247G182B210A255,14181,2094429.0,-1444.215,-2745.924,703276.7,1907.792,-13702.18,2424826.3779779067
PART_003_R247G182B210A255,14182,2092896.0,-1938.024,-6063.438,663100.5,1950.93,-16175.48,2391002.2670217245
PART_000_R31G119B180A255,14183,2093574.0,-1901.439,-9767.929,638036.3,624.129,-13197.34,2372626.7873428017
PART_000_R31G119B180A255,14184,2095421.0,-1781.735,-12331.56,624157.0,-346.9821,-5921.997,2364173.6792429015
PART_000_R31G119B180A255,14185,2097444.0,-1806.195,-13411.12,618841.4,-2281.462,2915.658,2362262.231424398
PART_000_R31G119B180A255,14186,2098981.0,-1902.192,-12216.99,622711.1,-3048.581,11622.77,2366268.6359135886
PART_000_R31G119B180A255,14187,2100740.0,-2142.843,-9599.068,634899.2,-4735.594,18449.06,2376600.676971045
PART_000_R31G119B180A255,14188,2103248.0,-2223.775,-5996.327,658954.3,-4038.562,20454.21,2396859.401750693
PART_000_R31G119B180A255,14189,2107746.0,-2338.467,-2821.306,698003.0,-4226.063,16655.6,2432279.978121075
PART_000_R31G119B180A255,14190,2115122.0,-888.7169,-326.8219,756753.4,-901.8432,6745.301,2488870.980258873
PART_003_R247G182B210A255,14191,1401864.0,-2505.548,-657.4306,930946.9,1091.453,-2621.844,2137679.2067463314
PART_003_R247G182B210A255,14192,1398466.0,-3127.599,-1852.693,867920.2,2080.525,-6839.79,2054918.2700761687
PART_000_R31G119B180A255,14193,1396993.0,-3128.584,-3670.176,822972.5,2859.171,-8223.268,1998293.6811711276
PART_000_R31G119B180A255,14194,1396834.0,-3093.194,-6161.424,793249.9,1019.43,-6351.327,1962641.3856018323
PART_000_R31G119B180A255,14195,1398036.0,-3028.452,-7795.894,776049.5,-205.8535,-2817.082,1943313.210731914
PART_000_R31G119B180A255,14196,1399080.0,-3014.363,-8430.087,769692.1,-2738.192,1999.125,1936699.1397505696
PART_000_R31G119B180A255,14197,1400460.0,-3165.127,-7738.455,774294.1,-3762.624,6709.717,1943032.4864445166
PART_000_R31G119B180A255,14198,1401883.0,-3411.588,-6091.798,789282.9,-6017.963,9982.0,1961615.8147049781
PART_000_R31G119B180A255,14199,1404112.0,-3670.026,-3750.772,817991.5,-5172.356,11049.4,1997433.533751162
PART_000_R31G119B180A255,14200,1407825.0,-3413.942,-1574.695,860974.3,-5812.607,8973.461,2052602.319312069
PART_000_R31G119B180A255,14201,1413123.0,-2151.056,-400.5997,922854.0,-1268.378,3441.138,2134372.321991844
PART_003_R247G182B210A255,14202,704131.1,-3638.052,-242.443,1028348.0,2584.678,-1412.578,1916003.7188126058
PART_003_R247G182B210A255,14203,701650.6,-3682.977,-345.7947,965016.8,2932.748,-3221.15,1813555.0634600928
PART_000_R31G119B180A255,14204,700267.4,-3756.878,-1801.292,918054.5,3495.29,-3522.51,1738626.84282905
PART_000_R31G119B180A255,14205,700076.1,-3493.284,-2410.879,886164.8,1189.724,-2865.644,1688236.5186895311
PART_000_R31G119B180A255,14206,700262.8,-3430.577,-3565.676,867210.9,-60.67811,-1061.767,1658748.6499425883
PART_000_R31G119B180A255,14207,700894.5,-3381.757,-3546.312,860222.7,-2976.585,961.498,1648059.34353943
PART_000_R31G119B180A255,14208,701573.7,-3546.751,-3462.758,865234.1,-4278.894,3191.12,1656234.0572038149
PART_000_R31G119B180A255,14209,702643.2,-3804.734,-2569.932,881708.3,-6691.977,4577.034,1682445.7373487372
PART_000_R31G119B180A255,14210,704120.4,-4091.256,-1541.45,912290.4,-6169.107,5121.972,1731120.633608958
PART_000_R31G119B180A255,14211,706391.6,-4348.82,-774.4462,957438.3,-6507.306,4046.13,1803569.9909769855
PART_000_R31G119B180A255,14212,709501.8,-4067.737,-0.8840288,1020479.0,-1576.074,1656.462,1905372.3764623045
PART_003_R247G182B210A255,14213,3892.02,-4873.459,80.54395,1060675.0,1420.25,-42.25001,1837160.4108294086
PART_000_R31G119B180A255,14214,3356.404,-4578.802,126.6959,996382.1,2831.722,-385.5017,1725805.3596781844
PART_000_R31G119B180A255,14215,2773.027,-4240.177,292.5802,948795.3,3433.463,-555.071,1643384.250864504
PART_000_R31G119B180A255,14216,2184.618,-3898.122,533.9775,916162.9,1444.581,-508.7698,1586852.2612124695
PART_000_R31G119B180A255,14217,1784.187,-3753.379,662.6751,896866.9,-173.1826,-260.3739,1553427.4087601106
PART_000_R31G119B180A255,14218,1713.775,-3731.15,713.8524,889509.1,-3047.232,24.95379,1540692.175041786
PART_000_R31G119B180A255,14219,1848.248,-3839.39,647.5978,894769.1,-4365.011,307.3857,1549812.7733015514
PART_000_R31G119B180A255,14220,2300.061,-4069.029,502.9107,911524.7,-7029.153,532.4086,1578864.5484421197
PART_000_R31G119B180A255,14221,2907.301,-4452.805,283.8815,942780.8,-6254.802,571.596,1632993.2648975197
PART_000_R31G119B180A255,14222,3655.559,-4960.597,152.6333,988161.0,-6858.695,478.7576,1711602.940333773
PART_002_R214G39B40A255,14223,4379.381,-5699.058,2.769477,1051327.0,-1590.724,177.771,1820974.9281777486
PART_000_R31G119B180A255,14224,-696302.6,-7156.759,288.8368,1025081.0,2425.192,747.0286,1905912.122043052
PART_000_R31G119B180A255,14225,-695353.9,-5041.562,734.4032,962114.4,2791.779,2080.351,1804876.8455336005
PART_000_R31G119B180A255,14226,-695521.5,-3685.192,2735.47,915351.4,3312.462,2239.733,1731119.0808063156
PART_000_R31G119B180A255,14227,-696448.1,-3399.868,3715.652,883589.7,1047.086,1816.661,1681518.1666684628
PART_000_R31G119B180A255,14228,-697395.4,-3137.62,5252.761,864696.6,-194.4411,404.8213,1652570.9019850937
PART_000_R31G119B180A255,14229,-698276.2,-3154.259,5350.392,857645.2,-3005.666,-884.8595,1641911.6692810613
PART_000_R31G119B180A255,14230,-698610.2,-3194.863,5077.332,862657.8,-4202.327,-2526.198,1649857.9013984106
PART_000_R31G119B180A255,14231,-698811.2,-3356.23,3902.416,879024.9,-6592.086,-3406.959,1675403.7955185706
PART_000_R31G119B180A255,14232,-699079.4,-3880.51,2308.674,909447.6,-6039.221,-3873.941,1723102.3668857806
PART_000_R31G119B180A255,14233,-699953.5,-4751.001,1201.847,954230.8,-6468.597,-3015.576,1794241.4704169906
PART_000_R31G119B180A255,14234,-701765.9,-6543.688,15.11695,1016676.0,-1539.39,-1268.3,1894423.123463538
PART_000_R31G119B180A255,14235,-1397607.0,-4845.411,1005.564,924174.7,1295.776,2357.947,2123743.4958462417
PART_000_R31G119B180A255,14236,-1394915.0,-3853.702,1971.579,862609.4,2035.545,5684.339,2043424.3533848447
PART_000_R31G119B180A255,14237,-1394598.0,-3109.398,4772.588,818393.6,2586.589,6477.069,1989150.705964402
PART_000_R31G119B180A255,14238,-1395791.0,-2732.777,7594.693,788838.2,674.153,4939.955,1954987.551510631
PART_000_R31G119B180A255,14239,-1397823.0,-2541.555,9823.042,771652.1,-395.5587,1934.659,1936638.2923016076
PART_000_R31G119B180A255,14240,-1399155.0,-2524.355,10495.74,765285.0,-2799.361,-1920.791,1930271.7208621064
PART_000_R31G119B180A255,14241,-1400228.0,-2547.943,9659.201,769810.1,-3628.821,-5887.945,1936152.5034775634
PART_000_R31G119B180A255,14242,-1400662.0,-2621.927,7583.087,784679.7,-5809.676,-8432.44,1953552.783125431
PART_000_R31G119B180A255,14243,-1401668.0,-2977.16,4562.405,813098.2,-4946.453,-9471.315,1987628.4863093582
PART_000_R31G119B180A255,14244,-1404004.0,-3953.799,2070.63,855425.3,-5731.046,-7607.417,2040622.661538028
PART_000_R31G119B180A255,14245,-1408302.0,-6358.01,346.469,916217.1,-1204.606,-2963.988,2119736.596154008
PART_000_R31G119B180A255,14246,-2098730.0,-6481.141,-830.9578,755223.7,1683.369,5096.796,2469925.8584454255
PART_000_R31G119B180A255,14247,-2093724.0,-2692.286,3983.049,697595.8,1429.685,11592.85,2418004.454355202
PART_000_R31G119B180A255,14248,-2093601.0,-1965.359,7214.976,657922.2,1812.147,14186.6,2386089.760126798
PART_001_R158G218B229A255,14249,-2095309.0,-1305.008,12247.26,633256.3,139.578,10825.5,2369980.4098427496
PART_001_R158G218B229A255,14250,-2098767.0,-1495.419,15331.99,619242.5,-544.3848,4950.683,2363171.836983324
PART_001_R158G218B229A255,14251,-2100524.0,-1293.344,16414.81,614002.3,-2363.702,-2967.169,2361206.486586714
PART_001_R158G218B229A255,14252,-2102281.0,-1409.807,15224.41,617741.3,-2863.448,-10490.31,2365174.5164063396
PART_001_R158G218B229A255,14253,-2102522.0,-1304.762,11818.21,629828.5,-4479.156,-16269.46,2373555.645309563
PART_001_R158G218B229A255,14254,-2104002.0,-1785.498,7342.132,653550.7,-3777.978,-18378.18,2391866.9347574073
PART_000_R31G119B180A255,14255,-2107158.0,-2238.295,3602.156,691788.4,-4190.487,-14751.05,2424754.3768095435
PART_000_R31G119B180A255,14256,-2114070.0,-4621.524,286.1595,749155.1,-844.0963,-6109.333,2478702.012071774
PART_000_R31G119B180A255,14257,-2796897.0,-595.5277,1057.745,515753.6,183.7598,9660.726,2936360.5235231766
PART_000_R31G119B180A255,14258,-2791272.0,-442.1337,6044.428,463918.5,588.7552,24798.99,2907642.247900623
PART_001_R158G218B229A255,14259,-2791740.0,-1243.169,9978.559,435554.7,898.7445,29474.27,2896557.4391853665
PART_001_R158G218B229A255,14260,-2794666.0,-407.9339,17503.36,418955.1,-162.3693,21306.66,2895890.1670624376
PART_001_R158G218B229A255,14261,-2799870.0,-903.9269,21487.98,409509.9,-545.4822,10441.06,2898415.0286031947
PART_001_R158G218B229A255,14262,-2802204.0,-531.2133,23036.72,406076.5,-1680.535,-3901.66,2900121.377043282
PART_001_R158G218B229A255,14263,-2804357.0,-798.7727,21329.42,408507.0,-1860.882,-17318.73,2902414.5428404855
PART_001_R158G218B229A255,14264,-2804066.0,-540.3627,16511.25,416570.4,-2910.141,-28570.77,2903604.37349536
PART_001_R158G218B229A255,14265,-2805117.0,-716.9994,10454.74,432619.4,-2143.631,-34700.77,2908817.4656813745
PART_001_R158G218B229A255,14266,-2808465.0,-1168.25,4664.79,459962.1,-2708.346,-28961.84,2921396.5686641685
PART_001_R158G218B229A255,14267,-2816784.0,-2537.623,1450.86,511406.3,-86.40273,-10907.94,2952319.314570705
PART_000_R31G119B180A255,14268,-3491865.0,-3584.796,-2036.389,189016.6,870.609,27934.49,3504715.047328357
PART_001_R158G218B229A255,14269,-3485885.0,-553.01,7295.463,164504.0,335.3584,56925.24,3502265.2237311048
PART_001_R158G218B229A255,14270,-3488309.0,-240.9111,13524.75,154928.8,255.0626,55505.81,3506576.0691369465
PART_001_R158G218B229A255,14271,-3493481.0,102.4334,23373.68,148597.7,-158.0274,39018.64,3515363.148480932
PART_001_R158G218B229A255,14272,-3500436.0,-152.7234,28597.25,145530.3,-189.8891,19171.91,3523929.9975649165
PART_001_R158G218B229A255,14273,-3503825.0,-49.17511,30563.85,144060.5,-711.0537,-4590.822,3528026.132614369
PART_001_R158G218B229A255,14274,-3505722.0,18.89326,28217.5,145195.8,-540.4125,-27017.03,3529207.769140104
PART_001_R158G218B229A255,14275,-3504855.0,-208.0437,21545.28,147663.2,-1195.957,-47709.67,3525834.2850687336
PART_001_R158G218B229A255,14276,-3504182.0,107.4204,13718.63,153945.9,-514.3269,-61411.84,3522831.2876162175
PART_001_R158G218B229A255,14277,-3506515.0,-490.3588,5188.542,162904.0,-1170.078,-62238.71,3521844.632961339
PART_001_R158G218B229A255,14278,-3514951.0,-78.2028,719.7963,187694.3,37.90548,-29238.79,3530635.701714046
PART_000_R31G119B180A255,14279,3162609.0,-4556.25,-3115.978,191519.0,-1860.823,-26025.82,3184094.41062161
PART_000_R31G119B180A255,14280,3156742.0,-661.404,-7956.695,166032.0,664.5004,-54532.96,3175516.711408013
PART_000_R31G119B180A255,14281,3159455.0,-551.8055,-19038.04,157443.7,-162.3766,-49918.55,3182175.7648675265
PART_000_R31G119B180A255,14282,3167940.0,-299.5727,-30183.2,150560.6,491.3301,-35364.88,3194537.7980289557
PART_000_R31G119B180A255,14283,3175504.0,-568.4655,-37802.62,147884.2,-422.2488,-15992.87,3205223.5681206044
PART_000_R31G119B180A255,14284,3180444.0,-377.7737,-40220.62,146448.2,-406.7051,5033.993,3210975.7624148973
PART_000_R31G119B180A255,14285,3182348.0,-497.7718,-36673.52,147235.5,-1142.34,25852.56,3211541.9311915385
PART_000_R31G119B180A255,14286,3180444.0,-516.5079,-28236.68,150141.6,-865.3195,44745.93,3206414.0834775004
PART_000_R31G119B180A255,14287,3179925.0,-582.4477,-17045.8,155730.9,-1483.572,59113.47,3201797.4063105197
PART_000_R31G119B180A255,14288,3182041.0,-354.7622,-7510.011,165106.5,-321.9828,59867.22,3200468.379854677
PART_000_R31G119B180A255,14289,3192463.0,577.4506,-38.17037,189361.6,-1005.753,28913.19,3209389.8376614624
PART_000_R31G119B180A255,14290,2536727.0,4114.244,-21.71788,519537.8,1330.501,-9306.696,2689729.1683749068
PART_000_R31G119B180A255,14291,2529041.0,-116.0012,-6766.587,469011.1,2139.313,-22804.65,2659884.9344630386
PART_000_R31G119B180A255,14292,2529973.0,-1058.783,-14284.92,441150.6,938.3201,-26325.26,2650602.9210891863
PART_000_R31G119B180A255,14293,2534152.0,-1023.553,-22888.5,424586.9,774.624,-18760.64,2650453.627487131
PART_000_R31G119B180A255,14294,2540144.0,-845.8029,-28660.9,415366.3,-527.3568,-8385.428,2654407.656374039
PART_000_R31G119B180A255,14295,2543407.0,-973.0582,-30329.03,412280.8,-1345.813,4195.915,2656954.841124522
PART_000_R31G119B180A255,14296,2545545.0,-962.6039,-27988.65,413988.7,-2862.252,16556.03,2658808.047004523
PART_000_R31G119B180A255,14297,2545114.0,-1179.778,-21617.79,422649.9,-2809.136,26791.17,2659726.806839652
PART_000_R31G119B180A255,14298,2546356.0,-1224.585,-13530.44,437489.9,-3996.21,33199.89,2664435.263502044
PART_000_R31G119B180A255,14299,2550596.0,-1195.943,-6293.5,465185.5,-1964.44,27832.45,2678843.8124407264
PART_000_R31G119B180A255,14300,2561078.0,78.90936,-1765.971,516106.2,-1588.259,10605.42,2713463.894048003
PART_000_R31G119B180A255,14301,1906150.0,-1339.911,-1768.318,762091.6,-87.59203,-4387.104,2319858.5537836007
PART_000_R31G119B180A255,14302,1900495.0,-2268.62,-4716.74,704059.6,2468.588,-10835.12,2261115.614663102
PART_000_R31G119B180A255,14303,1899542.0,-2327.594,-10372.74,664962.1,2439.613,-12243.2,2226985.590836927
PART_000_R31G119B180A255,14304,1902162.0,-2610.507,-16020.99,640769.0,1589.599,-9371.635,2210408.9804800856
PART_000_R31G119B180A255,14305,1905640.0,-2568.599,-20568.98,626823.1,-483.8762,-3680.309,2203337.351686194
PART_000_R31G119B180A255,14306,1908331.0,-2497.437,-21538.11,622164.5,-1822.53,3216.581,2202116.781987666
PART_000_R31G119B180A255,14307,1909938.0,-2738.125,-20101.93,624890.7,-4267.946,10019.58,2205371.5739100575
PART_000_R31G119B180A255,14308,1910670.0,-2970.228,-15384.83,637640.6,-4435.327,15431.02,2215053.0684796497
PART_000_R31G119B180A255,14309,1912609.0,-3110.069,-9867.952,659737.5,-6350.642,17540.18,2233780.673670878
PART_000_R31G119B180A255,14310,1917195.0,-2674.784,-4413.335,698117.3,-3565.784,14358.0,2269801.906824713
PART_000_R31G119B180A255,14311,1926629.0,-120.1658,-561.5753,754224.3,-3107.849,6141.649,2328071.7445998634
PART_000_R31G119B180A255,14312,1275108.0,-357.4085,-675.899,928619.5,1890.396,-2294.063,2052863.2125981897
PART_000_R31G119B180A255,14313,1270337.0,-2550.295,-2120.548,868119.6,5122.573,-5685.489,1969965.9507943138
PART_000_R31G119B180A255,14314,1268749.0,-3582.349,-6399.756,825327.4,3051.77,-5517.689,1914689.2439316977
PART_000_R31G119B180A255,14315,1270333.0,-3470.433,-9987.892,795816.6,2632.337,-4319.393,1879087.1630692466
PART_000_R31G119B180A255,14316,1271931.0,-3454.54,-12578.78,779125.3,-361.5147,-1329.435,1859957.7534791809
PART_000_R31G119B180A255,14317,1273959.0,-3484.846,-13645.85,773140.5,-2101.423,2224.946,1854241.8760844753
PART_000_R31G119B180A255,14318,1275051.0,-3701.697,-12367.89,776625.0,-5280.917,5638.766,1859027.6232029072
PART_000_R31G119B180A255,14319,1276154.0,-3907.816,-9587.074,792009.5,-5852.861,8350.337,1878299.6046057476
PART_000_R31G119B180A255,14320,1278092.0,-4282.96,-6002.659,818429.5,-8150.988,9226.344,1912231.4258043368
PART_000_R31G119B180A255,14321,1282013.0,-3896.041,-2404.675,860846.3,-5273.586,7761.583,1968522.2224263083
PART_000_R31G119B180A255,14322,1288665.0,-2340.524,-837.5364,920281.0,-3883.295,3007.511,2050751.2986382707
PART_000_R31G119B180A255,14323,640913.3,-3795.839,154.879,1028579.0,464.4145,-923.0323,1893949.8142279242
PART_000_R31G119B180A255,14324,638207.7,-4763.11,-1766.657,965708.6,5028.811,-2126.438,1791469.3806503937
PART_000_R31G119B180A255,14325,637393.6,-4741.858,-2526.075,920206.2,3994.679,-2600.253,1717942.528481931
PART_000_R31G119B180A255,14326,637276.0,-4819.503,-4890.621,888710.4,3142.053,-1692.886,1667869.6126685825
PART_000_R31G119B180A255,14327,638101.2,-4573.346,-5697.384,870277.6,-190.742,-538.1961,1638872.938164215
PART_000_R31G119B180A255,14328,638838.6,-4711.975,-6460.29,863603.2,-2292.61,1242.147,1628722.6241542068
PART_000_R31G119B180A255,14329,639709.5,-4798.523,-5733.652,867424.7,-5926.956,2590.877,1635052.4515085411
PART_000_R31G119B180A255,14330,640517.9,-5193.392,-4479.161,884313.1,-6643.058,3955.111,1662134.3783169594
PART_000_R31G119B180A255,14331,642154.9,-5476.715,-2786.743,912413.7,-9433.092,4243.48,1707486.188720379
PART_000_R31G119B180A255,14332,644745.4,-5497.615,-1128.764,956883.1,-5993.719,3600.545,1779611.395091945
PART_000_R31G119B180A255,14333,648969.8,-5044.956,-278.3161,1017221.0,-4431.099,1498.95,1878542.4940846798
PART_000_R31G119B180A255,14334,7216.411,-8078.051,-59.99746,1058828.0,2252.104,-411.5239,1833996.047613053
PART_000_R31G119B180A255,14335,5832.295,-6361.44,210.0092,996335.2,5616.182,-642.1245,1725763.3367171872
PART_000_R31G119B180A255,14336,4609.021,-5379.868,484.7694,950423.7,4062.095,-666.1156,1646220.535713757
PART_000_R31G119B180A255,14337,3805.737,-5004.832,659.8999,918290.1,3178.142,-509.8244,1590553.6805146923
PART_000_R31G119B180A255,14338,3367.595,-4809.342,823.6303,899288.5,-191.0658,-295.9385,1557630.3551131673
PART_000_R31G119B180A255,14339,3187.853,-4789.242,876.5722,892450.8,-2386.652,60.80308,1545792.0071708655
PART_000_R31G119B180A255,14340,3480.886,-4926.661,784.2678,896329.2,-6045.429,394.1429,1552540.9813113452
PART_000_R31G119B180A255,14341,4022.018,-5238.011,619.7635,913555.1,-6934.849,594.7424,1582390.5707040168
PART_000_R31G119B180A255,14342,4932.75,-5773.056,420.2069,942206.2,-9648.715,702.6374,1632061.5831129244
PART_000_R31G119B180A255,14343,6029.394,-6659.2,148.7165,987042.4,-6329.269,539.5308,1709678.3661461794
PART_000_R31G119B180A255,14344,7301.001,-7801.621,74.05626,1047542.0,-4550.074,226.463,1814460.2946263703
PART_000_R31G119B180A255,14345,-629262.1,-8517.073,52.75233,1022984.0,559.7023,809.5038,1878885.0963708435
PART_000_R31G119B180A255,14346,-628546.3,-6709.302,2118.531,961206.6,4812.808,1034.317,1778784.9050227734
PART_000_R31G119B180A255,14347,-629628.0,-5868.309,3257.51,916243.1,3662.676,1091.11,1706868.4257349093
PART_000_R31G119B180A255,14348,-631277.6,-4897.836,6215.187,884861.5,2737.227,331.5721,1657829.4575603462
PART_000_R31G119B180A255,14349,-633188.8,-4825.137,7334.804,866331.5,-412.4762,-102.0976,1629178.0036481223
PART_000_R31G119B180A255,14350,-634182.2,-4658.103,8154.122,859686.0,-2325.257,-1152.564,1619175.9038617366
PART_000_R31G119B180A255,14351,-634546.5,-4803.169,7312.463,863417.9,-5798.252,-1699.393,1625095.1119981522
PART_000_R31G119B180A255,14352,-634177.0,-5028.774,5600.381,880280.1,-6345.038,-2565.504,1651498.552996371
PART_000_R31G119B180A255,14353,-633916.7,-5652.182,3560.953,908164.7,-9174.493,-2612.253,1695627.26587987
PART_000_R31G119B180A255,14354,-634255.3,-7080.405,1349.54,952189.4,-5750.537,-2328.72,1766016.9585867953
PART_000_R31G119B180A255,14355,-635999.5,-9499.507,439.9934,1011655.0,-4392.308,-965.5949,1862585.923691162
PART_000_R31G119B180A255,14356,-1266215.0,-11566.34,367.7509,920390.2,1399.366,1213.589,2032393.5218259075
PART_000_R31G119B180A255,14357,-1263784.0,-6697.168,3140.709,860831.4,4513.087,3589.002,1953438.7620270967
PART_000_R31G119B180A255,14358,-1264633.0,-4471.855,7511.565,818457.2,2410.69,3451.264,1900768.3937383757
PART_000_R31G119B180A255,14359,-1267923.0,-3846.826,12122.53,789206.1,2040.096,2351.405,1867323.7412303141
PART_000_R31G119B180A255,14360,-1270878.0,-3577.535,15013.39,772501.6,-810.8456,330.3246,1849387.694546851
PART_000_R31G119B180A255,14361,-1273290.0,-3528.724,16333.68,766393.0,-2161.345,-2173.303,1843912.0369178925
PART_000_R31G119B180A255,14362,-1273748.0,-3496.834,14735.94,769842.0,-5010.654,-4382.997,1848008.0432848872
PART_000_R31G119B180A255,14363,-1273641.0,-3796.857,11412.8,785131.3,-5359.555,-6502.859,1865892.7851754872
PART_000_R31G119B180A255,14364,-1273554.0,-4226.613,7274.097,811153.9,-7703.11,-6951.311,1897408.066872332
PART_000_R31G119B180A255,14365,-1275386.0,-6073.608,2756.586,852775.1,-4911.356,-6094.954,1950461.5142742232
PART_000_R31G119B180A255,14366,-1279992.0,-9252.213,1152.152,910559.2,-3847.64,-2288.539,2028675.2803213038
PART_000_R31G119B180A255,14367,-1903655.0,-5427.821,2590.649,750447.7,92.83027,3656.122,2303932.9364124117
PART_000_R31G119B180A255,14368,-1899176.0,-4304.029,4603.253,695232.3,2535.35,8622.9,2248951.641377736
PART_000_R31G119B180A255,14369,-1900239.0,-2969.907,12473.37,657391.0,1383.844,8393.285,2219431.1040487834
PART_001_R158G218B229A255,14370,-1905727.0,-2720.768,18657.63,633055.5,961.2317,6976.152,2205674.3979531825
PART_001_R158G218B229A255,14371,-1909901.0,-2317.665,23663.97,619302.9,-1053.317,1813.241,2199939.271223903
PART_001_R158G218B229A255,14372,-1914088.0,-2505.409,25392.55,614353.0,-1884.05,-3103.81,2200132.7066223132
PART_001_R158G218B229A255,14373,-1914224.0,-2322.704,23005.05,617109.4,-3926.22,-8168.582,2201624.5556356222
PART_001_R158G218B229A255,14374,-1914027.0,-2472.939,17914.4,629779.3,-3810.024,-12874.0,2209939.533330638
PART_001_R158G218B229A255,14375,-1913409.0,-2702.541,11449.72,651468.1,-5794.64,-14058.26,2225301.320943208
PART_000_R31G119B180A255,14376,-1916023.0,-4064.185,4768.827,688848.7,-3134.726,-12045.52,2257555.14775745
PART_000_R31G119B180A255,14377,-1923935.0,-7399.127,1037.811,742836.9,-3102.347,-5056.854,2311898.829479061
PART_000_R31G119B180A255,14378,-2538732.0,-5773.92,3256.513,511469.1,399.1457,6986.124,2687709.1934382766
PART_000_R31G119B180A255,14379,-2532537.0,-3149.873,6029.076,462205.2,1646.168,19922.44,2657668.223829506
PART_001_R158G218B229A255,14380,-2534762.0,-628.8383,18212.96,435070.3,299.4909,20341.19,2653117.709305681
PART_001_R158G218B229A255,14381,-2543347.0,-1223.103,26678.57,418611.6,109.4153,15606.85,2657167.607234029
PART_001_R158G218B229A255,14382,-2549486.0,-789.6666,33518.22,409270.5,-995.6767,5555.872,2662155.7091052635
PART_001_R158G218B229A255,14383,-2555202.0,-936.5079,36022.93,406153.8,-1378.347,-3966.832,2667391.620210866
PART_001_R158G218B229A255,14384,-2555199.0,-852.3608,32433.34,407736.4,-2579.239,-14054.91,2666491.590761846
PART_001_R158G218B229A255,14385,-2553868.0,-894.6926,25676.51,416475.8,-2180.047,-23103.66,2666118.1855228576
PART_001_R158G218B229A255,14386,-2551985.0,-1038.679,16051.1,430943.4,-3596.672,-28222.93,2666604.4613944753
PART_001_R158G218B229A255,14387,-2554316.0,-1777.152,7141.638,457843.8,-1611.128,-24432.51,2677491.5758498106
PART_000_R31G119B180A255,14388,-2563957.0,-3398.165,2361.557,506535.4,-1705.123,-9069.254,2709470.915094953
PART_001_R158G218B229A255,14389,-3166965.0,3075.989,4905.237,187446.3,-442.8317,23504.92,3187793.6550960797
PART_001_R158G218B229A255,14390,-3161803.0,-732.7557,8344.591,163673.5,195.582,49118.22,3179425.510268192
PART_001_R158G218B229A255,14391,-3167215.0,210.8106,24271.61,154801.7,-117.2123,42423.5,3191655.6808352075
PART_001_R158G218B229A255,14392,-3179990.0,-723.9427,35406.39,148514.4,-31.23176,30731.47,3208256.357918799
PART_001_R158G218B229A255,14393,-3188709.0,-12.53252,44503.37,145261.6,-515.9729,12472.36,3221099.936929697
PART_001_R158G218B229A255,14394,-3195934.0,-472.2679,47395.93,144221.4,-427.7548,-4693.328,3229348.8674683785
PART_001_R158G218B229A255,14395,-3195745.0,-194.4536,42854.42,144654.0,-1062.658,-22734.35,3227272.785271458
PART_001_R158G218B229A255,14396,-3192404.0,-323.4626,33772.09,147835.4,-505.6948,-39548.68,3220191.8253035373
PART_001_R158G218B229A255,14397,-3188278.0,-143.6729,20808.57,153132.8,-1375.765,-52441.92,3210925.5916870018
PART_001_R158G218B229A255,14398,-3187872.0,-474.0104,9342.069,162339.3,-22.98648,-54291.57,3206055.976046585
PART_001_R158G218B229A255,14399,-3197679.0,-1391.317,618.0738,185444.5,-1179.62,-26425.28,3213712.748478508
PART_000_R31G119B180A255,14400,2830803.0,7007.088,675.6689,188900.5,3659.504,-22226.01,2846105.1340451846
PART_000_R31G119B180A255,14401,2824117.0,786.0013,-13697.41,167447.1,-197.9782,-41131.63,2846311.7021777746
PART_000_R31G119B180A255,14402,2834820.0,-257.7273,-31124.76,156972.5,958.59,-35938.57,2864249.906493827
PART_000_R31G119B180A255,14403,2848829.0,57.78107,-47568.13,152100.7,-113.0634,-23023.11,2885209.716449462
PART_000_R31G119B180A255,14404,2862418.0,-64.84502,-59744.63,148402.6,47.42817,-8596.217,2904219.9920318522
PART_000_R31G119B180A255,14405,2869778.0,89.39013,-62821.5,147363.6,-685.6963,4638.696,2912871.3012099033
PART_000_R31G119B180A255,14406,2868452.0,-169.7291,-56651.48,148396.6,-765.0111,19503.99,2908850.841149671
PART_000_R31G119B180A255,14407,2864774.0,142.1791,-44102.35,150481.0,-1659.612,34600.93,2899370.7703083255
PART_000_R31G119B180A255,14408,2857264.0,-381.2174,-27490.03,156712.6,-677.4274,46067.44,2885200.680321881
PART_000_R31G119B180A255,14409,2857327.0,199.5674,-10915.95,164836.3,-1630.63,51111.6,2878266.379568257
PART_000_R31G119B180A255,14410,2868352.0,-375.077,-2888.645,188480.7,447.4639,24442.35,2888802.504469352
PART_000_R31G119B180A255,14411,2272512.0,-1853.77,-5535.972,518574.6,-695.0128,-5141.892,2447032.3868167666
PART_000_R31G119B180A255,14412,2266314.0,-901.732,-10255.27,469380.5,699.4167,-16010.82,2413148.5284930146
PART_000_R31G119B180A255,14413,2269733.0,-1119.319,-23994.64,442392.3,2250.402,-15629.17,2407721.09220509
PART_000_R31G119B180A255,14414,2280176.0,-1435.269,-36449.24,427045.1,923.2903,-10775.51,2415433.227465264
PART_000_R31G119B180A255,14415,2288747.0,-1351.74,-45050.0,417871.3,9.656012,-3151.655,2422893.7608160437
PART_000_R31G119B180A255,14416,2294727.0,-1450.787,-47937.38,414493.4,-1550.616,3939.073,2428333.38179291
PART_000_R31G119B180A255,14417,2294416.0,-1423.44,-43004.45,417100.2,-2458.45,11840.52,2427020.2911298675
PART_000_R31G119B180A255,14418,2292570.0,-1760.954,-34051.03,423928.2,-4299.124,19703.07,2424757.04616647
PART_000_R31G119B180A255,14419,2289564.0,-1867.734,-21452.22,439605.0,-2943.988,24368.32,2424352.4023372736
PART_000_R31G119B180A255,14420,2292676.0,-1019.173,-9261.257,464664.1,-4334.187,22205.21,2435012.126037392
PART_000_R31G119B180A255,14421,2305037.0,1532.711,-2849.663,513254.2,162.807,8252.717,2471181.9145771516
PART_000_R31G119B180A255,14422,1711239.0,5837.379,-9.358953,757712.0,3979.283,-3620.697,2154267.6637058374
PART_000_R31G119B180A255,14423,1703670.0,-186.8653,-7314.569,704287.2,4046.392,-6034.735,2098462.1423005895
PART_000_R31G119B180A255,14424,1705878.0,-2090.237,-16306.88,666886.8,3992.63,-5792.845,2067849.533381261
PART_000_R31G119B180A255,14425,1711634.0,-2231.681,-25646.21,643573.3,2275.909,-3867.853,2054418.0119762027
PART_000_R31G119B180A255,14426,1717789.0,-2218.314,-31566.57,630503.4,621.338,-347.5001,2049968.4943928407
PART_000_R31G119B180A255,14427,1721760.0,-2364.732,-33798.83,625005.2,-2230.99,3080.744,2049323.8896724202
PART_000_R31G119B180A255,14428,1722348.0,-2459.128,-30332.87,629022.5,-3683.469,6858.987,2052072.8935972755
PART_000_R31G119B180A255,14429,1721706.0,-2844.618,-23876.31,639205.0,-6822.502,10622.34,2058400.9865780761
PART_000_R31G119B180A255,14430,1721360.0,-2832.115,-14810.71,662083.1,-5448.543,12037.79,2075866.3767587922
PART_000_R31G119B180A255,14431,1725254.0,-2331.225,-6667.748,697105.5,-7303.621,10769.28,2109605.9876995375
PART_000_R31G119B180A255,14432,1735932.0,1158.947,-1367.008,751520.8,-817.2237,4551.578,2169848.053938158
PART_000_R31G119B180A255,14433,1143807.0,771.3286,-833.8005,928483.0,2682.035,-1007.355,1973482.8376363679
PART_000_R31G119B180A255,14434,1139541.0,-2378.672,-5094.629,869958.5,4157.587,-1843.946,1891463.6529988912
PART_000_R31G119B180A255,14435,1140671.0,-3604.452,-10095.41,827126.0,6537.194,-2266.659,1835590.3039780345
PART_000_R31G119B180A255,14436,1143188.0,-3962.626,-15982.69,799923.3,3417.926,-560.8396,1802652.4103495884
PART_000_R31G119B180A255,14437,1147512.0,-4124.342,-20308.79,783289.3,1264.867,622.7741,1784880.708830707
PART_000_R31G119B180A255,14438,1149642.0,-4115.326,-21220.14,776900.8,-2589.281,2039.067,1778184.6057302132
PART_000_R31G119B180A255,14439,1150633.0,-4383.747,-19410.93,781438.3,-4740.316,3928.62,1784291.824275932
PART_000_R31G119B180A255,14440,1150741.0,-4752.791,-15086.59,794005.4,-8855.696,5192.714,1799684.199408812
PART_000_R31G119B180A255,14441,1151439.0,-4837.449,-9270.018,821179.1,-7495.28,6136.234,1834504.5625246153
PART_000_R31G119B180A255,14442,1155269.0,-3975.226,-4048.329,859698.7,-9835.407,5521.408,1887209.3558918112
PART_000_R31G119B180A255,14443,1163200.0,-1050.186,-814.2179,917421.6,-1401.115,2244.716,1969825.3748586029
PART_000_R31G119B180A255,14444,578412.6,-3968.004,-1001.419,1027234.0,5626.339,-670.5235,1871676.701549381
PART_000_R31G119B180A255,14445,575186.3,-4690.071,-1370.408,967499.5,5818.542,-1265.79,1772742.184340385
PART_000_R31G119B180A255,14446,574224.4,-5152.866,-5085.558,922270.5,7585.402,-493.7757,1699282.494492179
PART_000_R31G119B180A255,14447,575619.0,-5120.133,-6994.359,892878.1,4098.992,-150.7585,1652299.6905744525
PART_000_R31G119B180A255,14448,577043.8,-5209.031,-9685.079,874435.4,1680.085,689.7936,1623442.7269401401
PART_000_R31G119B180A255,14449,578377.0,-5159.867,-9733.102,867353.5,-2764.677,973.8167,1612493.9993720548
PART_000_R31G119B180A255,14450,578859.4,-5449.764,-9113.056,872248.4,-5456.582,1937.196,1620531.8598789533
PART_000_R31G119B180A255,14451,579549.3,-5786.977,-6932.857,885996.2,-9992.846,2313.147,1642733.702536803
PART_000_R31G119B180A255,14452,580497.1,-6099.615,-4136.423,915009.1,-8925.729,2829.418,1689655.568503574
PART_000_R31G119B180A255,14453,583217.8,-6233.585,-1981.991,955534.8,-11124.44,2449.596,1756272.8792670437
PART_000_R31G119B180A255,14454,588132.6,-5393.002,-178.4497,1014659.0,-1778.81,1093.266,1854135.0000800432
PART_000_R31G119B180A255,14455,10189.0,-8350.656,231.6182,1058342.0,2904.719,55.73662,1833179.464824106
PART_000_R31G119B180A255,14456,8339.591,-7718.946,154.4269,997718.9,5723.894,-396.8226,1728184.366121017
PART_000_R31G119B180A255,14457,7015.682,-7135.936,253.3555,952322.3,7511.552,-540.3878,1649567.741870406
PART_000_R31G119B180A255,14458,5987.661,-6539.309,480.2652,921751.3,4375.45,-494.497,1596575.3379746727
PART_000_R31G119B180A255,14459,5350.634,-6314.664,592.8025,903070.1,1551.29,-164.7619,1564198.6229693475
PART_000_R31G119B180A255,14460,5312.856,-6312.53,558.4582,895476.4,-2832.157,107.0926,1551051.426873281
PART_000_R31G119B180A255,14461,5554.347,-6477.3,535.8611,900644.8,-5522.557,374.9087,1560027.1311607412
PART_000_R31G119B180A255,14462,6358.413,-6866.132,363.4043,914602.3,-10347.4,616.8169,1584280.908299679
PART_000_R31G119B180A255,14463,7481.283,-7559.443,200.8064,944259.3,-8996.38,622.4845,1635631.5505192734
PART_000_R31G119B180A255,14464,9156.894,-8573.767,146.2296,984986.6,-11455.96,592.3087,1706231.631245476
PART_000_R31G119B180A255,14465,11221.55,-10229.67,-34.58949,1044208.0,-1734.304,213.8869,1808719.325947801
PART_000_R31G119B180A255,14466,-558574.6,-15908.1,807.2829,1020714.0,5159.948,-445.7781,1851887.926769511
PART_000_R31G119B180A255,14467,-559468.4,-10516.85,1825.82,961786.5,5208.506,-311.6923,1755977.5526426998
PART_000_R31G119B180A255,14468,-561923.7,-7487.115,6158.754,916773.4,6765.106,-1083.798,1684254.473115483
PART_000_R31G119B180A255,14469,-565511.3,-6700.629,8447.652,887333.8,3471.627,-988.8014,1638013.0540215054
PART_000_R31G119B180A255,14470,-568077.4,-6144.785,11367.04,868929.6,1257.959,-1274.318,1609671.0725304575
PART_000_R31G119B180A255,14471,-569727.4,-6162.274,11536.66,861660.5,-2834.508,-767.3157,1598529.2386708523
PART_000_R31G119B180A255,14472,-569602.9,-6221.975,10656.78,866608.9,-5112.058,-980.4216,1606333.205595001
PART_000_R31G119B180A255,14473,-568631.6,-6556.958,8186.599,880283.1,-9495.042,-830.5699,1627697.69939589
PART_000_R31G119B180A255,14474,-567326.9,-7652.007,4855.19,909143.0,-8292.982,-1274.948,1673387.749581557
PART_000_R31G119B180A255,14475,-566795.5,-9691.472,2446.685,949064.2,-10737.95,-1070.012,1737754.9774576812
PART_000_R31G119B180A255,14476,-567842.7,-13776.3,119.5831,1006988.0,-1560.725,-580.6857,1832202.1527951958
PART_000_R31G119B180A255,14477,-1131007.0,-13473.23,1708.176,914871.3,2764.865,653.8697,1943468.7131062488
PART_000_R31G119B180A255,14478,-1129832.0,-9767.588,5018.399,859132.6,3412.844,38.00292,1866999.0868420142
PART_000_R31G119B180A255,14479,-1133909.0,-7160.803,11529.78,817481.9,5225.864,-645.7567,1815456.8484222852
PART_000_R31G119B180A255,14480,-1139508.0,-5983.212,17757.75,790248.6,2145.414,-1565.557,1784895.7274644452
PART_000_R31G119B180A255,14481,-1145243.0,-5508.288,22658.93,773329.4,530.2028,-1740.58,1768054.517518329
PART_000_R31G119B180A255,14482,-1147782.0,-5486.959,23482.68,766845.2,-2660.125,-1809.681,1761520.5964070854
PART_000_R31G119B180A255,14483,-1148200.0,-5481.027,21517.5,771369.4,-4186.524,-2537.575,1767057.286377447
PART_000_R31G119B180A255,14484,-1146242.0,-5675.006,16607.88,783878.7,-7897.095,-2723.152,1780564.9404200853
PART_000_R31G119B180A255,14485,-1144433.0,-6705.769,10037.88,810838.5,-6388.94,-3671.603,1812813.676104044
PART_000_R31G119B180A255,14486,-1144789.0,-8999.793,4675.48,848248.6,-9121.228,-3224.931,1861342.0471401596
PART_000_R31G119B180A255,14487,-1149196.0,-14428.79,583.9596,903815.9,-1000.759,-1447.973,1937941.3864282225
PART_000_R31G119B180A255,14488,-1704981.0,-15933.81,-860.7017,744471.0,3215.396,1577.02,2131036.4817789844
PART_000_R31G119B180A255,14489,-1700987.0,-7062.808,9541.989,692593.3,2121.691,1548.049,2082512.7338308645
PART_000_R31G119B180A255,14490,-1707286.0,-4891.55,18013.96,655555.6,2952.067,2237.876,2055958.7401787404
PART_001_R158G218B229A255,14491,-1715384.0,-3553.566,28719.97,632911.6,638.9769,-550.5593,2046554.482904599
PART_000_R31G119B180A255,14492,-1725137.0,-3570.442,36131.32,619064.3,-276.9118,-1312.964,2045346.9372089538
PART_000_R31G119B180A255,14493,-1728391.0,-3378.096,37192.27,613642.9,-2279.944,-2797.082,2043773.903843621
PART_000_R31G119B180A255,14494,-1729173.0,-3418.742,34436.63,617604.1,-3013.647,-4920.607,2046800.9707703532
PART_001_R158G218B229A255,14495,-1725495.0,-3411.071,26460.33,627736.4,-5667.049,-6424.51,2049459.8194867838
PART_001_R158G218B229A255,14496,-1722476.0,-4351.9,16365.55,650396.5,-4189.573,-8361.902,2063318.6930982203
PART_000_R31G119B180A255,14497,-1722822.0,-5942.733,7862.892,683947.2,-6633.645,-7041.776,2091697.8024551624
PART_000_R31G119B180A255,14498,-1730661.0,-11417.24,927.9363,735532.6,-403.3823,-3330.186,2144815.668665537
PART_000_R31G119B180A255,14499,-2275381.0,-5091.094,1106.488,504379.8,519.9779,4420.432,2435483.8030454465
PART_000_R31G119B180A255,14500,-2270274.0,-2139.216,14448.09,459551.1,60.48858,8534.782,2411661.867228512
PART_001_R158G218B229A255,14501,-2280163.0,-2961.231,25777.54,433325.6,855.8769,10578.16,2411549.0686868154
PART_001_R158G218B229A255,14502,-2292115.0,-1506.558,41099.55,417958.1,-393.2283,3837.322,2422892.441842776
PART_001_R158G218B229A255,14503,-2306492.0,-1946.017,51317.46,408507.6,-792.3521,723.2473,2436628.028280749
PART_001_R158G218B229A255,14504,-2310985.0,-1711.637,52646.23,404836.3,-1637.954,-3662.946,2439867.0059435414
PART_001_R158G218B229A255,14505,-2311279.0,-1817.835,48763.75,407652.2,-1770.756,-8975.296,2439626.528517374
PART_001_R158G218B229A255,14506,-2305502.0,-1635.213,37659.9,414352.1,-3331.95,-13584.64,2432185.6230984763
PART_001_R158G218B229A255,14507,-2299265.0,-1901.102,23861.98,430071.4,-1659.006,-18591.54,2427686.3905766793
PART_001_R158G218B229A255,14508,-2298406.0,-2947.888,10787.52,453876.4,-3867.939,-16525.75,2433047.718936304
PART_000_R31G119B180A255,14509,-2308743.0,-6499.626,2361.988,499398.0,551.479,-6477.639,2463559.73186451
PART_001_R158G218B229A255,14510,-2837737.0,-6605.539,-1882.444,184260.3,1264.172,18431.72,2851592.3470414644
PART_001_R158G218B229A255,14511,-2833212.0,-486.4488,18961.65,163206.9,29.24827,31411.26,2857039.1814455185
PART_001_R158G218B229A255,14512,-2849930.0,-707.1762,35017.88,153985.7,-30.67396,27672.83,2880029.1268677628
PART_001_R158G218B229A255,14513,-2867678.0,-59.59365,54967.64,148128.2,-398.7591,14220.17,2906973.2431830904
PART_001_R158G218B229A255,14514,-2887084.0,-321.7473,68162.57,145077.4,-372.9398,5240.19,2932406.775911464
PART_001_R158G218B229A255,14515,-2893523.0,-279.626,70213.79,143359.3,-745.8849,-4423.439,2939642.3571256013
PART_001_R158G218B229A255,14516,-2892418.0,-130.6078,64586.41,144865.8,-383.8034,-15448.73,2936046.5932671498
PART_001_R158G218B229A255,14517,-2884326.0,-411.7346,50133.52,146652.1,-1371.036,-26693.58,2920949.8951353882
PART_001_R158G218B229A255,14518,-2872550.0,-171.1144,32003.52,153093.0,-28.84684,-37406.07,2901469.1889978577
PART_001_R158G218B229A255,14519,-2868010.0,-856.3201,13507.49,160669.0,-1710.229,-42682.46,2888750.1672346042
PART_001_R158G218B229A255,14520,-2877211.0,-691.4138,3234.235,182758.2,746.9206,-20943.4,2896064.8778741146
PART_000_R31G119B180A255,14521,2487990.0,-6663.077,-8795.908,188273.4,-5263.644,-11967.34,2517036.4689327995
PART_000_R31G119B180A255,14522,2488279.0,-452.8193,-22447.17,164781.7,1258.319,-23253.55,2516365.1998703466
PART_000_R31G119B180A255,14523,2507037.0,-350.7996,-48615.11,159356.0,-69.56567,-12470.81,2546956.997345401
PART_000_R31G119B180A255,14524,2536175.0,-550.238,-75880.98,151548.8,751.5395,-4320.926,2588571.3956174296
PART_000_R31G119B180A255,14525,2555836.0,-557.2077,-90923.43,149869.4,231.5506,-960.5765,2615666.133805776
PART_000_R31G119B180A255,14526,2563994.0,-510.2486,-94595.9,148576.1,-476.7549,4613.916,2625472.590345653
PART_000_R31G119B180A255,14527,2562770.0,-616.4188,-86792.54,148768.3,-1196.706,8644.507,2620286.903134187
PART_000_R31G119B180A255,14528,2547938.0,-657.5415,-65998.02,152195.8,-881.4565,16695.67,2595469.9605598818
PART_000_R31G119B180A255,14529,2535726.0,-667.1813,-41968.65,156350.6,-2163.594,28765.72,2572078.1323221293
PART_000_R31G119B180A255,14530,2526119.0,-504.8708,-19435.88,165420.9,290.6196,33456.6,2552933.3354886346
PART_000_R31G119B180A255,14531,2537767.0,2267.632,-1567.854,185830.6,-1782.624,19158.8,2557969.1898450623
PART_000_R31G119B180A255,14532,2004534.0,11585.36,-290.3387,511089.1,2786.823,-2896.063,2186169.6266706083
PART_000_R31G119B180A255,14533,1997128.0,1890.394,-17821.27,467937.4,4243.752,-2253.615,2162789.0796318986
PART_000_R31G119B180A255,14534,2010822.0,-396.1708,-36693.93,443955.9,2100.43,-1680.304,2170398.8112462154
PART_000_R31G119B180A255,14535,2027955.0,-400.1733,-56216.04,428221.2,2294.913,2423.916,2186483.0519291
PART_000_R31G119B180A255,14536,2043488.0,-394.032,-68517.33,420342.1,1093.398,2160.151,2202591.781882754
PART_000_R31G119B180A255,14537,2049208.0,-430.7067,-70380.47,417800.4,-1158.049,3249.293,2207485.166301395
PART_000_R31G119B180A255,14538,2048810.0,-719.2985,-65074.8,418384.7,-3223.056,4427.341,2204957.5283266404
PART_000_R31G119B180A255,14539,2039985.0,-707.9961,-49652.38,427389.8,-3410.486,7137.561,2194282.974111949
PART_000_R31G119B180A255,14540,2032946.0,-801.5169,-31900.22,439152.9,-6048.008,12584.32,2186205.3063029037
PART_000_R31G119B180A255,14541,2030777.0,-429.0384,-14928.49,464812.8,-1871.041,11408.31,2191805.9554391876
PART_000_R31G119B180A255,14542,2043828.0,3622.148,-2954.23,508647.1,-3441.488,4970.413,2225348.421194662
PART_000_R31G119B180A255,14543,1506282.0,6657.887,-4069.008,754966.9,-274.8221,1101.987,1993740.902665497
PART_000_R31G119B180A255,14544,1503769.0,1007.825,-11940.45,703387.9,5797.07,1880.246,1939662.859752211
PART_000_R31G119B180A255,14545,1510309.0,-803.5437,-25949.66,669113.9,6153.447,3696.108,1914520.0104860081
PART_000_R31G119B180A255,14546,1522500.0,-1968.514,-39164.53,646809.0,4798.377,4507.201,1907172.6755364724
PART_000_R31G119B180A255,14547,1532607.0,-2063.666,-48534.63,634388.5,2028.238,3340.351,1906851.6855610004
PART_000_R31G119B180A255,14548,1537317.0,-2000.792,-49711.4,630559.3,-1199.037,2379.337,1907368.2769453186
PART_000_R31G119B180A255,14549,1537163.0,-2477.586,-45890.37,631648.7,-5261.725,1873.868,1906895.8335733882
PART_000_R31G119B180A255,14550,1532589.0,-2629.431,-35066.28,644405.1,-5948.512,2491.397,1911450.7586552217
PART_000_R31G119B180A255,14551,1529034.0,-2640.607,-22504.18,662125.5,-10263.74,4197.108,1921573.731893503
PART_000_R31G119B180A255,14552,1530136.0,-825.2545,-10027.72,697320.8,-4829.961,4228.594,1953690.914450702
PART_000_R31G119B180A255,14553,1541628.0,5152.383,-1651.178,746091.8,-6105.225,2604.387,2010310.4754133485
PART_000_R31G119B180A255,14554,1009768.0,7207.487,-2575.158,926392.5,3107.819,714.2733,1894642.6244292927
PART_000_R31G119B180A255,14555,1007123.0,859.2403,-6045.035,868951.3,11378.31,1288.073,1812507.7670594899
PART_000_R31G119B180A255,14556,1010060.0,-2031.11,-15868.79,831610.4,7864.442,4700.778,1764512.4827242366
PART_000_R31G119B180A255,14557,1018784.0,-3027.009,-24900.38,803235.8,7358.764,4144.666,1732831.1729538862
PART_000_R31G119B180A255,14558,1024228.0,-3044.138,-29779.63,788710.3,3099.405,2926.349,1717473.079712936
PART_000_R31G119B180A255,14559,1027903.0,-3305.163,-31731.26,783342.3,-1390.948,1886.751,1713010.0706948608
PART_000_R31G119B180A255,14560,1027988.0,-3589.498,-28472.41,784913.0,-6702.137,439.2332,1714304.6792209854
PART_000_R31G119B180A255,14561,1025823.0,-3784.356,-21863.93,800022.9,-8386.597,599.0371,1731864.6148144407
PART_000_R31G119B180A255,14562,1024619.0,-3911.704,-13827.38,821316.3,-13643.23,1097.37,1758526.578329855
PART_000_R31G119B180A255,14563,1026277.0,-2200.864,-5788.305,860807.1,-7582.741,1724.761,1812351.2900770113
PART_000_R31G119B180A255,14564,1034374.0,2123.339,-1583.235,913500.3,-7700.237,911.393,1890240.7376968523
PART_000_R31G119B180A255,14565,511701.9,-316.2495,458.1408,1028641.0,147.4222,426.0822,1853665.0759213173
PART_000_R31G119B180A255,14566,508792.0,-3355.486,-4307.425,968498.1,11696.81,2083.585,1754187.1809907774
PART_000_R31G119B180A255,14567,511052.5,-4852.539,-6961.103,927948.7,9801.332,2370.16,1688437.6490997993
PART_000_R31G119B180A255,14568,513866.9,-5369.996,-12457.13,896916.7,8565.218,2720.322,1639194.3364488324
PART_000_R31G119B180A255,14569,516967.1,-5198.928,-14211.96,880725.9,3797.526,1608.24,1613855.7092795167
PART_000_R31G119B180A255,14570,518430.7,-5496.316,-15542.73,874622.7,-1531.116,1198.243,1604608.9799732494
PART_000_R31G119B180A255,14571,519023.8,-5621.118,-13842.49,876244.9,-7598.707,-10.07631,1607240.4231030336
PART_000_R31G119B180A255,14572,518193.5,-6068.177,-10575.64,892866.7,-9772.227,96.64853,1633754.2846144421
PART_000_R31G119B180A255,14573,518594.1,-6323.63,-6767.517,915492.8,-15751.39,223.318,1670597.9448956419
PART_000_R31G119B180A255,14574,520580.0,-5851.153,-2711.697,957398.7,-8748.619,601.2043,1739412.09010951
PART_000_R31G119B180A255,14575,526217.2,-4491.727,-756.7494,1011697.0,-8627.418,466.5381,1830437.1441612341
PART_000_R31G119B180A255,14576,15239.22,-13222.27,-343.1677,1060129.0,4387.956,-421.9248,1836379.0882347627
PART_000_R31G119B180A255,14577,12611.01,-9699.253,58.14744,999661.1,11740.44,-298.728,1731691.6557509676
PART_000_R31G119B180A255,14578,10587.02,-7865.358,283.388,957094.1,9782.127,-203.6653,1657899.59641796
PART_000_R31G119B180A255,14579,9441.705,-7289.121,304.0857,925927.2,8514.715,20.24219,1603886.3981435543
PART_000_R31G119B180A255,14580,9042.035,-7048.028,266.5789,908685.1,3810.285,46.37224,1573964.451716789
PART_000_R31G119B180A255,14581,8917.899,-7012.074,326.2309,902489.6,-1568.045,188.1821,1563221.2359794176
PART_000_R31G119B180A255,14582,9361.042,-7219.392,148.998,904076.3,-7709.692,255.0602,1566029.1870661706
PART_000_R31G119B180A255,14583,10025.59,-7676.475,192.7786,921127.8,-9918.616,225.8854,1595606.6394697614
PART_000_R31G119B180A255,14584,11414.66,-8571.081,123.7486,944271.2,-16030.48,337.6206,1635853.5464921936
PART_000_R31G119B180A255,14585,13347.3,-10229.95,-26.37525,986519.2,-8990.923,179.7059,1708895.0904898152
PART_000_R31G119B180A255,14586,16288.64,-12597.59,104.3182,1040872.0,-8827.667,123.1342,1803082.425255682
PART_000_R31G119B180A255,14587,-484541.2,-18394.44,198.3946,1019129.0,-15.44633,-92.21674,1828162.2649851176
PART_000_R31G119B180A255,14588,-487281.5,-13650.28,4549.785,960476.0,10511.47,-2734.409,1732389.7476102605
PART_000_R31G119B180A255,14589,-493234.8,-10762.54,7330.297,920422.8,8540.893,-3218.284,1668418.541395523
PART_000_R31G119B180A255,14590,-498416.6,-8734.466,12938.68,889441.5,7335.53,-3390.01,1619995.5932876477
PART_000_R31G119B180A255,14591,-502970.8,-8436.613,14970.8,872758.9,3090.82,-1788.367,1594318.124439053
PART_000_R31G119B180A255,14592,-504558.7,-8144.536,16060.05,866653.9,-1503.791,-724.369,1585024.8228266004
PART_000_R31G119B180A255,14593,-504210.4,-8333.815,14214.06,868254.5,-7056.314,722.1898,1587240.223519791
PART_000_R31G119B180A255,14594,-501909.5,-8850.264,10797.28,885038.7,-8701.45,904.128,1613471.7037356903
PART_000_R31G119B180A255,14595,-499162.5,-10196.16,6897.368,907533.1,-14688.52,1021.644,1649011.158874287
PART_000_R31G119B180A255,14596,-497009.8,-13452.77,2591.651,948867.9,-7744.324,285.9864,1715539.0585040667
PART_000_R31G119B180A255,14597,-496654.0,-19044.72,985.1897,1001592.0,-8352.748,19.51486,1802178.4601162379
PART_000_R31G119B180A255,14598,-988448.4,-27638.74,1345.455,911378.8,1869.288,-2503.165,1855722.7196805805
PART_000_R31G119B180A255,14599,-991745.4,-15175.15,7552.693,855951.8,9136.213,-4555.625,1781761.6191410264
PART_000_R31G119B180A255,14600,-1000172.0,-9989.591,17007.37,818683.2,5441.643,-7060.341,1737494.4260176448
PART_000_R31G119B180A255,14601,-1011457.0,-8089.591,26741.49,790027.2,5268.644,-6254.181,1707494.4461200743
PART_000_R31G119B180A255,14602,-1019117.0,-7577.836,31846.14,775176.9,1907.565,-3958.075,1693339.96004367
PART_000_R31G119B180A255,14603,-1023242.0,-7298.037,33861.9,769516.8,-1485.29,-1397.448,1688826.0002650393
PART_000_R31G119B180A255,14604,-1021976.0,-7345.352,30020.3,771113.7,-5604.129,1228.487,1689003.1500330397
PART_000_R31G119B180A255,14605,-1017991.0,-7864.51,23119.4,786570.1,-6562.434,1608.948,1705528.5767574895
PART_000_R31G119B180A255,14606,-1013086.0,-9103.129,14736.45,807476.8,-11803.48,1740.803,1728863.1712707796
PART_000_R31G119B180A255,14607,-1010526.0,-13547.64,5783.638,845934.6,-5942.767,242.4365,1777789.240222599
PART_000_R31G119B180A255,14608,-1013090.0,-21172.42,2126.797,895494.6,-7310.357,46.93244,1847551.4359341252
PART_000_R31G119B180A255,14609,-1497493.0,-17047.48,6157.022,733221.7,-734.3167,-2178.547,1959456.1560666983
PART_000_R31G119B180A255,14610,-1499484.0,-11900.17,11020.08,686583.5,4969.316,-5417.082,1913603.8269376832
PART_000_R31G119B180A255,14611,-1511173.0,-7363.77,28328.46,654541.5,2559.285,-10750.36,1897901.6114211825
PART_000_R31G119B180A255,14612,-1529896.0,-6205.955,42912.53,630545.0,2310.026,-8101.271,1895220.097226596
PART_000_R31G119B180A255,14613,-1540790.0,-5782.124,50779.04,618241.0,663.9045,-5710.094,1895530.2996633465
PART_000_R31G119B180A255,14614,-1547924.0,-5640.158,54150.73,613837.6,-1411.105,-2166.749,1898641.2972492382
PART_000_R31G119B180A255,14615,-1545204.0,-5602.948,47905.07,614974.0,-3873.712,1615.491,1894794.8217441696
PART_000_R31G119B180A255,14616,-1538335.0,-5791.677,37291.62,628329.4,-3707.973,1369.943,1897633.423145341
PART_001_R158G218B229A255,14617,-1530033.0,-6564.569,23871.26,645686.8,-8035.94,1597.676,1902415.8699866093
PART_000_R31G119B180A255,14618,-1526277.0,-10166.45,9766.248,679610.9,-2848.673,-537.7431,1927393.7907214405
PART_000_R31G119B180A255,14619,-1532738.0,-17563.94,2759.606,724343.0,-5699.191,-693.8455,1975114.2802053788
PART_000_R31G119B180A255,14620,-2005484.0,-13063.28,8304.969,495892.4,-161.7688,-2985.502,2179570.165173779
PART_000_R31G119B180A255,14621,-2005799.0,-7461.472,15675.23,454487.1,2247.059,-2850.01,2158665.8403666876
PART_001_R158G218B229A255,14622,-2022505.0,-2429.111,41647.24,431663.8,-276.9501,-10411.07,2175089.240904346
PART_001_R158G218B229A255,14623,-2050845.0,-2845.894,62565.9,415230.4,-58.7571,-8288.328,2202270.9395888895
PART_000_R31G119B180A255,14624,-2066261.0,-2570.556,72811.99,406740.4,-213.9383,-6107.942,2217316.4712946694
PART_000_R31G119B180A255,14625,-2075981.0,-2345.136,77807.33,404076.2,-1217.947,-3141.047,2227658.84221335
PART_000_R31G119B180A255,14626,-2072094.0,-2410.181,69079.86,404513.8,-2087.743,921.6188,2219813.8626915123
PART_001_R158G218B229A255,14627,-2060056.0,-2478.667,54019.25,414247.5,-1291.14,-799.225,2206326.1817917353
PART_001_R158G218B229A255,14628,-2047127.0,-2898.393,34619.18,425640.8,-4339.436,-3351.3,2191021.022166644
PART_001_R158G218B229A255,14629,-2039464.0,-4631.34,15265.37,450301.5,-258.6091,-5167.124,2188565.95273254
PART_000_R31G119B180A255,14630,-2048310.0,-9069.022,4385.434,489659.6,-3446.956,-1975.759,2214829.247088115
PART_000_R31G119B180A255,14631,-2498342.0,2872.503,12743.17,179769.6,-1539.181,6308.762,2525457.960739021
PART_001_R158G218B229A255,14632,-2503921.0,-2213.235,22148.26,160538.1,-290.3057,12149.07,2529395.3946152944
PART_001_R158G218B229A255,14633,-2530173.0,-303.2321,56209.03,153378.1,-662.0635,-3198.851,2572354.928720124
PART_001_R158G218B229A255,14634,-2570499.0,-983.4523,83917.87,146979.4,-452.7525,-4435.198,2625384.183703771
PART_001_R158G218B229A255,14635,-2591895.0,-726.4298,97696.74,143828.0,-327.0726,-4509.442,2653487.047376324
PART_001_R158G218B229A255,14636,-2604283.0,-756.6359,103401.5,143205.2,-402.5204,-4262.169,2668699.134584485
PART_001_R158G218B229A255,14637,-2599199.0,-760.2076,92921.17,142885.6,-849.307,-1902.28,2658072.15629605
PART_001_R158G218B229A255,14638,-2579933.0,-707.9145,72015.74,146996.3,195.1225,-7333.116,2628734.7945774603
PART_001_R158G218B229A255,14639,-2560819.0,-604.7655,46585.86,150750.0,-1563.947,-16061.74,2597441.0400580224
PART_001_R158G218B229A255,14640,-2544067.0,-999.4289,21524.9,159778.2,1317.698,-22478.98,2569647.689694937
PART_001_R158G218B229A255,14641,-2551881.0,-3616.66,2724.026,177797.9,-2098.389,-14155.11,2570077.758687327
PART_000_R31G119B180A255,14642,2135224.0,14605.42,-1201.185,179450.9,9368.523,-2408.605,2151204.6344289836
PART_000_R31G119B180A255,14643,2140650.0,1547.623,-35892.03,168030.4,-988.6841,11766.54,2177698.0714695295
PART_000_R31G119B180A255,14644,2188668.0,150.7819,-79255.14,154959.8,1632.615,20024.99,2245649.74060227
PART_000_R31G119B180A255,14645,2229284.0,1048.2,-110765.9,153912.7,1868.849,17906.13,2301895.974594331
PART_000_R31G119B180A255,14646,2260195.0,423.4989,-134900.8,149898.0,234.2261,12699.33,2344903.8598334957
PART_000_R31G119B180A255,14647,2271770.0,677.2797,-138565.6,148871.2,323.2559,-1988.83,2357961.8946396993
PART_000_R31G119B180A255,14648,2259305.0,612.2018,-121911.4,150840.4,-1065.678,-6626.834,2337058.4068965083
PART_000_R31G119B180A255,14649,2241416.0,501.3559,-98550.56,150992.4,-2374.102,-6836.114,2306952.499309386
PART_000_R31G119B180A255,14650,2209126.0,479.4946,-61643.89,157806.2,-357.9397,-2765.701,2256971.204728601
PART_000_R31G119B180A255,14651,2191095.0,923.3357,-26353.1,163285.1,-2815.525,12456.52,2222118.6618812704
PART_000_R31G119B180A255,14652,2195959.0,498.892,-9079.794,182833.8,1847.543,7112.635,2222973.9234385043
PART_000_R31G119B180A255,14653,1718954.0,6476.811,-12134.78,501757.0,-692.3173,9076.553,1928814.4777824557
PART_000_R31G119B180A255,14654,1726188.0,2309.31,-26198.86,465278.2,1612.502,14927.52,1916205.3083061413
PART_000_R31G119B180A255,14655,1750452.0,833.3926,-58203.29,441777.7,6405.243,21402.47,1937767.3149479781
PART_000_R31G119B180A255,14656,1782469.0,21.0941,-84005.71,431108.0,5550.878,16943.29,1972934.471041006
PART_000_R31G119B180A255,14657,1803195.0,-85.99254,-99007.1,423127.8,2141.775,10058.63,1994346.7530778563
PART_000_R31G119B180A255,14658,1811930.0,-341.5449,-103037.8,419894.8,400.0637,-682.9997,2002479.7085042088
PART_000_R31G119B180A255,14659,1804818.0,12.64151,-90544.31,423654.2,-3295.952,-6850.06,1991879.1675783095
PART_000_R31G119B180A255,14660,1792205.0,-898.462,-73571.81,426616.9,-6599.091,-8615.359,1974125.5097320562
PART_000_R31G119B180A255,14661,1773169.0,-488.5747,-46776.01,442259.6,-3590.157,-8043.728,1953743.896453516
PART_000_R31G119B180A255,14662,1764579.0,1798.68,-20442.44,460415.2,-7857.214,-1930.183,1945054.8028415036
PART_000_R31G119B180A255,14663,1774932.0,8066.786,-6319.131,500228.3,1785.178,-1231.186,1974369.9703376347
PART_000_R31G119B180A255,14664,1295459.0,21891.29,-1888.238,745327.4,8949.788,2870.715,1821984.8615255386
PART_000_R31G119B180A255,14665,1295417.0,7587.426,-17999.1,700502.4,10052.77,13613.12,1779067.3763914036
PART_000_R31G119B180A255,14666,1315327.0,1553.634,-39139.23,668221.4,11502.65,17978.59,1766930.5893331137
PART_000_R31G119B180A255,14667,1336128.0,900.7212,-58345.89,650738.2,9850.915,14226.18,1771081.202946365
PART_000_R31G119B180A255,14668,1351258.0,653.9148,-68495.26,639357.4,4846.024,7991.1,1774514.5367100476
PART_000_R31G119B180A255,14669,1357391.0,227.0364,-71359.64,634194.2,157.4575,-58.19276,1775043.7933457133
PART_000_R31G119B180A255,14670,1353670.0,392.5454,-63118.5,639220.5,-5181.364,-5717.367,1774071.2317125383
PART_000_R31G119B180A255,14671,1345449.0,-375.0922,-50365.01,644073.2,-11312.68,-7974.716,1768073.72417466
PART_000_R31G119B180A255,14672,1334880.0,362.8087,-31764.54,666071.0,-8371.411,-8288.416,1776572.7865104578
PART_000_R31G119B180A255,14673,1330518.0,3017.723,-14272.16,692414.6,-14108.05,-4406.742,1795683.0327733452
PART_000_R31G119B180A255,14674,1339036.0,12339.92,-3474.83,739425.0,349.0863,-1386.786,1849758.927217564
PART_000_R31G119B180A255,14675,864074.5,16261.65,-160.0763,921050.9,8703.764,3314.976,1810591.99357268
PART_000_R31G119B180A255,14676,865658.5,6031.284,-12442.16,873099.8,10524.75,12121.07,1744380.5055773887
PART_000_R31G119B180A255,14677,880653.4,504.3842,-25030.79,831461.5,17729.76,12159.18,1695039.9233251365
PART_000_R31G119B180A255,14678,892209.3,-398.8112,-35643.62,811440.7,13433.28,10622.98,1675004.2298264024
PART_000_R31G119B180A255,14679,903180.6,-1149.881,-44347.71,796168.0,6611.084,6204.13,1661517.929613721
PART_000_R31G119B180A255,14680,906993.4,-1007.847,-44597.7,790120.1,425.6135,-282.6459,1654936.8813031397
PART_000_R31G119B180A255,14681,904998.8,-1382.825,-40179.17,795645.1,-7158.108,-3672.963,1660585.6387769368
PART_000_R31G119B180A255,14682,900575.8,-1851.267,-31678.28,801885.0,-15143.48,-6360.838,1664947.1406721605
PART_000_R31G119B180A255,14683,894642.9,-1124.598,-19703.45,827907.6,-12581.5,-6161.977,1695956.5709971013
PART_000_R31G119B180A255,14684,893532.7,1656.464,-8868.491,857465.0,-18887.46,-3691.928,1735451.1604699728
PART_000_R31G119B180A255,14685,899740.2,9390.82,-1805.997,910051.8,-555.9434,-1282.688,1813120.2843125626
PART_000_R31G119B180A255,14686,439552.2,3601.064,-3176.304,1030595.0,14121.13,2567.226,1838491.2509815826
PART_000_R31G119B180A255,14687,442224.7,-1193.707,-4269.909,975251.7,12950.35,5253.436,1746976.5186742118
PART_000_R31G119B180A255,14688,446872.1,-2649.809,-12773.78,929101.9,19641.64,7416.451,1672643.65699428
PART_000_R31G119B180A255,14689,453899.7,-3220.917,-16727.49,907156.7,15613.61,5852.328,1638581.629864501
PART_000_R31G119B180A255,14690,458635.9,-3630.783,-21864.8,889674.6,7608.839,3787.13,1611592.7947696059
PART_000_R31G119B180A255,14691,461024.7,-3400.564,-21607.07,882787.7,563.2256,-206.7853,1600756.4817364775
PART_000_R31G119B180A255,14692,459889.7,-3804.772,-19475.68,888829.7,-8320.589,-1937.561,1610216.854951469
PART_000_R31G119B180A255,14693,458498.3,-4248.839,-15402.74,895642.0,-17331.1,-3659.733,1620767.0463231802
PART_000_R31G119B180A255,14694,455965.1,-4189.656,-9254.514,923973.6,-14978.09,-3678.648,1666131.4288307186
PART_000_R31G119B180A255,14695,456205.8,-3387.869,-4443.421,955631.0,-21521.84,-2360.701,1718374.4329432389
PART_000_R31G119B180A255,14696,460720.3,-469.6872,-629.8617,1011319.0,-987.5738,-817.7325,1811373.3441986407
PART_000_R31G119B180A255,14697,20683.21,-10977.16,610.4849,1061804.0,6994.858,598.088,1839347.939871353
PART_000_R31G119B180A255,14698,16236.93,-9324.309,-48.25649,1004839.0,13540.93,674.8602,1740734.902023241
PART_000_R31G119B180A255,14699,14361.1,-8219.245,-417.1376,960010.1,19623.09,963.7709,1663253.056644087
PART_000_R31G119B180A255,14700,13742.03,-7352.205,-648.6872,935165.7,15680.64,788.4416,1620090.3277359873
PART_000_R31G119B180A255,14701,13417.9,-6957.573,-700.4558,917723.2,7666.62,613.452,1589701.8259109235
PART_000_R31G119B180A255,14702,13511.49,-6900.66,-950.3345,910230.3,581.0359,164.57,1576670.3188925704
PART_000_R31G119B180A255,14703,13694.33,-7066.138,-715.6814,916591.1,-8273.84,-191.7165,1587753.9797550165
PART_000_R31G119B180A255,14704,14504.86,-7706.381,-834.8076,923562.1,-17693.56,-403.1176,1600071.393079685
PART_000_R31G119B180A255,14705,15627.68,-8911.056,-545.6939,952725.7,-14926.52,-705.8833,1650513.716867729
PART_000_R31G119B180A255,14706,18090.13,-10855.5,-132.6228,985110.8,-21782.75,-367.5547,1706867.3597756673
PART_000_R31G119B180A255,14707,22017.94,-14353.53,-217.0882,1041467.0,-763.3739,-217.7547,1804153.8145028965
PART_000_R31G119B180A255,14708,-402810.1,-32098.11,2054.783,1019768.0,13083.53,-3311.722,1808751.3501888297
PART_000_R31G119B180A255,14709,-411681.6,-18317.64,4110.596,966393.1,11271.22,-4882.301,1722283.424265178
PART_000_R31G119B180A255,14710,-420590.2,-12287.57,12465.03,920426.9,17186.17,-6753.466,1649245.3536416865
PART_000_R31G119B180A255,14711,-430261.1,-10442.08,16662.24,897415.8,13681.87,-4931.899,1614020.2813561046
PART_000_R31G119B180A255,14712,-435386.5,-9446.55,20953.01,879785.2,6738.178,-2729.909,1586670.0734795062
PART_000_R31G119B180A255,14713,-437669.1,-9473.252,20730.55,872710.7,594.3062,423.0823,1575458.8508713434
PART_000_R31G119B180A255,14714,-436189.2,-9493.136,18663.65,878986.9,-7208.424,2152.814,1585213.053334128
PART_000_R31G119B180A255,14715,-432720.1,-10083.53,14413.5,885978.3,-15718.04,3421.574,1595375.8339580928
PART_000_R31G119B180A255,14716,-427913.9,-12437.89,8664.866,914436.1,-12968.74,3001.813,1640410.031152045
PART_000_R31G119B180A255,14717,-423207.4,-17250.49,4356.499,945336.1,-20090.45,2119.77,1690042.8296191297
PART_000_R31G119B180A255,14718,-420197.8,-26750.9,186.4408,999067.4,-222.9032,561.4799,1777788.6828152025
PART_000_R31G119B180A255,14719,-835797.4,-32038.14,2811.926,900994.1,7544.935,-3236.822,1763753.9092180445
PART_000_R31G119B180A255,14720,-845813.8,-21698.64,11587.98,855722.1,7146.553,-12795.98,1704444.5348667307
PART_000_R31G119B180A255,14721,-865184.9,-14188.26,25365.94,814734.8,13578.5,-14634.62,1658913.6004067003
PART_000_R31G119B180A255,14722,-881873.5,-11484.03,36324.23,794009.9,10073.25,-12087.58,1641210.8850040012
PART_000_R31G119B180A255,14723,-894215.4,-10390.96,44539.54,777552.2,4651.615,-6085.235,1626852.8492057428
PART_000_R31G119B180A255,14724,-897850.8,-10578.27,44289.92,771238.4,726.0863,809.3361,1619683.8130038502
PART_000_R31G119B180A255,14725,-895235.2,-10350.01,40021.91,777372.6,-5288.955,5041.418,1625797.3859984202
PART_000_R31G119B180A255,14726,-887755.1,-10841.38,30994.7,783849.3,-12143.7,8349.554,1628289.0687140166
PART_000_R31G119B180A255,14727,-878519.2,-13457.05,19098.09,810401.8,-8940.991,7763.978,1657778.174020292
PART_000_R31G119B180A255,14728,-871287.4,-18902.52,9096.067,838617.0,-16257.73,5685.992,1691725.3996092589
PART_000_R31G119B180A255,14729,-869735.1,-31883.55,1033.722,887758.3,904.2833,1819.178,1759265.5663849085
PART_000_R31G119B180A255,14730,-1277893.0,-38985.64,-1218.961,723690.6,7374.487,-7029.599,1776120.1631161214
PART_000_R31G119B180A255,14731,-1288464.0,-16739.27,21787.73,682052.0,3704.097,-22035.43,1750670.297610859
PART_000_R31G119B180A255,14732,-1318260.0,-10764.71,41543.31,647437.6,7324.389,-22305.28,1743517.2515232866
PART_000_R31G119B180A255,14733,-1342229.0,-8560.154,59317.26,630880.1,5815.054,-19812.8,1751888.7276136465
PART_000_R31G119B180A255,14734,-1363409.0,-7660.908,73295.16,617336.6,2092.756,-10053.34,1760111.5275889924
PART_000_R31G119B180A255,14735,-1368271.0,-7945.283,71941.87,611854.2,696.8038,1847.166,1757455.2458244974
PART_000_R31G119B180A255,14736,-1363416.0,-7654.833,65631.79,617813.3,-2950.996,8262.914,1757307.3726374893
PART_000_R31G119B180A255,14737,-1351022.0,-7805.003,51074.86,622828.9,-7658.165,13883.7,1746793.8922309724
PART_000_R31G119B180A255,14738,-1335397.0,-9900.83,31997.49,645642.7,-4086.431,12936.26,1750813.312151273
PART_000_R31G119B180A255,14739,-1324087.0,-14567.57,15551.39,669974.4,-11350.08,9736.203,1761379.458404994
PART_000_R31G119B180A255,14740,-1325047.0,-27955.07,1888.394,712159.3,1959.276,3021.621,1800999.538070317
PART_000_R31G119B180A255,14741,-1721087.0,-19299.61,-184.5294,476280.6,2078.556,-8623.598,1899931.8936516861
PART_000_R31G119B180A255,14742,-1732234.0,-6549.363,33208.02,448732.2,-1547.815,-31271.05,1911857.5798892307
PART_001_R158G218B229A255,14743,-1775877.0,-6243.676,62079.52,424464.9,1544.646,-30127.65,1949466.2609648108
PART_001_R158G218B229A255,14744,-1809680.0,-4866.196,85880.06,412859.0,1818.851,-27201.52,1985687.5887077246
PART_000_R31G119B180A255,14745,-1840853.0,-4112.913,106852.1,403634.5,-82.09123,-14538.96,2019687.5654406894
PART_000_R31G119B180A255,14746,-1847812.0,-4720.393,104363.0,399767.6,652.6518,3531.893,2022230.859031803
PART_000_R31G119B180A255,14747,-1838576.0,-4402.192,94556.49,404520.2,-1173.483,11280.54,2011663.3567409453
PART_000_R31G119B180A255,14748,-1820607.0,-4172.868,75258.08,407611.4,-3406.248,18831.26,1987350.7826613914
PART_001_R158G218B229A255,14749,-1793985.0,-4952.581,47740.52,424539.5,594.105,17538.93,1959415.343242026
PART_001_R158G218B229A255,14750,-1776865.0,-7696.782,22022.61,440966.5,-5710.407,11726.97,1940948.9389765097
PART_000_R31G119B180A255,14751,-1779997.0,-15958.49,4382.983,475419.4,3359.991,4244.773,1956089.8554540025
PART_000_R31G119B180A255,14752,-2148199.0,-11765.58,-2844.72,171911.3,2311.115,-5726.737,2161541.3618031642
PART_001_R158G218B229A255,14753,-2163692.0,-763.9567,45701.82,159419.1,-1082.284,-33301.32,2204652.5160368634
PART_001_R158G218B229A255,14754,-2229717.0,-1206.952,85723.47,149822.2,-610.8853,-35209.63,2288798.724161918
PART_001_R158G218B229A255,14755,-2277420.0,-1220.921,116954.4,145569.8,167.8754,-32672.58,2351767.9493455067
PART_001_R158G218B229A255,14756,-2320415.0,-394.3984,144725.4,142522.7,-491.1644,-18731.09,2408781.3754459242
PART_000_R31G119B180A255,14757,-2330021.0,-1065.242,142683.1,140515.4,228.2085,5128.946,2416359.8334608627
PART_001_R158G218B229A255,14758,-2314900.0,-635.4373,127481.6,143288.5,1.69947,13330.9,2393921.2773411954
PART_001_R158G218B229A255,14759,-2290320.0,-795.9002,103268.2,143202.0,-1209.927,20781.01,2356656.0179965245
PART_001_R158G218B229A255,14760,-2247556.0,-1136.841,65305.67,150919.2,1570.075,18103.42,2295515.5818491513
PART_001_R158G218B229A255,14761,-2219663.0,-1827.102,29496.46,155502.0,-2623.456,2768.859,2249851.999480699
PART_001_R158G218B229A255,14762,-2216885.0,-2172.058,9051.731,172273.3,2809.129,-359.5899,2240311.404887491
PART_000_R31G119B180A255,14763,1754419.0,-7900.444,-24948.74,175525.5,-15953.15,28201.32,1797687.9780455742
PART_000_R31G119B180A255,14764,1801944.0,517.6555,-60777.29,154972.7,3517.406,54127.83,1854774.5065703203
PART_000_R31G119B180A255,14765,1871363.0,1199.704,-112959.4,159833.5,4254.711,65164.92,1952811.6069391752
PART_000_R31G119B180A255,14766,1944331.0,-1203.469,-170160.1,150570.4,1887.33,51205.26,2053838.5089070818
PART_000_R31G119B180A255,14767,1981511.0,170.4422,-188803.2,151187.3,4410.142,14167.31,2098827.26068506
PART_000_R31G119B180A255,14768,1984532.0,-164.9521,-187114.6,151617.6,-819.8169,-5498.999,2100968.1059137466
PART_000_R31G119B180A255,14769,1974445.0,-667.7603,-175194.4,149155.7,-1516.087,-29057.25,2084591.5408943167
PART_000_R31G119B180A255,14770,1934447.0,86.93041,-134123.6,154056.1,-1838.844,-41525.13,2023797.3800231859
PART_000_R31G119B180A255,14771,1893322.0,-931.6902,-92086.86,153927.1,-4147.282,-38556.74,1960808.365796494
PART_000_R31G119B180A255,14772,1844635.0,582.6914,-43760.17,163172.1,1931.968,-29881.42,1888605.586162624
PART_000_R31G119B180A255,14773,1841530.0,7342.264,-3052.708,173939.5,-3987.053,-4681.634,1863946.7074840162
PART_000_R31G119B180A255,14774,1426043.0,29002.14,-1792.725,480866.8,5448.781,12299.25,1640102.0374429931
PART_000_R31G119B180A255,14775,1441277.0,9055.21,-43875.26,452331.0,13571.71,45061.75,1658409.8773986262
PART_000_R31G119B180A255,14776,1498133.0,3628.052,-85668.31,441981.1,11582.64,48388.18,1722916.5196030808
PART_000_R31G119B180A255,14777,1545852.0,2718.704,-120590.9,428627.4,10319.1,36007.02,1772603.1973755397
PART_000_R31G119B180A255,14778,1573286.0,3188.677,-137342.0,425514.0,9817.556,11916.99,1802637.7906790765
PART_000_R31G119B180A255,14779,1577785.0,3526.382,-134165.8,425677.7,-562.9504,-5107.402,1804908.9056550232
PART_000_R31G119B180A255,14780,1569918.0,2111.103,-126497.0,421971.2,-4917.688,-20538.91,1792123.978316677
PART_000_R31G119B180A255,14781,1545357.0,3317.179,-98288.25,431588.7,-7288.068,-31483.52,1762620.0645922348
PART_000_R31G119B180A255,14782,1517127.0,2551.418,-66849.7,434476.0,-12386.94,-31033.86,1724391.7018565643
PART_000_R31G119B180A255,14783,1490307.0,4737.203,-32071.5,457840.6,-1566.698,-25950.61,1701127.8937663012
PART_000_R31G119B180A255,14784,1493093.0,16948.31,-4720.968,484668.2,-8816.11,-8274.881,1707807.9744828106
PART_000_R31G119B180A255,14785,1054789.0,34215.87,-9099.69,727894.2,1563.742,16361.51,1636445.1656378533
PART_000_R31G119B180A255,14786,1081923.0,11610.04,-29517.84,691591.2,20739.25,32885.06,1621946.6182880986
PART_000_R31G119B180A255,14787,1118324.0,6294.339,-59119.25,671663.4,22734.59,35059.56,1634706.09818963
PART_000_R31G119B180A255,14788,1153186.0,3835.776,-82360.83,652266.3,18569.25,26047.57,1645274.9733407428
PART_000_R31G119B180A255,14789,1173108.0,4167.621,-94923.22,646986.8,14196.86,9384.378,1657925.3601825263
PART_000_R31G119B180A255,14790,1177015.0,4708.083,-92916.49,645652.6,85.54089,-3820.594,1657988.4437245328
PART_000_R31G119B180A255,14791,1171835.0,3239.037,-86418.14,641281.1,-8621.521,-14290.54,1647115.0376791684
PART_000_R31G119B180A255,14792,1156672.0,3749.727,-68321.32,654315.7,-13213.47,-22175.32,1644354.7203505065
PART_000_R31G119B180A255,14793,1138236.0,4054.265,-45424.89,659596.4,-22046.47,-23179.61,1628866.7854701553
PART_000_R31G119B180A255,14794,1123138.0,9583.796,-20823.26,690792.0,-8226.808,-18173.1,1645467.1211948176
PART_000_R31G119B180A255,14795,1124955.0,25161.69,-3718.318,724578.4,-14528.81,-5734.792,1678664.6225174225
PART_000_R31G119B180A255,14796,701275.1,29555.28,-9640.41,925233.1,3386.003,10913.52,1745747.0946099649
PART_000_R31G119B180A255,14797,723570.7,11009.58,-16639.74,861785.3,32159.67,19009.87,1661450.641319989
PART_000_R31G119B180A255,14798,745448.5,6224.373,-34752.7,841436.7,29010.66,24959.15,1645254.8630755492
PART_000_R31G119B180A255,14799,771359.1,3657.687,-53431.07,815009.0,24591.09,18416.9,1622344.7312748637
PART_000_R31G119B180A255,14800,783703.2,4705.537,-57929.17,808161.2,18441.03,5783.719,1618655.8931382676
PART_000_R31G119B180A255,14801,786067.4,4381.378,-58743.4,805938.8,-201.5496,-1607.855,1616471.916455196
PART_000_R31G119B180A255,14802,783817.0,3753.28,-53579.29,800687.3,-11229.03,-9796.449,1606386.0465036184
PART_000_R31G119B180A255,14803,774373.6,3626.053,-42086.93,816137.2,-18642.16,-14390.66,1622121.5364084782
PART_000_R31G119B180A255,14804,763453.3,4204.138,-27925.66,823347.2,-29766.2,-15590.25,1624492.2957773544
PART_000_R31G119B180A255,14805,753270.5,10072.27,-12178.58,860557.8,-13887.56,-11951.78,1670946.3819234706
PART_000_R31G119B180A255,14806,753995.0,22439.15,-2847.312,901185.6,-18440.91,-4036.433,1729678.3986720357
PART_000_R31G119B180A255,14807,364639.1,9240.873,1458.105,1030843.0,-1854.82,3700.747,1821290.1286683045
PART_000_R31G119B180A255,14808,367053.3,5615.249,-10241.19,968067.1,35194.6,13189.19,1718231.5286042443
PART_000_R31G119B180A255,14809,381885.3,1484.946,-16575.35,944346.6,33800.5,14013.72,1682643.40364999
PART_000_R31G119B180A255,14810,393660.1,656.0064,-27388.73,913179.3,27362.78,10584.84,1634176.2464869474
PART_000_R31G119B180A255,14811,400419.1,1894.112,-28639.88,905608.5,20981.18,3287.199,1622854.387218512
PART_000_R31G119B180A255,14812,401210.5,1484.774,-29243.97,902848.3,-213.6699,-500.6813,1618151.423287374
PART_000_R31G119B180A255,14813,400718.7,1214.926,-26930.06,896953.7,-12926.13,-5403.994,1608044.19018826
PART_000_R31G119B180A255,14814,395845.2,766.0306,-20814.51,914057.6,-21677.79,-8095.975,1634989.1725655457
PART_000_R31G119B180A255,14815,391264.0,483.7019,-14173.81,922005.4,-34218.43,-8821.337,1647021.5464922695
PART_000_R31G119B180A255,14816,387225.2,2504.765,-5884.414,963680.7,-16210.31,-7108.439,1714143.8291019993
PART_000_R31G119B180A255,14817,388982.5,7322.81,-1550.501,1008935.0,-20504.02,-2345.435,1790043.7676559843
PART_000_R31G119B180A255,14818,21698.29,-13708.62,-1188.315,1067557.0,9864.689,728.8686,1849403.8165752878
PART_000_R31G119B180A255,14819,20613.54,-8404.714,-771.3953,1004043.0,32859.14,2759.163,1740186.1586542071
PART_000_R31G119B180A255,14820,20437.29,-5962.401,-1354.913,973495.0,33089.57,2871.307,1687300.676698169
PART_000_R31G119B180A255,14821,20274.73,-4696.819,-1694.902,943799.0,28096.1,2241.459,1635607.082820214
PART_000_R31G119B180A255,14822,20312.62,-4005.449,-2056.816,934640.1,21175.17,1082.922,1619429.779236043
PART_000_R31G119B180A255,14823,20335.73,-3679.501,-1802.65,932000.9,20.39916,156.6414,1614438.691477547
PART_000_R31G119B180A255,14824,20582.9,-4015.917,-2174.963,925972.4,-13025.04,-909.252,1604166.2312624466
PART_000_R31G119B180A255,14825,20736.69,-4724.574,-1591.585,943820.2,-21708.22,-1940.987,1635357.1702374197
PART_000_R31G119B180A255,14826,21641.26,-6410.061,-1264.068,952201.2,-34674.81,-2249.963,1650561.2972994146
PART_000_R31G119B180A255,14827,23238.69,-9530.511,-784.6717,994419.2,-16210.36,-2273.457,1722868.5919690467
PART_000_R31G119B180A255,14828,27707.03,-14160.07,147.5336,1040593.0,-20861.56,-779.3038,1803099.3745935473
PART_000_R31G119B180A255,14829,-315048.8,-28743.23,142.6976,1022675.0,-3197.321,-1432.46,1796859.696659013
PART_000_R31G119B180A255,14830,-329347.2,-20263.63,9335.732,958865.4,30974.46,-9926.607,1693221.746257526
PART_000_R31G119B180A255,14831,-348149.5,-13347.86,14950.07,932961.6,30195.45,-9461.091,1654274.1544000793
PART_000_R31G119B180A255,14832,-359397.8,-10329.14,23227.14,901667.2,25141.78,-6640.941,1604907.5522534437
PART_000_R31G119B180A255,14833,-366633.5,-9981.359,25049.53,893622.4,19801.41,-1819.582,1593044.5555357847
PART_000_R31G119B180A255,14834,-367722.9,-9282.567,25351.19,890926.4,211.7715,1318.515,1588504.9592226672
PART_000_R31G119B180A255,14835,-366005.9,-9391.118,22556.15,885287.5,-11382.61,3947.195,1578361.4618115767
PART_000_R31G119B180A255,14836,-360876.8,-10502.57,17552.75,902952.4,-18998.29,5312.144,1606398.3425223276
PART_000_R31G119B180A255,14837,-353457.3,-13371.94,11391.66,911046.5,-31344.39,5561.943,1617946.3585861423
PART_000_R31G119B180A255,14838,-345330.7,-20778.58,4370.098,952449.3,-13422.65,3665.152,1684098.691048071
PART_000_R31G119B180A255,14839,-337396.2,-34270.92,1936.783,995454.5,-19685.03,1359.375,1754459.5842799775
PART_000_R31G119B180A255,14840,-663295.2,-58224.45,4697.712,903111.0,1286.443,-11919.78,1689793.4234588558
PART_000_R31G119B180A255,14841,-693649.1,-26008.43,17547.66,844674.7,26527.62,-21517.45,1618841.3160704442
PART_000_R31G119B180A255,14842,-725474.3,-15779.44,35043.4,822982.0,22557.82,-24544.77,1605475.158200588
PART_000_R31G119B180A255,14843,-752998.3,-12479.72,51450.07,793706.8,19454.11,-16674.34,1578504.6480181369
PART_000_R31G119B180A255,14844,-766027.4,-12816.08,55766.68,786379.5,16817.31,-5256.359,1574737.345233062
PART_000_R31G119B180A255,14845,-768796.2,-11883.26,56359.84,784547.7,201.0816,2826.556,1573466.8014217936
PART_000_R31G119B180A255,14846,-764712.7,-11919.97,50488.52,779289.0,-8281.243,10172.7,1562037.9625741995
PART_000_R31G119B180A255,14847,-753962.3,-12688.71,40074.97,796227.7,-13719.67,14315.45,1579397.9861822496
PART_000_R31G119B180A255,14848,-738565.8,-15673.48,26153.89,803441.1,-24632.51,15669.77,1579135.595813351
PART_000_R31G119B180A255,14849,-723350.9,-26600.5,10681.72,840110.7,-8917.455,10963.54,1621969.3618958008
PART_000_R31G119B180A255,14850,-714001.3,-45462.56,3773.768,875976.0,-17120.95,4087.665,1668896.647815323
PART_000_R31G119B180A255,14851,-1033119.0,-41725.43,15716.66,699180.8,-3208.351,-17113.7,1584480.8023487322
PART_000_R31G119B180A255,14852,-1073149.0,-25224.71,26982.48,665176.9,16635.77,-35199.77,1577183.6714881412
PART_000_R31G119B180A255,14853,-1117872.0,-14633.64,58152.88,649589.4,14204.56,-44221.02,1604713.2477813875
PART_000_R31G119B180A255,14854,-1165071.0,-10990.42,86550.02,624192.3,11183.55,-29665.35,1620447.1748930076
PART_000_R31G119B180A255,14855,-1184929.0,-12552.18,90925.33,617843.6,12526.55,-8470.213,1628609.1478119649
PART_000_R31G119B180A255,14856,-1188524.0,-11449.96,92499.83,617340.3,178.7384,4135.243,1631577.1475213612
PART_000_R31G119B180A255,14857,-1182147.0,-11395.65,83376.54,612490.9,-4807.263,18401.3,1617750.1727755521
PART_000_R31G119B180A255,14858,-1162456.0,-11781.22,66860.99,628133.3,-6922.462,26182.48,1614491.656880314
PART_000_R31G119B180A255,14859,-1137225.0,-13719.31,44044.28,633720.6,-15610.33,29492.36,1593312.6596899326
PART_000_R31G119B180A255,14860,-1114004.0,-22509.01,18472.9,664567.9,-1877.37,21592.82,1601291.0990510804
PART_000_R31G119B180A255,14861,-1104410.0,-40761.73,6077.839,692184.6,-12889.02,8071.732,1619078.384311919
PART_000_R31G119B180A255,14862,-1415922.0,-27530.83,24246.75,460236.2,-3641.882,-28463.64,1624844.8846864025
PART_000_R31G119B180A255,14863,-1461137.0,-15789.71,40677.3,431352.1,6823.867,-52315.44,1655408.126595825
PART_001_R158G218B229A255,14864,-1522132.0,-7500.53,86265.34,421507.3,4527.868,-67810.81,1729677.1086793803
PART_001_R158G218B229A255,14865,-1593243.0,-4603.305,131471.9,404389.3,3983.09,-46156.37,1804299.8527045865
PART_000_R31G119B180A255,14866,-1621166.0,-7018.615,133903.0,399875.7,7546.615,-11592.79,1825671.026582848
PART_001_R158G218B229A255,14867,-1624688.0,-5502.098,136247.3,400258.6,-309.0764,4944.61,1830865.6364239845
PART_000_R31G119B180A255,14868,-1615941.0,-5589.752,125173.0,396487.4,-1443.111,28827.21,1815216.2535120691
PART_000_R31G119B180A255,14869,-1582805.0,-6160.113,98613.65,408724.7,-1439.887,41062.69,1779946.615313566
PART_001_R158G218B229A255,14870,-1545005.0,-6551.477,66973.48,411689.6,-7019.741,44641.67,1732036.7598566737
PART_001_R158G218B229A255,14871,-1506735.0,-11261.4,30137.71,435272.9,3922.51,35314.95,1694768.874635148
PART_001_R158G218B229A255,14872,-1497751.0,-23973.32,7665.519,454361.3,-8359.575,13113.33,1685143.4299505316
PART_000_R31G119B180A255,14873,-1768498.0,-1557.416,36398.16,160256.0,-5253.983,-41347.7,1809099.9329128317
PART_001_R158G218B229A255,14874,-1838438.0,-4248.722,59339.34,150605.1,-749.0802,-74949.66,1889398.3214484158
PART_001_R158G218B229A255,14875,-1926724.0,-2920.521,119561.6,148033.0,315.3141,-94853.15,2011065.9342753966
PART_001_R158G218B229A255,14876,-2027198.0,-431.7903,181721.0,141226.6,-14.37016,-66149.66,2140818.586194291
PART_001_R158G218B229A255,14877,-2065511.0,-2892.157,186561.8,139507.6,2827.333,-16048.25,2177210.216470581
PART_001_R158G218B229A255,14878,-2069163.0,-1478.786,187299.2,140502.9,-448.4751,6089.457,2181885.2951061768
PART_001_R158G218B229A255,14879,-2056117.0,-1818.117,174116.9,137787.1,-152.4144,40623.9,2162042.314116176
PART_001_R158G218B229A255,14880,-2004757.0,-2152.295,134025.3,144296.5,818.3618,56759.87,2091365.9009706583
PART_001_R158G218B229A255,14881,-1951580.0,-972.8778,94364.12,143656.2,-1911.451,59293.79,2018016.8106763922
PART_001_R158G218B229A255,14882,-1885905.0,-3007.917,44308.99,154088.3,5190.133,49317.46,1927495.8473728902
PART_001_R158G218B229A255,14883,-1871132.0,-9242.036,4465.671,160444.4,-4569.42,13275.51,1889487.4845144227
PART_000_R31G119B180A255,14884,1364738.0,33039.2,-2537.699,141153.6,31541.21,46289.9,1375227.598639447
PART_000_R31G119B180A255,14885,1446327.0,5444.209,-86447.0,164025.9,4441.94,134260.6,1533571.6741079031
PART_000_R31G119B180A255,14886,1601886.0,-1143.619,-193274.5,144855.9,5182.648,124525.3,1739011.1137161434
PART_000_R31G119B180A255,14887,1686947.0,4978.918,-224678.3,153419.6,15226.26,55463.61,1829910.394308725
PART_000_R31G119B180A255,14888,1703977.0,2301.148,-240679.7,153249.0,1733.156,21038.49,1854725.7675978432
PART_000_R31G119B180A255,14889,1713939.0,2612.271,-245403.6,149594.0,2228.868,-17242.65,1866180.3663952197
PART_000_R31G119B180A255,14890,1696305.0,3568.523,-222459.4,153206.2,-4049.933,-47329.41,1837453.933246978
PART_000_R31G119B180A255,14891,1655343.0,1340.229,-193071.1,147454.4,-6005.035,-81302.72,1783324.0834495975
PART_000_R31G119B180A255,14892,1573979.0,4476.678,-122105.9,155441.6,-2320.308,-96639.41,1666899.0038772693
PART_000_R31G119B180A255,14893,1505502.0,1879.557,-59314.09,153425.0,-7183.356,-71173.25,1562884.0784769112
PART_000_R31G119B180A255,14894,1464768.0,4031.088,-25614.29,163886.6,5952.08,-35295.46,1504112.8001810056
PART_000_R31G119B180A255,14895,1072198.0,38348.59,-29944.92,442336.7,9207.326,47373.6,1318364.9639130882
PART_000_R31G119B180A255,14896,1161872.0,7238.062,-68794.13,447890.9,15273.21,86519.21,1432384.4047957447
PART_000_R31G119B180A255,14897,1259757.0,1585.857,-132108.5,426969.4,28385.85,80350.87,1528978.0410816658
PART_000_R31G119B180A255,14898,1322612.0,5893.237,-162810.3,434345.2,32825.35,39744.81,1599463.3523928334
PART_000_R31G119B180A255,14899,1341539.0,5705.062,-167189.8,434736.4,11208.19,11585.43,1616499.464018772
PART_000_R31G119B180A255,14900,1346192.0,4074.65,-173617.7,427998.2,3599.703,-10666.28,1619032.1485686186
PART_000_R31G119B180A255,14901,1337576.0,5881.514,-158424.2,432549.4,-10908.64,-33048.55,1607526.7184778869
PART_000_R31G119B180A255,14902,1308032.0,2651.126,-137620.2,423526.6,-17641.86,-54430.11,1566763.7780639161
PART_000_R31G119B180A255,14903,1257337.0,5630.962,-91004.05,438934.0,-12220.36,-65259.96,1512705.7634958932
PART_000_R31G119B180A255,14904,1213755.0,9904.765,-43269.62,436451.1,-20965.74,-50170.8,1447907.3180838292
PART_000_R31G119B180A255,14905,1192773.0,26489.59,-15106.68,460215.8,7257.183,-22323.24,1430911.9507134326
PART_000_R31G119B180A255,14906,797538.9,42847.45,-8139.682,716308.0,27402.38,19678.35,1467427.7703417875
PART_000_R31G119B180A255,14907,854098.7,16562.64,-44261.13,683495.6,35359.33,56411.24,1473398.9682990557
PART_000_R31G119B180A255,14908,931393.0,6578.917,-86717.5,655757.3,47678.89,56326.2,1502217.6311903996
PART_000_R31G119B180A255,14909,978418.1,10905.54,-110427.6,665069.3,47342.71,27806.42,1550544.6560714731
PART_000_R31G119B180A255,14910,991963.8,12244.04,-112591.7,659996.2,18643.34,7005.821,1551036.3407586769
PART_000_R31G119B180A255,14911,996130.8,9897.535,-115499.2,652909.8,5162.948,-6689.329,1546330.707123251
PART_000_R31G119B180A255,14912,990822.8,11155.8,-107609.4,658036.7,-16859.29,-22317.7,1546475.6036313318
PART_000_R31G119B180A255,14913,971117.9,8620.26,-90593.46,646350.2,-29486.63,-36091.73,1513789.9480069876
PART_000_R31G119B180A255,14914,938637.8,10970.01,-60688.45,667500.4,-25375.26,-42097.02,1508673.6722881405
PART_000_R31G119B180A255,14915,907157.7,19018.93,-29134.11,668419.7,-37824.53,-33373.64,1477113.3817516165
PART_000_R31G119B180A255,14916,889868.4,44600.69,-7947.283,705633.6,4006.492,-14069.71,1502016.7290472083
PART_000_R31G119B180A255,14917,529953.7,31433.83,5048.591,882601.7,41226.25,12166.37,1613961.5741432295
PART_000_R31G119B180A255,14918,561880.0,17667.53,-27270.62,872886.6,44222.7,44112.72,1618684.755781557
PART_000_R31G119B180A255,14919,619294.8,9071.127,-59185.46,827200.6,61351.49,38299.28,1577072.825340155
PART_000_R31G119B180A255,14920,648817.2,13686.15,-65923.76,836847.8,59657.1,16547.62,1603974.131709037
PART_000_R31G119B180A255,14921,656434.5,13841.82,-71712.1,830599.0,22605.82,6559.611,1595796.7914306275
PART_000_R31G119B180A255,14922,661888.8,13595.34,-71746.7,820202.7,6889.444,-4977.437,1581552.555459418
PART_000_R31G119B180A255,14923,656925.2,12975.56,-66837.23,827442.7,-21762.02,-13921.27,1590101.5894779046
PART_000_R31G119B180A255,14924,645408.1,11727.9,-56443.02,813788.9,-38852.63,-23230.84,1562786.341785136
PART_000_R31G119B180A255,14925,624971.1,13342.07,-37056.12,838984.6,-36067.71,-26916.84,1589093.046051628
PART_000_R31G119B180A255,14926,605179.3,19417.78,-18088.69,843154.4,-49500.95,-21679.6,1583661.0162913252
PART_000_R31G119B180A255,14927,591083.1,40499.65,-4267.927,894428.4,2330.208,-9121.664,1652291.424176495
PART_000_R31G119B180A255,14928,259091.8,23254.56,-9388.691,1017156.0,51187.44,14405.99,1782325.818844589
PART_000_R31G119B180A255,14929,293666.2,5418.345,-13218.61,983248.0,46749.19,24158.18,1731312.630953162
PART_000_R31G119B180A255,14930,320528.0,6177.021,-31289.36,931172.3,66901.32,21060.16,1651666.2401899504
PART_000_R31G119B180A255,14931,335537.1,10631.91,-32190.84,942914.1,67405.4,9639.782,1674061.1530366817
PART_000_R31G119B180A255,14932,339066.8,10507.72,-35767.24,934372.2,25058.43,4242.391,1657223.1268127386
PART_000_R31G119B180A255,14933,342191.0,11295.0,-36013.49,922864.9,7464.544,-2421.3,1637866.9248255803
PART_000_R31G119B180A255,14934,339652.0,10518.63,-33093.34,930668.7,-24274.12,-7716.497,1650746.4835629738
PART_000_R31G119B180A255,14935,334326.3,8974.287,-28550.05,916533.8,-44171.83,-12969.46,1626631.894071896
PART_000_R31G119B180A255,14936,323621.8,9144.433,-18179.62,944687.7,-41800.15,-15534.57,1670779.9652497633
PART_000_R31G119B180A255,14937,313421.5,11311.89,-9333.256,950317.2,-56035.72,-12497.02,1678430.9368085668
PART_000_R31G119B180A255,14938,307306.0,19432.09,-1936.314,1010405.0,1843.886,-5507.401,1775481.7343406274
PART_000_R31G119B180A255,14939,30123.13,-8656.591,1041.794,1052819.0,28795.88,3014.274,1824560.284207995
PART_000_R31G119B180A255,14940,25535.69,-3674.767,-1918.522,1012031.0,49909.47,5424.404,1755273.8838773575
PART_000_R31G119B180A255,14941,26032.36,479.5727,-3055.981,964997.4,70080.22,5291.162,1676076.7987304174
PART_000_R31G119B180A255,14942,26784.75,3153.785,-3728.396,973693.6,67920.35,3281.255,1690821.6704545915
PART_000_R31G119B180A255,14943,26491.76,4834.629,-3199.334,966195.8,26316.27,1634.34,1674334.5519007074
PART_000_R31G119B180A255,14944,26369.01,5198.382,-3793.531,953946.7,7666.045,7.212429,1652555.1847520852
PART_000_R31G119B180A255,14945,26776.13,5126.779,-3565.186,962197.3,-24401.94,-1798.643,1667333.026666998
PART_000_R31G119B180A255,14946,26765.76,3386.912,-3818.426,947540.5,-45120.82,-3809.713,1643294.6005765328
PART_000_R31G119B180A255,14947,26235.39,754.1667,-2577.592,976896.0,-42435.73,-5173.303,1693872.8812475877
PART_000_R31G119B180A255,14948,27495.27,-3488.855,-1179.958,984250.4,-57010.03,-4295.668,1707906.9489896381
PART_000_R31G119B180A255,14949,31216.95,-10545.68,-860.9409,1046365.0,2366.292,-2103.126,1812761.0593692914
PART_000_R31G119B180A255,14950,-218850.1,-41585.25,6220.118,1004412.0,48449.3,-11022.82,1753886.9121378893
PART_000_R31G119B180A255,14951,-249704.0,-12673.6,10571.63,971626.7,43147.96,-12891.75,1703083.3041505183
PART_000_R31G119B180A255,14952,-271503.0,-7135.809,23663.07,920967.7,63861.13,-11003.43,1623614.2606148361
PART_000_R31G119B180A255,14953,-286579.2,-6113.037,26694.59,932368.5,64899.31,-4301.71,1646075.1419841347
PART_000_R31G119B180A255,14954,-291071.5,-4041.297,29153.12,923999.1,24462.62,-536.2273,1629765.3632831762
PART_000_R31G119B180A255,14955,-293294.5,-3422.0,28947.99,912829.7,8074.554,2232.928,1610727.0995456218
PART_000_R31G119B180A255,14956,-290801.3,-3375.944,26683.25,920970.7,-22209.3,4965.001,1624275.6750169932
PART_000_R31G119B180A255,14957,-284447.9,-4419.97,21312.52,906907.5,-40896.41,6331.542,1599645.29615907
PART_000_R31G119B180A255,14958,-274833.4,-9161.691,13824.11,935613.8,-37647.31,6295.837,1645511.1369533832
PART_000_R31G119B180A255,14959,-261889.4,-19583.61,7010.267,940278.5,-52833.32,4899.419,1651266.2551054852
PART_000_R31G119B180A255,14960,-247933.9,-40869.11,25.95768,998540.9,3765.963,1597.485,1744797.4531861423
PART_000_R31G119B180A255,14961,-477309.8,-36332.59,4073.318,874607.8,35324.12,-12015.12,1585214.339724358
PART_000_R31G119B180A255,14962,-533599.4,-21686.62,26522.67,856096.0,33395.9,-38393.51,1579723.6810670877
PART_000_R31G119B180A255,14963,-591026.3,-13095.6,53120.22,804100.1,52792.49,-31325.66,1525677.7275719056
PART_000_R31G119B180A255,14964,-619789.8,-14331.22,60184.79,814385.1,56332.62,-13278.14,1554659.8914179283
PART_000_R31G119B180A255,14965,-629272.6,-11939.99,64434.28,808495.8,20323.49,-3476.482,1548015.7215916573
PART_000_R31G119B180A255,14966,-633805.4,-11830.63,64673.15,797446.1,7979.89,5045.453,1532421.9773865368
PART_000_R31G119B180A255,14967,-628282.8,-11044.25,60653.87,806167.9,-17612.35,13449.86,1543234.3378226846
PART_000_R31G119B180A255,14968,-614188.7,-11996.83,49136.95,792790.4,-32621.89,20103.67,1514312.2344516527
PART_000_R31G119B180A255,14969,-592948.8,-17032.3,32736.27,819863.2,-27847.09,21899.89,1543732.9636726878
PART_000_R31G119B180A255,14970,-566787.8,-28614.49,16379.57,822920.4,-43315.69,18411.12,1534310.655786549
PART_000_R31G119B180A255,14971,-542142.8,-61200.21,1809.223,870510.2,6172.534,6815.054,1593485.9722468453
PART_000_R31G119B180A255,14972,-758587.7,-75599.3,-3845.801,689229.6,29033.27,-25500.98,1396502.9693565834
PART_000_R31G119B180A255,14973,-836358.7,-20805.89,47716.13,668849.6,20605.7,-70515.62,1443598.1033347044
PART_000_R31G119B180A255,14974,-938319.5,-9296.608,93428.93,625362.9,34270.32,-57519.41,1468249.1370951426
PART_000_R31G119B180A255,14975,-984140.7,-15423.72,99573.59,633912.7,43642.1,-23700.25,1508632.4116199305
PART_000_R31G119B180A255,14976,-996354.4,-12518.33,108179.4,630429.4,14150.96,-9235.344,1514737.0873843285
PART_000_R31G119B180A255,14977,-1005502.0,-12843.86,108811.2,620512.3,6790.135,9111.737,1508782.938172469
PART_000_R31G119B180A255,14978,-994305.1,-12379.19,102759.0,628839.2,-11494.79,24993.26,1509661.9044060635
PART_000_R31G119B180A255,14979,-971531.5,-11854.26,84393.08,617277.5,-21143.07,39417.57,1473671.332339601
PART_001_R158G218B229A255,14980,-933415.1,-15773.58,57122.25,642000.6,-14533.03,43908.83,1468735.4750403797
PART_000_R31G119B180A255,14981,-891653.2,-27806.7,28907.96,641155.1,-30151.08,36799.23,1427749.7989459368
PART_000_R31G119B180A255,14982,-861635.4,-62075.17,3358.519,672439.9,8821.284,14094.4,1432917.2911597954
PART_000_R31G119B180A255,14983,-1065132.0,-58408.07,-8284.488,407915.0,15363.97,-38811.13,1253346.3455872787
PART_000_R31G119B180A255,14984,-1165163.0,-13602.29,75210.4,427205.6,4035.68,-119537.9,1423616.3913908293
PART_001_R158G218B229A255,14985,-1315087.0,-3215.427,149881.1,398097.5,15948.42,-95057.4,1564801.6471827356
PART_001_R158G218B229A255,14986,-1380861.0,-12459.87,146895.2,402825.6,26782.52,-38043.5,1615325.5320939776
PART_000_R31G119B180A255,14987,-1396853.0,-7961.605,162578.4,401725.3,7262.492,-18893.61,1637175.4740116037
PART_000_R31G119B180A255,14988,-1411281.0,-9715.369,164298.7,393990.8,4935.328,15306.22,1644694.931464378
PART_001_R158G218B229A255,14989,-1392175.0,-9343.529,151716.9,400685.1,-6058.835,39698.42,1627072.96674545
PART_001_R158G218B229A255,14990,-1357666.0,-7629.82,130996.1,392317.7,-9339.546,66394.69,1582463.528688589
PART_001_R158G218B229A255,14991,-1293507.0,-10543.41,86662.01,413001.5,-1009.285,78331.25,1519959.4102175208
PART_001_R158G218B229A255,14992,-1233229.0,-15922.18,42619.56,409122.5,-14128.76,63834.74,1439268.3684379964
PART_000_R31G119B180A255,14993,-1195455.0,-36527.28,9573.618,426407.4,12739.01,26004.69,1395224.6244771865
PART_000_R31G119B180A255,14994,-1368856.0,-21567.03,-13595.37,135252.6,9092.933,-64561.23,1376089.9478619313
PART_001_R158G218B229A255,14995,-1490692.0,-5427.957,104659.8,148515.9,17.34309,-187355.9,1597847.1757561257
PART_001_R158G218B229A255,14996,-1707546.0,2658.871,214886.4,136092.9,2720.163,-150325.1,1859078.4587895062
PART_001_R158G218B229A255,14997,-1798983.0,-5361.151,214109.5,139318.5,10357.32,-60497.15,1930912.874715548
PART_001_R158G218B229A255,14998,-1818025.0,-83.81431,232050.3,139092.6,814.6353,-29541.17,1959965.0139360838
PART_001_R158G218B229A255,14999,-1835336.0,-2596.332,234294.3,135126.2,2564.456,22295.73,1976233.5434471925
PART_001_R158G218B229A255,15000,-1808452.0,-2109.462,213621.4,139620.1,-2012.707,57735.74,1941028.26335889
PART_001_R158G218B229A255,15001,-1757377.0,-623.2508,188298.6,133823.4,-2249.127,102455.1,1881222.1549206127
PART_001_R158G218B229A255,15002,-1653568.0,-4387.876,118405.7,145218.8,2578.722,121295.7,1744937.0928932815
PART_001_R158G218B229A255,15003,-1564865.0,-2269.492,60728.79,141618.7,-6053.66,95251.43,1622223.8906328678
PART_001_R158G218B229A255,15004,-1502597.0,-6145.229,25101.43,148564.4,9100.532,47335.37,1536322.8464340824
PART_000_R31G119B180A255,15005,880332.8,-20555.54,-89681.75,143144.2,-53966.16,151115.7,1008647.0741791392
PART_000_R31G119B180A255,15006,1188027.0,-19801.14,-203540.6,127304.0,12777.92,226327.9,1384671.947096194
PART_000_R31G119B180A255,15007,1395644.0,7898.934,-232967.4,154796.4,44388.67,106856.8,1558898.967600742
PART_000_R31G119B180A255,15008,1399640.0,-2891.589,-262920.1,159566.4,8253.513,60064.59,1576965.3831859734
PART_000_R31G119B180A255,15009,1441747.0,287.2181,-292551.7,152580.6,12096.88,24698.42,1630272.3746856549
PART_000_R31G119B180A255,15010,1452579.0,24.26112,-298323.5,157046.6,-1459.989,-24587.69,1645631.8154964326
PART_000_R31G119B180A255,15011,1424508.0,-1824.54,-281754.5,150618.6,-5012.051,-72096.08,1611144.0941936295
PART_000_R31G119B180A255,15012,1387513.0,2324.964,-234629.8,155088.2,-13243.08,-103389.6,1551731.862929835
PART_000_R31G119B180A255,15013,1307324.0,-5743.804,-194251.0,140485.2,-14172.28,-152035.0,1461629.0600656508
PART_000_R31G119B180A255,15014,1153512.0,5905.713,-89714.24,151445.8,2442.754,-160649.0,1257826.3474567253
PART_000_R31G119B180A255,15015,1073404.0,18456.4,392.3535,136161.7,-12932.1,-55656.91,1094400.3788318615
PART_000_R31G119B180A255,15016,694385.9,4538.725,-15935.96,414237.9,6991.683,55396.24,1007256.042766066
PART_000_R31G119B180A255,15017,905399.5,-20717.86,-122433.4,383204.9,71287.33,125399.9,1210454.040479969
PART_000_R31G119B180A255,15018,1052839.0,13551.74,-168008.5,441944.9,91210.01,74080.72,1388935.8929804836
PART_000_R31G119B180A255,15019,1086597.0,12841.71,-168829.2,447583.1,40195.0,31616.13,1410624.822663768
PART_000_R31G119B180A255,15020,1105411.0,7784.81,-197626.5,436951.2,27241.4,15656.78,1431147.313267976
PART_000_R31G119B180A255,15021,1120050.0,10886.57,-200678.6,442035.5,-110.6855,-17535.57,1448023.6049224099
PART_000_R31G119B180A255,15022,1099796.0,8001.436,-190634.8,431382.5,-16645.02,-44421.67,1418931.039620438
PART_000_R31G119B180A255,15023,1076663.0,11742.81,-163249.6,435532.5,-37221.38,-65042.12,1391741.2497699955
PART_000_R31G119B180A255,15024,1019601.0,4069.18,-132621.3,407078.2,-42917.07,-93589.81,1310627.1253608325
PART_000_R31G119B180A255,15025,923330.6,14318.06,-65614.02,431229.0,-11591.68,-93111.26,1220507.9971199252
PART_000_R31G119B180A255,15026,867037.7,48825.92,-6768.983,409698.8,-31874.27,-33068.89,1108123.4572911179
PART_000_R31G119B180A255,15027,479027.7,36404.12,-26166.7,644189.0,16344.72,61322.77,1218420.0263371735
PART_000_R31G119B180A255,15028,648022.5,-9230.505,-80948.66,615410.1,119347.4,98461.69,1300871.350912233
PART_000_R31G119B180A255,15029,762319.2,15935.27,-115085.5,692270.7,124524.9,48143.0,1470794.3343990564
PART_000_R31G119B180A255,15030,783372.8,22536.78,-113665.8,685538.6,60776.58,18669.44,1457074.7953616309
PART_000_R31G119B180A255,15031,800227.1,15854.05,-128111.8,677968.7,43291.92,9053.949,1460713.301069474
PART_000_R31G119B180A255,15032,809259.3,18637.89,-133089.6,680897.6,-863.9371,-11480.26,1469464.086182398
PART_000_R31G119B180A255,15033,797939.5,16417.47,-125013.6,667189.6,-25383.11,-27432.99,1442542.0023532952
PART_000_R31G119B180A255,15034,780450.8,17398.02,-110944.8,674330.1,-57079.42,-41377.21,1440738.498995606
PART_000_R31G119B180A255,15035,742055.9,12919.82,-85223.74,636274.9,-70595.13,-59040.86,1361167.6325275607
PART_000_R31G119B180A255,15036,678258.5,22826.7,-41590.1,667748.9,-31993.12,-56481.32,1351394.8593250532
PART_000_R31G119B180A255,15037,626713.7,63640.21,-7632.783,662789.9,-49094.74,-21208.09,1299505.718317773
PART_000_R31G119B180A255,15038,299242.9,20253.79,-39350.62,896645.1,-6156.678,48668.15,1586553.9313478442
PART_000_R31G119B180A255,15039,427358.7,-4214.177,-61572.56,783224.2,133770.6,61792.08,1455939.0099712242
PART_000_R31G119B180A255,15040,503734.9,18207.26,-63350.28,875238.5,155873.7,27046.65,1629478.0919011198
PART_000_R31G119B180A255,15041,512068.2,22986.3,-73295.0,869482.9,72029.7,15734.75,1606197.2964340209
PART_000_R31G119B180A255,15042,529609.7,22775.9,-78834.79,853447.7,54124.46,4053.72,1585137.7115671362
PART_000_R31G119B180A255,15043,530907.2,22213.08,-80730.16,860821.6,-858.6842,-6642.761,1595277.3148209923
PART_000_R31G119B180A255,15044,526908.7,21611.75,-77549.09,842063.3,-31715.5,-16798.69,1564077.8626010965
PART_000_R31G119B180A255,15045,515033.3,19861.08,-67677.08,853195.6,-71660.93,-26149.25,1580345.0047404177
PART_000_R31G119B180A255,15046,489281.8,16543.11,-52343.5,809778.3,-91601.6,-36731.86,1502409.908536175
PART_000_R31G119B180A255,15047,446550.8,27222.6,-24479.52,850200.2,-46786.92,-35665.06,1542431.0625915532
PART_000_R31G119B180A255,15048,410817.9,53307.35,-4936.323,859123.4,-60779.52,-13701.75,1542061.464297141
PART_000_R31G119B180A255,15049,185598.9,-31570.6,338.5797,971758.4,-12435.63,11344.54,1695595.553554598
PART_000_R31G119B180A255,15050,228861.4,704.9343,-30111.84,888015.1,156209.5,29068.16,1581609.194352281
PART_000_R31G119B180A255,15051,259511.4,22456.26,-30017.43,989200.8,174187.6,16974.58,1760349.6308158876
PART_000_R31G119B180A255,15052,265587.6,24119.8,-37177.71,980546.0,79008.91,9811.579,1726352.4718978456
PART_000_R31G119B180A255,15053,273967.7,27539.56,-39662.85,964199.9,59253.92,3246.231,1697472.4132152281
PART_000_R31G119B180A255,15054,274976.4,26780.36,-40054.46,969962.9,-170.6875,-3691.963,1704459.2592369304
PART_000_R31G119B180A255,15055,272741.7,26089.12,-39100.06,951479.1,-35486.16,-9038.551,1673656.6332203324
PART_000_R31G119B180A255,15056,267220.0,24140.31,-33891.19,962494.4,-80379.61,-15217.6,1695825.8905228442
PART_000_R31G119B180A255,15057,254277.9,19630.57,-27260.07,917196.6,-103321.1,-21452.18,1620313.5534285628
PART_000_R31G119B180A255,15058,232401.8,20679.75,-12417.14,964950.6,-53979.95,-21474.96,1690101.4703358468
PART_000_R31G119B180A255,15059,214765.7,29545.99,-2840.005,979496.0,-67073.07,-8018.964,1712682.1835364434
PART_000_R31G119B180A255,15060,18804.61,-3068.88,-3208.843,993692.4,33318.6,4342.801,1722249.1849806285
PART_000_R31G119B180A255,15061,28273.8,9156.521,-3661.855,919474.7,161556.9,9394.559,1617294.8631710524
PART_000_R31G119B180A255,15062,32396.25,16865.26,-4734.349,1028106.0,175859.8,6218.304,1806915.8999413187
PART_000_R31G119B180A255,15063,30977.4,21262.46,-3025.595,1021519.0,82894.41,3868.886,1775410.6013030664
PART_000_R31G119B180A255,15064,30675.09,23545.04,-4588.707,1002588.0,60260.67,2526.535,1739972.4793145221
PART_000_R31G119B180A255,15065,31547.66,25350.5,-5030.975,1009786.0,519.6312,-262.5479,1749329.5949902646
PART_000_R31G119B180A255,15066,30784.26,24014.73,-4849.887,989931.4,-36230.15,-3208.633,1716081.4898902182
PART_000_R31G119B180A255,15067,31253.14,21972.16,-4579.261,1002458.0,-82027.35,-5071.178,1742431.1383894468
PART_000_R31G119B180A255,15068,30914.66,16583.35,-4918.971,955019.0,-105878.8,-7951.148,1664626.2003517628
PART_000_R31G119B180A255,15069,28321.32,9108.88,-2708.889,1002374.0,-55091.13,-8497.394,1739056.7697028012
PART_000_R31G119B180A255,15070,30168.58,-146.8555,364.3543,1018131.0,-69300.21,-3206.333,1767799.3064633633
PART_000_R31G119B180A255,15071,-131323.7,25578.96,-1112.986,963823.9,-12118.84,452.326,1675844.1486747102
PART_000_R31G119B180A255,15072,-172382.1,10794.2,19346.23,883792.0,154007.0,-12356.49,1565270.148500271
PART_000_R31G119B180A255,15073,-198070.7,5142.291,24368.92,985865.9,171617.5,-6582.886,1746383.3210928391
PART_000_R31G119B180A255,15074,-207739.6,10463.73,28836.59,977499.8,79024.02,-1031.333,1713830.338626191
PART_000_R31G119B180A255,15075,-214432.1,13918.19,29851.31,962793.7,59346.18,1491.314,1687460.742477232
PART_000_R31G119B180A255,15076,-215302.0,15630.79,30458.76,968813.2,306.0081,3115.175,1694933.7833747591
PART_000_R31G119B180A255,15077,-213522.7,15243.63,29064.26,950057.8,-33175.56,3393.041,1663385.884245384
PART_000_R31G119B180A255,15078,-207323.0,12883.57,25246.2,961524.1,-77349.21,5709.771,1686119.328636049
PART_000_R31G119B180A255,15079,-194817.5,7826.977,16689.42,914392.5,-100128.1,6519.715,1606699.913963349
PART_000_R31G119B180A255,15080,-177503.8,-5820.242,7479.138,961304.4,-50514.31,4601.845,1676893.6961919018
PART_000_R31G119B180A255,15081,-155492.0,-32406.22,4022.465,972986.9,-66655.77,1988.669,1695409.2053505902
PART_000_R31G119B180A255,15082,-284447.5,-23979.38,22291.54,879771.7,-11021.07,-37774.36,1551991.163071422
PART_000_R31G119B180A255,15083,-386761.7,3932.146,50335.48,763571.9,127124.4,-46826.26,1406097.6218769245
PART_000_R31G119B180A255,15084,-454233.6,-6297.568,56978.35,859475.9,155509.8,-18280.3,1588283.023905861
PART_000_R31G119B180A255,15085,-468547.9,-1853.796,61672.75,857150.2,69130.61,-6587.302,1571646.6430660204
PART_000_R31G119B180A255,15086,-482020.6,661.8143,68434.46,841097.0,52870.05,-1133.934,1549519.3393554613
PART_000_R31G119B180A255,15087,-484263.0,2670.046,71064.71,849244.6,524.5541,7073.123,1561693.0966062404
PART_000_R31G119B180A255,15088,-480175.4,1629.663,67911.94,830098.8,-27467.52,12560.5,1529180.6110961612
PART_000_R31G119B180A255,15089,-466712.4,1678.237,59993.65,842730.7,-64374.33,20217.5,1547368.2085527286
PART_000_R31G119B180A255,15090,-439426.6,-1451.788,42341.17,797717.4,-83772.16,25175.94,1464559.295723436
PART_000_R31G119B180A255,15091,-401114.5,-21816.2,19323.34,838536.6,-37420.1,21195.28,1508689.2389331306
PART_000_R31G119B180A255,15092,-357162.1,-61455.7,7195.771,842935.8,-58884.62,8851.104,1501571.0070203636
PART_000_R31G119B180A255,15093,-411148.7,-7617.941,51999.07,661161.8,-11740.31,-68895.28,1231465.1923424695
PART_000_R31G119B180A255,15094,-650037.9,9707.071,88530.95,579156.4,101485.4,-90266.69,1247031.9886107126
PART_000_R31G119B180A255,15095,-762412.6,-17770.49,87296.03,660858.6,126496.1,-33282.73,1416085.1240760875
PART_001_R158G218B229A255,15096,-772011.3,-10753.41,101133.2,660984.5,51140.46,-21104.13,1413184.5151321723
PART_000_R31G119B180A255,15097,-802593.5,-9749.423,114377.1,645863.3,41125.67,-5439.544,1413861.0390280604
PART_000_R31G119B180A255,15098,-802413.4,-8882.71,119829.7,652837.7,378.6567,11728.98,1423867.7651596821
PART_000_R31G119B180A255,15099,-796748.5,-9217.508,113792.2,636976.9,-18929.48,26748.54,1397372.7316668434
PART_000_R31G119B180A255,15100,-770938.2,-9210.926,102378.3,648925.8,-45918.09,43469.61,1397493.995661098
PART_001_R158G218B229A255,15101,-726401.0,-9172.235,74069.62,610732.8,-58080.52,57270.0,1311485.043270855
PART_000_R31G119B180A255,15102,-658770.9,-24557.25,35686.35,646304.7,-17237.95,51007.84,1306097.1228602016
PART_000_R31G119B180A255,15103,-588890.3,-72932.05,13420.96,634607.2,-45444.64,21520.49,1238542.7894344968
PART_000_R31G119B180A255,15104,-627083.2,-14468.21,95745.77,399701.1,-18244.73,-105060.9,984051.7670753299
PART_000_R31G119B180A255,15105,-950838.8,26688.25,147891.1,359303.9,59280.53,-135699.3,1241697.0847111868
PART_001_R158G218B229A255,15106,-1121683.0,-18279.82,124180.8,413376.8,83754.77,-61498.23,1392844.9033273754
PART_001_R158G218B229A255,15107,-1131963.0,-5114.477,157264.3,415342.5,29621.81,-46654.81,1416270.2043489018
PART_001_R158G218B229A255,15108,-1181355.0,-8616.053,178942.4,401717.8,24040.8,-14599.6,1454976.5673162956
PART_001_R158G218B229A255,15109,-1181746.0,-7190.485,183961.2,406926.7,752.2228,17763.86,1462311.2765468021
PART_001_R158G218B229A255,15110,-1168687.0,-6960.601,177277.0,396621.2,-9493.383,50539.5,1441333.9757104511
PART_001_R158G218B229A255,15111,-1128785.0,-8921.351,152942.5,405665.2,-25894.17,78258.71,1405573.7284468135
PART_001_R158G218B229A255,15112,-1057465.0,-3612.534,122279.8,377789.8,-29749.85,106344.5,1312967.5792678897
PART_001_R158G218B229A255,15113,-945036.4,-18082.95,59081.39,409040.7,3979.193,101490.4,1212277.226376564
PART_000_R31G119B180A255,15114,-863498.8,-54500.82,13093.95,375922.2,-30811.24,38998.8,1070090.6667464448
PART_000_R31G119B180A255,15115,-849951.3,-11388.07,144089.1,116141.4,-22811.83,-202122.9,1011102.1176046748
PART_001_R158G218B229A255,15116,-1299083.0,19486.66,236394.8,122491.8,10942.74,-263437.2,1524878.0314474893
PART_001_R158G218B229A255,15117,-1540395.0,-13195.48,203277.5,139761.4,33171.57,-107843.0,1675287.288799433
PART_001_R158G218B229A255,15118,-1532961.0,2186.906,233744.3,141423.8,5522.672,-78691.05,1686547.7123158595
PART_001_R158G218B229A255,15119,-1606135.0,-6269.679,262425.7,133673.1,9772.142,-31883.35,1765951.384410041
PART_001_R158G218B229A255,15120,-1612692.0,-2655.681,271022.5,137661.9,-1147.56,25837.7,1779496.4493988054
PART_001_R158G218B229A255,15121,-1582469.0,-2770.55,257398.3,131448.3,-1312.704,87213.8,1746076.524540483
PART_001_R158G218B229A255,15122,-1524290.0,-5989.251,214038.9,139169.1,-8637.244,125909.0,1671408.2709170736
PART_001_R158G218B229A255,15123,-1420241.0,3056.724,185410.1,123351.4,-7127.837,183207.2,1570052.8864114704
PART_001_R158G218B229A255,15124,-1228602.0,-9831.515,83274.87,141462.6,12496.92,192777.6,1333993.5299123344
PART_001_R158G218B229A255,15125,-1118429.0,-20446.29,-1158.584,119085.7,-14235.01,68649.29,1133316.3319128214
PART_000_R31G119B180A255,15126,320638.3,-49813.06,-8570.87,120340.0,157972.5,167046.6,570685.2738334829
PART_000_R31G119B180A255,15127,1106659.0,35017.9,-95813.57,158024.0,133802.7,171469.7,1233922.897324273
PART_000_R31G119B180A255,15128,1063251.0,1706.882,-212651.9,178915.7,19819.68,91906.83,1234069.8701945483
PART_000_R31G119B180A255,15129,1148497.0,9479.031,-290259.9,148852.3,30779.95,80156.61,1348036.302505134
PART_000_R31G119B180A255,15130,1179193.0,4793.207,-324323.0,163589.0,13264.82,3860.067,1398178.4601208407
PART_000_R31G119B180A255,15131,1162143.0,7167.113,-323750.9,159180.3,2999.049,-25267.33,1379723.0725668203
PART_000_R31G119B180A255,15132,1178352.0,7898.811,-324169.5,159515.2,-17477.66,-66416.61,1399780.570492561
PART_000_R31G119B180A255,15133,1121175.0,2165.312,-290665.1,146141.1,-20158.97,-135448.3,1336391.387827556
PART_000_R31G119B180A255,15134,1062667.0,16883.05,-200534.9,150899.0,-33828.53,-166298.2,1234105.645603451
PART_000_R31G119B180A255,15135,895431.9,-13752.18,-158599.4,118343.7,-33686.68,-216939.5,1079767.3388844097
PART_000_R31G119B180A255,15136,632352.6,13925.88,-83473.84,109299.5,19332.74,-141308.6,740970.7624089549
PART_000_R31G119B180A255,15137,388123.2,-167921.4,-85068.08,220352.1,207941.5,108099.7,761853.6015904633
PART_000_R31G119B180A255,15138,712470.8,26405.72,-98699.94,492270.8,266132.0,121800.3,1247454.8608691157
PART_000_R31G119B180A255,15139,806994.9,25416.01,-110268.4,487717.0,88444.97,44822.61,1215903.8796271374
PART_000_R31G119B180A255,15140,826836.1,-3419.243,-187384.8,453449.5,76427.56,45276.79,1231433.5034589209
PART_000_R31G119B180A255,15141,869652.5,9642.758,-210546.5,469839.9,42071.26,-797.9844,1282585.4554861244
PART_000_R31G119B180A255,15142,854770.1,5311.762,-211897.9,466429.0,3837.456,-17265.83,1267626.3663751085
PART_000_R31G119B180A255,15143,864201.7,6917.342,-213697.5,461920.0,-42731.1,-38239.65,1273857.1130976174
PART_000_R31G119B180A255,15144,827100.7,2588.263,-192780.1,435764.7,-61353.5,-74124.04,1215122.0918992439
PART_000_R31G119B180A255,15145,783318.7,11977.21,-144703.5,441576.2,-90440.97,-94019.21,1173199.4865823959
PART_000_R31G119B180A255,15146,669943.6,-14646.84,-105442.5,352048.2,-94860.19,-115520.9,988893.4070790329
PART_000_R31G119B180A255,15147,483065.8,39886.59,-45256.68,368143.7,23688.39,-66722.64,814260.043729943
PART_000_R31G119B180A255,15148,141201.1,-219443.0,-28746.45,353280.8,292160.7,72416.28,862486.9292026184
PART_000_R31G119B180A255,15149,507120.4,-9630.396,-77097.3,762209.8,322179.9,69808.52,1541219.4634709086
PART_000_R31G119B180A255,15150,555684.6,33947.65,-78053.3,740852.3,130748.0,22569.33,1429191.4936684044
PART_000_R31G119B180A255,15151,584629.1,4666.351,-111245.6,699853.7,123125.0,23657.34,1390525.4023748985
PART_000_R31G119B180A255,15152,608829.9,13279.99,-134146.4,721662.6,56769.4,-370.1637,1426980.532163778
PART_000_R31G119B180A255,15153,605523.5,11935.12,-134439.1,714534.0,8721.567,-11362.85,1411719.0460627675
PART_000_R31G119B180A255,15154,607212.7,10945.31,-137261.6,709315.7,-63063.9,-22673.03,1410223.6305182478
PART_000_R31G119B180A255,15155,585541.7,8692.869,-122762.8,674418.4,-90156.47,-42510.83,1349144.8512874392
PART_000_R31G119B180A255,15156,549117.5,7098.951,-97860.75,687300.2,-137450.9,-53840.47,1358016.9675875118
PART_000_R31G119B180A255,15157,468531.0,-2002.203,-64673.06,568011.0,-152247.7,-71088.22,1143427.3175058805
PART_000_R31G119B180A255,15158,335604.9,41811.84,-21802.32,627768.9,14231.74,-42428.63,1139008.3804807332
PART_000_R31G119B180A255,15159,65118.91,-135138.6,19664.73,450200.0,399344.4,32453.82,1059572.7122839838
PART_000_R31G119B180A255,15160,351519.5,-7282.551,-14066.91,961816.0,431559.9,39946.05,1862795.785215493
PART_000_R31G119B180A255,15161,342628.5,31965.9,-58019.39,937104.8,141502.6,21237.65,1681809.1321283358
PART_000_R31G119B180A255,15162,379095.9,30532.71,-69872.61,879191.5,150739.1,12734.28,1598174.4334783936
PART_000_R31G119B180A255,15163,386094.7,28499.53,-77193.81,910275.1,70174.5,-775.4908,1636281.844353709
PART_000_R31G119B180A255,15164,389404.5,29860.1,-81928.22,896729.2,9540.418,-5740.58,1610808.2953604888
PART_000_R31G119B180A255,15165,387999.5,28192.53,-81645.48,893961.5,-74285.72,-14677.43,1611132.7696869029
PART_000_R31G119B180A255,15166,374943.2,25153.56,-74873.36,852787.6,-110895.3,-24254.18,1545232.9040902192
PART_000_R31G119B180A255,15167,353356.9,20134.84,-59764.42,870770.4,-169846.6,-34957.21,1583975.3532694187
PART_000_R31G119B180A255,15168,298756.5,4493.729,-41326.59,739403.8,-188982.4,-46352.18,1362320.0243451467
PART_000_R31G119B180A255,15169,215806.5,29344.85,-13223.65,814875.3,12283.77,-26129.32,1427964.837668804
PART_000_R31G119B180A255,15170,125472.6,-9643.024,-19157.83,562686.8,451963.7,30642.81,1259012.3791217997
PART_000_R31G119B180A255,15171,172278.4,28117.33,-9622.082,1063119.0,461728.8,29308.77,2015060.9722945855
PART_000_R31G119B180A255,15172,182414.5,31158.62,-29779.61,1066973.0,161078.3,12088.14,1878664.4853405964
PART_000_R31G119B180A255,15173,192823.2,44345.51,-36761.99,1001150.0,159630.4,8947.743,1767556.6335629881
PART_000_R31G119B180A255,15174,198973.9,44198.6,-39525.09,1030711.0,78041.6,-53.77656,1802578.816092267
PART_000_R31G119B180A255,15175,198984.7,44973.83,-41484.0,1018717.0,11093.87,-2480.128,1777146.7028046667
PART_000_R31G119B180A255,15176,199729.5,43737.34,-41656.71,1013664.0,-81366.46,-8770.385,1774142.8567489868
PART_000_R31G119B180A255,15177,192376.1,39096.29,-38903.89,972080.5,-121925.6,-13945.29,1709250.4338423952
PART_000_R31G119B180A255,15178,183410.6,31806.63,-30974.93,990689.9,-189172.1,-19750.91,1757660.7184588648
PART_000_R31G119B180A255,15179,157542.4,16831.33,-22099.41,842990.7,-210446.4,-25497.22,1514432.745677509
PART_000_R31G119B180A255,15180,113876.5,21984.6,-6885.096,927801.5,9907.725,-15332.68,1611017.4127951968
PART_000_R31G119B180A255,15181,22596.99,11825.85,-1529.573,527309.2,385762.1,8210.415,1131919.8917140148
PART_000_R31G119B180A255,15182,32614.49,35865.98,-2146.584,1124766.0,474097.0,9112.162,2114516.6314600827
PART_000_R31G119B180A255,15183,30710.23,45346.61,-931.7111,1105005.0,169660.9,5994.137,1936814.1267572665
PART_000_R31G119B180A255,15184,30163.08,50783.73,-3680.783,1046178.0,163727.3,5776.374,1834735.324116367
PART_000_R31G119B180A255,15185,30757.8,56687.78,-5747.182,1075702.0,80985.95,2134.409,1869236.680796824
PART_000_R31G119B180A255,15186,29745.4,58000.33,-5061.624,1062803.0,11364.45,-709.0782,1841747.2549157657
PART_000_R31G119B180A255,15187,30914.11,56670.74,-5887.682,1058622.0,-82711.56,-3207.974,1839989.6093292765
PART_000_R31G119B180A255,15188,30096.38,51702.24,-5785.941,1014632.0,-126115.1,-7095.964,1771674.3555975475
PART_000_R31G119B180A255,15189,30620.1,44369.89,-4518.907,1032971.0,-196706.3,-8494.974,1821892.0989336611
PART_000_R31G119B180A255,15190,28268.36,31018.06,-5030.456,879880.2,-220195.5,-10518.33,1571485.1298266503
PART_000_R31G119B180A255,15191,20991.98,16067.44,-3346.835,966661.3,10165.48,-6468.065,1674584.872988016
PART_000_R31G119B180A255,15192,-114170.4,30941.4,19909.84,555950.5,451516.6,-17551.5,1248738.1956683495
PART_000_R31G119B180A255,15193,-103781.1,39640.9,13872.12,1072341.0,461551.1,-10223.92,2026495.8895439827
PART_000_R31G119B180A255,15194,-122958.2,49632.95,28070.28,1075112.0,163069.7,1116.833,1890478.1110971905
PART_000_R31G119B180A255,15195,-132593.6,52551.57,26676.34,1012136.0,163223.1,3137.283,1784200.1860462404
PART_000_R31G119B180A255,15196,-137425.8,61882.16,29325.88,1043618.0,78288.99,3615.758,1822124.352861301
PART_000_R31G119B180A255,15197,-139850.2,63534.5,31694.62,1031418.0,12250.65,1692.228,1796616.672544744
PART_000_R31G119B180A255,15198,-137727.1,62450.03,31011.86,1026634.0,-80677.9,2165.832,1793387.574469869
PART_000_R31G119B180A255,15199,-132411.9,57678.35,27933.57,983091.6,-120607.2,109.0286,1724647.926425803
PART_000_R31G119B180A255,15200,-121219.7,52058.96,23776.08,1001090.0,-188611.6,2747.635,1771782.6659957787
PART_000_R31G119B180A255,15201,-101462.3,40041.52,11470.93,846916.4,-211949.1,4262.666,1517702.441773907
PART_000_R31G119B180A255,15202,-71490.56,4651.384,-1042.926,930879.5,11218.11,1730.31,1614122.9492898274
PART_000_R31G119B180A255,15203,-45296.13,142235.2,-1052.493,446804.7,402517.0,-20995.95,1055989.605298455
PART_000_R31G119B180A255,15204,-279523.1,42454.95,29354.19,970032.9,439996.0,-27463.53,1872315.9442710183
PART_000_R31G119B180A255,15205,-294496.7,22653.59,44419.35,949210.4,148299.6,-4397.853,1696171.7364905954
PART_000_R31G119B180A255,15206,-314529.3,42680.79,56303.56,895549.9,151633.6,-1528.493,1614826.5987862267
PART_000_R31G119B180A255,15207,-326285.9,48231.03,67131.94,928383.1,70228.83,3286.222,1657773.5341699407
PART_000_R31G119B180A255,15208,-330376.7,49261.32,73134.98,914853.0,11274.93,5260.942,1632510.571599022
PART_000_R31G119B180A255,15209,-325560.0,49373.15,71952.39,912715.3,-71733.06,9700.956,1632304.2830675931
PART_000_R31G119B180A255,15210,-314494.5,44618.38,64538.7,868524.7,-107074.5,10902.87,1560214.5525921264
PART_000_R31G119B180A255,15211,-291206.7,40931.68,54180.05,885406.0,-166137.1,18995.95,1597062.9968077526
PART_000_R31G119B180A255,15212,-241891.1,36623.69,31025.65,743485.3,-188979.3,24653.73,1357688.038544957
PART_000_R31G119B180A255,15213,-173200.0,-17423.13,3758.534,816145.6,16645.51,10871.04,1423896.5510793694
PART_000_R31G119B180A255,15214,-138195.3,189235.9,-11418.23,355195.7,325818.3,-70270.48,890814.974541331
PART_000_R31G119B180A255,15215,-514078.2,-15853.97,11515.33,743811.8,360609.9,-55124.59,1523684.7288791328
PART_000_R31G119B180A255,15216,-507366.0,5533.656,59130.72,742848.1,123193.3,-12814.41,1412416.6920243448
PART_001_R158G218B229A255,15217,-555664.9,20641.17,91344.51,691006.6,118557.7,-16405.84,1361366.9658817719
PART_001_R158G218B229A255,15218,-566522.3,21218.84,117163.6,718353.5,55429.76,928.9274,1402979.3097994886
PART_001_R158G218B229A255,15219,-576433.2,20469.95,123414.6,708831.6,10300.43,10044.53,1391505.1717845642
PART_001_R158G218B229A255,15220,-566324.9,22016.5,122851.9,705906.5,-57908.65,22995.48,1386433.4073496603
PART_001_R158G218B229A255,15221,-548808.2,19232.83,109816.2,667831.5,-81258.44,32262.14,1320325.378799589
PART_001_R158G218B229A255,15222,-506144.0,20808.62,93644.28,684856.8,-124627.5,45368.32,1334624.4577128303
PART_000_R31G119B180A255,15223,-426779.7,18374.53,53808.9,557933.1,-141896.5,55561.0,1103958.603971931
PART_000_R31G119B180A255,15224,-298959.1,-46390.72,6776.033,619869.0,25843.76,28583.56,1112300.8684066066
PART_000_R31G119B180A255,15225,-176541.4,163217.1,-75211.01,219627.1,254145.1,-94449.72,675659.2769277147
PART_000_R31G119B180A255,15226,-859689.6,-56273.19,-44576.48,471046.7,273953.5,-111138.4,1258123.142912578
PART_001_R158G218B229A255,15227,-813971.2,492.972,87621.54,465759.4,66631.3,-63986.88,1190925.6822940696
PART_001_R158G218B229A255,15228,-903918.3,1148.455,152915.5,414668.0,69117.32,-46312.85,1231321.75996271
PART_001_R158G218B229A255,15229,-921914.0,291.6146,177726.5,435128.4,37816.27,-4643.724,1271983.827926301
PART_001_R158G218B229A255,15230,-930353.7,-897.9663,185535.4,428887.9,5968.526,16345.56,1274625.363171662
PART_001_R158G218B229A255,15231,-922203.6,154.6954,185494.2,426500.4,-37167.76,45146.14,1269650.191672153
PART_001_R158G218B229A255,15232,-884159.8,1582.374,171031.4,400101.5,-47483.43,77389.32,1211740.6074390053
PART_001_R158G218B229A255,15233,-819403.4,-4345.022,134160.1,416941.0,-71439.28,107635.1,1169606.616486938
PART_001_R158G218B229A255,15234,-683517.2,17832.08,93808.35,326726.7,-78149.59,125353.0,967813.162226259
PART_000_R31G119B180A255,15235,-469085.0,-48866.94,29195.75,347827.9,42608.9,65619.6,772526.6652457514
PART_000_R31G119B180A255,15236,-283615.5,65624.34,-64606.8,67812.98,124091.4,-194431.0,516574.0817023525
PART_001_R158G218B229A255,15237,-1300598.0,-33136.98,225.1064,175134.1,123470.3,-195787.0,1379349.0718770116
PART_001_R158G218B229A255,15238,-1190609.0,8334.453,158030.2,157167.7,11077.79,-117352.0,1324816.4558703096
PART_001_R158G218B229A255,15239,-1346170.0,-4532.788,241399.8,133567.3,25247.09,-108058.3,1510260.992117826
PART_001_R158G218B229A255,15240,-1382012.0,3096.086,276653.8,143057.1,11326.03,-14406.44,1560342.497475762
PART_001_R158G218B229A255,15241,-1378995.0,-955.6304,274644.7,140399.5,4065.661,25081.16,1554287.294295945
PART_001_R158G218B229A255,15242,-1384284.0,-992.4257,282831.9,140290.6,-15371.32,79827.02,1570201.8579971078
PART_001_R158G218B229A255,15243,-1304732.0,4863.286,259620.0,127556.6,-11646.67,164604.3,1498022.5993906655
PART_001_R158G218B229A255,15244,-1206123.0,-11622.23,174472.5,140251.9,-25858.15,201130.1,1366064.166079118
PART_001_R158G218B229A255,15245,-993343.9,17954.01,152874.3,104671.1,-30218.4,252949.1,1185296.953894418
PART_001_R158G218B229A255,15246,-673453.8,-16948.55,83412.65,96085.91,30275.83,162646.2,785345.7273779324
PART_000_R31G119B180A255,15247,771379.6,57050.71,-51979.83,234782.7,25976.8,161243.8,919472.0803502053
PART_000_R31G119B180A255,15248,769940.5,-40627.49,-211891.0,150277.4,52249.99,151343.9,984798.1411183286
PART_000_R31G119B180A255,15249,892575.8,-12258.43,-300061.1,198574.4,52622.86,29715.7,1136319.0615357575
PART_000_R31G119B180A255,15250,846647.4,-15394.25,-325622.8,184373.9,15238.02,4105.057,1099779.9061321511
PART_000_R31G119B180A255,15251,864742.4,-18771.49,-353915.0,184255.5,-982.0682,-30024.34,1137356.3454512886
PART_000_R31G119B180A255,15252,848587.9,-15769.31,-338197.7,185250.8,-11729.88,-48593.09,1113650.2902194099
PART_000_R31G119B180A255,15253,892315.9,-12358.15,-321013.1,186522.2,-58634.95,-96076.96,1155557.549697766
PART_000_R31G119B180A255,15254,785823.5,-32756.84,-262316.6,143252.7,-55154.41,-190352.5,1044067.4406401417
PART_000_R31G119B180A255,15255,698806.5,13872.43,-69802.83,156718.4,-67860.05,-230786.1,883590.3278591601
PART_000_R31G119B180A255,15256,197769.0,-36679.8,32010.74,59987.89,-91873.6,-128163.0,359131.445449178
PART_000_R31G119B180A255,15257,143268.6,-1922.307,135082.0,55837.28,49346.2,138540.1,306915.9914643446
PART_000_R31G119B180A255,15258,536598.3,133846.0,93463.28,620319.0,101755.1,127671.4,1189308.0585512968
PART_000_R31G119B180A255,15259,512252.2,-62300.41,-100013.9,456173.3,182534.8,63682.93,1043842.4394272565
PART_000_R31G119B180A255,15260,604164.9,-14023.73,-168571.7,522330.6,126517.5,18446.67,1170090.0369399253
PART_000_R31G119B180A255,15261,585176.4,-22972.01,-194182.7,517803.8,50496.94,-3389.085,1146876.4991389134
PART_000_R31G119B180A255,15262,599352.0,-25326.25,-221581.9,499358.9,-2460.163,-15220.92,1140231.095710482
PART_000_R31G119B180A255,15263,589645.9,-20308.11,-205644.6,512734.2,-40117.31,-29786.08,1147004.4250283225
PART_000_R31G119B180A255,15264,598393.9,-20621.17,-189961.8,499960.9,-143229.7,-44975.22,1155065.177599966
PART_000_R31G119B180A255,15265,527193.9,-37723.06,-156024.9,420861.4,-162664.7,-83794.97,1015762.950573748
PART_000_R31G119B180A255,15266,442526.5,-10429.28,-58828.14,444196.4,-202009.0,-97876.51,986168.1392431714
PART_000_R31G119B180A255,15267,134150.8,-106564.3,1251.825,205460.9,-228614.9,-50143.21,578441.8667306252
PART_000_R31G119B180A255,15268,316078.5,82779.08,29159.9,980550.6,158364.2,60243.16,1743667.6206827497
PART_000_R31G119B180A255,15269,337389.1,-15321.53,-42894.03,673032.4,265897.9,43291.47,1308256.669489483
PART_000_R31G119B180A255,15270,393652.1,-9451.63,-95281.41,800841.6,188506.0,7461.909,1495081.9556048736
PART_000_R31G119B180A255,15271,389767.2,-4997.12,-115657.1,767997.2,71684.67,-4675.743,1413049.8477955153
PART_000_R31G119B180A255,15272,396543.5,-13209.4,-128322.2,756720.4,-2277.753,-8567.687,1395144.8924737629
PART_000_R31G119B180A255,15273,394238.4,-5495.573,-125527.7,764172.7,-58977.04,-13597.15,1408916.302403227
PART_000_R31G119B180A255,15274,391227.0,-9464.319,-117923.0,753918.3,-200931.4,-23506.12,1429591.4015298297
PART_000_R31G119B180A255,15275,350351.9,-18807.85,-94691.2,650625.5,-225164.9,-46160.52,1264310.4774893068
PART_000_R31G119B180A255,15276,275923.9,-50090.14,-51203.29,693515.4,-295406.1,-57791.27,1349575.4556290726
PART_000_R31G119B180A255,15277,92446.55,-136162.1,-12999.79,343655.5,-322784.0,-34561.26,842451.293622658
PART_000_R31G119B180A255,15278,189749.3,11164.1,-9014.379,1170499.0,133560.3,24372.37,2049732.7259550758
PART_000_R31G119B180A255,15279,204714.6,4610.509,-43614.28,870251.0,321414.7,23258.44,1623444.7195086482
PART_000_R31G119B180A255,15280,231047.6,15932.39,-61735.56,994743.0,218151.3,1873.295,1783349.6085539726
PART_000_R31G119B180A255,15281,232844.0,9222.595,-69783.03,969039.1,90085.85,-2675.96,1707452.4783442963
PART_000_R31G119B180A255,15282,235570.6,10549.62,-78590.18,946303.7,-2954.743,-5903.244,1662901.5258956356
PART_000_R31G119B180A255,15283,235570.5,10870.89,-78404.18,959906.2,-70668.42,-5160.287,1690515.2253400015
PART_000_R31G119B180A255,15284,233175.4,8300.095,-77328.14,946485.7,-234729.6,-13620.93,1711874.0778323736
PART_000_R31G119B180A255,15285,207809.3,-7761.153,-63839.4,831676.5,-263519.8,-24050.62,1531935.036808832
PART_000_R31G119B180A255,15286,174507.8,-38154.3,-30864.91,869650.0,-360932.4,-32175.98,1645151.6549163559
PART_000_R31G119B180A255,15287,57383.63,-105372.7,-7773.151,437925.9,-393708.0,-18389.92,1030291.3022307946
PART_000_R31G119B180A255,15288,120925.5,-4598.67,-30455.62,1319487.0,210842.0,13382.47,2318773.106453901
PART_000_R31G119B180A255,15289,104868.1,47664.2,-24959.07,961758.6,324930.3,13903.59,1762089.2720961303
PART_000_R31G119B180A255,15290,124277.7,45492.76,-31909.22,1122520.0,240575.4,737.3289,1993008.0017516501
PART_000_R31G119B180A255,15291,119309.8,49400.97,-36959.89,1080178.0,97927.26,-104.0911,1883482.3178470503
PART_000_R31G119B180A255,15292,124111.7,48763.11,-38085.09,1064825.0,-1924.501,-3772.093,1849695.7988589273
PART_000_R31G119B180A255,15293,121792.4,48392.47,-41087.17,1073605.0,-76832.01,-2415.011,1869644.8895986292
PART_000_R31G119B180A255,15294,123509.5,42771.97,-39681.67,1062181.0,-254650.4,-8743.644,1897216.2548343127
PART_000_R31G119B180A255,15295,109995.8,28410.93,-32070.81,938133.4,-290541.0,-13597.11,1705675.296653016
PART_000_R31G119B180A255,15296,93360.58,7567.487,-16127.05,976171.2,-407086.9,-18560.52,1834905.4634497508
PART_000_R31G119B180A255,15297,30753.0,-40210.48,-4424.927,494612.9,-434868.7,-11533.73,1142555.9749806835
PART_000_R31G119B180A255,15298,8651.54,1646.797,8278.616,112822.1,100511.5,8547.603,262221.16896456724
PART_000_R31G119B180A255,15299,28148.03,78568.47,1792.275,1308640.0,193287.6,8548.616,2292265.5146389287
PART_000_R31G119B180A255,15300,23701.15,85824.67,3350.918,1031221.0,339835.8,9646.866,1882161.5879629164
PART_000_R31G119B180A255,15301,23628.4,95191.73,-5632.698,1154749.0,246191.6,3803.131,2047017.7346129857
PART_000_R31G119B180A255,15302,22747.86,104960.7,-3885.765,1134187.0,101406.3,2297.018,1974756.6740774415
PART_000_R31G119B180A255,15303,22190.01,103635.5,-5788.303,1105600.0,-1255.305,-1027.129,1917487.1143257264
PART_000_R31G119B180A255,15304,22373.6,103637.2,-4997.652,1122047.0,-79029.72,-3320.791,1950721.8735920473
PART_000_R31G119B180A255,15305,24478.35,95641.96,-4988.615,1105857.0,-263051.9,-5870.299,1970908.6579236912
PART_000_R31G119B180A255,15306,23127.42,82883.29,-4484.858,980201.2,-300465.2,-8801.872,1777480.4649052913
PART_000_R31G119B180A255,15307,24213.98,67181.48,621.4136,1018581.0,-421792.2,-9599.618,1910481.8050599536
PART_000_R31G119B180A255,15308,6715.836,39571.53,1925.637,515042.5,-453484.4,-5180.847,1189155.5764587603
PART_000_R31G119B180A255,15309,-60766.94,149016.8,49779.0,1342708.0,212666.3,9320.752,2361688.9499247065
PART_000_R31G119B180A255,15310,-59534.46,111261.3,14954.84,983887.3,337559.6,2084.319,1807747.9171501019
PART_000_R31G119B180A255,15311,-70718.42,147807.2,27266.8,1148128.0,245294.1,9269.374,2042376.3934453859
PART_000_R31G119B180A255,15312,-73074.43,148386.4,28371.25,1106983.0,99598.21,3924.025,1934660.066216143
PART_000_R31G119B180A255,15313,-74867.1,157169.0,28309.38,1090914.0,-1172.692,2222.564,1900222.218814751
PART_000_R31G119B180A255,15314,-74947.03,150159.4,32738.34,1100105.0,-77478.86,-4857.833,1920104.4566573766
PART_000_R31G119B180A255,15315,-70381.8,145305.3,31005.44,1087591.0,-258726.2,-3492.485,1945340.3968625567
PART_000_R31G119B180A255,15316,-62393.72,130873.1,23323.08,957837.0,-296588.0,-6255.792,1744849.307504295
PART_000_R31G119B180A255,15317,-40174.2,123373.6,19312.76,995145.8,-415445.4,-3088.745,1873316.9437688913
PART_000_R31G119B180A255,15318,-16097.07,114237.1,11980.77,500112.9,-444919.2,33.05718,1165467.2385358345
PART_000_R31G119B180A255,15319,-146621.2,94184.63,-17770.34,1217915.0,150455.7,-11877.49,2135848.0218790816
PART_000_R31G119B180A255,15320,-149129.0,153060.7,41869.03,907353.3,333578.1,928.5016,1695221.7821485316
PART_000_R31G119B180A255,15321,-176342.8,155327.8,55449.85,1048794.0,225644.9,3797.43,1881369.474509762
PART_000_R31G119B180A255,15322,-180893.2,177084.1,66134.31,1019611.0,92831.92,9607.588,1801579.8856208846
PART_000_R31G119B180A255,15323,-181949.7,174032.3,72316.76,998315.7,-2934.01,3018.845,1758071.7306640602
PART_000_R31G119B180A255,15324,-184262.3,173521.7,74398.32,1011453.0,-69065.52,-2120.9,1784882.4112990596
PART_000_R31G119B180A255,15325,-174263.0,164288.4,72927.0,997734.6,-241902.1,200.2167,1803886.4765557866
PART_000_R31G119B180A255,15326,-154335.4,153028.5,58561.66,870786.2,-271954.0,887.1399,1603448.1495360697
PART_000_R31G119B180A255,15327,-115012.8,155892.1,39336.38,904158.4,-372867.5,5683.459,1710290.5731766005
PART_000_R31G119B180A255,15328,-42005.23,164640.2,17643.82,446659.1,-411194.3,4165.09,1067586.762347431
PART_000_R31G119B180A255,15329,-277895.5,20710.47,-1270.128,1012569.0,140001.1,-32867.0,1794718.561940768
PART_000_R31G119B180A255,15330,-284377.4,108531.4,21906.57,728264.7,278275.3,-27955.93,1397715.9861429287
PART_001_R158G218B229A255,15331,-319358.5,134332.3,93657.61,862007.7,194435.4,994.7398,1591108.4837887525
PART_001_R158G218B229A255,15332,-330336.1,130889.3,114274.6,832871.3,70206.14,7657.389,1517012.9255872974
PART_001_R158G218B229A255,15333,-329651.1,140483.8,120597.8,817584.0,-489.7993,8617.835,1489170.0664097888
PART_001_R158G218B229A255,15334,-332879.1,131516.1,127048.4,827953.5,-55573.17,4177.022,1509783.6111138416
PART_001_R158G218B229A255,15335,-316217.8,130925.1,116242.0,818282.4,-204078.8,14808.34,1525761.289196084
PART_000_R31G119B180A255,15336,-286692.2,113175.0,86803.84,696538.4,-233816.5,18216.26,1330619.1961756852
PART_000_R31G119B180A255,15337,-206656.8,134063.8,66278.06,733726.8,-302924.0,24915.74,1410604.7350513986
PART_000_R31G119B180A255,15338,-76978.74,173575.1,33924.51,350466.1,-340400.0,17119.6,874222.3437452499
PART_000_R31G119B180A255,15339,-534246.2,-73760.66,-32781.51,659753.8,68766.19,-92622.22,1256321.9144463567
PART_001_R158G218B229A255,15340,-527081.3,71447.12,58975.32,444605.0,177795.9,-75454.12,1027551.4709807648
PART_001_R158G218B229A255,15341,-591494.9,53862.23,147171.4,539162.0,124880.8,-14211.59,1185280.009884041
PART_001_R158G218B229A255,15342,-599139.4,54525.92,168852.1,524470.1,47858.18,1285.89,1160673.3903808668
PART_001_R158G218B229A255,15343,-600009.6,60582.32,184926.2,507457.9,-2468.769,17206.71,1143429.3618661447
PART_001_R158G218B229A255,15344,-599181.2,53238.76,183803.8,521163.1,-32937.26,21173.95,1160738.9026910237
PART_001_R158G218B229A255,15345,-589851.8,54051.92,174319.9,511883.9,-141537.7,47195.51,1165921.857868693
PART_001_R158G218B229A255,15346,-517456.7,60006.37,136848.9,419487.7,-152841.2,70439.85,998307.8187218863
PART_000_R31G119B180A255,15347,-414348.2,36744.68,59181.3,456782.9,-182132.3,79143.79,978963.1165834476
PART_000_R31G119B180A255,15348,-122733.6,122814.2,15395.93,205845.0,-235964.7,37138.14,586300.539209692
PART_001_R158G218B229A255,15349,-907024.5,-57574.18,4626.685,234054.1,-7030.987,-218796.5,1042295.2236219544
PART_001_R158G218B229A255,15350,-977429.5,30767.73,143886.9,120012.3,43304.25,-221278.1,1157164.9227020098
PART_001_R158G218B229A255,15351,-1145459.0,-1960.566,237554.7,174412.5,50869.36,-50340.0,1321160.9082268425
PART_001_R158G218B229A255,15352,-1113124.0,5743.16,232875.6,159642.8,12561.89,-5470.287,1278516.5392945502
PART_001_R158G218B229A255,15353,-1120972.0,4726.433,250035.5,156037.2,-805.1609,30470.89,1295896.49523007
PART_001_R158G218B229A255,15354,-1111803.0,5128.802,251932.4,160123.0,-7200.846,43306.46,1291050.5350792734
PART_001_R158G218B229A255,15355,-1146897.0,-1381.869,267215.9,162113.3,-58068.29,117306.3,1349915.8249625713
PART_001_R158G218B229A255,15356,-974757.0,24144.02,225456.1,114870.8,-39881.31,244387.5,1209526.2926327426
PART_001_R158G218B229A255,15357,-806908.3,-19677.17,29754.56,150390.3,-39848.98,280658.6,984892.808646147
PART_000_R31G119B180A255,15358,-215453.4,40540.83,-47616.49,58308.52,-92851.0,145754.9,387987.1664751463
PART_000_R31G119B180A255,15359,199792.4,-59127.73,-41501.0,87192.77,136386.2,99362.51,413541.37563159736
PART_000_R31G119B180A255,15360,583672.2,10222.09,-128545.2,276084.8,144890.9,103795.3,866975.4720496295
PART_000_R31G119B180A255,15361,451293.2,-5093.898,-250235.6,239566.8,36592.22,-451.3067,745960.779778935
PART_000_R31G119B180A255,15362,467356.0,-4383.765,-319981.3,225189.1,26878.37,-1301.563,790773.6286526886
PART_000_R31G119B180A255,15363,468605.4,-5511.45,-341426.3,236079.3,1049.423,-17131.14,815458.4623750832
PART_000_R31G119B180A255,15364,462938.9,-7540.403,-334669.5,221173.4,-30473.56,-42032.53,798192.2219099132
PART_000_R31G119B180A255,15365,479205.8,2730.123,-290929.1,242605.4,-35099.49,-27140.35,797285.4857755901
PART_000_R31G119B180A255,15366,560102.8,4952.006,-166792.7,258460.2,-173445.2,-118653.5,875170.5858671459
PART_000_R31G119B180A255,15367,297010.3,-56336.0,-34624.43,138892.6,-188978.2,-152273.9,593487.2047167436
PART_000_R31G119B180A255,15368,233433.3,-139273.2,43232.76,315240.0,329153.2,101886.2,870915.6424471154
PART_000_R31G119B180A255,15369,322833.1,-51563.11,2861.981,696107.2,353402.5,61188.71,1400844.717369516
PART_000_R31G119B180A255,15370,314841.3,-38257.72,-106290.3,636122.8,110897.3,3053.356,1184993.1812556842
PART_000_R31G119B180A255,15371,313200.1,-68782.42,-170334.1,594840.5,71691.37,-256.7813,1127802.8075249216
PART_000_R31G119B180A255,15372,327863.4,-50583.22,-182434.9,613542.9,2581.342,-12559.43,1157714.7362766599
PART_000_R31G119B180A255,15373,316469.8,-66481.35,-180764.9,583949.7,-80555.71,-16277.99,1116571.3915786622
PART_000_R31G119B180A255,15374,319724.4,-34877.95,-134244.0,637938.7,-111337.5,-18013.36,1195788.7724701345
PART_000_R31G119B180A255,15375,325026.1,-47319.59,-54366.28,646211.1,-399060.7,-48760.36,1370752.412223625
PART_000_R31G119B180A255,15376,156710.3,-156763.9,-5458.268,385085.4,-426873.6,-51196.61,1035918.839499843
PART_000_R31G119B180A255,15377,88095.91,-146478.5,9686.794,481905.0,441737.2,55761.87,1155076.221847995
PART_000_R31G119B180A255,15378,178868.5,-105761.1,-7463.872,983366.5,480046.2,37998.35,1912953.6742221785
PART_000_R31G119B180A255,15379,165010.2,-99868.96,-72190.06,901789.5,164672.7,-8608.89,1607744.4036268662
PART_000_R31G119B180A255,15380,170721.3,-112795.4,-106927.6,844725.2,106917.6,-682.7063,1501242.8315704113
PART_000_R31G119B180A255,15381,177777.5,-113286.0,-123168.3,870437.8,3150.742,-7790.163,1536518.7047876318
PART_000_R31G119B180A255,15382,171947.7,-110642.7,-115891.2,828037.4,-116375.9,-4500.841,1476142.5022831103
PART_000_R31G119B180A255,15383,174391.1,-95620.1,-97118.43,899198.2,-161596.9,1734.082,1605407.9740175775
PART_000_R31G119B180A255,15384,168977.4,-107140.3,-68795.39,893321.3,-512222.7,-14479.13,1802480.9740809754
PART_000_R31G119B180A255,15385,90378.14,-196456.2,-25643.11,551551.9,-534063.7,-26699.39,1353844.5866561234
PART_000_R31G119B180A255,15386,41387.74,-103865.7,-12168.4,542948.1,494775.0,4853.666,1278688.0395046168
PART_000_R31G119B180A255,15387,109937.4,-75195.23,-28216.63,1175870.0,565951.3,8279.246,2266473.6570573715
PART_000_R31G119B180A255,15388,99868.3,-74434.66,-44578.4,1056588.0,194788.9,-4707.202,1867912.7679865179
PART_000_R31G119B180A255,15389,103407.3,-88398.51,-65320.56,1006642.0,131011.6,-5707.216,1767616.9718217128
PART_000_R31G119B180A255,15390,104148.9,-84883.24,-75468.89,1029147.0,5458.899,-2358.519,1792087.859065283
PART_000_R31G119B180A255,15391,103991.9,-86683.28,-72648.74,983269.3,-138669.0,184.6487,1729745.900436311
PART_000_R31G119B180A255,15392,108730.1,-73620.3,-65044.83,1056529.0,-188542.9,6881.539,1867433.905754752
PART_000_R31G119B180A255,15393,97784.24,-93537.85,-52901.61,1052501.0,-587932.8,-3804.991,2095422.216780383
PART_000_R31G119B180A255,15394,57387.18,-145598.2,-21280.63,664598.6,-614688.1,-8345.302,1578046.4137421453
PART_000_R31G119B180A255,15395,11712.0,-24915.76,-24432.06,609139.0,525787.5,-14582.32,1394442.7171893052
PART_000_R31G119B180A255,15396,68255.73,26342.95,-28271.46,1249596.0,584847.8,3419.239,2391166.0058194776
PART_000_R31G119B180A255,15397,45411.26,16640.87,-22304.07,1152377.0,215528.8,-2332.116,2031442.2124134158
PART_000_R31G119B180A255,15398,56007.0,18567.96,-33977.05,1085275.0,143619.7,-3452.011,1897764.731262101
PART_000_R31G119B180A255,15399,49834.89,15373.16,-38524.49,1118588.0,6724.607,-255.0824,1939021.1889567003
PART_000_R31G119B180A255,15400,54952.34,17375.69,-37153.46,1061981.0,-149463.0,-852.0767,1859264.6750539313
PART_000_R31G119B180A255,15401,53857.1,17541.06,-35276.66,1144877.0,-203562.3,3722.754,2015592.007019876
PART_000_R31G119B180A255,15402,52420.65,856.1372,-26841.34,1136999.0,-630808.8,-3438.72,2253208.6310420055
PART_000_R31G119B180A255,15403,29363.39,-36809.42,-11019.98,736541.9,-661032.2,-6135.092,1715174.310099291
PART_000_R31G119B180A255,15404,8510.507,111379.4,-1179.817,631597.3,533445.6,5110.099,1436032.4356867017
PART_000_R31G119B180A255,15405,17040.5,134869.5,3405.906,1291437.0,599339.0,7918.224,2469193.0881271544
PART_000_R31G119B180A255,15406,10864.88,148256.4,-4040.857,1187527.0,222143.8,2027.955,2097585.183312787
PART_000_R31G119B180A255,15407,11913.11,155750.7,-4025.993,1124853.0,148053.3,2149.099,1971012.9271755016
PART_000_R31G119B180A255,15408,11374.89,156260.4,-5241.06,1154743.0,7926.799,-891.3491,2006031.003069509
PART_000_R31G119B180A255,15409,11569.77,154002.3,-5008.371,1099496.0,-154247.5,-3020.067,1928989.8198687693
PART_000_R31G119B180A255,15410,11782.38,145506.5,-3069.458,1182329.0,-209836.2,-3875.192,2084690.1695173113
PART_000_R31G119B180A255,15411,15716.55,131340.6,259.8593,1176155.0,-653140.7,-6085.892,2333517.984441711
PART_000_R31G119B180A255,15412,10914.24,103796.8,1607.364,764566.9,-682573.2,-6413.137,1777950.4417001074
PART_000_R31G119B180A255,15413,16015.79,248448.1,32919.8,628928.4,544523.7,29010.93,1459135.8281313628
PART_000_R31G119B180A255,15414,-35638.94,250577.1,26113.3,1283836.0,603664.4,6189.781,2471054.464685255
PART_000_R31G119B180A255,15415,-18963.59,287642.2,23403.56,1181441.0,219559.4,10191.06,2101226.10523111
PART_000_R31G119B180A255,15416,-33661.67,293561.3,26554.38,1114714.0,148295.3,6866.051,1971008.521395539
PART_000_R31G119B180A255,15417,-24131.96,306629.8,30870.99,1149358.0,7118.314,-497.006,2014313.7746039736
PART_000_R31G119B180A255,15418,-31654.6,293211.2,29688.29,1090471.0,-154747.2,-7104.62,1930995.8703351968
PART_000_R31G119B180A255,15419,-28711.61,280058.5,31685.82,1174680.0,-209158.1,-11761.86,2086052.1500945294
PART_000_R31G119B180A255,15420,-17407.54,265514.0,30807.43,1167336.0,-649032.0,-10883.57,2328267.855211778
PART_000_R31G119B180A255,15421,-7537.887,243364.4,14758.79,754563.7,-679889.1,-6551.414,1775621.094778098
PART_000_R31G119B180A255,15422,-48085.08,326891.8,7768.984,571557.1,522813.9,-6717.629,1386706.3177705707
PART_000_R31G119B180A255,15423,-54037.88,368668.2,45308.62,1238184.0,591039.8,9422.865,2407094.7525656405
PART_000_R31G119B180A255,15424,-77331.73,380903.8,51479.31,1118441.0,205910.0,15349.48,2012009.1215369336
PART_000_R31G119B180A255,15425,-69343.77,415760.2,66221.57,1066967.0,139446.0,11216.32,1913611.5734413564
PART_000_R31G119B180A255,15426,-72907.99,413507.2,76902.49,1093325.0,4999.722,1173.936,1942248.8555279945
PART_000_R31G119B180A255,15427,-71990.66,410391.9,72782.77,1042527.0,-146330.4,-10497.81,1873225.055770557
PART_000_R31G119B180A255,15428,-78968.52,380621.1,68821.47,1117985.0,-199412.2,-19082.98,2008781.0463538833
PART_000_R31G119B180A255,15429,-52224.87,369655.6,65469.76,1116038.0,-623926.5,-16783.61,2246664.7378525413
PART_000_R31G119B180A255,15430,-27512.84,345050.5,30613.62,699708.7,-655221.1,-13476.04,1696405.616227751
PART_000_R31G119B180A255,15431,-45433.01,353986.0,34816.39,495749.6,470422.4,-7887.538,1239073.7333111013
PART_000_R31G119B180A255,15432,-132906.9,398905.5,57178.39,1099282.0,517935.0,-10286.0,2155972.466573622
PART_000_R31G119B180A255,15433,-124857.5,426845.3,90311.8,1011065.0,177487.2,20089.82,1842399.9364078655
PART_000_R31G119B180A255,15434,-133623.6,444407.3,121013.8,950262.3,113253.9,11244.43,1731942.7262341804
PART_000_R31G119B180A255,15435,-130114.6,455853.3,143929.9,982491.1,4893.703,3692.904,1775910.0568395227
PART_000_R31G119B180A255,15436,-133618.9,441718.3,130103.6,931817.1,-125854.4,-6823.403,1703332.0510176225
PART_000_R31G119B180A255,15437,-134632.9,419239.6,115065.1,1009913.0,-168386.8,-19101.0,1837594.2622102327
PART_000_R31G119B180A255,15438,-102796.2,399317.5,100866.0,1007134.0,-565269.7,-14409.38,2047804.666569205
PART_000_R31G119B180A255,15439,-55295.59,376433.0,47269.83,600604.7,-595308.4,-2251.598,1515915.009504958
PART_000_R31G119B180A255,15440,-121455.3,276734.5,28644.63,340435.3,400078.7,-763.9614,974266.9421948652
PART_000_R31G119B180A255,15441,-266721.6,283843.5,68193.15,846904.4,408289.2,-30173.24,1698667.1599358835
PART_001_R158G218B229A255,15442,-246007.8,301936.3,126369.4,766560.2,108743.8,2631.002,1425905.2056122601
PART_001_R158G218B229A255,15443,-256682.3,329213.3,192006.0,720727.7,77970.24,16453.43,1363490.3071198957
PART_001_R158G218B229A255,15444,-251221.5,322445.6,209806.7,746977.0,2281.291,5337.72,1396849.753739716
PART_001_R158G218B229A255,15445,-256752.0,328127.9,201911.7,708125.1,-85115.12,4193.254,1345475.2621201433
PART_001_R158G218B229A255,15446,-256329.9,293785.7,161788.3,770540.7,-109433.0,433.3732,1436858.6837417732
PART_000_R31G119B180A255,15447,-224367.9,287253.7,96474.55,791141.8,-456728.1,19165.86,1644738.981531967
PART_000_R31G119B180A255,15448,-119541.9,281470.1,33162.73,431348.0,-511328.2,6848.191,1210614.1036265497
PART_000_R31G119B180A255,15449,-241202.5,101749.4,73668.54,104007.9,191578.9,-119738.4,542536.9701576618
PART_001_R158G218B229A255,15450,-804308.1,86925.31,138763.8,354730.9,179009.5,-122536.8,1166989.911668288
PART_001_R158G218B229A255,15451,-692354.0,99569.49,179513.7,299455.1,29571.42,17598.32,984589.3400325556
PART_001_R158G218B229A255,15452,-685155.8,110647.4,223398.2,284997.3,28892.48,11010.18,991101.0568493297
PART_001_R158G218B229A255,15453,-688432.5,105106.5,251338.3,299028.6,1926.366,11378.32,1017733.9348780138
PART_001_R158G218B229A255,15454,-681700.9,111919.2,240456.8,280044.0,-33273.56,32051.85,995008.5824564622
PART_001_R158G218B229A255,15455,-716930.2,94529.66,224814.2,303796.2,-28381.79,522.1187,1029784.2636109461
PART_001_R158G218B229A255,15456,-756591.1,90678.57,160490.1,333764.2,-205419.6,134716.5,1138912.4642931498
PART_001_R158G218B229A255,15457,-351261.3,99341.77,50613.57,154246.7,-241258.2,186279.6,730447.4288858582
PART_000_R31G119B180A255,15458,216627.5,167157.9,-31472.84,206151.2,39888.15,10606.08,429340.4331845515
PART_000_R31G119B180A255,15459,97491.71,121987.5,-109671.6,106885.3,58673.31,8950.191,305667.6322731814
PART_000_R31G119B180A255,15460,136418.6,146912.2,-195370.0,135717.0,29994.59,-4945.085,414373.19862131047
PART_000_R31G119B180A255,15461,109552.3,131835.8,-236169.3,113325.3,-1854.883,-8451.935,408015.1524162353
PART_000_R31G119B180A255,15462,147499.6,149520.0,-219215.7,139922.9,-33330.33,-9620.322,444489.3060305026
PART_000_R31G119B180A255,15463,82501.12,124190.2,-136976.8,94543.65,-72982.17,-13404.88,319987.7160564508
PART_000_R31G119B180A255,15464,245850.7,176401.2,-37122.35,230461.1,-58015.33,-20564.33,485744.3871320397
PART_000_R31G119B180A255,15465,146077.3,-255969.5,-19635.21,529560.0,134703.4,31277.51,1010519.3355920274
PART_000_R31G119B180A255,15466,48367.6,-362322.6,-91128.12,312695.2,172718.5,11621.3,716987.4754870927
PART_000_R31G119B180A255,15467,106974.7,-326082.4,-162288.4,356769.0,80928.48,-6800.52,738291.3568396642
PART_000_R31G119B180A255,15468,71949.73,-341180.3,-193061.3,321701.0,-4007.185,-3533.495,664818.3830895838
PART_000_R31G119B180A255,15469,102768.1,-322540.6,-177351.8,362541.2,-87055.27,-936.1463,746501.220672072
PART_000_R31G119B180A255,15470,63949.43,-346071.0,-113535.3,290301.0,-199245.2,-10183.53,706453.3182804273
PART_000_R31G119B180A255,15471,121695.3,-238385.9,-33788.2,561503.1,-170096.3,-18505.01,1063733.828568355
PART_000_R31G119B180A255,15472,62797.56,-338777.7,-13397.8,706243.3,202892.8,4956.404,1325284.5769527494
PART_000_R31G119B180A255,15473,15891.19,-432557.4,-59956.14,426405.1,265881.2,258.2842,964566.1681491251
PART_000_R31G119B180A255,15474,44992.6,-428370.9,-118595.5,486565.8,119829.6,-3936.046,962683.8233247987
PART_000_R31G119B180A255,15475,28626.12,-429757.8,-143257.6,435931.1,-2234.023,-537.069,854982.2850241275
PART_000_R31G119B180A255,15476,41367.65,-423190.3,-131536.1,493792.7,-123444.0,-2205.035,970880.7989093595
PART_000_R31G119B180A255,15477,27025.72,-411285.4,-81561.54,395376.9,-284881.2,6116.343,932129.6207383723
PART_000_R31G119B180A255,15478,50468.12,-326663.9,-24009.35,724080.9,-233737.8,8466.724,1362601.2616565856
PART_000_R31G119B180A255,15479,29167.31,-247670.2,-12675.34,794812.2,229382.9,-2493.863,1455971.7379008287
PART_000_R31G119B180A255,15480,24887.47,-298041.6,-42126.14,476859.0,314431.4,-3259.99,1032448.5854447837
PART_000_R31G119B180A255,15481,20954.42,-311719.6,-71679.11,546880.1,149751.4,-2532.897,1026141.0376195264
PART_000_R31G119B180A255,15482,24808.64,-312977.2,-87810.02,491118.3,577.0743,-1328.49,901298.5604686608
PART_000_R31G119B180A255,15483,23544.03,-305672.4,-81442.05,556011.6,-146723.5,1931.959,1037730.0439302989
PART_000_R31G119B180A255,15484,24058.85,-288769.0,-54233.55,435587.6,-325031.9,7729.738,982763.983310743
PART_000_R31G119B180A255,15485,28871.71,-246042.8,-17866.15,816066.2,-260773.7,4650.61,1505615.913899716
PART_000_R31G119B180A255,15486,8241.553,-58919.36,-12214.17,842016.6,241229.0,-8276.667,1518325.019488666
PART_000_R31G119B180A255,15487,19193.64,-73357.51,-26116.1,507677.3,332622.1,-968.6505,1054300.3088515445
PART_000_R31G119B180A255,15488,4515.297,-85795.22,-38122.43,582580.5,164883.7,-808.0562,1051610.816537062
PART_000_R31G119B180A255,15489,15837.45,-82205.48,-45008.38,522787.8,2729.909,-1023.534,909558.0681085755
PART_000_R31G119B180A255,15490,9165.585,-82101.73,-43460.48,590933.3,-155695.9,1151.625,1061428.4241297902
PART_000_R31G119B180A255,15491,12623.46,-76821.99,-29309.39,464032.0,-344046.5,3283.418,1003554.4658148009
PART_000_R31G119B180A255,15492,14470.38,-61267.23,-9525.348,868792.6,-277861.2,3981.691,1581317.31409989
PART_000_R31G119B180A255,15493,6577.05,184092.1,-682.4665,861958.3,244887.1,953.164,1562587.949720438
PART_000_R31G119B180A255,15494,382.8616,190397.6,-3149.385,517123.5,340666.2,1674.244,1089590.8351266137
PART_000_R31G119B180A255,15495,3393.82,200026.8,-5621.191,599516.8,170624.7,493.2021,1098234.366001446
PART_000_R31G119B180A255,15496,1198.744,200926.9,-5764.07,533403.3,3063.588,-261.1312,946000.047417669
PART_000_R31G119B180A255,15497,3358.9,197566.4,-5697.659,607656.2,-159297.7,-1073.777,1106086.0404423745
PART_000_R31G119B180A255,15498,375.805,185674.0,-3266.946,472413.4,-355444.9,-2036.807,1040952.7481808271
PART_000_R31G119B180A255,15499,7037.529,177889.8,-470.645,893120.4,-285227.1,-1296.183,1633275.9541622028
PART_000_R31G119B180A255,15500,6526.474,440611.5,11195.66,863852.7,250517.9,12963.27,1616765.6116547917
PART_000_R31G119B180A255,15501,-14744.67,470202.8,22772.41,517938.2,343722.2,4628.413,1173740.5262323846
PART_000_R31G119B180A255,15502,3075.212,500643.9,33500.16,596673.3,169794.0,2562.562,1178103.7999933187
PART_000_R31G119B180A255,15503,-10244.54,501400.7,37355.98,535247.0,2380.816,30.89617,1048416.4928045537
PART_000_R31G119B180A255,15504,-297.8002,493155.4,37239.35,605023.0,-162948.5,-3497.643,1185003.8415986663
PART_000_R31G119B180A255,15505,-10022.94,463254.4,25974.93,473656.5,-357895.3,-8073.07,1125061.9590420083
PART_000_R31G119B180A255,15506,1455.657,429707.1,8480.655,891196.4,-288305.1,-9487.93,1677129.335537923
PART_000_R31G119B180A255,15507,-14249.66,672997.8,16220.73,839252.0,243234.4,4588.562,1656164.442637342
PART_000_R31G119B180A255,15508,-17830.68,741076.5,52829.02,501716.3,335549.9,11750.21,1273052.1956798271
PART_000_R31G119B180A255,15509,-13542.28,777750.2,81723.35,580135.8,162091.4,4767.024,1283899.5409620781
PART_000_R31G119B180A255,15510,-16769.41,787479.4,96009.52,520354.2,-344.8472,146.1164,1175218.6249266511
PART_000_R31G119B180A255,15511,-13096.24,769827.7,87924.66,589375.8,-161144.0,-5415.991,1290025.2334633009
PART_000_R31G119B180A255,15512,-22573.52,722093.1,60320.64,457939.5,-353294.2,-16255.11,1226393.1346857732
PART_000_R31G119B180A255,15513,-4981.778,658567.0,21702.99,867214.4,-281180.8,-10983.25,1707932.8679256048
PART_000_R31G119B180A255,15514,-25730.03,843505.4,27261.84,776265.4,225732.2,19530.64,1635264.287479506
PART_000_R31G119B180A255,15515,-32747.65,959670.9,91096.49,472073.8,301130.7,13445.38,1348506.2757245398
PART_000_R31G119B180A255,15516,-18641.99,1000879.0,159894.9,542917.0,132908.4,4120.7,1351516.8659107739
PART_000_R31G119B180A255,15517,-31483.94,993557.3,187988.0,484844.6,-3713.257,561.051,1256652.240773116
PART_000_R31G119B180A255,15518,-20378.24,991298.8,167826.3,551060.5,-136829.5,-2447.979,1354879.001310842
PART_000_R31G119B180A255,15519,-33337.27,938356.8,101289.6,435510.3,-327820.9,-20099.25,1313056.3048696308
PART_000_R31G119B180A255,15520,-18123.78,823092.1,30163.63,808921.6,-268355.9,-25825.2,1688331.617168808
PART_000_R31G119B180A255,15521,-43983.47,927180.7,57828.88,685341.9,171980.0,3693.605,1533786.7982093634
PART_000_R31G119B180A255,15522,-59484.97,1069715.0,180712.3,405082.7,205414.3,2548.455,1296316.7514174045
PART_000_R31G119B180A255,15523,-38424.18,1069909.0,283032.1,467078.8,85954.67,7935.194,1285417.1505084177
PART_000_R31G119B180A255,15524,-52377.82,1067914.0,318931.7,424521.7,-4126.467,4331.662,1231954.909096449
PART_000_R31G119B180A255,15525,-47222.1,1060497.0,291477.4,474013.9,-93244.73,-6742.934,1291070.3788598606
PART_000_R31G119B180A255,15526,-48782.57,1059660.0,188649.9,378896.8,-235216.8,-5411.197,1272240.4956872803
PART_000_R31G119B180A255,15527,-41946.79,908376.4,59032.19,723645.6,-212000.3,168.1335,1588448.7977464183
PART_000_R31G119B180A255,15528,-300388.6,721766.5,85842.62,325270.0,58983.61,20787.98,1062225.3669724772
PART_001_R158G218B229A255,15529,-194836.6,792449.4,249180.6,166252.7,70300.85,15892.24,912149.7429442878
PART_001_R158G218B229A255,15530,-202992.1,770563.6,370205.8,218877.5,30048.8,4590.69,929957.2814172532
PART_001_R158G218B229A255,15531,-191549.4,784712.9,411788.8,183291.4,-1327.822,8402.79,910545.4656883935
PART_001_R158G218B229A255,15532,-221158.2,765896.3,387508.4,223366.3,-34429.15,3491.075,947224.726897643
PART_001_R158G218B229A255,15533,-166262.8,792465.7,261760.1,153749.5,-85061.59,-11813.21,886029.3398506939
PART_000_R31G119B180A255,15534,-334408.7,713852.4,83213.89,347621.9,-75912.81,-4002.909,1102425.387933249
PART_003_R247G182B210A255,1,0.0005977932,-0.0001505734,-0.0001364536,6.70816e-05,4.332406e-07,0.0001468664,0.000792398103634614
PART_000_R31G119B180A255,2,0.0004868007,-0.0001528458,-3.903142e-05,9.057024e-05,-9.877952e-07,0.0001414215,0.0006587202308766284
PART_000_R31G119B180A255,3,0.0005029292,-0.0001565445,-3.935615e-05,0.0001013189,-1.759491e-06,8.34906e-05,0.0006504413289286473
PART_000_R31G119B180A255,4,0.0005011742,-0.0001605556,-2.862891e-05,0.0001084871,-9.724501e-07,5.929338e-05,0.0006433113257718445
PART_000_R31G119B180A255,5,0.0005090178,-0.000162987,-2.761231e-05,0.0001120957,-6.078224e-07,2.61768e-05,0.0006470683404645323
PART_000_R31G119B180A255,6,0.0005079437,-0.0001637137,-2.581543e-05,0.0001133506,1.161303e-15,-5.736018e-14,0.00064503044727527
PART_000_R31G119B180A255,7,0.0005090178,-0.000162987,-2.761231e-05,0.0001120957,6.078224e-07,-2.61768e-05,0.0006470683404645323
PART_000_R31G119B180A255,8,0.0005011742,-0.0001605556,-2.862891e-05,0.0001084871,9.724501e-07,-5.929338e-05,0.0006433113257718445
PART_000_R31G119B180A255,9,0.0005029292,-0.0001565445,-3.935615e-05,0.0001013189,1.759491e-06,-8.34906e-05,0.0006504413289286473
PART_000_R31G119B180A255,10,0.0004868007,-0.0001528458,-3.903142e-05,9.057025e-05,9.877952e-07,-0.0001414215,0.0006587202350014559
PART_001_R158G218B229A255,11,0.0005977932,-0.0001505734,-0.0001364536,6.70816e-05,-4.332406e-07,-0.0001468664,0.000792398103634614
PART_003_R247G182B210A255,12,0.0004331222,-5.126543e-05,-0.0001198419,7.952523e-06,-8.498018e-07,0.000119768,0.0005619401373271341
PART_001_R158G218B229A255,13,0.0003280564,-5.089115e-05,-3.320762e-05,4.473629e-05,-1.479719e-06,0.0001112901,0.00042471149881218316
PART_001_R158G218B229A255,14,0.0003297052,-5.152467e-05,-3.139289e-05,6.192859e-05,-2.673999e-06,6.430028e-05,0.0004024886906340005
PART_001_R158G218B229A255,15,0.0003206807,-5.061746e-05,-2.30346e-05,7.197085e-05,-2.158423e-06,4.643944e-05,0.00038782073629561984
PART_001_R158G218B229A255,16,0.0003231956,-5.07115e-05,-2.212809e-05,7.696848e-05,-1.082208e-06,2.027492e-05,0.00038593414233835713
PART_001_R158G218B229A255,17,0.0003208699,-5.060909e-05,-2.074747e-05,7.867386e-05,2.657786e-15,-4.384358e-14,0.0003825756404490222
PART_001_R158G218B229A255,18,0.0003231956,-5.07115e-05,-2.212809e-05,7.696848e-05,1.082208e-06,-2.027492e-05,0.00038593414233835713
PART_001_R158G218B229A255,19,0.0003206807,-5.061746e-05,-2.30346e-05,7.197085e-05,2.158423e-06,-4.643944e-05,0.00038782073629561984
PART_001_R158G218B229A255,20,0.0003297052,-5.152467e-05,-3.139289e-05,6.192859e-05,2.673999e-06,-6.430028e-05,0.0004024886906340005
PART_001_R158G218B229A255,21,0.0003280564,-5.089115e-05,-3.320762e-05,4.473629e-05,1.479719e-06,-0.0001112901,0.00042471149881218316
PART_001_R158G218B229A255,22,0.0004331222,-5.126543e-05,-0.0001198419,7.952523e-06,8.498018e-07,-0.000119768,0.0005619401373271341
PART_003_R247G182B210A255,23,0.0003265021,-3.577264e-05,-9.160542e-05,-4.833131e-05,-2.536384e-06,9.348562e-05,0.0004333968414435678
PART_001_R158G218B229A255,24,0.0002485617,-3.496959e-05,-2.724888e-05,-1.460379e-05,-2.895592e-06,8.642505e-05,0.00031832903121557023
PART_001_R158G218B229A255,25,0.000250625,-3.625325e-05,-2.450246e-05,4.673149e-07,-2.082449e-06,4.818464e-05,0.0002933344658309316
PART_001_R158G218B229A255,26,0.0002429491,-3.698078e-05,-1.717904e-05,1.048242e-05,-2.092424e-06,3.483902e-05,0.0002778377187627492
PART_001_R158G218B229A255,27,0.0002446187,-3.691656e-05,-1.671693e-05,1.50551e-05,-1.058028e-06,1.506871e-05,0.0002744954353580754
PART_001_R158G218B229A255,28,0.0002426313,-3.709656e-05,-1.540798e-05,1.675393e-05,1.319529e-15,-3.273353e-14,0.00027109638987653803
PART_001_R158G218B229A255,29,0.0002446187,-3.691656e-05,-1.671693e-05,1.50551e-05,1.058028e-06,-1.506871e-05,0.0002744954353580754
PART_001_R158G218B229A255,30,0.0002429491,-3.698078e-05,-1.717904e-05,1.048242e-05,2.092424e-06,-3.483902e-05,0.0002778377187627492
PART_001_R158G218B229A255,31,0.000250625,-3.625325e-05,-2.450246e-05,4.673149e-07,2.082449e-06,-4.818464e-05,0.0002933344658309316
PART_001_R158G218B229A255,32,0.0002485617,-3.496959e-05,-2.724888e-05,-1.460379e-05,2.895592e-06,-8.642505e-05,0.00031832903121557023
PART_001_R158G218B229A255,33,0.0003265021,-3.577264e-05,-9.160541e-05,-4.833131e-05,2.536384e-06,-9.348562e-05,0.0004333968359758273
PART_003_R247G182B210A255,34,0.0002130983,-1.83856e-05,-6.148967e-05,-6.603755e-05,-2.556198e-06,6.281763e-05,0.0003006015559346819
PART_001_R158G218B229A255,35,0.0001593576,-1.766747e-05,-1.822083e-05,-2.936734e-05,-4.218186e-06,5.868867e-05,0.00021073661623708157
PART_001_R158G218B229A255,36,0.0001605412,-1.761676e-05,-1.716494e-05,-1.43972e-05,-3.072219e-06,3.273161e-05,0.00018847863564615218
PART_001_R158G218B229A255,37,0.0001550523,-1.807151e-05,-1.170119e-05,-4.436988e-06,-2.030222e-06,2.322652e-05,0.00017492689953827796
PART_001_R158G218B229A255,38,0.0001558394,-1.830016e-05,-1.111084e-05,4.448111e-07,-1.132957e-06,1.003047e-05,0.0001715534989099759
PART_001_R158G218B229A255,39,0.0001544428,-1.822726e-05,-1.034661e-05,2.184205e-06,1.725213e-15,-2.129404e-14,0.00016891007729242556
PART_001_R158G218B229A255,40,0.0001558394,-1.830016e-05,-1.111084e-05,4.448111e-07,1.132957e-06,-1.003047e-05,0.0001715534989099759
PART_001_R158G218B229A255,41,0.0001550523,-1.807151e-05,-1.170119e-05,-4.436988e-06,2.030222e-06,-2.322652e-05,0.00017492689953827796
PART_001_R158G218B229A255,42,0.0001605412,-1.761676e-05,-1.716494e-05,-1.43972e-05,3.072219e-06,-3.273161e-05,0.00018847863564615218
PART_001_R158G218B229A255,43,0.0001593576,-1.766747e-05,-1.822083e-05,-2.936734e-05,4.218186e-06,-5.868867e-05,0.00021073661623708157
PART_001_R158G218B229A255,44,0.0002130983,-1.83856e-05,-6.148967e-05,-6.603755e-05,2.556198e-06,-6.281763e-05,0.0003006015559346819
PART_003_R247G182B210A255,45,0.0001071486,-9.137743e-06,-3.09772e-05,-8.5445e-05,-2.897062e-06,3.181048e-05,0.00020372174388412983
PART_001_R158G218B229A255,46,8.036963e-05,-8.846624e-06,-9.21281e-06,-4.907128e-05,-4.296851e-06,2.964529e-05,0.00013382164929032393
PART_001_R158G218B229A255,47,8.105419e-05,-8.977093e-06,-8.581926e-06,-3.446617e-05,-3.563612e-06,1.654986e-05,0.00011177545748732075
PART_001_R158G218B229A255,48,7.832588e-05,-9.109709e-06,-6.005201e-06,-2.504917e-05,-2.377602e-06,1.174793e-05,9.847110750314727e-05
PART_001_R158G218B229A255,49,7.873614e-05,-9.258165e-06,-5.609179e-06,-2.049433e-05,-1.13647e-06,5.018397e-06,9.367338537821038e-05
PART_001_R158G218B229A255,50,7.801893e-05,-9.344853e-06,-5.144827e-06,-1.881178e-05,1.426164e-15,-1.073228e-14,9.134982122981197e-05
PART_001_R158G218B229A255,51,7.873614e-05,-9.258165e-06,-5.609179e-06,-2.049433e-05,1.13647e-06,-5.018397e-06,9.367338537821038e-05
PART_001_R158G218B229A255,52,7.832588e-05,-9.109709e-06,-6.005201e-06,-2.504917e-05,2.377602e-06,-1.174793e-05,9.847110750314727e-05
PART_001_R158G218B229A255,53,8.105419e-05,-8.977093e-06,-8.581926e-06,-3.446617e-05,3.563612e-06,-1.654986e-05,0.00011177545748732075
PART_001_R158G218B229A255,54,8.036963e-05,-8.846624e-06,-9.21281e-06,-4.907128e-05,4.296851e-06,-2.964529e-05,0.00013382164929032393
PART_002_R214G39B40A255,55,0.0001071486,-9.137743e-06,-3.09772e-05,-8.5445e-05,2.897062e-06,-3.181048e-05,0.00020372174388412983
PART_003_R247G182B210A255,56,1.175844e-13,-1.009381e-14,-3.467668e-14,-8.496757e-05,-2.772664e-06,3.431964e-14,0.00014724648332671783
PART_001_R158G218B229A255,57,8.740404e-14,-9.425003e-15,-9.995127e-15,-4.773853e-05,-4.665409e-06,3.290049e-14,8.307947919368863e-05
PART_001_R158G218B229A255,58,8.857819e-14,-9.667705e-15,-9.611674e-15,-3.296628e-05,-3.607371e-06,1.78576e-14,5.744010992076986e-05
PART_001_R158G218B229A255,59,8.541175e-14,-9.985721e-15,-6.344497e-15,-2.338217e-05,-2.476408e-06,1.294873e-14,4.072561124739679e-05
PART_001_R158G218B229A255,60,8.599122e-14,-9.982229e-15,-6.326548e-15,-1.87799e-05,-1.208473e-06,5.416934e-15,3.259501730334235e-05
PART_001_R158G218B229A255,61,8.50807e-14,-1.023924e-14,-5.423267e-15,-1.707179e-05,1.457711e-15,-6.691931e-18,2.9569207656146284e-05
PART_001_R158G218B229A255,62,8.597275e-14,-9.980802e-15,-6.324154e-15,-1.87799e-05,1.208473e-06,-5.430384e-15,3.259501730334235e-05
PART_001_R158G218B229A255,63,8.537545e-14,-9.983475e-15,-6.339624e-15,-2.338217e-05,2.476408e-06,-1.295697e-14,4.072561124739679e-05
PART_001_R158G218B229A255,64,8.85221e-14,-9.664036e-15,-9.602604e-15,-3.296628e-05,3.607371e-06,-1.786141e-14,5.744010992076986e-05
PART_001_R158G218B229A255,65,8.733097e-14,-9.419941e-15,-9.982573e-15,-4.773853e-05,4.665409e-06,-3.288957e-14,8.307947919368863e-05
PART_002_R214G39B40A255,66,1.174749e-13,-1.008772e-14,-3.464135e-14,-8.496757e-05,2.772664e-06,-3.429845e-14,0.00014724648332671783
PART_003_R247G182B210A255,67,-0.0001071486,9.137743e-06,3.09772e-05,-8.5445e-05,-2.897062e-06,-3.181048e-05,0.00020372174388412983
PART_001_R158G218B229A255,68,-8.036963e-05,8.846624e-06,9.21281e-06,-4.907128e-05,-4.296851e-06,-2.964529e-05,0.00013382164929032393
PART_001_R158G218B229A255,69,-8.105419e-05,8.977093e-06,8.581926e-06,-3.446617e-05,-3.563612e-06,-1.654986e-05,0.00011177545748732075
PART_001_R158G218B229A255,70,-7.832588e-05,9.109709e-06,6.005201e-06,-2.504917e-05,-2.377602e-06,-1.174793e-05,9.847110750314727e-05
PART_001_R158G218B229A255,71,-7.873614e-05,9.258165e-06,5.609179e-06,-2.049433e-05,-1.13647e-06,-5.018397e-06,9.367338537821038e-05
PART_001_R158G218B229A255,72,-7.801893e-05,9.344853e-06,5.144827e-06,-1.881178e-05,1.426422e-15,1.071849e-14,9.134982122981197e-05
PART_001_R158G218B229A255,73,-7.873614e-05,9.258165e-06,5.609179e-06,-2.049433e-05,1.13647e-06,5.018397e-06,9.367338537821038e-05
PART_001_R158G218B229A255,74,-7.832588e-05,9.109709e-06,6.005201e-06,-2.504917e-05,2.377602e-06,1.174793e-05,9.847110750314727e-05
PART_001_R158G218B229A255,75,-8.105419e-05,8.977093e-06,8.581926e-06,-3.446617e-05,3.563612e-06,1.654986e-05,0.00011177545748732075
PART_001_R158G218B229A255,76,-8.036963e-05,8.846624e-06,9.21281e-06,-4.907128e-05,4.296851e-06,2.964529e-05,0.00013382164929032393
PART_002_R214G39B40A255,77,-0.0001071486,9.137743e-06,3.09772e-05,-8.5445e-05,2.897062e-06,3.181048e-05,0.00020372174388412983
PART_003_R247G182B210A255,78,-0.0002130983,1.83856e-05,6.148967e-05,-6.603755e-05,-2.556198e-06,-6.281763e-05,0.0003006015559346819
PART_001_R158G218B229A255,79,-0.0001593576,1.766747e-05,1.822083e-05,-2.936734e-05,-4.218186e-06,-5.868867e-05,0.00021073661623708157
PART_001_R158G218B229A255,80,-0.0001605411,1.761676e-05,1.716494e-05,-1.43972e-05,-3.072219e-06,-3.273161e-05,0.0001884785412417949
PART_001_R158G218B229A255,81,-0.0001550523,1.807151e-05,1.170119e-05,-4.436988e-06,-2.030222e-06,-2.322652e-05,0.00017492689953827796
PART_001_R158G218B229A255,82,-0.0001558394,1.830016e-05,1.111084e-05,4.44811e-07,-1.132957e-06,-1.003047e-05,0.00017155349890919804
PART_001_R158G218B229A255,83,-0.0001544428,1.822726e-05,1.034661e-05,2.184205e-06,1.725618e-15,2.127898e-14,0.00016891007729242556
PART_001_R158G218B229A255,84,-0.0001558394,1.830016e-05,1.111084e-05,4.44811e-07,1.132957e-06,1.003047e-05,0.00017155349890919804
PART_001_R158G218B229A255,85,-0.0001550523,1.807151e-05,1.170119e-05,-4.436988e-06,2.030222e-06,2.322652e-05,0.00017492689953827796
PART_001_R158G218B229A255,86,-0.0001605412,1.761676e-05,1.716494e-05,-1.43972e-05,3.072219e-06,3.273161e-05,0.00018847863564615218
PART_001_R158G218B229A255,87,-0.0001593576,1.766747e-05,1.822083e-05,-2.936734e-05,4.218186e-06,5.868867e-05,0.00021073661623708157
PART_002_R214G39B40A255,88,-0.0002130983,1.83856e-05,6.148967e-05,-6.603755e-05,2.556198e-06,6.281763e-05,0.0003006015559346819
PART_003_R247G182B210A255,89,-0.0003265021,3.577264e-05,9.160542e-05,-4.833131e-05,-2.536384e-06,-9.348562e-05,0.0004333968414435678
PART_001_R158G218B229A255,90,-0.0002485617,3.496959e-05,2.724888e-05,-1.460379e-05,-2.895592e-06,-8.642505e-05,0.00031832903121557023
PART_001_R158G218B229A255,91,-0.000250625,3.625325e-05,2.450246e-05,4.673148e-07,-2.082449e-06,-4.818464e-05,0.00029333446583045366
PART_001_R158G218B229A255,92,-0.0002429491,3.698078e-05,1.717904e-05,1.048242e-05,-2.092424e-06,-3.483902e-05,0.0002778377187627492
PART_001_R158G218B229A255,93,-0.0002446187,3.691656e-05,1.671693e-05,1.50551e-05,-1.058028e-06,-1.506871e-05,0.0002744954353580754
PART_001_R158G218B229A255,94,-0.0002426313,3.709656e-05,1.540798e-05,1.675393e-05,1.3202e-15,3.271592e-14,0.00027109638987653803
PART_001_R158G218B229A255,95,-0.0002446187,3.691656e-05,1.671693e-05,1.50551e-05,1.058028e-06,1.506871e-05,0.0002744954353580754
PART_001_R158G218B229A255,96,-0.0002429491,3.698078e-05,1.717904e-05,1.048242e-05,2.092424e-06,3.483902e-05,0.0002778377187627492
PART_001_R158G218B229A255,97,-0.000250625,3.625325e-05,2.450246e-05,4.673149e-07,2.082449e-06,4.818464e-05,0.0002933344658309316
PART_001_R158G218B229A255,98,-0.0002485617,3.496959e-05,2.724888e-05,-1.460379e-05,2.895592e-06,8.642505e-05,0.00031832903121557023
PART_002_R214G39B40A255,99,-0.0003265021,3.577264e-05,9.160541e-05,-4.833131e-05,2.536384e-06,9.348561e-05,0.0004333968295046945
PART_003_R247G182B210A255,100,-0.0004331222,5.126543e-05,0.0001198419,7.952523e-06,-8.498018e-07,-0.000119768,0.0005619401373271341
PART_001_R158G218B229A255,101,-0.0003280564,5.089115e-05,3.320762e-05,4.473629e-05,-1.479719e-06,-0.0001112901,0.00042471149881218316
PART_001_R158G218B229A255,102,-0.0003297052,5.152467e-05,3.139289e-05,6.192859e-05,-2.673999e-06,-6.430028e-05,0.0004024886906340005
PART_001_R158G218B229A255,103,-0.0003206807,5.061746e-05,2.30346e-05,7.197085e-05,-2.158423e-06,-4.643944e-05,0.00038782073629561984
PART_001_R158G218B229A255,104,-0.0003231956,5.07115e-05,2.212809e-05,7.696848e-05,-1.082208e-06,-2.027492e-05,0.00038593414233835713
PART_001_R158G218B229A255,105,-0.0003208699,5.060909e-05,2.074747e-05,7.867386e-05,2.658864e-15,4.382246e-14,0.0003825756404490222
PART_001_R158G218B229A255,106,-0.0003231956,5.07115e-05,2.212809e-05,7.696848e-05,1.082208e-06,2.027492e-05,0.00038593414233835713
PART_001_R158G218B229A255,107,-0.0003206807,5.061746e-05,2.30346e-05,7.197085e-05,2.158423e-06,4.643944e-05,0.00038782073629561984
PART_001_R158G218B229A255,108,-0.0003297052,5.152467e-05,3.139289e-05,6.192859e-05,2.673999e-06,6.430028e-05,0.0004024886906340005
PART_001_R158G218B229A255,109,-0.0003280564,5.089115e-05,3.320762e-05,4.473629e-05,1.479719e-06,0.0001112901,0.00042471149881218316
PART_002_R214G39B40A255,110,-0.0004331222,5.126543e-05,0.0001198419,7.952523e-06,8.498018e-07,0.000119768,0.0005619401373271341
PART_003_R247G182B210A255,111,-0.0005977932,0.0001505734,0.0001364536,6.70816e-05,4.332406e-07,-0.0001468664,0.000792398103634614
PART_001_R158G218B229A255,112,-0.0004868007,0.0001528458,3.903142e-05,9.057024e-05,-9.877952e-07,-0.0001414215,0.0006587202308766284
PART_001_R158G218B229A255,113,-0.0005029292,0.0001565445,3.935615e-05,0.0001013189,-1.759491e-06,-8.34906e-05,0.0006504413289286473
PART_001_R158G218B229A255,114,-0.0005011742,0.0001605556,2.862891e-05,0.0001084871,-9.724501e-07,-5.929338e-05,0.0006433113257718445
PART_001_R158G218B229A255,115,-0.0005090178,0.000162987,2.761231e-05,0.0001120957,-6.078224e-07,-2.61768e-05,0.0006470683404645323
PART_001_R158G218B229A255,116,-0.0005079437,0.0001637137,2.581543e-05,0.0001133506,1.162251e-15,5.733032e-14,0.00064503044727527
PART_001_R158G218B229A255,117,-0.0005090178,0.000162987,2.761231e-05,0.0001120957,6.078224e-07,2.61768e-05,0.0006470683404645323
PART_001_R158G218B229A255,118,-0.0005011742,0.0001605556,2.862891e-05,0.0001084871,9.724501e-07,5.929338e-05,0.0006433113257718445
PART_001_R158G218B229A255,119,-0.0005029292,0.0001565445,3.935615e-05,0.0001013189,1.759491e-06,8.34906e-05,0.0006504413289286473
PART_001_R158G218B229A255,120,-0.0004868007,0.0001528458,3.903142e-05,9.057025e-05,9.877952e-07,0.0001414215,0.0006587202350014559
PART_002_R214G39B40A255,121,-0.0005977932,0.0001505734,0.0001364536,6.70816e-05,-4.332406e-07,0.0001468664,0.000792398103634614
PART_003_R247G182B210A255,122,0.0005525267,-0.0002055081,-0.0001879369,-3.166533e-05,2.134948e-06,1.658894e-05,0.0007519662599974852
PART_003_R247G182B210A255,123,0.0005754188,-0.0002202813,-0.0001482334,-1.348685e-05,2.737975e-07,9.78851e-05,0.0007812115055922056
PART_000_R31G119B180A255,124,0.0005233895,-0.0002280355,-9.320565e-05,-6.962515e-06,-2.569876e-06,7.131712e-05,0.0007049310154110099
PART_000_R31G119B180A255,125,0.0005334314,-0.0002327889,-8.760598e-05,-2.966684e-06,-1.627034e-06,4.628443e-05,0.0007095002597720414
PART_000_R31G119B180A255,126,0.0005227552,-0.0002364579,-7.400907e-05,-1.22464e-06,-1.040146e-06,2.356973e-05,0.000693639110216269
PART_000_R31G119B180A255,127,0.0005292607,-0.0002372774,-7.562873e-05,-5.521925e-07,1.915451e-15,-5.41454e-14,0.0006998585583135518
PART_000_R31G119B180A255,128,0.0005227552,-0.0002364579,-7.400907e-05,-1.22464e-06,1.040146e-06,-2.356973e-05,0.000693639110216269
PART_000_R31G119B180A255,129,0.0005334314,-0.0002327889,-8.760598e-05,-2.966684e-06,1.627034e-06,-4.628443e-05,0.0007095002597720414
PART_000_R31G119B180A255,130,0.0005233895,-0.0002280355,-9.320565e-05,-6.962515e-06,2.569877e-06,-7.131712e-05,0.0007049310154219466
PART_000_R31G119B180A255,131,0.0005754188,-0.0002202813,-0.0001482334,-1.348685e-05,-2.737974e-07,-9.78851e-05,0.0007812115055921004
PART_000_R31G119B180A255,132,0.0005525267,-0.0002055081,-0.0001879369,-3.166533e-05,-2.134948e-06,-1.658894e-05,0.0007519662599974852
PART_003_R247G182B210A255,133,0.0004709669,-0.0001526659,-0.0001618499,-1.571619e-07,-1.242852e-06,6.009939e-06,0.0006283651207461004
PART_003_R247G182B210A255,134,0.0004911256,-0.0001556775,-0.0001246458,3.078045e-05,-3.236177e-06,7.216594e-05,0.0006463306524804578
PART_000_R31G119B180A255,135,0.0004448704,-0.0001619362,-7.481529e-05,4.756162e-05,-4.626038e-06,5.41892e-05,0.0005818923367260542
PART_000_R31G119B180A255,136,0.0004525989,-0.0001642034,-7.102109e-05,5.719062e-05,-4.377196e-06,3.486365e-05,0.0005875109870558175
PART_000_R31G119B180A255,137,0.0004424314,-0.0001656868,-5.972605e-05,6.259744e-05,-2.211223e-06,1.807914e-05,0.0005738896392737015
PART_000_R31G119B180A255,138,0.0004479404,-0.0001662678,-6.132578e-05,6.404469e-05,4.234172e-15,-4.121517e-14,0.0005797529286273117
PART_000_R31G119B180A255,139,0.0004424314,-0.0001656868,-5.972605e-05,6.259744e-05,2.211223e-06,-1.807914e-05,0.0005738896392737015
PART_000_R31G119B180A255,140,0.0004525989,-0.0001642034,-7.102109e-05,5.719062e-05,4.377196e-06,-3.486365e-05,0.0005875109870558175
PART_000_R31G119B180A255,141,0.0004448704,-0.0001619362,-7.481529e-05,4.756162e-05,4.626038e-06,-5.41892e-05,0.0005818923367260542
PART_000_R31G119B180A255,142,0.0004911256,-0.0001556775,-0.0001246458,3.078045e-05,3.236177e-06,-7.216594e-05,0.0006463306524804578
PART_002_R214G39B40A255,143,0.0004709669,-0.0001526659,-0.0001618499,-1.571618e-07,1.242852e-06,-6.009939e-06,0.0006283651207460254
PART_003_R247G182B210A255,144,0.0003242504,-8.318806e-05,-0.0001253801,-1.432976e-05,-5.946086e-06,6.440182e-06,0.0004310724399008848
PART_003_R247G182B210A255,145,0.0003365914,-8.103272e-05,-9.857176e-05,1.390549e-05,-8.648059e-06,5.544568e-05,0.0004382572015350697
PART_001_R158G218B229A255,146,0.0002969871,-8.346114e-05,-5.840597e-05,3.06617e-05,-5.993065e-06,4.061202e-05,0.0003790944579703317
PART_001_R158G218B229A255,147,0.0003007176,-8.513364e-05,-5.3817e-05,3.987744e-05,-5.107281e-06,2.62064e-05,0.00038037817602640304
PART_001_R158G218B229A255,148,0.0002914277,-8.552603e-05,-4.511544e-05,4.53286e-05,-2.704787e-06,1.344722e-05,0.00036772637169813047
PART_001_R158G218B229A255,149,0.0002952385,-8.571643e-05,-4.619299e-05,4.685598e-05,4.026691e-15,-3.044205e-14,0.00037177756826825965
PART_001_R158G218B229A255,150,0.0002914277,-8.552603e-05,-4.511544e-05,4.53286e-05,2.704787e-06,-1.344722e-05,0.00036772637169813047
PART_001_R158G218B229A255,151,0.0003007176,-8.513364e-05,-5.3817e-05,3.987744e-05,5.107281e-06,-2.62064e-05,0.00038037817602640304
PART_001_R158G218B229A255,152,0.0002969871,-8.346114e-05,-5.840597e-05,3.06617e-05,5.993065e-06,-4.061202e-05,0.0003790944579703317
PART_001_R158G218B229A255,153,0.0003365914,-8.103272e-05,-9.857176e-05,1.390549e-05,8.648059e-06,-5.544568e-05,0.0004382572015350697
PART_002_R214G39B40A255,154,0.0003242504,-8.318806e-05,-0.0001253801,-1.432976e-05,5.946086e-06,-6.440182e-06,0.0004310724399008848
PART_003_R247G182B210A255,155,0.0002189987,-5.420751e-05,-8.435173e-05,-3.163705e-05,-6.684104e-06,4.406598e-06,0.00029492522804320327
PART_003_R247G182B210A255,156,0.000228933,-5.323017e-05,-6.670062e-05,-2.479916e-06,-1.148324e-05,3.773084e-05,0.0002971249999833213
PART_001_R158G218B229A255,157,0.000202668,-5.403473e-05,-4.038315e-05,1.354145e-05,-8.28236e-06,2.72594e-05,0.000256053488751925
PART_001_R158G218B229A255,158,0.0002050178,-5.547068e-05,-3.664286e-05,2.279603e-05,-5.691235e-06,1.756285e-05,0.00025668231985135845
PART_001_R158G218B229A255,159,0.0001988085,-5.625999e-05,-3.01966e-05,2.793247e-05,-2.941268e-06,9.001174e-06,0.00024839680064560435
PART_001_R158G218B229A255,160,0.00020133,-5.638206e-05,-3.099222e-05,2.947965e-05,4.168998e-15,-2.027908e-14,0.00025124496247201915
PART_001_R158G218B229A255,161,0.0001988085,-5.625999e-05,-3.01966e-05,2.793247e-05,2.941268e-06,-9.001175e-06,0.00024839680075431557
PART_001_R158G218B229A255,162,0.0002050178,-5.547068e-05,-3.664286e-05,2.279603e-05,5.691235e-06,-1.756285e-05,0.00025668231985135845
PART_001_R158G218B229A255,163,0.000202668,-5.403473e-05,-4.038315e-05,1.354145e-05,8.28236e-06,-2.72594e-05,0.000256053488751925
PART_001_R158G218B229A255,164,0.000228933,-5.323017e-05,-6.670062e-05,-2.479916e-06,1.148324e-05,-3.773084e-05,0.0002971249999833213
PART_002_R214G39B40A255,165,0.0002189987,-5.420751e-05,-8.435173e-05,-3.163705e-05,6.684104e-06,-4.406598e-06,0.00029492522804320327
PART_003_R247G182B210A255,166,0.0001056162,-2.357512e-05,-4.248909e-05,-3.684844e-05,-7.51384e-06,2.405092e-06,0.00015411620792040885
PART_003_R247G182B210A255,167,0.0001100858,-2.268986e-05,-3.364907e-05,-7.413021e-06,-1.274468e-05,1.910917e-05,0.0001447488061895556
PART_001_R158G218B229A255,168,9.660073e-05,-2.289714e-05,-2.040155e-05,8.634476e-06,-9.603919e-06,1.378168e-05,0.00012271073153281384
PART_001_R158G218B229A255,169,9.761203e-05,-2.33216e-05,-1.861427e-05,1.772998e-05,-6.589729e-06,8.793129e-06,0.00012402868549779664
PART_001_R158G218B229A255,170,9.430439e-05,-2.370553e-05,-1.524912e-05,2.296159e-05,-3.160496e-06,4.52268e-06,0.00012113193540489993
PART_001_R158G218B229A255,171,9.554212e-05,-2.386326e-05,-1.550095e-05,2.440486e-05,4.042652e-15,-9.982781e-15,0.00012294657284004097
PART_001_R158G218B229A255,172,9.430439e-05,-2.370553e-05,-1.524912e-05,2.296159e-05,3.160496e-06,-4.52268e-06,0.00012113193540489993
PART_001_R158G218B229A255,173,9.761203e-05,-2.33216e-05,-1.861427e-05,1.772998e-05,6.589729e-06,-8.79313e-06,0.00012402868571048442
PART_001_R158G218B229A255,174,9.660073e-05,-2.289714e-05,-2.040155e-05,8.634476e-06,9.603919e-06,-1.378168e-05,0.00012271073153281384
PART_002_R214G39B40A255,175,0.0001100858,-2.268986e-05,-3.364907e-05,-7.413021e-06,1.274468e-05,-1.910917e-05,0.0001447488061895556
PART_002_R214G39B40A255,176,0.0001056162,-2.357512e-05,-4.248909e-05,-3.684844e-05,7.51384e-06,-2.405092e-06,0.00015411620792040885
PART_003_R247G182B210A255,177,1.154245e-13,-2.589966e-14,-4.648033e-14,-4.297069e-05,-7.50608e-06,2.315305e-15,7.55543798077087e-05
PART_003_R247G182B210A255,178,1.211218e-13,-2.457727e-14,-3.78411e-14,-1.34251e-05,-1.312104e-05,2.072933e-14,3.2514381465357756e-05
PART_001_R158G218B229A255,179,1.055236e-13,-2.509843e-14,-2.187288e-14,2.363934e-06,-9.967117e-06,1.528303e-14,1.7742457996121477e-05
PART_001_R158G218B229A255,180,1.072082e-13,-2.571197e-14,-2.063158e-14,1.132742e-05,-6.850358e-06,9.483953e-15,2.292844403254813e-05
PART_001_R158G218B229A255,181,1.031507e-13,-2.598536e-14,-1.643659e-14,1.638036e-05,-3.31569e-06,4.998681e-15,2.8947020256273356e-05
PART_001_R158G218B229A255,182,1.048848e-13,-2.633008e-14,-1.712205e-14,1.787017e-05,4.134092e-15,-2.737928e-18,3.0952042379893124e-05
PART_001_R158G218B229A255,183,1.031279e-13,-2.598205e-14,-1.643041e-14,1.638036e-05,3.31569e-06,-5.002547e-15,2.8947020256273356e-05
PART_001_R158G218B229A255,184,1.071606e-13,-2.570473e-14,-2.061741e-14,1.132742e-05,6.850358e-06,-9.486289e-15,2.292844403254813e-05
PART_001_R158G218B229A255,185,1.05454e-13,-2.508765e-14,-2.185157e-14,2.363934e-06,9.967117e-06,-1.528059e-14,1.7742457996121477e-05
PART_001_R158G218B229A255,186,1.210193e-13,-2.456305e-14,-3.780246e-14,-1.34251e-05,1.312104e-05,-2.072227e-14,3.2514381465357756e-05
PART_002_R214G39B40A255,187,1.153057e-13,-2.58818e-14,-4.642766e-14,-4.297069e-05,7.50608e-06,-2.317979e-15,7.55543798077087e-05
PART_003_R247G182B210A255,188,-0.0001056162,2.357512e-05,4.248909e-05,-3.684844e-05,-7.51384e-06,-2.405092e-06,0.00015411620792040885
PART_003_R247G182B210A255,189,-0.0001100858,2.268986e-05,3.364907e-05,-7.413021e-06,-1.274468e-05,-1.910917e-05,0.0001447488061895556
PART_001_R158G218B229A255,190,-9.660073e-05,2.289714e-05,2.040155e-05,8.634476e-06,-9.603919e-06,-1.378168e-05,0.00012271073153281384
PART_001_R158G218B229A255,191,-9.761203e-05,2.33216e-05,1.861427e-05,1.772998e-05,-6.589729e-06,-8.793129e-06,0.00012402868549779664
PART_001_R158G218B229A255,192,-9.430439e-05,2.370553e-05,1.524912e-05,2.296159e-05,-3.160496e-06,-4.52268e-06,0.00012113193540489993
PART_001_R158G218B229A255,193,-9.554212e-05,2.386326e-05,1.550095e-05,2.440486e-05,4.043312e-15,9.976952e-15,0.00012294657284004097
PART_001_R158G218B229A255,194,-9.430439e-05,2.370553e-05,1.524912e-05,2.296159e-05,3.160496e-06,4.52268e-06,0.00012113193540489993
PART_001_R158G218B229A255,195,-9.761203e-05,2.33216e-05,1.861427e-05,1.772998e-05,6.589729e-06,8.793129e-06,0.00012402868549779664
PART_001_R158G218B229A255,196,-9.660073e-05,2.289714e-05,2.040155e-05,8.634476e-06,9.603919e-06,1.378168e-05,0.00012271073153281384
PART_002_R214G39B40A255,197,-0.0001100858,2.268986e-05,3.364907e-05,-7.413021e-06,1.274468e-05,1.910917e-05,0.0001447488061895556
PART_002_R214G39B40A255,198,-0.0001056162,2.357512e-05,4.248909e-05,-3.684844e-05,7.51384e-06,2.405092e-06,0.00015411620792040885
PART_003_R247G182B210A255,199,-0.0002189987,5.420751e-05,8.435173e-05,-3.163705e-05,-6.684104e-06,-4.406598e-06,0.00029492522804320327
PART_003_R247G182B210A255,200,-0.000228933,5.323017e-05,6.670062e-05,-2.479916e-06,-1.148324e-05,-3.773084e-05,0.0002971249999833213
PART_001_R158G218B229A255,201,-0.000202668,5.403473e-05,4.038315e-05,1.354145e-05,-8.28236e-06,-2.72594e-05,0.000256053488751925
PART_001_R158G218B229A255,202,-0.0002050178,5.547068e-05,3.664286e-05,2.279603e-05,-5.691235e-06,-1.756285e-05,0.00025668231985135845
PART_001_R158G218B229A255,203,-0.0001988085,5.625999e-05,3.01966e-05,2.793247e-05,-2.941268e-06,-9.001174e-06,0.00024839680064560435
PART_001_R158G218B229A255,204,-0.00020133,5.638206e-05,3.099222e-05,2.947965e-05,4.170393e-15,2.027178e-14,0.00025124496247201915
PART_001_R158G218B229A255,205,-0.0001988085,5.625999e-05,3.01966e-05,2.793247e-05,2.941268e-06,9.001175e-06,0.00024839680075431557
PART_001_R158G218B229A255,206,-0.0002050178,5.547068e-05,3.664286e-05,2.279603e-05,5.691235e-06,1.756285e-05,0.00025668231985135845
PART_001_R158G218B229A255,207,-0.000202668,5.403473e-05,4.038315e-05,1.354145e-05,8.28236e-06,2.72594e-05,0.000256053488751925
PART_002_R214G39B40A255,208,-0.000228933,5.323017e-05,6.670062e-05,-2.479916e-06,1.148324e-05,3.773084e-05,0.0002971249999833213
PART_002_R214G39B40A255,209,-0.0002189987,5.420751e-05,8.435173e-05,-3.163705e-05,6.684104e-06,4.406598e-06,0.00029492522804320327
PART_003_R247G182B210A255,210,-0.0003242504,8.318806e-05,0.0001253801,-1.432976e-05,-5.946086e-06,-6.440182e-06,0.0004310724399008848
PART_003_R247G182B210A255,211,-0.0003365914,8.103272e-05,9.857176e-05,1.390549e-05,-8.648059e-06,-5.544568e-05,0.0004382572015350697
PART_001_R158G218B229A255,212,-0.0002969871,8.346114e-05,5.840597e-05,3.06617e-05,-5.993065e-06,-4.061202e-05,0.0003790944579703317
PART_001_R158G218B229A255,213,-0.0003007176,8.513364e-05,5.3817e-05,3.987744e-05,-5.107281e-06,-2.62064e-05,0.00038037817602640304
PART_001_R158G218B229A255,214,-0.0002914277,8.552603e-05,4.511544e-05,4.53286e-05,-2.704787e-06,-1.344722e-05,0.00036772637169813047
PART_001_R158G218B229A255,215,-0.0002952385,8.571643e-05,4.619299e-05,4.685598e-05,4.028949e-15,3.043271e-14,0.00037177756826825965
PART_001_R158G218B229A255,216,-0.0002914277,8.552603e-05,4.511544e-05,4.53286e-05,2.704787e-06,1.344722e-05,0.00036772637169813047
PART_001_R158G218B229A255,217,-0.0003007176,8.513364e-05,5.3817e-05,3.987744e-05,5.107281e-06,2.62064e-05,0.00038037817602640304
PART_001_R158G218B229A255,218,-0.0002969871,8.346114e-05,5.840597e-05,3.06617e-05,5.993065e-06,4.061202e-05,0.0003790944579703317
PART_001_R158G218B229A255,219,-0.0003365914,8.103272e-05,9.857176e-05,1.390549e-05,8.648059e-06,5.544568e-05,0.0004382572015350697
PART_002_R214G39B40A255,220,-0.0003242504,8.318806e-05,0.0001253801,-1.432976e-05,5.946086e-06,6.440182e-06,0.0004310724399008848
PART_003_R247G182B210A255,221,-0.0004709669,0.0001526659,0.0001618499,-1.571618e-07,-1.242852e-06,-6.009939e-06,0.0006283651207460254
PART_003_R247G182B210A255,222,-0.0004911256,0.0001556775,0.0001246458,3.078045e-05,-3.236177e-06,-7.216594e-05,0.0006463306524804578
PART_001_R158G218B229A255,223,-0.0004448704,0.0001619362,7.481529e-05,4.756162e-05,-4.626038e-06,-5.41892e-05,0.0005818923367260542
PART_001_R158G218B229A255,224,-0.0004525989,0.0001642034,7.102109e-05,5.719062e-05,-4.377196e-06,-3.486365e-05,0.0005875109870558175
PART_001_R158G218B229A255,225,-0.0004424314,0.0001656868,5.972605e-05,6.259744e-05,-2.211223e-06,-1.807914e-05,0.0005738896392737015
PART_001_R158G218B229A255,226,-0.0004479404,0.0001662678,6.132578e-05,6.404469e-05,4.237058e-15,4.120187e-14,0.0005797529286273117
PART_001_R158G218B229A255,227,-0.0004424314,0.0001656868,5.972605e-05,6.259744e-05,2.211223e-06,1.807914e-05,0.0005738896392737015
PART_001_R158G218B229A255,228,-0.0004525989,0.0001642034,7.102109e-05,5.719062e-05,4.377196e-06,3.486365e-05,0.0005875109870558175
PART_001_R158G218B229A255,229,-0.0004448704,0.0001619362,7.481529e-05,4.756162e-05,4.626038e-06,5.41892e-05,0.0005818923367260542
PART_001_R158G218B229A255,230,-0.0004911256,0.0001556775,0.0001246458,3.078045e-05,3.236177e-06,7.216594e-05,0.0006463306524804578
PART_002_R214G39B40A255,231,-0.0004709669,0.0001526659,0.0001618499,-1.571618e-07,1.242852e-06,6.009939e-06,0.0006283651207460254
PART_003_R247G182B210A255,232,-0.0005525267,0.0002055081,0.0001879369,-3.166533e-05,2.134948e-06,-1.658894e-05,0.0007519662599974852
PART_003_R247G182B210A255,233,-0.0005754188,0.0002202813,0.0001482334,-1.348685e-05,2.737975e-07,-9.78851e-05,0.0007812115055922056
PART_001_R158G218B229A255,234,-0.0005233895,0.0002280355,9.320565e-05,-6.962515e-06,-2.569876e-06,-7.131712e-05,0.0007049310154110099
PART_001_R158G218B229A255,235,-0.0005334314,0.0002327889,8.760598e-05,-2.966684e-06,-1.627034e-06,-4.628443e-05,0.0007095002597720414
PART_001_R158G218B229A255,236,-0.0005227552,0.0002364579,7.400907e-05,-1.22464e-06,-1.040146e-06,-2.356973e-05,0.000693639110216269
PART_001_R158G218B229A255,237,-0.0005292607,0.0002372774,7.562873e-05,-5.521925e-07,1.916974e-15,5.412499e-14,0.0006998585583135518
PART_001_R158G218B229A255,238,-0.0005227552,0.0002364579,7.400907e-05,-1.22464e-06,1.040146e-06,2.356973e-05,0.000693639110216269
PART_001_R158G218B229A255,239,-0.0005334314,0.0002327889,8.760598e-05,-2.966684e-06,1.627034e-06,4.628443e-05,0.0007095002597720414
PART_001_R158G218B229A255,240,-0.0005233895,0.0002280355,9.320565e-05,-6.962515e-06,2.569877e-06,7.131712e-05,0.0007049310154219466
PART_001_R158G218B229A255,241,-0.0005754188,0.0002202813,0.0001482334,-1.348685e-05,-2.737974e-07,9.78851e-05,0.0007812115055921004
PART_001_R158G218B229A255,242,-0.0005525267,0.0002055081,0.0001879369,-3.166533e-05,-2.134948e-06,1.658894e-05,0.0007519662599974852
PART_003_R247G182B210A255,243,0.0005203215,-0.0001668477,-0.0001598816,-7.614123e-06,6.295528e-07,1.761535e-05,0.0006845211186646901
PART_000_R31G119B180A255,244,0.000550845,-0.0001802725,-0.0001743184,-9.703516e-07,9.902289e-07,2.312402e-05,0.000729263347985964
PART_000_R31G119B180A255,245,0.0005548519,-0.0001893801,-0.0001493048,2.388279e-06,-1.053638e-06,5.138184e-05,0.0007304811437393148
PART_000_R31G119B180A255,246,0.0005307466,-0.0001939174,-0.0001219982,5.652116e-06,-1.532684e-06,3.167045e-05,0.0006937614632508867
PART_000_R31G119B180A255,247,0.0005367933,-0.0001965415,-0.0001177354,6.898939e-06,-7.798656e-07,1.802059e-05,0.0006980815929007538
PART_000_R31G119B180A255,248,0.0005269647,-0.0001975129,-0.0001096919,7.540488e-06,1.242545e-15,-4.856054e-14,0.0006849281352893853
PART_000_R31G119B180A255,249,0.0005367933,-0.0001965415,-0.0001177354,6.898939e-06,7.798656e-07,-1.802059e-05,0.0006980815929007538
PART_000_R31G119B180A255,250,0.0005307466,-0.0001939174,-0.0001219982,5.652116e-06,1.532684e-06,-3.167045e-05,0.0006937614632508867
PART_000_R31G119B180A255,251,0.0005548519,-0.0001893801,-0.0001493048,2.388279e-06,1.053638e-06,-5.138184e-05,0.0007304811437393148
PART_000_R31G119B180A255,252,0.000550845,-0.0001802725,-0.0001743184,-9.703515e-07,-9.902289e-07,-2.312402e-05,0.0007292633479855649
PART_000_R31G119B180A255,253,0.0005203215,-0.0001668477,-0.0001598816,-7.614123e-06,-6.295528e-07,-1.761535e-05,0.0006845211186646901
PART_003_R247G182B210A255,254,0.0004291285,-0.0001564128,-0.000127534,-3.461249e-05,-6.982658e-07,7.335004e-06,0.0005749259186791919
PART_003_R247G182B210A255,255,0.0004594754,-0.0001639493,-0.0001432099,-1.416504e-05,-2.957104e-06,8.860075e-06,0.0006140217474268255
PART_000_R31G119B180A255,256,0.000467294,-0.0001726655,-0.0001215766,-3.154395e-06,-4.257972e-06,3.691304e-05,0.0006193830556369308
PART_000_R31G119B180A255,257,0.0004477877,-0.0001777298,-9.851713e-05,3.265181e-06,-3.978921e-06,2.233736e-05,0.0005912480284966908
PART_000_R31G119B180A255,258,0.0004539939,-0.0001800712,-9.58517e-05,6.971263e-06,-2.323192e-06,1.317497e-05,0.0005970038159165858
PART_000_R31G119B180A255,259,0.0004455155,-0.0001809752,-8.896263e-05,8.04911e-06,3.46344e-15,-3.613855e-14,0.0005860940669822313
PART_000_R31G119B180A255,260,0.0004539939,-0.0001800712,-9.58517e-05,6.971263e-06,2.323192e-06,-1.317497e-05,0.0005970038159165858
PART_000_R31G119B180A255,261,0.0004477877,-0.0001777298,-9.851713e-05,3.265181e-06,3.978921e-06,-2.233736e-05,0.0005912480284966908
PART_000_R31G119B180A255,262,0.000467294,-0.0001726655,-0.0001215766,-3.154395e-06,4.257972e-06,-3.691304e-05,0.0006193830556369308
PART_000_R31G119B180A255,263,0.0004594754,-0.0001639493,-0.0001432099,-1.416504e-05,2.957104e-06,-8.860076e-06,0.0006140217474701142
PART_002_R214G39B40A255,264,0.0004291285,-0.0001564128,-0.000127534,-3.461249e-05,6.982658e-07,-7.335004e-06,0.0005749259186791919
PART_003_R247G182B210A255,265,0.0003350882,-0.0001188096,-9.801727e-05,-1.023394e-05,-4.817274e-06,3.750987e-06,0.0004443466773459226
PART_003_R247G182B210A255,266,0.0003570089,-0.0001183209,-0.0001111468,1.23151e-05,-9.978098e-06,3.809346e-06,0.000472627790861515
PART_003_R247G182B210A255,267,0.0003614236,-0.0001225394,-9.405912e-05,2.890835e-05,-8.441454e-06,2.619515e-05,0.0004754233062807036
PART_000_R31G119B180A255,268,0.0003458814,-0.0001259794,-7.525499e-05,3.777154e-05,-6.017798e-06,1.593439e-05,0.0004543579463359231
PART_000_R31G119B180A255,269,0.0003503259,-0.0001278134,-7.270331e-05,4.281251e-05,-3.377303e-06,9.45549e-06,0.00045946184042458104
PART_000_R31G119B180A255,270,0.0003437452,-0.0001282396,-6.750885e-05,4.448291e-05,4.599861e-15,-2.53818e-14,0.0004513646778162939
PART_000_R31G119B180A255,271,0.0003503259,-0.0001278134,-7.270331e-05,4.281251e-05,3.377303e-06,-9.455491e-06,0.0004594618404863195
PART_000_R31G119B180A255,272,0.0003458814,-0.0001259794,-7.525499e-05,3.777154e-05,6.017798e-06,-1.593439e-05,0.0004543579463359231
PART_000_R31G119B180A255,273,0.0003614236,-0.0001225394,-9.405912e-05,2.890835e-05,8.441454e-06,-2.619515e-05,0.0004754233062807036
PART_002_R214G39B40A255,274,0.0003570089,-0.0001183209,-0.0001111468,1.23151e-05,9.978098e-06,-3.809346e-06,0.000472627790861515
PART_002_R214G39B40A255,275,0.0003350882,-0.0001188096,-9.801727e-05,-1.023394e-05,4.817274e-06,-3.750987e-06,0.0004443466773459226
PART_003_R247G182B210A255,276,0.0002127806,-6.989619e-05,-6.643269e-05,-1.397612e-05,-7.150822e-06,2.773906e-06,0.00028231470842814734
PART_003_R247G182B210A255,277,0.0002273414,-6.869896e-05,-7.568448e-05,7.231061e-06,-1.386029e-05,2.560051e-06,0.0003008480302806792
PART_003_R247G182B210A255,278,0.0002290876,-7.018311e-05,-6.403503e-05,2.345501e-05,-1.166169e-05,1.721306e-05,0.0003011778250665429
PART_001_R158G218B229A255,279,0.0002178892,-7.199688e-05,-5.115055e-05,3.268671e-05,-7.814972e-06,1.04355e-05,0.0002866018690463367
PART_001_R158G218B229A255,280,0.0002203439,-7.312001e-05,-4.899484e-05,3.774116e-05,-4.038568e-06,6.27822e-06,0.0002899372126692539
PART_001_R158G218B229A255,281,0.000215787,-7.35105e-05,-4.533127e-05,3.93695e-05,5.720055e-15,-1.701062e-14,0.000284578292055926
PART_001_R158G218B229A255,282,0.0002203439,-7.312001e-05,-4.899484e-05,3.774116e-05,4.038568e-06,-6.27822e-06,0.0002899372126692539
PART_001_R158G218B229A255,283,0.0002178892,-7.199688e-05,-5.115055e-05,3.268671e-05,7.814972e-06,-1.04355e-05,0.0002866018690463367
PART_001_R158G218B229A255,284,0.0002290876,-7.018311e-05,-6.403503e-05,2.345501e-05,1.166169e-05,-1.721306e-05,0.0003011778250665429
PART_002_R214G39B40A255,285,0.0002273414,-6.869896e-05,-7.568448e-05,7.231061e-06,1.386029e-05,-2.560052e-06,0.00030084803030620757
PART_002_R214G39B40A255,286,0.0002127806,-6.989619e-05,-6.643269e-05,-1.397612e-05,7.150822e-06,-2.773906e-06,0.00028231470842814734
PART_003_R247G182B210A255,287,0.0001087783,-3.571013e-05,-3.327974e-05,-1.541726e-05,-7.78383e-06,1.288338e-06,0.00014639490822622737
PART_003_R247G182B210A255,288,0.000116457,-3.497066e-05,-3.818765e-05,6.4211e-06,-1.602297e-05,1.209051e-06,0.00015596829869282284
PART_003_R247G182B210A255,289,0.0001174581,-3.550011e-05,-3.246596e-05,2.287134e-05,-1.348635e-05,8.602023e-06,0.0001589913387829255
PART_001_R158G218B229A255,290,0.0001118135,-3.638795e-05,-2.58599e-05,3.217673e-05,-9.026911e-06,5.164538e-06,0.0001547408670280004
PART_001_R158G218B229A255,291,0.0001130965,-3.703151e-05,-2.47047e-05,3.740516e-05,-4.556942e-06,3.11794e-06,0.00015852025098065482
PART_001_R158G218B229A255,292,0.0001107863,-3.724077e-05,-2.279248e-05,3.904402e-05,5.388804e-15,-8.220221e-15,0.00015670141988756802
PART_001_R158G218B229A255,293,0.0001130965,-3.703151e-05,-2.47047e-05,3.740516e-05,4.556942e-06,-3.11794e-06,0.00015852025098065482
PART_001_R158G218B229A255,294,0.0001118135,-3.638795e-05,-2.58599e-05,3.217673e-05,9.026911e-06,-5.164538e-06,0.0001547408670280004
PART_002_R214G39B40A255,295,0.0001174581,-3.550011e-05,-3.246596e-05,2.287134e-05,1.348635e-05,-8.602023e-06,0.0001589913387829255
PART_002_R214G39B40A255,296,0.000116457,-3.497066e-05,-3.818765e-05,6.4211e-06,1.602297e-05,-1.209051e-06,0.00015596829869282284
PART_002_R214G39B40A255,297,0.0001087783,-3.571013e-05,-3.327974e-05,-1.541726e-05,7.78383e-06,-1.288338e-06,0.00014639490822622737
PART_003_R247G182B210A255,298,1.186087e-13,-3.873079e-14,-3.660046e-14,-1.575845e-05,-8.2971e-06,1.18925e-15,3.0846585620413486e-05
PART_003_R247G182B210A255,299,1.269189e-13,-3.773677e-14,-4.189311e-14,5.753564e-06,-1.649066e-05,1.056885e-15,3.0251216468318885e-05
PART_003_R247G182B210A255,300,1.285282e-13,-3.8544e-14,-3.587525e-14,2.210645e-05,-1.421491e-05,9.523749e-15,4.552226261656817e-05
PART_001_R158G218B229A255,301,1.216269e-13,-3.954819e-14,-2.791915e-14,3.144872e-05,-9.441626e-06,5.617988e-15,5.687265488340445e-05
PART_001_R158G218B229A255,302,1.23638e-13,-4.019321e-14,-2.731045e-14,3.664647e-05,-4.777199e-06,3.416978e-15,6.401059428906673e-05
PART_001_R158G218B229A255,303,1.205077e-13,-4.049646e-14,-2.457141e-14,3.832307e-05,6.222156e-15,-8.047872e-19,6.637750434201862e-05
PART_001_R158G218B229A255,304,1.236113e-13,-4.018733e-14,-2.730104e-14,3.664647e-05,4.777199e-06,-3.417699e-15,6.401059428906673e-05
PART_001_R158G218B229A255,305,1.215754e-13,-3.953732e-14,-2.790107e-14,3.144872e-05,9.441626e-06,-5.618588e-15,5.687265488340445e-05
PART_001_R158G218B229A255,306,1.284473e-13,-3.852813e-14,-3.584417e-14,2.210645e-05,1.421491e-05,-9.521967e-15,4.552226261656817e-05
PART_002_R214G39B40A255,307,1.268153e-13,-3.771498e-14,-4.185128e-14,5.753564e-06,1.649066e-05,-1.061241e-15,3.0251216468318885e-05
PART_002_R214G39B40A255,308,1.184866e-13,-3.870454e-14,-3.655477e-14,-1.575845e-05,8.2971e-06,-1.189861e-15,3.0846585620413486e-05
PART_003_R247G182B210A255,309,-0.0001087783,3.571013e-05,3.327974e-05,-1.541726e-05,-7.78383e-06,-1.288338e-06,0.00014639490822622737
PART_003_R247G182B210A255,310,-0.000116457,3.497066e-05,3.818765e-05,6.4211e-06,-1.602297e-05,-1.209051e-06,0.00015596829869282284
PART_003_R247G182B210A255,311,-0.0001174581,3.550011e-05,3.246596e-05,2.287134e-05,-1.348635e-05,-8.602023e-06,0.0001589913387829255
PART_001_R158G218B229A255,312,-0.0001118135,3.638795e-05,2.58599e-05,3.217673e-05,-9.026911e-06,-5.164537e-06,0.00015474086692787421
PART_001_R158G218B229A255,313,-0.0001130965,3.703151e-05,2.47047e-05,3.740516e-05,-4.556942e-06,-3.11794e-06,0.00015852025098065482
PART_001_R158G218B229A255,314,-0.0001107863,3.724077e-05,2.279248e-05,3.904402e-05,5.389601e-15,8.218629e-15,0.00015670141988756802
PART_001_R158G218B229A255,315,-0.0001130965,3.703151e-05,2.47047e-05,3.740516e-05,4.556942e-06,3.11794e-06,0.00015852025098065482
PART_001_R158G218B229A255,316,-0.0001118135,3.638795e-05,2.58599e-05,3.217673e-05,9.026911e-06,5.164538e-06,0.0001547408670280004
PART_002_R214G39B40A255,317,-0.0001174581,3.550011e-05,3.246596e-05,2.287134e-05,1.348635e-05,8.602023e-06,0.0001589913387829255
PART_002_R214G39B40A255,318,-0.000116457,3.497066e-05,3.818765e-05,6.4211e-06,1.602297e-05,1.209051e-06,0.00015596829869282284
PART_002_R214G39B40A255,319,-0.0001087783,3.571013e-05,3.327974e-05,-1.541726e-05,7.78383e-06,1.288338e-06,0.00014639490822622737
PART_003_R247G182B210A255,320,-0.0002127806,6.989619e-05,6.643269e-05,-1.397612e-05,-7.150822e-06,-2.773906e-06,0.00028231470842814734
PART_003_R247G182B210A255,321,-0.0002273414,6.869896e-05,7.568448e-05,7.231061e-06,-1.386029e-05,-2.560051e-06,0.0003008480302806792
PART_003_R247G182B210A255,322,-0.0002290876,7.018311e-05,6.403503e-05,2.345501e-05,-1.166169e-05,-1.721306e-05,0.0003011778250665429
PART_001_R158G218B229A255,323,-0.0002178892,7.199688e-05,5.115055e-05,3.268671e-05,-7.814972e-06,-1.04355e-05,0.0002866018690463367
PART_001_R158G218B229A255,324,-0.0002203439,7.312001e-05,4.899484e-05,3.774116e-05,-4.038568e-06,-6.27822e-06,0.0002899372126692539
PART_001_R158G218B229A255,325,-0.000215787,7.35105e-05,4.533127e-05,3.93695e-05,5.721872e-15,1.700735e-14,0.000284578292055926
PART_001_R158G218B229A255,326,-0.0002203439,7.312001e-05,4.899484e-05,3.774116e-05,4.038568e-06,6.27822e-06,0.0002899372126692539
PART_001_R158G218B229A255,327,-0.0002178892,7.199688e-05,5.115055e-05,3.268671e-05,7.814972e-06,1.04355e-05,0.0002866018690463367
PART_002_R214G39B40A255,328,-0.0002290876,7.018311e-05,6.403503e-05,2.345501e-05,1.166169e-05,1.721306e-05,0.0003011778250665429
PART_002_R214G39B40A255,329,-0.0002273414,6.869896e-05,7.568448e-05,7.231061e-06,1.386029e-05,2.560051e-06,0.0003008480302806792
PART_002_R214G39B40A255,330,-0.0002127806,6.989619e-05,6.643269e-05,-1.397612e-05,7.150822e-06,2.773906e-06,0.00028231470842814734
PART_003_R247G182B210A255,331,-0.0003350882,0.0001188096,9.801727e-05,-1.023394e-05,-4.817274e-06,-3.750987e-06,0.0004443466773459226
PART_003_R247G182B210A255,332,-0.0003570089,0.0001183209,0.0001111468,1.23151e-05,-9.978098e-06,-3.809346e-06,0.000472627790861515
PART_003_R247G182B210A255,333,-0.0003614236,0.0001225394,9.405912e-05,2.890835e-05,-8.441454e-06,-2.619515e-05,0.0004754233062807036
PART_001_R158G218B229A255,334,-0.0003458814,0.0001259794,7.525499e-05,3.777154e-05,-6.017798e-06,-1.593439e-05,0.0004543579463359231
PART_001_R158G218B229A255,335,-0.0003503259,0.0001278134,7.270331e-05,4.281251e-05,-3.377303e-06,-9.45549e-06,0.00045946184042458104
PART_001_R158G218B229A255,336,-0.0003437452,0.0001282396,6.750885e-05,4.448291e-05,4.602664e-15,2.53762e-14,0.0004513646778162939
PART_001_R158G218B229A255,337,-0.0003503259,0.0001278134,7.270331e-05,4.281251e-05,3.377303e-06,9.455491e-06,0.0004594618404863195
PART_001_R158G218B229A255,338,-0.0003458814,0.0001259794,7.525499e-05,3.777154e-05,6.017798e-06,1.593439e-05,0.0004543579463359231
PART_001_R158G218B229A255,339,-0.0003614236,0.0001225394,9.405912e-05,2.890835e-05,8.441454e-06,2.619515e-05,0.0004754233062807036
PART_002_R214G39B40A255,340,-0.0003570089,0.0001183209,0.0001111468,1.23151e-05,9.978098e-06,3.809346e-06,0.000472627790861515
PART_002_R214G39B40A255,341,-0.0003350882,0.0001188096,9.801727e-05,-1.023394e-05,4.817274e-06,3.750987e-06,0.0004443466773459226
PART_003_R247G182B210A255,342,-0.0004291285,0.0001564128,0.000127534,-3.461249e-05,-6.982658e-07,-7.335004e-06,0.0005749259186791919
PART_003_R247G182B210A255,343,-0.0004594754,0.0001639493,0.0001432099,-1.416504e-05,-2.957104e-06,-8.860075e-06,0.0006140217474268255
PART_001_R158G218B229A255,344,-0.000467294,0.0001726655,0.0001215766,-3.154395e-06,-4.257972e-06,-3.691304e-05,0.0006193830556369308
PART_001_R158G218B229A255,345,-0.0004477877,0.0001777298,9.851713e-05,3.265181e-06,-3.978921e-06,-2.233736e-05,0.0005912480284966908
PART_001_R158G218B229A255,346,-0.0004539939,0.0001800712,9.58517e-05,6.971263e-06,-2.323192e-06,-1.317497e-05,0.0005970038159165858
PART_001_R158G218B229A255,347,-0.0004455155,0.0001809752,8.896263e-05,8.04911e-06,3.466648e-15,3.612862e-14,0.0005860940669822313
PART_001_R158G218B229A255,348,-0.0004539939,0.0001800712,9.58517e-05,6.971263e-06,2.323192e-06,1.317497e-05,0.0005970038159165858
PART_001_R158G218B229A255,349,-0.0004477877,0.0001777298,9.851713e-05,3.265181e-06,3.978921e-06,2.233736e-05,0.0005912480284966908
PART_001_R158G218B229A255,350,-0.000467294,0.0001726655,0.0001215766,-3.154395e-06,4.257972e-06,3.691304e-05,0.0006193830556369308
PART_001_R158G218B229A255,351,-0.0004594754,0.0001639493,0.0001432099,-1.416504e-05,2.957104e-06,8.860076e-06,0.0006140217474701142
PART_002_R214G39B40A255,352,-0.0004291285,0.0001564128,0.000127534,-3.461249e-05,6.982658e-07,7.335004e-06,0.0005749259186791919
PART_003_R247G182B210A255,353,-0.0005203215,0.0001668477,0.0001598816,-7.614123e-06,6.295528e-07,-1.761535e-05,0.0006845211186646901
PART_001_R158G218B229A255,354,-0.000550845,0.0001802725,0.0001743184,-9.703516e-07,9.902289e-07,-2.312402e-05,0.000729263347985964
PART_001_R158G218B229A255,355,-0.0005548519,0.0001893801,0.0001493048,2.388279e-06,-1.053638e-06,-5.138184e-05,0.0007304811437393148
PART_001_R158G218B229A255,356,-0.0005307466,0.0001939174,0.0001219982,5.652116e-06,-1.532684e-06,-3.167045e-05,0.0006937614632508867
PART_001_R158G218B229A255,357,-0.0005367933,0.0001965415,0.0001177354,6.898939e-06,-7.798656e-07,-1.802059e-05,0.0006980815929007538
PART_001_R158G218B229A255,358,-0.0005269647,0.0001975129,0.0001096919,7.540488e-06,1.2444e-15,4.854561e-14,0.0006849281352893853
PART_001_R158G218B229A255,359,-0.0005367933,0.0001965415,0.0001177354,6.898939e-06,7.798656e-07,1.802059e-05,0.0006980815929007538
PART_001_R158G218B229A255,360,-0.0005307466,0.0001939174,0.0001219982,5.652116e-06,1.532684e-06,3.167045e-05,0.0006937614632508867
PART_001_R158G218B229A255,361,-0.0005548519,0.0001893801,0.0001493048,2.388279e-06,1.053638e-06,5.138184e-05,0.0007304811437393148
PART_001_R158G218B229A255,362,-0.000550845,0.0001802725,0.0001743184,-9.703515e-07,-9.902289e-07,2.312402e-05,0.0007292633479855649
PART_001_R158G218B229A255,363,-0.0005203215,0.0001668477,0.0001598816,-7.614123e-06,-6.295528e-07,1.761535e-05,0.0006845211186646901
PART_003_R247G182B210A255,364,0.0005394389,-0.0001857633,-0.0001795865,-1.065543e-05,-2.771124e-07,2.233223e-06,0.000722379928838229
PART_000_R31G119B180A255,365,0.0005552019,-0.0001930407,-0.0001693998,-3.791794e-06,-7.182191e-07,1.857457e-05,0.0007374391342331426
PART_000_R31G119B180A255,366,0.0005608424,-0.0002002728,-0.0001676323,-1.874896e-06,-9.036169e-07,1.393215e-05,0.0007457304331406194
PART_000_R31G119B180A255,367,0.0005635526,-0.0002055502,-0.000154335,-3.862544e-07,-1.278317e-06,2.27332e-05,0.0007458606471476305
PART_000_R31G119B180A255,368,0.0005516391,-0.0002083403,-0.0001415789,8.283978e-07,-7.720772e-07,9.548692e-06,0.0007290856354600919
PART_000_R31G119B180A255,369,0.0005581038,-0.0002092141,-0.0001422828,9.774616e-07,1.0331e-15,-4.036737e-14,0.000736139823887669
PART_000_R31G119B180A255,370,0.0005516391,-0.0002083403,-0.0001415789,8.283978e-07,7.720772e-07,-9.548692e-06,0.0007290856354600919
PART_000_R31G119B180A255,371,0.0005635526,-0.0002055502,-0.000154335,-3.862544e-07,1.278317e-06,-2.27332e-05,0.0007458606471476305
PART_000_R31G119B180A255,372,0.0005608424,-0.0002002728,-0.0001676323,-1.874896e-06,9.036169e-07,-1.393215e-05,0.0007457304331406194
PART_000_R31G119B180A255,373,0.0005552019,-0.0001930407,-0.0001693998,-3.791794e-06,7.182191e-07,-1.857457e-05,0.0007374391342331426
PART_000_R31G119B180A255,374,0.0005394389,-0.0001857633,-0.0001795865,-1.065543e-05,2.771124e-07,-2.233224e-06,0.0007223799288475034
PART_003_R247G182B210A255,375,0.0004296946,-0.0001426376,-0.0001425257,-1.087849e-05,-1.364401e-06,-7.402182e-07,0.0005725926727426116
PART_003_R247G182B210A255,376,0.0004448072,-0.0001478288,-0.0001354357,5.241975e-07,-3.048426e-06,8.955428e-06,0.0005867671789869377
PART_000_R31G119B180A255,377,0.0004530379,-0.0001540472,-0.0001356215,7.938682e-06,-4.08898e-06,6.305342e-06,0.0005983847896100414
PART_000_R31G119B180A255,378,0.000457303,-0.0001587179,-0.0001249074,1.30703e-05,-3.655282e-06,1.577557e-05,0.0006009127322830274
PART_000_R31G119B180A255,379,0.0004479468,-0.0001611289,-0.0001147269,1.587687e-05,-2.137215e-06,6.2383e-06,0.0005880056977025132
PART_000_R31G119B180A255,380,0.0004539081,-0.0001618796,-0.0001156548,1.691329e-05,3.144448e-15,-2.866311e-14,0.0005947476258609549
PART_000_R31G119B180A255,381,0.0004479468,-0.0001611289,-0.0001147269,1.587687e-05,2.137215e-06,-6.2383e-06,0.0005880056977025132
PART_000_R31G119B180A255,382,0.000457303,-0.0001587179,-0.0001249074,1.30703e-05,3.655282e-06,-1.577557e-05,0.0006009127322830274
PART_000_R31G119B180A255,383,0.0004530379,-0.0001540472,-0.0001356215,7.938682e-06,4.08898e-06,-6.305342e-06,0.0005983847896100414
PART_000_R31G119B180A255,384,0.0004448072,-0.0001478288,-0.0001354357,5.241976e-07,3.048426e-06,-8.955428e-06,0.0005867671789872057
PART_002_R214G39B40A255,385,0.0004296946,-0.0001426376,-0.0001425257,-1.087849e-05,1.364401e-06,7.402181e-07,0.0005725926727422238
PART_003_R247G182B210A255,386,0.0003277433,-0.0001180612,-0.0001064039,-1.792984e-05,-3.180073e-06,-2.242374e-06,0.00044123749712517683
PART_003_R247G182B210A255,387,0.0003404351,-0.0001198956,-0.0001029419,-3.745037e-06,-7.644711e-06,3.252715e-06,0.00045236778610707723
PART_003_R247G182B210A255,388,0.000348449,-0.0001244965,-0.0001037871,7.496554e-06,-8.222291e-06,1.979749e-06,0.0004633520034193332
PART_000_R31G119B180A255,389,0.0003519926,-0.0001283605,-9.525551e-05,1.497397e-05,-6.110565e-06,1.052282e-05,0.00046588606122027163
PART_000_R31G119B180A255,390,0.0003450443,-0.0001306014,-8.714946e-05,1.878675e-05,-3.277007e-06,4.016413e-06,0.0004567259698901267
PART_000_R31G119B180A255,391,0.0003496835,-0.0001313002,-8.781624e-05,2.016076e-05,4.082423e-15,-1.974087e-14,0.00046210438994111756
PART_000_R31G119B180A255,392,0.0003450443,-0.0001306014,-8.714946e-05,1.878675e-05,3.277007e-06,-4.016413e-06,0.0004567259698901267
PART_000_R31G119B180A255,393,0.0003519926,-0.0001283605,-9.525551e-05,1.497397e-05,6.110565e-06,-1.052282e-05,0.00046588606122027163
PART_000_R31G119B180A255,394,0.000348449,-0.0001244965,-0.0001037871,7.496554e-06,8.222291e-06,-1.979749e-06,0.0004633520034193332
PART_002_R214G39B40A255,395,0.0003404351,-0.0001198956,-0.0001029419,-3.745037e-06,7.644711e-06,-3.252715e-06,0.00045236778610707723
PART_002_R214G39B40A255,396,0.0003277433,-0.0001180612,-0.0001064039,-1.792984e-05,3.180073e-06,2.242374e-06,0.00044123749712517683
PART_003_R247G182B210A255,397,0.0002241851,-8.036098e-05,-7.153992e-05,-2.953662e-06,-5.271433e-06,-2.211391e-06,0.00030043953438946915
PART_003_R247G182B210A255,398,0.0002320989,-7.951441e-05,-6.965516e-05,1.175497e-05,-1.170422e-05,1.118713e-06,0.0003081510101654027
PART_003_R247G182B210A255,399,0.0002371039,-8.151555e-05,-7.033608e-05,2.505971e-05,-1.172784e-05,4.481648e-07,0.00031682571601624273
PART_003_R247G182B210A255,400,0.0002394167,-8.376338e-05,-6.444759e-05,3.416127e-05,-8.332668e-06,6.430241e-06,0.0003200145410206463
PART_000_R31G119B180A255,401,0.0002347129,-8.525811e-05,-5.878547e-05,3.889932e-05,-4.289077e-06,2.444948e-06,0.000314998989993483
PART_000_R31G119B180A255,402,0.0002377704,-8.574935e-05,-5.910011e-05,4.052169e-05,5.895945e-15,-1.246279e-14,0.00031887250940072965
PART_000_R31G119B180A255,403,0.0002347129,-8.525811e-05,-5.878547e-05,3.889932e-05,4.289077e-06,-2.444948e-06,0.000314998989993483
PART_000_R31G119B180A255,404,0.0002394167,-8.376338e-05,-6.444759e-05,3.416127e-05,8.332668e-06,-6.430241e-06,0.0003200145410206463
PART_002_R214G39B40A255,405,0.0002371039,-8.151555e-05,-7.033608e-05,2.505971e-05,1.172784e-05,-4.481648e-07,0.00031682571601624273
PART_002_R214G39B40A255,406,0.0002320989,-7.951441e-05,-6.965516e-05,1.175497e-05,1.170422e-05,-1.118713e-06,0.0003081510101654027
PART_002_R214G39B40A255,407,0.0002241851,-8.036098e-05,-7.153992e-05,-2.953662e-06,5.271433e-06,2.211391e-06,0.00030043953438946915
PART_003_R247G182B210A255,408,0.0001095254,-3.87357e-05,-3.586344e-05,-3.795739e-06,-6.259481e-06,-1.042583e-06,0.00014740348154776978
PART_003_R247G182B210A255,409,0.0001135983,-3.821184e-05,-3.511625e-05,1.007283e-05,-1.382203e-05,4.24929e-07,0.00015317973847588207
PART_003_R247G182B210A255,410,0.0001159475,-3.890038e-05,-3.55348e-05,2.337401e-05,-1.380531e-05,2.856405e-08,0.0001602461711617593
PART_003_R247G182B210A255,411,0.0001169327,-3.989445e-05,-3.252789e-05,3.270785e-05,-9.78651e-06,3.118671e-06,0.0001643765816303485
PART_001_R158G218B229A255,412,0.0001144615,-4.060125e-05,-2.961739e-05,3.760174e-05,-4.962801e-06,1.156433e-06,0.00016365050206790433
PART_001_R158G218B229A255,413,0.0001159858,-4.085634e-05,-2.975286e-05,3.929342e-05,5.967867e-15,-6.06748e-15,0.00016617210701297617
PART_001_R158G218B229A255,414,0.0001144615,-4.060125e-05,-2.961739e-05,3.760174e-05,4.962801e-06,-1.156433e-06,0.00016365050206790433
PART_002_R214G39B40A255,415,0.0001169327,-3.989445e-05,-3.252789e-05,3.270785e-05,9.78651e-06,-3.118671e-06,0.0001643765816303485
PART_002_R214G39B40A255,416,0.0001159475,-3.890038e-05,-3.55348e-05,2.337401e-05,1.380531e-05,-2.856405e-08,0.0001602461711617593
PART_002_R214G39B40A255,417,0.0001135983,-3.821184e-05,-3.511625e-05,1.007283e-05,1.382203e-05,-4.24929e-07,0.00015317973847588207
PART_002_R214G39B40A255,418,0.0001095254,-3.87357e-05,-3.586344e-05,-3.795739e-06,6.259481e-06,1.042583e-06,0.00014740348154776978
PART_003_R247G182B210A255,419,1.202852e-13,-4.280761e-14,-3.929414e-14,-8.917022e-07,-6.464351e-06,-1.1924e-15,1.1302605893954613e-05
PART_003_R247G182B210A255,420,1.248203e-13,-4.196413e-14,-3.874102e-14,1.343536e-05,-1.45113e-05,5.280395e-16,3.425288568951235e-05
PART_003_R247G182B210A255,421,1.271533e-13,-4.292331e-14,-3.866277e-14,2.700191e-05,-1.451942e-05,-1.496902e-16,5.310131921481329e-05
PART_003_R247G182B210A255,422,1.287057e-13,-4.409998e-14,-3.582019e-14,3.656717e-05,-1.024233e-05,3.533423e-15,6.577377697010717e-05
PART_001_R158G218B229A255,423,1.254022e-13,-4.478534e-14,-3.209985e-14,4.161013e-05,-5.217243e-06,1.215326e-15,7.263516799329266e-05
PART_001_R158G218B229A255,424,1.276654e-13,-4.517942e-14,-3.274578e-14,4.335578e-05,6.693031e-15,-2.332517e-19,7.509441376177858e-05
PART_001_R158G218B229A255,425,1.253744e-13,-4.477855e-14,-3.208986e-14,4.161013e-05,5.217243e-06,-1.216447e-15,7.263516799329266e-05
PART_002_R214G39B40A255,426,1.286487e-13,-4.408575e-14,-3.57992e-14,3.656717e-05,1.024233e-05,-3.533752e-15,6.577377697010717e-05
PART_002_R214G39B40A255,427,1.270697e-13,-4.290197e-14,-3.863122e-14,2.700191e-05,1.451942e-05,1.462292e-16,5.310131921481329e-05
PART_002_R214G39B40A255,428,1.247122e-13,-4.1936e-14,-3.870262e-14,1.343537e-05,1.45113e-05,-5.299106e-16,3.4252897456721816e-05
PART_002_R214G39B40A255,429,1.201526e-13,-4.277322e-14,-3.924442e-14,-8.917022e-07,6.464351e-06,1.190708e-15,1.1302605893954613e-05
PART_003_R247G182B210A255,430,-0.0001095254,3.87357e-05,3.586344e-05,-3.795739e-06,-6.259481e-06,1.042583e-06,0.00014740348154776978
PART_003_R247G182B210A255,431,-0.0001135983,3.821184e-05,3.511625e-05,1.007283e-05,-1.382203e-05,-4.249289e-07,0.00015317973847504986
PART_003_R247G182B210A255,432,-0.0001159475,3.890038e-05,3.55348e-05,2.337401e-05,-1.380531e-05,-2.856405e-08,0.0001602461711617593
PART_003_R247G182B210A255,433,-0.0001169327,3.989445e-05,3.252789e-05,3.270785e-05,-9.78651e-06,-3.118671e-06,0.0001643765816303485
PART_001_R158G218B229A255,434,-0.0001144615,4.060125e-05,2.961739e-05,3.760174e-05,-4.962801e-06,-1.156433e-06,0.00016365050206790433
PART_001_R158G218B229A255,435,-0.0001159858,4.085634e-05,2.975286e-05,3.929342e-05,5.968353e-15,6.06656e-15,0.00016617210701297617
PART_001_R158G218B229A255,436,-0.0001144615,4.060125e-05,2.961739e-05,3.760174e-05,4.962801e-06,1.156433e-06,0.00016365050206790433
PART_002_R214G39B40A255,437,-0.0001169327,3.989445e-05,3.252789e-05,3.270785e-05,9.786511e-06,3.118671e-06,0.0001643765818089599
PART_002_R214G39B40A255,438,-0.0001159475,3.890038e-05,3.55348e-05,2.337401e-05,1.380531e-05,2.856404e-08,0.00016024617116175394
PART_002_R214G39B40A255,439,-0.0001135983,3.821184e-05,3.511625e-05,1.007283e-05,1.382203e-05,4.24929e-07,0.00015317973847588207
PART_002_R214G39B40A255,440,-0.0001095254,3.87357e-05,3.586344e-05,-3.795739e-06,6.259481e-06,-1.042583e-06,0.00014740348154776978
PART_003_R247G182B210A255,441,-0.0002241851,8.036098e-05,7.153992e-05,-2.953662e-06,-5.271433e-06,2.211391e-06,0.00030043953438946915
PART_003_R247G182B210A255,442,-0.0002320989,7.951441e-05,6.965516e-05,1.175497e-05,-1.170422e-05,-1.118713e-06,0.0003081510101654027
PART_003_R247G182B210A255,443,-0.0002371038,8.151555e-05,7.033608e-05,2.505971e-05,-1.172784e-05,-4.481648e-07,0.0003168256172143785
PART_003_R247G182B210A255,444,-0.0002394167,8.376338e-05,6.444759e-05,3.416127e-05,-8.332668e-06,-6.430241e-06,0.0003200145410206463
PART_001_R158G218B229A255,445,-0.0002347129,8.525811e-05,5.878547e-05,3.889932e-05,-4.289077e-06,-2.444948e-06,0.000314998989993483
PART_001_R158G218B229A255,446,-0.0002377704,8.574935e-05,5.910011e-05,4.052169e-05,5.897923e-15,1.246069e-14,0.00031887250940072965
PART_001_R158G218B229A255,447,-0.0002347129,8.525811e-05,5.878547e-05,3.889932e-05,4.289077e-06,2.444948e-06,0.000314998989993483
PART_001_R158G218B229A255,448,-0.0002394167,8.376338e-05,6.444759e-05,3.416127e-05,8.332668e-06,6.430241e-06,0.0003200145410206463
PART_002_R214G39B40A255,449,-0.0002371038,8.151555e-05,7.033608e-05,2.505971e-05,1.172784e-05,4.481648e-07,0.0003168256172143785
PART_002_R214G39B40A255,450,-0.0002320989,7.951441e-05,6.965516e-05,1.175497e-05,1.170422e-05,1.118713e-06,0.0003081510101654027
PART_002_R214G39B40A255,451,-0.0002241851,8.036098e-05,7.153992e-05,-2.953662e-06,5.271433e-06,-2.211391e-06,0.00030043953438946915
PART_003_R247G182B210A255,452,-0.0003277433,0.0001180612,0.0001064039,-1.792984e-05,-3.180073e-06,2.242374e-06,0.00044123749712517683
PART_003_R247G182B210A255,453,-0.0003404351,0.0001198956,0.0001029419,-3.745037e-06,-7.644711e-06,-3.252715e-06,0.00045236778610707723
PART_003_R247G182B210A255,454,-0.000348449,0.0001244965,0.0001037871,7.496554e-06,-8.222291e-06,-1.979749e-06,0.0004633520034193332
PART_001_R158G218B229A255,455,-0.0003519926,0.0001283605,9.525551e-05,1.497397e-05,-6.110565e-06,-1.052282e-05,0.00046588606122027163
PART_001_R158G218B229A255,456,-0.0003450443,0.0001306014,8.714946e-05,1.878675e-05,-3.277007e-06,-4.016413e-06,0.0004567259698901267
PART_001_R158G218B229A255,457,-0.0003496835,0.0001313002,8.781624e-05,2.016076e-05,4.085229e-15,1.973682e-14,0.00046210438994111756
PART_001_R158G218B229A255,458,-0.0003450443,0.0001306014,8.714946e-05,1.878675e-05,3.277007e-06,4.016413e-06,0.0004567259698901267
PART_001_R158G218B229A255,459,-0.0003519926,0.0001283605,9.525551e-05,1.497397e-05,6.110565e-06,1.052282e-05,0.00046588606122027163
PART_001_R158G218B229A255,460,-0.000348449,0.0001244965,0.0001037871,7.496554e-06,8.222291e-06,1.979749e-06,0.0004633520034193332
PART_002_R214G39B40A255,461,-0.0003404351,0.0001198956,0.0001029419,-3.745036e-06,7.644711e-06,3.252715e-06,0.000452367786082241
PART_002_R214G39B40A255,462,-0.0003277433,0.0001180612,0.0001064039,-1.792984e-05,3.180073e-06,-2.242374e-06,0.00044123749712517683
PART_003_R247G182B210A255,463,-0.0004296946,0.0001426376,0.0001425257,-1.087849e-05,-1.364401e-06,7.402182e-07,0.0005725926727426116
PART_003_R247G182B210A255,464,-0.0004448072,0.0001478288,0.0001354357,5.241975e-07,-3.048426e-06,-8.955428e-06,0.0005867671789869377
PART_001_R158G218B229A255,465,-0.0004530379,0.0001540472,0.0001356215,7.938682e-06,-4.08898e-06,-6.305342e-06,0.0005983847896100414
PART_001_R158G218B229A255,466,-0.000457303,0.0001587179,0.0001249074,1.30703e-05,-3.655282e-06,-1.577557e-05,0.0006009127322830274
PART_001_R158G218B229A255,467,-0.0004479468,0.0001611289,0.0001147269,1.587687e-05,-2.137215e-06,-6.2383e-06,0.0005880056977025132
PART_001_R158G218B229A255,468,-0.0004539081,0.0001618796,0.0001156548,1.691329e-05,3.147369e-15,2.865479e-14,0.0005947476258609549
PART_001_R158G218B229A255,469,-0.0004479468,0.0001611289,0.0001147269,1.587687e-05,2.137215e-06,6.2383e-06,0.0005880056977025132
PART_001_R158G218B229A255,470,-0.000457303,0.0001587179,0.0001249074,1.30703e-05,3.655282e-06,1.577557e-05,0.0006009127322830274
PART_001_R158G218B229A255,471,-0.0004530379,0.0001540472,0.0001356215,7.938682e-06,4.08898e-06,6.305342e-06,0.0005983847896100414
PART_001_R158G218B229A255,472,-0.0004448072,0.0001478288,0.0001354357,5.241976e-07,3.048426e-06,8.955428e-06,0.0005867671789872057
PART_002_R214G39B40A255,473,-0.0004296946,0.0001426376,0.0001425257,-1.087849e-05,1.364401e-06,-7.402181e-07,0.0005725926727422238
PART_003_R247G182B210A255,474,-0.0005394389,0.0001857633,0.0001795865,-1.065543e-05,-2.771124e-07,-2.233223e-06,0.000722379928838229
PART_001_R158G218B229A255,475,-0.0005552019,0.0001930407,0.0001693998,-3.791794e-06,-7.182191e-07,-1.857457e-05,0.0007374391342331426
PART_001_R158G218B229A255,476,-0.0005608424,0.0002002728,0.0001676323,-1.874896e-06,-9.036169e-07,-1.393215e-05,0.0007457304331406194
PART_001_R158G218B229A255,477,-0.0005635526,0.0002055502,0.000154335,-3.862544e-07,-1.278317e-06,-2.27332e-05,0.0007458606471476305
PART_001_R158G218B229A255,478,-0.0005516391,0.0002083403,0.0001415789,8.283978e-07,-7.720772e-07,-9.548692e-06,0.0007290856354600919
PART_001_R158G218B229A255,479,-0.0005581038,0.0002092141,0.0001422828,9.774616e-07,1.034071e-15,4.035562e-14,0.000736139823887669
PART_001_R158G218B229A255,480,-0.0005516391,0.0002083403,0.0001415789,8.283978e-07,7.720772e-07,9.548692e-06,0.0007290856354600919
PART_001_R158G218B229A255,481,-0.0005635526,0.0002055502,0.000154335,-3.862544e-07,1.278317e-06,2.27332e-05,0.0007458606471476305
PART_001_R158G218B229A255,482,-0.0005608424,0.0002002728,0.0001676323,-1.874896e-06,9.036169e-07,1.393215e-05,0.0007457304331406194
PART_001_R158G218B229A255,483,-0.0005552019,0.0001930407,0.0001693998,-3.791794e-06,7.182191e-07,1.857457e-05,0.0007374391342331426
PART_001_R158G218B229A255,484,-0.0005394389,0.0001857633,0.0001795865,-1.065543e-05,2.771124e-07,2.233224e-06,0.0007223799288475034
PART_003_R247G182B210A255,485,0.0005337851,-0.000174467,-0.0001718656,-2.489325e-06,1.422986e-08,2.417278e-06,0.0007069805357621604
PART_000_R31G119B180A255,486,0.0005519726,-0.0001811367,-0.0001813838,-3.156963e-08,-6.247194e-07,1.676297e-06,0.0007332394300913838
PART_000_R31G119B180A255,487,0.0005576883,-0.000186181,-0.0001716282,1.967968e-06,-1.236966e-06,1.054321e-05,0.000736938006280993
PART_000_R31G119B180A255,488,0.0005572061,-0.0001897332,-0.0001680759,3.164502e-06,-9.884875e-07,5.315624e-06,0.0007364295004565984
PART_000_R31G119B180A255,489,0.0005603791,-0.0001922049,-0.000162345,3.766104e-06,-6.863711e-07,6.7624e-06,0.0007382298841130499
PART_000_R31G119B180A255,490,0.0005542346,-0.0001928256,-0.0001584784,4.190223e-06,8.869011e-16,-3.67292e-14,0.0007305285212617021
PART_000_R31G119B180A255,491,0.0005603791,-0.0001922049,-0.000162345,3.766104e-06,6.863711e-07,-6.7624e-06,0.0007382298841130499
PART_000_R31G119B180A255,492,0.0005572061,-0.0001897332,-0.0001680759,3.164502e-06,9.884875e-07,-5.315624e-06,0.0007364295004565984
PART_000_R31G119B180A255,493,0.0005576883,-0.000186181,-0.0001716282,1.967968e-06,1.236966e-06,-1.054321e-05,0.000736938006280993
PART_000_R31G119B180A255,494,0.0005519726,-0.0001811367,-0.0001813838,-3.156961e-08,6.247194e-07,-1.676297e-06,0.0007332394300913812
PART_000_R31G119B180A255,495,0.0005337851,-0.000174467,-0.0001718656,-2.489325e-06,-1.422985e-08,-2.417278e-06,0.0007069805357621599
PART_003_R247G182B210A255,496,0.0004293334,-0.0001496751,-0.000136058,-1.06203e-05,-1.343296e-06,-7.90139e-07,0.0005726233582791823
PART_003_R247G182B210A255,497,0.0004461084,-0.0001533729,-0.0001450022,-2.40672e-06,-3.199623e-06,-2.50321e-06,0.0005953962608185274
PART_000_R31G119B180A255,498,0.0004531465,-0.0001582286,-0.000137671,2.627307e-06,-3.658681e-06,5.160184e-06,0.000601476908638185
PART_000_R31G119B180A255,499,0.000454777,-0.0001621274,-0.0001357313,5.914999e-06,-3.311957e-06,1.750642e-06,0.000604260693460187
PART_000_R31G119B180A255,500,0.0004585305,-0.0001644532,-0.0001314291,8.119225e-06,-1.865304e-06,4.369129e-06,0.0006073642045962415
PART_000_R31G119B180A255,501,0.000453621,-0.0001652417,-0.0001283734,8.704417e-06,2.528902e-15,-2.628015e-14,0.000601465874293546
PART_000_R31G119B180A255,502,0.0004585305,-0.0001644532,-0.0001314291,8.119225e-06,1.865304e-06,-4.369129e-06,0.0006073642045962415
PART_000_R31G119B180A255,503,0.000454777,-0.0001621274,-0.0001357313,5.914999e-06,3.311957e-06,-1.750642e-06,0.000604260693460187
PART_000_R31G119B180A255,504,0.0004531465,-0.0001582286,-0.000137671,2.627307e-06,3.658681e-06,-5.160184e-06,0.000601476908638185
PART_000_R31G119B180A255,505,0.0004461084,-0.0001533729,-0.0001450022,-2.40672e-06,3.199623e-06,2.50321e-06,0.0005953962608185274
PART_002_R214G39B40A255,506,0.0004293334,-0.0001496751,-0.000136058,-1.06203e-05,1.343296e-06,7.90139e-07,0.0005726233582791823
PART_003_R247G182B210A255,507,0.0003231748,-0.000111169,-0.0001013479,-2.228157e-06,-2.851354e-06,-1.227761e-06,0.0004295684620761157
PART_003_R247G182B210A255,508,0.0003357552,-0.0001123435,-0.0001091169,6.718246e-06,-6.344494e-06,-4.040643e-06,0.0004468357229583239
PART_003_R247G182B210A255,509,0.0003420324,-0.0001154977,-0.0001042402,1.443169e-05,-6.745846e-06,1.612597e-06,0.0004528565118912377
PART_000_R31G119B180A255,510,0.0003442988,-0.0001185919,-0.0001030132,2.010323e-05,-5.563012e-06,-1.634948e-07,0.0004567325275919967
PART_000_R31G119B180A255,511,0.0003474524,-0.0001205084,-9.970259e-05,2.356142e-05,-2.977598e-06,2.644665e-06,0.00045977917649653603
PART_000_R31G119B180A255,512,0.0003438243,-0.0001211393,-9.732522e-05,2.454952e-05,3.614448e-15,-1.777445e-14,0.00045551467172903396
PART_000_R31G119B180A255,513,0.0003474524,-0.0001205084,-9.970259e-05,2.356142e-05,2.977598e-06,-2.644665e-06,0.00045977917649653603
PART_000_R31G119B180A255,514,0.0003442988,-0.0001185919,-0.0001030132,2.010323e-05,5.563012e-06,1.634948e-07,0.0004567325275919967
PART_000_R31G119B180A255,515,0.0003420324,-0.0001154977,-0.0001042402,1.443169e-05,6.745846e-06,-1.612597e-06,0.0004528565118912377
PART_002_R214G39B40A255,516,0.0003357552,-0.0001123435,-0.0001091169,6.718246e-06,6.344494e-06,4.040643e-06,0.0004468357229583239
PART_002_R214G39B40A255,517,0.0003231748,-0.000111169,-0.0001013479,-2.228157e-06,2.851354e-06,1.227761e-06,0.0004295684620761157
PART_003_R247G182B210A255,518,0.0002175652,-7.900076e-05,-6.739563e-05,-3.800119e-06,-3.958561e-06,-1.395962e-06,0.00029110228548088503
PART_003_R247G182B210A255,519,0.0002264639,-7.927903e-05,-7.30883e-05,5.775636e-06,-9.02617e-06,-3.848541e-06,0.0003033368019307666
PART_003_R247G182B210A255,520,0.0002312337,-8.129284e-05,-7.020187e-05,1.473907e-05,-9.632156e-06,4.352654e-08,0.00030864168037591334
PART_003_R247G182B210A255,521,0.0002329726,-8.340206e-05,-6.944263e-05,2.160707e-05,-7.54239e-06,-7.978933e-07,0.00031216109706342694
PART_000_R31G119B180A255,522,0.0002352472,-8.486704e-05,-6.710201e-05,2.575195e-05,-3.959433e-06,1.443069e-06,0.0003148724365906287
PART_000_R31G119B180A255,523,0.0002328599,-8.535555e-05,-6.550176e-05,2.696739e-05,5.266707e-15,-1.103527e-14,0.00031228061618878523
PART_000_R31G119B180A255,524,0.0002352472,-8.486704e-05,-6.710201e-05,2.575195e-05,3.959433e-06,-1.443069e-06,0.0003148724365906287
PART_000_R31G119B180A255,525,0.0002329726,-8.340206e-05,-6.944263e-05,2.160707e-05,7.54239e-06,7.978933e-07,0.00031216109706342694
PART_002_R214G39B40A255,526,0.0002312337,-8.129284e-05,-7.020187e-05,1.473907e-05,9.632156e-06,-4.352658e-08,0.00030864168037593025
PART_002_R214G39B40A255,527,0.0002264639,-7.927903e-05,-7.30883e-05,5.775636e-06,9.02617e-06,3.848541e-06,0.0003033368019307666
PART_002_R214G39B40A255,528,0.0002175652,-7.900076e-05,-6.739563e-05,-3.800119e-06,3.958561e-06,1.395962e-06,0.00029110228548088503
PART_003_R247G182B210A255,529,0.0001104428,-3.99278e-05,-3.373431e-05,5.696925e-06,-4.837254e-06,-8.498713e-07,0.0001479462288845992
PART_003_R247G182B210A255,530,0.0001146344,-3.949359e-05,-3.674341e-05,1.537627e-05,-1.096858e-05,-2.205859e-06,0.00015628159455516777
PART_003_R247G182B210A255,531,0.000116948,-4.02183e-05,-3.533601e-05,2.526765e-05,-1.145205e-05,-2.460092e-07,0.0001620701807096591
PART_003_R247G182B210A255,532,0.0001178664,-4.119168e-05,-3.496593e-05,3.297592e-05,-8.938014e-06,-6.016075e-07,0.00016688607165330743
PART_003_R247G182B210A255,533,0.0001190204,-4.18877e-05,-3.378613e-05,3.770195e-05,-4.634512e-06,6.309985e-07,0.0001702450749053283
PART_000_R31G119B180A255,534,0.0001178218,-4.214371e-05,-3.294369e-05,3.908843e-05,5.587816e-15,-5.219437e-15,0.00016966329875917478
PART_000_R31G119B180A255,535,0.0001190204,-4.18877e-05,-3.378613e-05,3.770195e-05,4.634512e-06,-6.309985e-07,0.0001702450749053283
PART_002_R214G39B40A255,536,0.0001178664,-4.119168e-05,-3.496593e-05,3.297592e-05,8.938014e-06,6.016075e-07,0.00016688607165330743
PART_002_R214G39B40A255,537,0.000116948,-4.02183e-05,-3.533601e-05,2.526765e-05,1.145205e-05,2.460092e-07,0.0001620701807096591
PART_002_R214G39B40A255,538,0.0001146344,-3.949359e-05,-3.674341e-05,1.537627e-05,1.096858e-05,2.205859e-06,0.00015628159455516777
PART_002_R214G39B40A255,539,0.0001104428,-3.99278e-05,-3.373431e-05,5.696925e-06,4.837254e-06,8.498713e-07,0.0001479462288845992
PART_003_R247G182B210A255,540,1.204045e-13,-4.340368e-14,-3.701503e-14,3.249662e-06,-5.089075e-06,-9.441436e-16,1.0458344152379335e-05
PART_003_R247G182B210A255,541,1.249854e-13,-4.273459e-14,-4.043381e-14,1.249651e-05,-1.147975e-05,-2.555142e-15,2.9391193693482406e-05
PART_003_R247G182B210A255,542,1.276083e-13,-4.370953e-14,-3.86667e-14,2.221376e-05,-1.211926e-05,-1.08078e-16,4.382901765788962e-05
PART_003_R247G182B210A255,543,1.28303e-13,-4.480257e-14,-3.808228e-14,2.994466e-05,-9.378332e-06,-8.132219e-16,5.434986035725825e-05
PART_003_R247G182B210A255,544,1.299505e-13,-4.548477e-14,-3.712472e-14,3.467361e-05,-4.887629e-06,7.746101e-16,6.06501808985037e-05
PART_001_R158G218B229A255,545,1.281386e-13,-4.584923e-14,-3.576011e-14,3.607985e-05,6.226773e-15,-1.592422e-18,6.249213332946396e-05
PART_002_R214G39B40A255,546,1.299208e-13,-4.547575e-14,-3.71145e-14,3.467361e-05,4.887629e-06,-7.758995e-16,6.06501808985037e-05
PART_002_R214G39B40A255,547,1.282459e-13,-4.478696e-14,-3.806098e-14,2.994466e-05,9.378332e-06,8.101108e-16,5.434986035725825e-05
PART_002_R214G39B40A255,548,1.275243e-13,-4.368438e-14,-3.863762e-14,2.221376e-05,1.211926e-05,1.058114e-16,4.382901765788962e-05
PART_002_R214G39B40A255,549,1.248747e-13,-4.270244e-14,-4.03936e-14,1.249651e-05,1.147975e-05,2.55189e-15,2.9391193693482406e-05
PART_002_R214G39B40A255,550,1.20269e-13,-4.336417e-14,-3.696813e-14,3.249662e-06,5.089075e-06,9.431576e-16,1.0458344152379335e-05
PART_003_R247G182B210A255,551,-0.0001104428,3.99278e-05,3.373431e-05,5.696925e-06,-4.837254e-06,8.498713e-07,0.0001479462288845992
PART_003_R247G182B210A255,552,-0.0001146344,3.949359e-05,3.674341e-05,1.537627e-05,-1.096858e-05,2.205859e-06,0.00015628159455516777
PART_003_R247G182B210A255,553,-0.000116948,4.02183e-05,3.533601e-05,2.526765e-05,-1.145205e-05,2.460092e-07,0.0001620701807096591
PART_003_R247G182B210A255,554,-0.0001178664,4.119168e-05,3.496593e-05,3.297592e-05,-8.938014e-06,6.016075e-07,0.00016688607165330743
PART_003_R247G182B210A255,555,-0.0001190204,4.18877e-05,3.378613e-05,3.770195e-05,-4.634512e-06,-6.309985e-07,0.0001702450749053283
PART_001_R158G218B229A255,556,-0.0001178218,4.214371e-05,3.294369e-05,3.908843e-05,5.589255e-15,5.217061e-15,0.00016966329875917478
PART_001_R158G218B229A255,557,-0.0001190204,4.18877e-05,3.378613e-05,3.770195e-05,4.634512e-06,6.309985e-07,0.0001702450749053283
PART_002_R214G39B40A255,558,-0.0001178664,4.119168e-05,3.496593e-05,3.297592e-05,8.938014e-06,-6.016075e-07,0.00016688607165330743
PART_002_R214G39B40A255,559,-0.000116948,4.02183e-05,3.533601e-05,2.526765e-05,1.145205e-05,-2.460092e-07,0.0001620701807096591
PART_002_R214G39B40A255,560,-0.0001146344,3.949359e-05,3.674341e-05,1.537627e-05,1.096858e-05,-2.205859e-06,0.00015628159455516777
PART_002_R214G39B40A255,561,-0.0001104428,3.99278e-05,3.373431e-05,5.696925e-06,4.837254e-06,-8.498713e-07,0.0001479462288845992
PART_003_R247G182B210A255,562,-0.0002175652,7.900076e-05,6.739563e-05,-3.800119e-06,-3.958561e-06,1.395962e-06,0.00029110228548088503
PART_003_R247G182B210A255,563,-0.0002264639,7.927903e-05,7.308829e-05,5.775636e-06,-9.02617e-06,3.848541e-06,0.0003033367970951934
PART_003_R247G182B210A255,564,-0.0002312337,8.129284e-05,7.020187e-05,1.473907e-05,-9.632156e-06,-4.352653e-08,0.0003086416803759091
PART_003_R247G182B210A255,565,-0.0002329726,8.340206e-05,6.944263e-05,2.160707e-05,-7.54239e-06,7.978933e-07,0.00031216109706342694
PART_001_R158G218B229A255,566,-0.0002352472,8.486704e-05,6.710201e-05,2.575195e-05,-3.959433e-06,-1.443069e-06,0.0003148724365906287
PART_001_R158G218B229A255,567,-0.0002328599,8.535555e-05,6.550176e-05,2.696739e-05,5.267881e-15,1.103106e-14,0.00031228061618878523
PART_001_R158G218B229A255,568,-0.0002352472,8.486704e-05,6.710201e-05,2.575195e-05,3.959433e-06,1.443069e-06,0.0003148724365906287
PART_001_R158G218B229A255,569,-0.0002329726,8.340206e-05,6.944263e-05,2.160707e-05,7.54239e-06,-7.978933e-07,0.00031216109706342694
PART_002_R214G39B40A255,570,-0.0002312337,8.129284e-05,7.020187e-05,1.473907e-05,9.632156e-06,4.352657e-08,0.000308641680375926
PART_002_R214G39B40A255,571,-0.0002264639,7.927903e-05,7.308829e-05,5.775636e-06,9.02617e-06,-3.848541e-06,0.0003033367970951934
PART_002_R214G39B40A255,572,-0.0002175652,7.900076e-05,6.739563e-05,-3.800119e-06,3.958561e-06,-1.395962e-06,0.00029110228548088503
PART_003_R247G182B210A255,573,-0.0003231748,0.000111169,0.0001013479,-2.228157e-06,-2.851354e-06,1.227761e-06,0.0004295684620761157
PART_003_R247G182B210A255,574,-0.0003357552,0.0001123435,0.0001091169,6.718246e-06,-6.344494e-06,4.040643e-06,0.0004468357229583239
PART_003_R247G182B210A255,575,-0.0003420324,0.0001154977,0.0001042402,1.443169e-05,-6.745846e-06,-1.612597e-06,0.0004528565118912377
PART_001_R158G218B229A255,576,-0.0003442988,0.0001185919,0.0001030132,2.010323e-05,-5.563012e-06,1.634948e-07,0.0004567325275919967
PART_001_R158G218B229A255,577,-0.0003474524,0.0001205084,9.970259e-05,2.356142e-05,-2.977598e-06,-2.644665e-06,0.00045977917649653603
PART_001_R158G218B229A255,578,-0.0003438243,0.0001211393,9.732522e-05,2.454952e-05,3.617245e-15,1.776767e-14,0.00045551467172903396
PART_001_R158G218B229A255,579,-0.0003474524,0.0001205084,9.970259e-05,2.356142e-05,2.977598e-06,2.644665e-06,0.00045977917649653603
PART_001_R158G218B229A255,580,-0.0003442988,0.0001185919,0.0001030132,2.010323e-05,5.563012e-06,-1.634948e-07,0.0004567325275919967
PART_001_R158G218B229A255,581,-0.0003420324,0.0001154977,0.0001042402,1.443169e-05,6.745846e-06,1.612597e-06,0.0004528565118912377
PART_002_R214G39B40A255,582,-0.0003357552,0.0001123435,0.0001091169,6.718246e-06,6.344494e-06,-4.040643e-06,0.0004468357229583239
PART_002_R214G39B40A255,583,-0.0003231748,0.000111169,0.0001013479,-2.228157e-06,2.851354e-06,-1.227761e-06,0.0004295684620761157
PART_003_R247G182B210A255,584,-0.0004293334,0.0001496751,0.000136058,-1.06203e-05,-1.343296e-06,7.90139e-07,0.0005726233582791823
PART_003_R247G182B210A255,585,-0.0004461084,0.0001533729,0.0001450022,-2.40672e-06,-3.199623e-06,2.50321e-06,0.0005953962608185274
PART_001_R158G218B229A255,586,-0.0004531465,0.0001582286,0.000137671,2.627307e-06,-3.658681e-06,-5.160184e-06,0.000601476908638185
PART_001_R158G218B229A255,587,-0.000454777,0.0001621274,0.0001357313,5.914999e-06,-3.311957e-06,-1.750642e-06,0.000604260693460187
PART_001_R158G218B229A255,588,-0.0004585305,0.0001644532,0.0001314291,8.119225e-06,-1.865304e-06,-4.369129e-06,0.0006073642045962415
PART_001_R158G218B229A255,589,-0.000453621,0.0001652417,0.0001283734,8.704417e-06,2.53096e-15,2.627056e-14,0.000601465874293546
PART_001_R158G218B229A255,590,-0.0004585305,0.0001644532,0.0001314291,8.119225e-06,1.865304e-06,4.369129e-06,0.0006073642045962415
PART_001_R158G218B229A255,591,-0.000454777,0.0001621274,0.0001357313,5.914999e-06,3.311957e-06,1.750642e-06,0.000604260693460187
PART_001_R158G218B229A255,592,-0.0004531465,0.0001582286,0.000137671,2.627307e-06,3.658681e-06,5.160184e-06,0.000601476908638185
PART_001_R158G218B229A255,593,-0.0004461084,0.0001533729,0.0001450022,-2.40672e-06,3.199623e-06,-2.50321e-06,0.0005953962608185274
PART_002_R214G39B40A255,594,-0.0004293334,0.0001496751,0.000136058,-1.06203e-05,1.343296e-06,-7.90139e-07,0.0005726233582791823
PART_003_R247G182B210A255,595,-0.0005337851,0.000174467,0.0001718656,-2.489325e-06,1.422986e-08,-2.417278e-06,0.0007069805357621604
PART_001_R158G218B229A255,596,-0.0005519726,0.0001811367,0.0001813838,-3.156963e-08,-6.247194e-07,-1.676297e-06,0.0007332394300913838
PART_001_R158G218B229A255,597,-0.0005576883,0.000186181,0.0001716282,1.967968e-06,-1.236966e-06,-1.054321e-05,0.000736938006280993
PART_001_R158G218B229A255,598,-0.0005572061,0.0001897332,0.0001680759,3.164502e-06,-9.884875e-07,-5.315624e-06,0.0007364295004565984
PART_001_R158G218B229A255,599,-0.0005603791,0.0001922049,0.000162345,3.766104e-06,-6.863711e-07,-6.7624e-06,0.0007382298841130499
PART_001_R158G218B229A255,600,-0.0005542346,0.0001928256,0.0001584784,4.190223e-06,8.875465e-16,3.671806e-14,0.0007305285212617021
PART_001_R158G218B229A255,601,-0.0005603791,0.0001922049,0.000162345,3.766104e-06,6.863711e-07,6.7624e-06,0.0007382298841130499
PART_001_R158G218B229A255,602,-0.0005572061,0.0001897332,0.0001680759,3.164502e-06,9.884875e-07,5.315624e-06,0.0007364295004565984
PART_001_R158G218B229A255,603,-0.0005576883,0.000186181,0.0001716282,1.967968e-06,1.236966e-06,1.054321e-05,0.000736938006280993
PART_001_R158G218B229A255,604,-0.0005519726,0.0001811367,0.0001813838,-3.156961e-08,6.247194e-07,1.676297e-06,0.0007332394300913812
PART_001_R158G218B229A255,605,-0.0005337851,0.000174467,0.0001718656,-2.489325e-06,-1.422985e-08,2.417278e-06,0.0007069805357621599
PART_003_R247G182B210A255,606,0.0005436263,-0.0001826471,-0.0001801648,-1.682948e-06,-3.471917e-07,-1.06312e-06,0.0007250438842860306
PART_000_R31G119B180A255,607,0.0005515596,-0.0001859017,-0.0001765921,5.988273e-07,-6.898358e-07,1.120419e-06,0.000732855127122868
PART_000_R31G119B180A255,608,0.0005589688,-0.000189869,-0.000179855,1.447374e-06,-9.729643e-07,-5.091774e-07,0.0007438880101289367
PART_000_R31G119B180A255,609,0.0005622305,-0.0001928659,-0.0001737004,2.376987e-06,-1.00256e-06,3.757372e-06,0.0007457401750900273
PART_000_R31G119B180A255,610,0.0005610199,-0.0001947049,-0.0001721905,2.926676e-06,-5.257012e-07,6.757509e-07,0.0007447416172106932
PART_000_R31G119B180A255,611,0.0005640394,-0.0001954052,-0.0001706535,3.029064e-06,6.294115e-16,-3.070131e-14,0.0007473946266212906
PART_000_R31G119B180A255,612,0.0005610199,-0.0001947049,-0.0001721905,2.926676e-06,5.257012e-07,-6.75751e-07,0.0007447416172109653
PART_000_R31G119B180A255,613,0.0005622305,-0.0001928659,-0.0001737004,2.376987e-06,1.00256e-06,-3.757372e-06,0.0007457401750900273
PART_000_R31G119B180A255,614,0.0005589688,-0.000189869,-0.000179855,1.447374e-06,9.729643e-07,5.091774e-07,0.0007438880101289367
PART_000_R31G119B180A255,615,0.0005515596,-0.0001859017,-0.0001765921,5.988273e-07,6.898358e-07,-1.120419e-06,0.000732855127122868
PART_000_R31G119B180A255,616,0.0005436263,-0.0001826471,-0.0001801648,-1.682948e-06,3.471917e-07,1.06312e-06,0.0007250438842860306
PART_003_R247G182B210A255,617,0.000430088,-0.0001416823,-0.0001425522,3.83682e-07,-1.010843e-06,-1.6981e-06,0.0005722163693475076
PART_003_R247G182B210A255,618,0.0004380977,-0.0001445655,-0.0001406704,4.275079e-06,-2.515472e-06,-1.807726e-06,0.0005807974348491222
PART_000_R31G119B180A255,619,0.0004460521,-0.0001478478,-0.0001442965,7.733132e-06,-3.209274e-06,-2.728745e-06,0.000592328647538733
PART_000_R31G119B180A255,620,0.0004498245,-0.0001504819,-0.0001397303,1.034463e-05,-2.727311e-06,1.316627e-06,0.000595296284045713
PART_000_R31G119B180A255,621,0.0004496647,-0.0001521519,-0.0001391257,1.185287e-05,-1.596504e-06,-4.099606e-07,0.0005957710472882493
PART_000_R31G119B180A255,622,0.0004524131,-0.0001527502,-0.0001379103,1.247867e-05,2.142447e-15,-2.157512e-14,0.0005982720376702697
PART_000_R31G119B180A255,623,0.0004496647,-0.0001521519,-0.0001391257,1.185287e-05,1.596504e-06,4.099606e-07,0.0005957710472882493
PART_000_R31G119B180A255,624,0.0004498245,-0.0001504819,-0.0001397303,1.034463e-05,2.727311e-06,-1.316627e-06,0.000595296284045713
PART_000_R31G119B180A255,625,0.0004460521,-0.0001478478,-0.0001442965,7.733132e-06,3.209274e-06,2.728745e-06,0.000592328647538733
PART_000_R31G119B180A255,626,0.0004380977,-0.0001445655,-0.0001406704,4.275079e-06,2.515472e-06,1.807726e-06,0.0005807974348491222
PART_002_R214G39B40A255,627,0.000430088,-0.0001416823,-0.0001425522,3.83682e-07,1.010843e-06,1.6981e-06,0.0005722163693475076
PART_003_R247G182B210A255,628,0.0003253016,-0.0001130135,-0.0001061202,-1.46809e-06,-1.991836e-06,-2.162938e-06,0.0004349466748845685
PART_003_R247G182B210A255,629,0.0003318899,-0.0001141293,-0.0001055272,4.142985e-06,-4.940034e-06,-2.912544e-06,0.0004419508735733871
PART_003_R247G182B210A255,630,0.0003388467,-0.0001166409,-0.0001088212,9.311276e-06,-5.481385e-06,-3.612035e-06,0.0004520594007356255
PART_000_R31G119B180A255,631,0.0003425244,-0.0001190687,-0.0001055703,1.31678e-05,-4.455233e-06,-1.732628e-07,0.00045563081404015733
PART_000_R31G119B180A255,632,0.0003429985,-0.0001206677,-0.0001052734,1.55766e-05,-2.534573e-06,-9.082408e-07,0.00045698484788872306
PART_000_R31G119B180A255,633,0.0003452118,-0.0001212046,-0.0001043707,1.648377e-05,2.800331e-15,-1.429309e-14,0.00045912000104814506
PART_000_R31G119B180A255,634,0.0003429985,-0.0001206677,-0.0001052734,1.55766e-05,2.534573e-06,9.082408e-07,0.00045698484788872306
PART_000_R31G119B180A255,635,0.0003425244,-0.0001190687,-0.0001055703,1.31678e-05,4.455233e-06,1.732628e-07,0.00045563081404015733
PART_000_R31G119B180A255,636,0.0003388467,-0.0001166409,-0.0001088212,9.311276e-06,5.481385e-06,3.612035e-06,0.0004520594007356255
PART_002_R214G39B40A255,637,0.0003318899,-0.0001141293,-0.0001055272,4.142985e-06,4.940034e-06,2.912544e-06,0.0004419508735733871
PART_002_R214G39B40A255,638,0.0003253016,-0.0001130135,-0.0001061202,-1.46809e-06,1.991836e-06,2.162938e-06,0.0004349466748845685
PART_003_R247G182B210A255,639,0.0002173307,-7.451772e-05,-7.061594e-05,6.801466e-06,-2.923604e-06,-1.656789e-06,0.0002902148391539321
PART_003_R247G182B210A255,640,0.0002215135,-7.466559e-05,-7.040005e-05,1.25282e-05,-6.807852e-06,-2.615615e-06,0.0002951394868311041
PART_003_R247G182B210A255,641,0.0002263743,-7.601912e-05,-7.290159e-05,1.882252e-05,-7.577846e-06,-3.219412e-06,0.00030294389870448335
PART_003_R247G182B210A255,642,0.0002291959,-7.757652e-05,-7.090546e-05,2.395477e-05,-6.025123e-06,-7.077865e-07,0.0003064950663843672
PART_000_R31G119B180A255,643,0.0002296675,-7.869417e-05,-7.070528e-05,2.715284e-05,-3.349291e-06,-8.983576e-07,0.0003081155286198863
PART_000_R31G119B180A255,644,0.0002312151,-7.908028e-05,-7.009957e-05,2.831883e-05,4.574753e-15,-8.67938e-15,0.00030981134836709164
PART_000_R31G119B180A255,645,0.0002296675,-7.869417e-05,-7.070528e-05,2.715284e-05,3.349291e-06,8.983575e-07,0.0003081155286190116
PART_000_R31G119B180A255,646,0.0002291959,-7.757652e-05,-7.090546e-05,2.395477e-05,6.025123e-06,7.077865e-07,0.0003064950663843672
PART_002_R214G39B40A255,647,0.0002263743,-7.601912e-05,-7.290159e-05,1.882252e-05,7.577846e-06,3.219412e-06,0.00030294389870448335
PART_002_R214G39B40A255,648,0.0002215135,-7.466559e-05,-7.040005e-05,1.25282e-05,6.807852e-06,2.615615e-06,0.0002951394868311041
PART_002_R214G39B40A255,649,0.0002173307,-7.451772e-05,-7.061594e-05,6.801466e-06,2.923604e-06,1.656789e-06,0.0002902148391539321
PART_003_R247G182B210A255,650,0.0001093775,-3.903545e-05,-3.519004e-05,5.408026e-06,-3.355262e-06,-9.582613e-07,0.00014695152480591786
PART_003_R247G182B210A255,651,0.0001116359,-3.903127e-05,-3.525402e-05,1.117113e-05,-8.086524e-06,-1.58039e-06,0.00015074417770110933
PART_003_R247G182B210A255,652,0.0001142476,-3.973799e-05,-3.659724e-05,1.784825e-05,-8.93177e-06,-1.856237e-06,0.00015634302822321438
PART_003_R247G182B210A255,653,0.0001157372,-4.056635e-05,-3.561762e-05,2.340534e-05,-7.118883e-06,-5.335599e-07,0.0001596186235054495
PART_003_R247G182B210A255,654,0.0001160486,-4.116644e-05,-3.554005e-05,2.69256e-05,-3.90274e-06,-5.461897e-07,0.00016150920980518744
PART_000_R31G119B180A255,655,0.0001168448,-4.138914e-05,-3.522092e-05,2.820962e-05,4.533226e-15,-4.051446e-15,0.00016274935617119473
PART_000_R31G119B180A255,656,0.0001160486,-4.116644e-05,-3.554005e-05,2.69256e-05,3.90274e-06,5.461897e-07,0.00016150920980518744
PART_002_R214G39B40A255,657,0.0001157372,-4.056635e-05,-3.561762e-05,2.340534e-05,7.118883e-06,5.335599e-07,0.0001596186235054495
PART_002_R214G39B40A255,658,0.0001142476,-3.973799e-05,-3.659724e-05,1.784825e-05,8.93177e-06,1.856237e-06,0.00015634302822321438
PART_002_R214G39B40A255,659,0.0001116359,-3.903127e-05,-3.525402e-05,1.117113e-05,8.086524e-06,1.58039e-06,0.00015074417770110933
PART_002_R214G39B40A255,660,0.0001093775,-3.903545e-05,-3.519004e-05,5.408026e-06,3.355262e-06,9.582613e-07,0.00014695152480591786
PART_003_R247G182B210A255,661,1.200533e-13,-4.295945e-14,-3.857835e-14,1.104389e-05,-3.632459e-06,-1.088734e-15,2.0136702663453693e-05
PART_003_R247G182B210A255,662,1.224985e-13,-4.273567e-14,-3.877169e-14,1.690871e-05,-8.550064e-06,-1.677401e-15,3.28180469376925e-05
PART_003_R247G182B210A255,663,1.253289e-13,-4.3676e-14,-3.999438e-14,2.397003e-05,-9.463927e-06,-2.140783e-15,4.463613734841633e-05
PART_003_R247G182B210A255,664,1.270786e-13,-4.465661e-14,-3.895719e-14,2.989156e-05,-7.479144e-06,-4.833632e-16,5.336973732949234e-05
PART_003_R247G182B210A255,665,1.271884e-13,-4.522988e-14,-3.878524e-14,3.364871e-05,-4.123599e-06,-6.63609e-16,5.871728246547777e-05
PART_003_R247G182B210A255,666,1.283326e-13,-4.556712e-14,-3.85422e-14,3.501413e-05,5.384347e-15,-1.677761e-18,6.064625214282166e-05
PART_002_R214G39B40A255,667,1.271603e-13,-4.522283e-14,-3.877456e-14,3.364871e-05,4.123599e-06,6.599966e-16,5.871728246547777e-05
PART_002_R214G39B40A255,668,1.27021e-13,-4.463801e-14,-3.893777e-14,2.989156e-05,7.479144e-06,4.801288e-16,5.336973732949234e-05
PART_002_R214G39B40A255,669,1.25243e-13,-4.364993e-14,-3.996439e-14,2.397003e-05,9.463927e-06,2.137051e-15,4.463613734841633e-05
PART_002_R214G39B40A255,670,1.223864e-13,-4.270125e-14,-3.873384e-14,1.690871e-05,8.550064e-06,1.674823e-15,3.28180469376925e-05
PART_002_R214G39B40A255,671,1.199131e-13,-4.291622e-14,-3.853012e-14,1.104389e-05,3.632459e-06,1.087538e-15,2.0136702663453693e-05
PART_003_R247G182B210A255,672,-0.0001093775,3.903545e-05,3.519004e-05,5.408026e-06,-3.355262e-06,9.582613e-07,0.00014695152480591786
PART_003_R247G182B210A255,673,-0.0001116359,3.903127e-05,3.525402e-05,1.117113e-05,-8.086524e-06,1.58039e-06,0.00015074417770110933
PART_003_R247G182B210A255,674,-0.0001142476,3.973799e-05,3.659724e-05,1.784825e-05,-8.93177e-06,1.856237e-06,0.00015634302822321438
PART_003_R247G182B210A255,675,-0.0001157372,4.056635e-05,3.561762e-05,2.340534e-05,-7.118883e-06,5.335599e-07,0.0001596186235054495
PART_003_R247G182B210A255,676,-0.0001160486,4.116644e-05,3.554005e-05,2.69256e-05,-3.90274e-06,5.461897e-07,0.00016150920980518744
PART_001_R158G218B229A255,677,-0.0001168448,4.138914e-05,3.522092e-05,2.820962e-05,4.532818e-15,4.04806e-15,0.00016274935617119473
PART_001_R158G218B229A255,678,-0.0001160486,4.116644e-05,3.554005e-05,2.69256e-05,3.90274e-06,-5.461897e-07,0.00016150920980518744
PART_002_R214G39B40A255,679,-0.0001157372,4.056635e-05,3.561762e-05,2.340534e-05,7.118883e-06,-5.335599e-07,0.0001596186235054495
PART_002_R214G39B40A255,680,-0.0001142476,3.973799e-05,3.659724e-05,1.784825e-05,8.93177e-06,-1.856237e-06,0.00015634302822321438
PART_002_R214G39B40A255,681,-0.0001116359,3.903127e-05,3.525402e-05,1.117113e-05,8.086524e-06,-1.58039e-06,0.00015074417770110933
PART_002_R214G39B40A255,682,-0.0001093775,3.903545e-05,3.519004e-05,5.408026e-06,3.355262e-06,-9.582613e-07,0.00014695152480591786
PART_003_R247G182B210A255,683,-0.0002173307,7.451772e-05,7.061594e-05,6.801466e-06,-2.923604e-06,1.656789e-06,0.0002902148391539321
PART_003_R247G182B210A255,684,-0.0002215135,7.466559e-05,7.040005e-05,1.25282e-05,-6.807852e-06,2.615615e-06,0.0002951394868311041
PART_003_R247G182B210A255,685,-0.0002263743,7.601912e-05,7.290159e-05,1.882252e-05,-7.577846e-06,3.219412e-06,0.00030294389870448335
PART_003_R247G182B210A255,686,-0.0002291958,7.757652e-05,7.090546e-05,2.395477e-05,-6.025123e-06,7.077865e-07,0.0003064949673821573
PART_001_R158G218B229A255,687,-0.0002296675,7.869417e-05,7.070528e-05,2.715284e-05,-3.349291e-06,8.983576e-07,0.0003081155286198863
PART_001_R158G218B229A255,688,-0.0002312151,7.908028e-05,7.009957e-05,2.831883e-05,4.576719e-15,8.67453e-15,0.00030981134836709164
PART_001_R158G218B229A255,689,-0.0002296675,7.869417e-05,7.070528e-05,2.715284e-05,3.349291e-06,-8.983575e-07,0.0003081155286190116
PART_001_R158G218B229A255,690,-0.0002291958,7.757652e-05,7.090546e-05,2.395477e-05,6.025123e-06,-7.077865e-07,0.0003064949673821573
PART_002_R214G39B40A255,691,-0.0002263743,7.601912e-05,7.290159e-05,1.882252e-05,7.577846e-06,-3.219412e-06,0.00030294389870448335
PART_002_R214G39B40A255,692,-0.0002215135,7.466559e-05,7.040005e-05,1.25282e-05,6.807852e-06,-2.615615e-06,0.0002951394868311041
PART_002_R214G39B40A255,693,-0.0002173307,7.451772e-05,7.061594e-05,6.801466e-06,2.923604e-06,-1.656789e-06,0.0002902148391539321
PART_003_R247G182B210A255,694,-0.0003253016,0.0001130135,0.0001061202,-1.46809e-06,-1.991836e-06,2.162938e-06,0.0004349466748845685
PART_003_R247G182B210A255,695,-0.0003318899,0.0001141293,0.0001055272,4.142985e-06,-4.940034e-06,2.912544e-06,0.0004419508735733871
PART_003_R247G182B210A255,696,-0.0003388467,0.0001166409,0.0001088212,9.311276e-06,-5.481385e-06,3.612035e-06,0.0004520594007356255
PART_001_R158G218B229A255,697,-0.0003425244,0.0001190687,0.0001055703,1.31678e-05,-4.455233e-06,1.732628e-07,0.00045563081404015733
PART_001_R158G218B229A255,698,-0.0003429985,0.0001206677,0.0001052734,1.55766e-05,-2.534573e-06,9.082408e-07,0.00045698484788872306
PART_001_R158G218B229A255,699,-0.0003452118,0.0001212046,0.0001043707,1.648377e-05,2.802716e-15,1.428928e-14,0.00045912000104814506
PART_001_R158G218B229A255,700,-0.0003429985,0.0001206677,0.0001052734,1.55766e-05,2.534573e-06,-9.082408e-07,0.00045698484788872306
PART_001_R158G218B229A255,701,-0.0003425244,0.0001190687,0.0001055703,1.31678e-05,4.455233e-06,-1.732628e-07,0.00045563081404015733
PART_001_R158G218B229A255,702,-0.0003388467,0.0001166409,0.0001088212,9.311276e-06,5.481385e-06,-3.612035e-06,0.0004520594007356255
PART_002_R214G39B40A255,703,-0.0003318899,0.0001141293,0.0001055272,4.142985e-06,4.940034e-06,-2.912544e-06,0.0004419508735733871
PART_002_R214G39B40A255,704,-0.0003253016,0.0001130135,0.0001061202,-1.46809e-06,1.991836e-06,-2.162938e-06,0.0004349466748845685
PART_003_R247G182B210A255,705,-0.000430088,0.0001416823,0.0001425522,3.83682e-07,-1.010843e-06,1.6981e-06,0.0005722163693475076
PART_003_R247G182B210A255,706,-0.0004380977,0.0001445655,0.0001406704,4.275079e-06,-2.515472e-06,1.807726e-06,0.0005807974348491222
PART_001_R158G218B229A255,707,-0.0004460521,0.0001478478,0.0001442965,7.733132e-06,-3.209274e-06,2.728745e-06,0.000592328647538733
PART_001_R158G218B229A255,708,-0.0004498245,0.0001504819,0.0001397303,1.034463e-05,-2.727311e-06,-1.316627e-06,0.000595296284045713
PART_001_R158G218B229A255,709,-0.0004496647,0.0001521519,0.0001391257,1.185287e-05,-1.596504e-06,4.099606e-07,0.0005957710472882493
PART_001_R158G218B229A255,710,-0.0004524131,0.0001527502,0.0001379103,1.247867e-05,2.1436e-15,2.156634e-14,0.0005982720376702697
PART_001_R158G218B229A255,711,-0.0004496647,0.0001521519,0.0001391257,1.185287e-05,1.596504e-06,-4.099606e-07,0.0005957710472882493
PART_001_R158G218B229A255,712,-0.0004498245,0.0001504819,0.0001397303,1.034463e-05,2.727311e-06,1.316627e-06,0.000595296284045713
PART_001_R158G218B229A255,713,-0.0004460521,0.0001478478,0.0001442965,7.733132e-06,3.209274e-06,-2.728745e-06,0.000592328647538733
PART_001_R158G218B229A255,714,-0.0004380977,0.0001445655,0.0001406704,4.275079e-06,2.515472e-06,-1.807726e-06,0.0005807974348491222
PART_002_R214G39B40A255,715,-0.000430088,0.0001416823,0.0001425522,3.83682e-07,1.010843e-06,-1.6981e-06,0.0005722163693475076
PART_003_R247G182B210A255,716,-0.0005436263,0.0001826471,0.0001801648,-1.682948e-06,-3.471917e-07,1.06312e-06,0.0007250438842860306
PART_001_R158G218B229A255,717,-0.0005515596,0.0001859017,0.0001765921,5.988273e-07,-6.898358e-07,-1.120419e-06,0.000732855127122868
PART_001_R158G218B229A255,718,-0.0005589688,0.000189869,0.000179855,1.447374e-06,-9.729643e-07,5.091774e-07,0.0007438880101289367
PART_001_R158G218B229A255,719,-0.0005622305,0.0001928659,0.0001737004,2.376987e-06,-1.00256e-06,-3.757372e-06,0.0007457401750900273
PART_001_R158G218B229A255,720,-0.0005610199,0.0001947049,0.0001721905,2.926676e-06,-5.257012e-07,-6.757509e-07,0.0007447416172106932
PART_001_R158G218B229A255,721,-0.0005640394,0.0001954052,0.0001706535,3.029064e-06,6.297792e-16,3.069027e-14,0.0007473946266212906
PART_001_R158G218B229A255,722,-0.0005610199,0.0001947049,0.0001721905,2.926676e-06,5.257012e-07,6.75751e-07,0.0007447416172109653
PART_001_R158G218B229A255,723,-0.0005622305,0.0001928659,0.0001737004,2.376987e-06,1.00256e-06,3.757372e-06,0.0007457401750900273
PART_001_R158G218B229A255,724,-0.0005589688,0.000189869,0.000179855,1.447374e-06,9.729643e-07,-5.091774e-07,0.0007438880101289367
PART_001_R158G218B229A255,725,-0.0005515596,0.0001859017,0.0001765921,5.988273e-07,6.898358e-07,1.120419e-06,0.000732855127122868
PART_001_R158G218B229A255,726,-0.0005436263,0.0001826471,0.0001801648,-1.682948e-06,3.471917e-07,-1.06312e-06,0.0007250438842860306
PART_003_R247G182B210A255,727,0.0005399322,-0.0001771995,-0.0001763174,1.412587e-06,-2.263505e-08,-7.849756e-07,0.0007166965241131995
PART_000_R31G119B180A255,728,0.0005488084,-0.0001800872,-0.0001817332,2.016995e-06,-5.768392e-07,-2.81096e-06,0.0007297452806960816
PART_000_R31G119B180A255,729,0.00055258,-0.0001825443,-0.0001778132,2.902339e-06,-8.425285e-07,-6.965846e-07,0.000732789894274012
PART_000_R31G119B180A255,730,0.0005556189,-0.0001844684,-0.0001794543,3.418587e-06,-7.251541e-07,-1.54692e-06,0.0007376227340112729
PART_000_R31G119B180A255,731,0.0005576939,-0.0001858704,-0.0001760986,3.823827e-06,-4.659953e-07,3.693571e-07,0.000738757281094832
PART_000_R31G119B180A255,732,0.0005567781,-0.0001862182,-0.0001770009,3.985115e-06,5.213589e-16,-2.968614e-14,0.0007384630553126403
PART_000_R31G119B180A255,733,0.0005576939,-0.0001858704,-0.0001760986,3.823827e-06,4.659953e-07,-3.693572e-07,0.000738757281094982
PART_000_R31G119B180A255,734,0.0005556189,-0.0001844684,-0.0001794543,3.418587e-06,7.251541e-07,1.54692e-06,0.0007376227340112729
PART_000_R31G119B180A255,735,0.00055258,-0.0001825443,-0.0001778132,2.902339e-06,8.425285e-07,6.965845e-07,0.0007327898942737268
PART_000_R31G119B180A255,736,0.0005488084,-0.0001800872,-0.0001817332,2.016995e-06,5.768392e-07,2.81096e-06,0.0007297452806960816
PART_000_R31G119B180A255,737,0.0005399322,-0.0001771995,-0.0001763174,1.412587e-06,2.263505e-08,7.849756e-07,0.0007166965241131995
PART_003_R247G182B210A255,738,0.000431822,-0.000145926,-0.0001401945,1.865785e-06,-8.95266e-07,-1.589283e-06,0.0005749214419033641
PART_003_R247G182B210A255,739,0.0004397805,-0.0001475007,-0.0001448968,4.431911e-06,-2.017349e-06,-3.609095e-06,0.0005860776210950442
PART_000_R31G119B180A255,740,0.0004440695,-0.0001498885,-0.0001422844,6.441287e-06,-2.437507e-06,-2.210956e-06,0.0005903256490345698
PART_000_R31G119B180A255,741,0.0004477722,-0.0001519392,-0.0001443123,8.096447e-06,-2.220428e-06,-2.467283e-06,0.000596127255488874
PART_000_R31G119B180A255,742,0.0004500313,-0.0001532042,-0.0001418381,9.257293e-06,-1.244719e-06,-3.668107e-07,0.0005978527960295991
PART_000_R31G119B180A255,743,0.0004495716,-0.0001536695,-0.0001428317,9.579214e-06,1.65456e-15,-2.096778e-14,0.0005981260404522139
PART_000_R31G119B180A255,744,0.0004500313,-0.0001532042,-0.0001418381,9.257293e-06,1.244719e-06,3.668107e-07,0.0005978527960295991
PART_000_R31G119B180A255,745,0.0004477722,-0.0001519392,-0.0001443123,8.096447e-06,2.220428e-06,2.467283e-06,0.000596127255488874
PART_000_R31G119B180A255,746,0.0004440695,-0.0001498885,-0.0001422844,6.441287e-06,2.437507e-06,2.210956e-06,0.0005903256490345698
PART_000_R31G119B180A255,747,0.0004397805,-0.0001475007,-0.0001448968,4.431911e-06,2.017349e-06,3.609095e-06,0.0005860776210950442
PART_002_R214G39B40A255,748,0.000431822,-0.000145926,-0.0001401945,1.865785e-06,8.95266e-07,1.589283e-06,0.0005749214419033641
PART_003_R247G182B210A255,749,0.0003221527,-0.0001073982,-0.0001043795,7.100092e-06,-1.528156e-06,-1.413359e-06,0.00042824132844830034
PART_003_R247G182B210A255,750,0.000328397,-0.0001082447,-0.0001085702,9.981083e-06,-3.626888e-06,-3.688843e-06,0.00043723833168396643
PART_003_R247G182B210A255,751,0.0003322784,-0.0001098712,-0.0001070268,1.319201e-05,-4.135059e-06,-2.726087e-06,0.00044140954593505956
PART_000_R31G119B180A255,752,0.0003356324,-0.0001114777,-0.0001088032,1.59883e-05,-3.504106e-06,-2.638676e-06,0.0004467028092928862
PART_000_R31G119B180A255,753,0.0003376552,-0.0001125513,-0.0001070488,1.778811e-05,-1.949596e-06,-7.097891e-07,0.0004485544266081379
PART_000_R31G119B180A255,754,0.00033748,-0.0001129284,-0.0001078795,1.837836e-05,2.131663e-15,-1.402944e-14,0.0004490350137348743
PART_000_R31G119B180A255,755,0.0003376552,-0.0001125513,-0.0001070488,1.778811e-05,1.949596e-06,7.097891e-07,0.0004485544266081379
PART_000_R31G119B180A255,756,0.0003356324,-0.0001114777,-0.0001088032,1.59883e-05,3.504106e-06,2.638676e-06,0.0004467028092928862
PART_000_R31G119B180A255,757,0.0003322784,-0.0001098712,-0.0001070268,1.319201e-05,4.135059e-06,2.726087e-06,0.00044140954593505956
PART_002_R214G39B40A255,758,0.000328397,-0.0001082447,-0.0001085702,9.981083e-06,3.626888e-06,3.688843e-06,0.00043723833168396643
PART_002_R214G39B40A255,759,0.0003221527,-0.0001073982,-0.0001043795,7.100092e-06,1.528156e-06,1.413359e-06,0.00042824132844830034
PART_003_R247G182B210A255,760,0.0002162642,-7.485079e-05,-6.938108e-05,6.599869e-06,-2.068958e-06,-1.260401e-06,0.00028867598265935196
PART_003_R247G182B210A255,761,0.0002206523,-7.513807e-05,-7.235783e-05,1.005202e-05,-4.930949e-06,-2.986734e-06,0.0002950934400037198
PART_003_R247G182B210A255,762,0.0002235539,-7.622946e-05,-7.154907e-05,1.393704e-05,-5.612219e-06,-2.342911e-06,0.00029863447205101713
PART_003_R247G182B210A255,763,0.0002260908,-7.741333e-05,-7.288297e-05,1.732073e-05,-4.623101e-06,-2.20118e-06,0.00030288442672138854
PART_000_R31G119B180A255,764,0.000227692,-7.828353e-05,-7.17457e-05,1.958587e-05,-2.558804e-06,-7.00423e-07,0.00030468883357029776
PART_000_R31G119B180A255,765,0.0002276294,-7.857912e-05,-7.232798e-05,2.033251e-05,3.494218e-15,-8.511009e-15,0.0003051701411227473
PART_000_R31G119B180A255,766,0.000227692,-7.828353e-05,-7.17457e-05,1.958587e-05,2.558804e-06,7.00423e-07,0.00030468883357029776
PART_000_R31G119B180A255,767,0.0002260908,-7.741333e-05,-7.288297e-05,1.732073e-05,4.623101e-06,2.20118e-06,0.00030288442672138854
PART_002_R214G39B40A255,768,0.0002235539,-7.622946e-05,-7.154907e-05,1.393704e-05,5.612219e-06,2.342911e-06,0.00029863447205101713
PART_002_R214G39B40A255,769,0.0002206523,-7.513807e-05,-7.235783e-05,1.005202e-05,4.930949e-06,2.986734e-06,0.0002950934400037198
PART_002_R214G39B40A255,770,0.0002162642,-7.485079e-05,-6.938108e-05,6.599869e-06,2.068958e-06,1.260401e-06,0.00028867598265935196
PART_003_R247G182B210A255,771,0.0001079415,-3.672364e-05,-3.461723e-05,1.269291e-05,-2.478926e-06,-6.483151e-07,0.00014536416906965654
PART_003_R247G182B210A255,772,0.000110044,-3.671359e-05,-3.619236e-05,1.611401e-05,-5.827185e-06,-1.619759e-06,0.00014950013549242194
PART_003_R247G182B210A255,773,0.0001115179,-3.715967e-05,-3.58387e-05,2.049584e-05,-6.555886e-06,-1.347961e-06,0.00015265973426358128
PART_003_R247G182B210A255,774,0.0001128672,-3.772745e-05,-3.655401e-05,2.447818e-05,-5.434181e-06,-1.234043e-06,0.0001561861556864024
PART_003_R247G182B210A255,775,0.0001136999,-3.81433e-05,-3.600866e-05,2.714204e-05,-2.97235e-06,-4.218043e-07,0.00015803130342427856
PART_000_R31G119B180A255,776,0.0001136901,-3.830394e-05,-3.629382e-05,2.802439e-05,3.493182e-15,-3.998624e-15,0.0001586089588354564
PART_000_R31G119B180A255,777,0.0001136999,-3.81433e-05,-3.600866e-05,2.714204e-05,2.97235e-06,4.218043e-07,0.00015803130342427856
PART_002_R214G39B40A255,778,0.0001128672,-3.772745e-05,-3.655401e-05,2.447818e-05,5.434181e-06,1.234043e-06,0.0001561861556864024
PART_002_R214G39B40A255,779,0.0001115179,-3.715967e-05,-3.58387e-05,2.049584e-05,6.555886e-06,1.347961e-06,0.00015265973426358128
PART_002_R214G39B40A255,780,0.000110044,-3.671359e-05,-3.619236e-05,1.611401e-05,5.827185e-06,1.619759e-06,0.00014950013549242194
PART_002_R214G39B40A255,781,0.0001079415,-3.672364e-05,-3.461723e-05,1.269291e-05,2.478926e-06,6.483151e-07,0.00014536416906965654
PART_003_R247G182B210A255,782,1.178193e-13,-4.010334e-14,-3.795402e-14,9.767154e-06,-2.536378e-06,-7.00398e-16,1.7478316047485808e-05
PART_003_R247G182B210A255,783,1.20166e-13,-3.991257e-14,-3.98761e-14,1.32067e-05,-6.073825e-06,-1.819256e-15,2.5177863790676823e-05
PART_003_R247G182B210A255,784,1.217268e-13,-4.05741e-14,-3.909748e-14,1.757462e-05,-6.920071e-06,-1.411704e-15,3.271488884847881e-05
PART_003_R247G182B210A255,785,1.231614e-13,-4.124945e-14,-3.998361e-14,2.156028e-05,-5.679612e-06,-1.419486e-15,3.861749601471893e-05
PART_003_R247G182B210A255,786,1.241297e-13,-4.161688e-14,-3.936025e-14,2.424795e-05,-3.13287e-06,-4.222936e-16,4.234777279761239e-05
PART_003_R247G182B210A255,787,1.239842e-13,-4.188685e-14,-3.962927e-14,2.514678e-05,4.097578e-15,-2.612673e-18,4.355550060675689e-05
PART_002_R214G39B40A255,788,1.241003e-13,-4.160756e-14,-3.935042e-14,2.424795e-05,3.13287e-06,4.183026e-16,4.234777279761239e-05
PART_002_R214G39B40A255,789,1.231035e-13,-4.123015e-14,-3.996397e-14,2.156028e-05,5.679612e-06,1.41418e-15,3.861749601471893e-05
PART_002_R214G39B40A255,790,1.216401e-13,-4.054607e-14,-3.906899e-14,1.757462e-05,6.920071e-06,1.408458e-15,3.271488884847881e-05
PART_002_R214G39B40A255,791,1.200511e-13,-3.987522e-14,-3.983679e-14,1.32067e-05,6.073825e-06,1.816601e-15,2.5177863790676823e-05
PART_002_R214G39B40A255,792,1.176772e-13,-4.005748e-14,-3.790693e-14,9.767154e-06,2.536378e-06,6.995967e-16,1.7478316047485808e-05
PART_003_R247G182B210A255,793,-0.0001079415,3.672364e-05,3.461723e-05,1.269291e-05,-2.478926e-06,6.483151e-07,0.00014536416906965654
PART_003_R247G182B210A255,794,-0.000110044,3.671359e-05,3.619236e-05,1.611401e-05,-5.827185e-06,1.619759e-06,0.00014950013549242194
PART_003_R247G182B210A255,795,-0.0001115179,3.715967e-05,3.583869e-05,2.049584e-05,-6.555886e-06,1.347961e-06,0.00015265972948053802
PART_003_R247G182B210A255,796,-0.0001128672,3.772745e-05,3.655401e-05,2.447818e-05,-5.434181e-06,1.234043e-06,0.0001561861556864024
PART_003_R247G182B210A255,797,-0.0001136999,3.81433e-05,3.600866e-05,2.714204e-05,-2.97235e-06,4.218043e-07,0.00015803130342427856
PART_001_R158G218B229A255,798,-0.0001136901,3.830394e-05,3.629382e-05,2.802439e-05,3.494002e-15,3.993521e-15,0.0001586089588354564
PART_001_R158G218B229A255,799,-0.0001136999,3.81433e-05,3.600866e-05,2.714204e-05,2.97235e-06,-4.218043e-07,0.00015803130342427856
PART_002_R214G39B40A255,800,-0.0001128672,3.772745e-05,3.655401e-05,2.447818e-05,5.434181e-06,-1.234043e-06,0.0001561861556864024
PART_002_R214G39B40A255,801,-0.0001115179,3.715967e-05,3.583869e-05,2.049584e-05,6.555886e-06,-1.347961e-06,0.00015265972948053802
PART_002_R214G39B40A255,802,-0.000110044,3.671359e-05,3.619236e-05,1.611401e-05,5.827185e-06,-1.619759e-06,0.00014950013549242194
PART_002_R214G39B40A255,803,-0.0001079415,3.672364e-05,3.461723e-05,1.269291e-05,2.478926e-06,-6.483151e-07,0.00014536416906965654
PART_003_R247G182B210A255,804,-0.0002162642,7.485079e-05,6.938108e-05,6.599869e-06,-2.068958e-06,1.260401e-06,0.00028867598265935196
PART_003_R247G182B210A255,805,-0.0002206523,7.513807e-05,7.235783e-05,1.005202e-05,-4.930949e-06,2.986734e-06,0.0002950934400037198
PART_003_R247G182B210A255,806,-0.0002235539,7.622946e-05,7.154907e-05,1.393704e-05,-5.612219e-06,2.342911e-06,0.00029863447205101713
PART_003_R247G182B210A255,807,-0.0002260908,7.741333e-05,7.288297e-05,1.732073e-05,-4.623101e-06,2.20118e-06,0.00030288442672138854
PART_001_R158G218B229A255,808,-0.000227692,7.828353e-05,7.17457e-05,1.958587e-05,-2.558804e-06,7.00423e-07,0.00030468883357029776
PART_001_R158G218B229A255,809,-0.0002276294,7.857912e-05,7.232798e-05,2.033251e-05,3.494516e-15,8.505043e-15,0.0003051701411227473
PART_001_R158G218B229A255,810,-0.000227692,7.828353e-05,7.17457e-05,1.958587e-05,2.558804e-06,-7.00423e-07,0.00030468883357029776
PART_001_R158G218B229A255,811,-0.0002260908,7.741333e-05,7.288297e-05,1.732073e-05,4.623101e-06,-2.20118e-06,0.00030288442672138854
PART_002_R214G39B40A255,812,-0.0002235539,7.622946e-05,7.154907e-05,1.393704e-05,5.612219e-06,-2.342911e-06,0.00029863447205101713
PART_002_R214G39B40A255,813,-0.0002206523,7.513807e-05,7.235783e-05,1.005202e-05,4.930949e-06,-2.986734e-06,0.0002950934400037198
PART_002_R214G39B40A255,814,-0.0002162642,7.485079e-05,6.938108e-05,6.599869e-06,2.068958e-06,-1.260401e-06,0.00028867598265935196
PART_003_R247G182B210A255,815,-0.0003221527,0.0001073982,0.0001043795,7.100092e-06,-1.528156e-06,1.413359e-06,0.00042824132844830034
PART_003_R247G182B210A255,816,-0.000328397,0.0001082447,0.0001085702,9.981083e-06,-3.626888e-06,3.688843e-06,0.00043723833168396643
PART_003_R247G182B210A255,817,-0.0003322784,0.0001098712,0.0001070268,1.319201e-05,-4.135059e-06,2.726087e-06,0.00044140954593505956
PART_001_R158G218B229A255,818,-0.0003356324,0.0001114777,0.0001088032,1.59883e-05,-3.504106e-06,2.638676e-06,0.0004467028092928862
PART_001_R158G218B229A255,819,-0.0003376552,0.0001125513,0.0001070488,1.778811e-05,-1.949596e-06,7.097891e-07,0.0004485544266081379
PART_001_R158G218B229A255,820,-0.00033748,0.0001129284,0.0001078795,1.837836e-05,2.13359e-15,1.402157e-14,0.0004490350137348743
PART_001_R158G218B229A255,821,-0.0003376552,0.0001125513,0.0001070488,1.778811e-05,1.949596e-06,-7.097891e-07,0.0004485544266081379
PART_001_R158G218B229A255,822,-0.0003356324,0.0001114777,0.0001088032,1.59883e-05,3.504106e-06,-2.638676e-06,0.0004467028092928862
PART_001_R158G218B229A255,823,-0.0003322784,0.0001098712,0.0001070268,1.319201e-05,4.135059e-06,-2.726087e-06,0.00044140954593505956
PART_002_R214G39B40A255,824,-0.000328397,0.0001082447,0.0001085702,9.981083e-06,3.626888e-06,-3.688843e-06,0.00043723833168396643
PART_002_R214G39B40A255,825,-0.0003221527,0.0001073982,0.0001043795,7.100092e-06,1.528156e-06,-1.413359e-06,0.00042824132844830034
PART_003_R247G182B210A255,826,-0.000431822,0.000145926,0.0001401945,1.865785e-06,-8.95266e-07,1.589283e-06,0.0005749214419033641
PART_003_R247G182B210A255,827,-0.0004397805,0.0001475007,0.0001448968,4.431911e-06,-2.017349e-06,3.609095e-06,0.0005860776210950442
PART_001_R158G218B229A255,828,-0.0004440695,0.0001498885,0.0001422844,6.441287e-06,-2.437507e-06,2.210956e-06,0.0005903256490345698
PART_001_R158G218B229A255,829,-0.0004477722,0.0001519392,0.0001443123,8.096447e-06,-2.220428e-06,2.467283e-06,0.000596127255488874
PART_001_R158G218B229A255,830,-0.0004500313,0.0001532042,0.0001418381,9.257293e-06,-1.244719e-06,3.668107e-07,0.0005978527960295991
PART_001_R158G218B229A255,831,-0.0004495716,0.0001536695,0.0001428317,9.579214e-06,1.65724e-15,2.095748e-14,0.0005981260404522139
PART_001_R158G218B229A255,832,-0.0004500313,0.0001532042,0.0001418381,9.257293e-06,1.244719e-06,-3.668107e-07,0.0005978527960295991
PART_001_R158G218B229A255,833,-0.0004477722,0.0001519392,0.0001443123,8.096447e-06,2.220428e-06,-2.467283e-06,0.000596127255488874
PART_001_R158G218B229A255,834,-0.0004440695,0.0001498885,0.0001422844,6.441287e-06,2.437507e-06,-2.210956e-06,0.0005903256490345698
PART_001_R158G218B229A255,835,-0.0004397805,0.0001475007,0.0001448968,4.431911e-06,2.017349e-06,-3.609095e-06,0.0005860776210950442
PART_002_R214G39B40A255,836,-0.000431822,0.000145926,0.0001401945,1.865785e-06,8.95266e-07,-1.589283e-06,0.0005749214419033641
PART_003_R247G182B210A255,837,-0.0005399322,0.0001771995,0.0001763174,1.412587e-06,-2.263505e-08,7.849756e-07,0.0007166965241131995
PART_001_R158G218B229A255,838,-0.0005488084,0.0001800872,0.0001817332,2.016995e-06,-5.768392e-07,2.81096e-06,0.0007297452806960816
PART_001_R158G218B229A255,839,-0.00055258,0.0001825443,0.0001778132,2.902339e-06,-8.425285e-07,6.965846e-07,0.000732789894274012
PART_001_R158G218B229A255,840,-0.0005556189,0.0001844684,0.0001794543,3.418587e-06,-7.251541e-07,1.54692e-06,0.0007376227340112729
PART_001_R158G218B229A255,841,-0.0005576939,0.0001858704,0.0001760986,3.823827e-06,-4.659953e-07,-3.693571e-07,0.000738757281094832
PART_001_R158G218B229A255,842,-0.0005567781,0.0001862182,0.0001770009,3.985115e-06,5.227803e-16,2.967392e-14,0.0007384630553126403
PART_001_R158G218B229A255,843,-0.0005576939,0.0001858704,0.0001760986,3.823827e-06,4.659953e-07,3.693572e-07,0.000738757281094982
PART_001_R158G218B229A255,844,-0.0005556189,0.0001844684,0.0001794543,3.418587e-06,7.251541e-07,-1.54692e-06,0.0007376227340112729
PART_001_R158G218B229A255,845,-0.00055258,0.0001825443,0.0001778132,2.902339e-06,8.425285e-07,-6.965845e-07,0.0007327898942737268
PART_001_R158G218B229A255,846,-0.0005488084,0.0001800872,0.0001817332,2.016995e-06,5.768392e-07,-2.81096e-06,0.0007297452806960816
PART_001_R158G218B229A255,847,-0.0005399322,0.0001771995,0.0001763174,1.412587e-06,2.263505e-08,-7.849756e-07,0.0007166965241131995
PART_003_R247G182B210A255,848,0.0005429301,-0.0001806478,-0.0001797219,1.773001e-06,-1.856342e-07,-1.476928e-06,0.0007231265116204551
PART_000_R31G119B180A255,849,0.0005462865,-0.0001818906,-0.0001780365,2.267464e-06,-3.825011e-07,-2.512871e-06,0.0007262816825119206
PART_000_R31G119B180A255,850,0.0005509531,-0.0001837505,-0.0001811455,2.550752e-06,-6.297896e-07,-3.109726e-06,0.0007334384657893685
PART_000_R31G119B180A255,851,0.0005530362,-0.0001851834,-0.0001782739,2.991903e-06,-5.863848e-07,-1.462112e-06,0.0007348125543257932
PART_000_R31G119B180A255,852,0.0005543862,-0.0001861583,-0.0001798638,3.220707e-06,-3.329804e-07,-1.172542e-06,0.0007374415203309719
PART_000_R31G119B180A255,853,0.0005551753,-0.0001865053,-0.0001778177,3.323453e-06,3.670448e-16,-2.851312e-14,0.0007373976528638328
PART_000_R31G119B180A255,854,0.0005543862,-0.0001861583,-0.0001798638,3.220707e-06,3.329804e-07,1.172542e-06,0.0007374415203309719
PART_000_R31G119B180A255,855,0.0005530362,-0.0001851834,-0.0001782739,2.991903e-06,5.863848e-07,1.462112e-06,0.0007348125543257932
PART_000_R31G119B180A255,856,0.0005509531,-0.0001837505,-0.0001811455,2.550752e-06,6.297896e-07,3.109726e-06,0.0007334384657893685
PART_000_R31G119B180A255,857,0.0005462865,-0.0001818906,-0.0001780365,2.267464e-06,3.825011e-07,2.512871e-06,0.0007262816825119206
PART_000_R31G119B180A255,858,0.0005429301,-0.0001806478,-0.0001797219,1.773001e-06,1.856342e-07,1.476928e-06,0.0007231265116204551
PART_003_R247G182B210A255,859,0.0004310562,-0.0001415872,-0.0001429766,6.530654e-06,-5.595409e-07,-1.332949e-06,0.0005734563998928333
PART_003_R247G182B210A255,860,0.0004346069,-0.0001428774,-0.0001420661,7.295414e-06,-1.437361e-06,-2.975024e-06,0.0005772457721466818
PART_000_R31G119B180A255,861,0.0004392732,-0.0001443962,-0.0001450221,8.550564e-06,-1.854375e-06,-3.390536e-06,0.0005842087115764434
PART_000_R31G119B180A255,862,0.0004415176,-0.0001456536,-0.0001430162,9.67411e-06,-1.624208e-06,-2.021122e-06,0.0005861137285847302
PART_000_R31G119B180A255,863,0.0004431593,-0.0001464946,-0.0001447628,1.04178e-05,-9.589036e-07,-1.385875e-06,0.0005890735695987719
PART_000_R31G119B180A255,864,0.0004438589,-0.0001467983,-0.0001430602,1.072997e-05,1.308997e-15,-2.046117e-14,0.0005890902837364852
PART_000_R31G119B180A255,865,0.0004431593,-0.0001464946,-0.0001447628,1.04178e-05,9.589036e-07,1.385875e-06,0.0005890735695987719
PART_000_R31G119B180A255,866,0.0004415176,-0.0001456536,-0.0001430162,9.67411e-06,1.624208e-06,2.021122e-06,0.0005861137285847302
PART_000_R31G119B180A255,867,0.0004392732,-0.0001443962,-0.0001450221,8.550564e-06,1.854375e-06,3.390536e-06,0.0005842087115764434
PART_000_R31G119B180A255,868,0.0004346069,-0.0001428774,-0.0001420661,7.295414e-06,1.437361e-06,2.975024e-06,0.0005772457721466818
PART_002_R214G39B40A255,869,0.0004310562,-0.0001415872,-0.0001429766,6.530654e-06,5.595409e-07,1.332949e-06,0.0005734563998928333
PART_003_R247G182B210A255,870,0.0003241354,-0.000109215,-0.0001067239,7.699647e-06,-1.045155e-06,-1.380668e-06,0.000432326387176407
PART_003_R247G182B210A255,871,0.0003270226,-0.0001096682,-0.0001064298,9.226376e-06,-2.64197e-06,-2.80603e-06,0.0004354251968183347
PART_003_R247G182B210A255,872,0.0003309949,-0.0001108323,-0.0001089756,1.109279e-05,-3.000587e-06,-3.196734e-06,0.0004413855449539283
PART_000_R31G119B180A255,873,0.0003331855,-0.0001120385,-0.0001076202,1.274628e-05,-2.566643e-06,-2.068029e-06,0.0004436178473798232
PART_000_R31G119B180A255,874,0.0003347666,-0.0001128273,-0.0001091008,1.39233e-05,-1.469135e-06,-1.324487e-06,0.0004464073702014385
PART_000_R31G119B180A255,875,0.0003353632,-0.0001131015,-0.0001078198,1.43445e-05,1.422005e-15,-1.384271e-14,0.00044653904816459224
PART_000_R31G119B180A255,876,0.0003347666,-0.0001128273,-0.0001091008,1.39233e-05,1.469135e-06,1.324487e-06,0.0004464073702014385
PART_000_R31G119B180A255,877,0.0003331855,-0.0001120385,-0.0001076202,1.274628e-05,2.566643e-06,2.068029e-06,0.0004436178473798232
PART_000_R31G119B180A255,878,0.0003309949,-0.0001108323,-0.0001089756,1.109279e-05,3.000587e-06,3.196734e-06,0.0004413855449539283
PART_002_R214G39B40A255,879,0.0003270226,-0.0001096682,-0.0001064298,9.226376e-06,2.64197e-06,2.80603e-06,0.0004354251968183347
PART_002_R214G39B40A255,880,0.0003241354,-0.000109215,-0.0001067239,7.699647e-06,1.045155e-06,1.380668e-06,0.000432326387176407
PART_003_R247G182B210A255,881,0.0002152169,-7.147374e-05,-7.100514e-05,1.285234e-05,-1.451629e-06,-9.628699e-07,0.00028733612787410894
PART_003_R247G182B210A255,882,0.0002171593,-7.171081e-05,-7.086754e-05,1.438458e-05,-3.467586e-06,-2.164482e-06,0.00028960996510541835
PART_003_R247G182B210A255,883,0.000219995,-7.239084e-05,-7.276705e-05,1.677268e-05,-4.053258e-06,-2.492982e-06,0.0002941284063219396
PART_003_R247G182B210A255,884,0.0002216361,-7.313561e-05,-7.198407e-05,1.903663e-05,-3.353346e-06,-1.646523e-06,0.00029611027235337296
PART_000_R31G119B180A255,885,0.0002227973,-7.370131e-05,-7.300058e-05,2.058411e-05,-1.902408e-06,-1.038688e-06,0.0002983108481497705
PART_000_R31G119B180A255,886,0.0002232598,-7.389496e-05,-7.217626e-05,2.114715e-05,2.72885e-15,-8.49639e-15,0.00029855450305380274
PART_000_R31G119B180A255,887,0.0002227973,-7.370131e-05,-7.300058e-05,2.058411e-05,1.902408e-06,1.038688e-06,0.0002983108481497705
PART_000_R31G119B180A255,888,0.0002216361,-7.313561e-05,-7.198407e-05,1.903663e-05,3.353346e-06,1.646523e-06,0.00029611027235337296
PART_002_R214G39B40A255,889,0.000219995,-7.239084e-05,-7.276705e-05,1.677268e-05,4.053258e-06,2.492982e-06,0.0002941284063219396
PART_002_R214G39B40A255,890,0.0002171593,-7.171081e-05,-7.086754e-05,1.438458e-05,3.467586e-06,2.164482e-06,0.00028960996510541835
PART_002_R214G39B40A255,891,0.0002152169,-7.147374e-05,-7.100514e-05,1.285234e-05,1.451629e-06,9.628699e-07,0.00028733612787410894
PART_003_R247G182B210A255,892,0.0001081562,-3.687911e-05,-3.541841e-05,1.183969e-05,-1.623786e-06,-5.614028e-07,0.0001457906446041389
PART_003_R247G182B210A255,893,0.0001091883,-3.691665e-05,-3.544132e-05,1.357184e-05,-4.077413e-06,-1.194308e-06,0.00014744497117670377
PART_003_R247G182B210A255,894,0.00011068,-3.726934e-05,-3.64247e-05,1.617318e-05,-4.670432e-06,-1.351303e-06,0.000150400760673469
PART_003_R247G182B210A255,895,0.0001115679,-3.769116e-05,-3.605786e-05,1.861451e-05,-3.911605e-06,-9.187254e-07,0.0001520693391713326
PART_003_R247G182B210A255,896,0.0001122151,-3.799784e-05,-3.66018e-05,2.032953e-05,-2.187287e-06,-5.692885e-07,0.0001536599079456971
PART_000_R31G119B180A255,897,0.0001124584,-3.811731e-05,-3.617596e-05,2.095487e-05,2.426646e-15,-4.012305e-15,0.00015395393095783168
PART_000_R31G119B180A255,898,0.0001122151,-3.799784e-05,-3.66018e-05,2.032953e-05,2.187287e-06,5.692885e-07,0.0001536599079456971
PART_002_R214G39B40A255,899,0.0001115679,-3.769116e-05,-3.605786e-05,1.861451e-05,3.911605e-06,9.187254e-07,0.0001520693391713326
PART_002_R214G39B40A255,900,0.00011068,-3.726934e-05,-3.64247e-05,1.617318e-05,4.670432e-06,1.351303e-06,0.000150400760673469
PART_002_R214G39B40A255,901,0.0001091883,-3.691665e-05,-3.544132e-05,1.357184e-05,4.077413e-06,1.194308e-06,0.00014744497117670377
PART_002_R214G39B40A255,902,0.0001081562,-3.687911e-05,-3.541841e-05,1.183969e-05,1.623786e-06,5.614028e-07,0.0001457906446041389
PART_003_R247G182B210A255,903,1.185353e-13,-4.036734e-14,-3.886454e-14,1.560387e-05,-1.771769e-06,-6.202856e-16,2.720036347365202e-05
PART_003_R247G182B210A255,904,1.195891e-13,-4.020829e-14,-3.893457e-14,1.727079e-05,-4.251714e-06,-1.299747e-15,3.080700857736252e-05
PART_003_R247G182B210A255,905,1.212819e-13,-4.074508e-14,-3.988077e-14,2.003174e-05,-4.93792e-06,-1.508013e-15,3.5734590861824624e-05
PART_003_R247G182B210A255,906,1.221909e-13,-4.127319e-14,-3.932411e-14,2.26954e-05,-4.083244e-06,-9.782371e-16,3.994073344557669e-05
PART_003_R247G182B210A255,907,1.229118e-13,-4.152288e-14,-4.009523e-14,2.454908e-05,-2.30805e-06,-6.454711e-16,4.270776593251747e-05
PART_003_R247G182B210A255,908,1.231629e-13,-4.174504e-14,-3.943186e-14,2.521883e-05,3.126399e-15,-2.68933e-18,4.368029486744223e-05
PART_002_R214G39B40A255,909,1.228827e-13,-4.151247e-14,-4.008577e-14,2.454908e-05,2.30805e-06,6.405238e-16,4.270776593251747e-05
PART_002_R214G39B40A255,910,1.221328e-13,-4.125433e-14,-3.930524e-14,2.26954e-05,4.083244e-06,9.730342e-16,3.994073344557669e-05
PART_002_R214G39B40A255,911,1.211953e-13,-4.071808e-14,-3.985134e-14,2.003174e-05,4.93792e-06,1.504207e-15,3.5734590861824624e-05
PART_002_R214G39B40A255,912,1.194739e-13,-4.017327e-14,-3.889606e-14,1.727079e-05,4.251714e-06,1.297294e-15,3.080700857736252e-05
PART_002_R214G39B40A255,913,1.183911e-13,-4.032235e-14,-3.881594e-14,1.560387e-05,1.771769e-06,6.194911e-16,2.720036347365202e-05
PART_003_R247G182B210A255,914,-0.0001081562,3.687911e-05,3.541841e-05,1.183969e-05,-1.623786e-06,5.614028e-07,0.0001457906446041389
PART_003_R247G182B210A255,915,-0.0001091883,3.691665e-05,3.544132e-05,1.357184e-05,-4.077413e-06,1.194308e-06,0.00014744497117670377
PART_003_R247G182B210A255,916,-0.00011068,3.726934e-05,3.64247e-05,1.617318e-05,-4.670432e-06,1.351303e-06,0.000150400760673469
PART_003_R247G182B210A255,917,-0.0001115679,3.769116e-05,3.605786e-05,1.861451e-05,-3.911605e-06,9.187254e-07,0.0001520693391713326
PART_003_R247G182B210A255,918,-0.0001122151,3.799784e-05,3.66018e-05,2.032953e-05,-2.187287e-06,5.692885e-07,0.0001536599079456971
PART_001_R158G218B229A255,919,-0.0001124584,3.811731e-05,3.617596e-05,2.095487e-05,2.426616e-15,4.007337e-15,0.00015395393095783168
PART_001_R158G218B229A255,920,-0.0001122151,3.799784e-05,3.66018e-05,2.032953e-05,2.187287e-06,-5.692885e-07,0.0001536599079456971
PART_002_R214G39B40A255,921,-0.0001115679,3.769116e-05,3.605786e-05,1.861451e-05,3.911605e-06,-9.187254e-07,0.0001520693391713326
PART_002_R214G39B40A255,922,-0.00011068,3.726934e-05,3.64247e-05,1.617318e-05,4.670432e-06,-1.351303e-06,0.000150400760673469
PART_002_R214G39B40A255,923,-0.0001091883,3.691665e-05,3.544132e-05,1.357184e-05,4.077414e-06,-1.194308e-06,0.00014744497125966516
PART_002_R214G39B40A255,924,-0.0001081562,3.687911e-05,3.541841e-05,1.183969e-05,1.623786e-06,-5.614028e-07,0.0001457906446041389
PART_003_R247G182B210A255,925,-0.0002152169,7.147374e-05,7.100514e-05,1.285234e-05,-1.451629e-06,9.628699e-07,0.00028733612787410894
PART_003_R247G182B210A255,926,-0.0002171593,7.171081e-05,7.086754e-05,1.438458e-05,-3.467586e-06,2.164481e-06,0.00028960996508299705
PART_003_R247G182B210A255,927,-0.000219995,7.239084e-05,7.276705e-05,1.677268e-05,-4.053258e-06,2.492982e-06,0.0002941284063219396
PART_003_R247G182B210A255,928,-0.0002216361,7.313561e-05,7.198407e-05,1.903663e-05,-3.353346e-06,1.646523e-06,0.00029611027235337296
PART_001_R158G218B229A255,929,-0.0002227973,7.370131e-05,7.300058e-05,2.058411e-05,-1.902408e-06,1.038688e-06,0.0002983108481497705
PART_001_R158G218B229A255,930,-0.0002232598,7.389496e-05,7.217626e-05,2.114715e-05,2.731149e-15,8.491026e-15,0.00029855450305380274
PART_001_R158G218B229A255,931,-0.0002227973,7.370131e-05,7.300058e-05,2.058411e-05,1.902408e-06,-1.038688e-06,0.0002983108481497705
PART_001_R158G218B229A255,932,-0.0002216361,7.313561e-05,7.198407e-05,1.903663e-05,3.353346e-06,-1.646523e-06,0.00029611027235337296
PART_002_R214G39B40A255,933,-0.000219995,7.239084e-05,7.276705e-05,1.677268e-05,4.053258e-06,-2.492982e-06,0.0002941284063219396
PART_002_R214G39B40A255,934,-0.0002171593,7.171081e-05,7.086754e-05,1.438458e-05,3.467586e-06,-2.164481e-06,0.00028960996508299705
PART_002_R214G39B40A255,935,-0.0002152169,7.147374e-05,7.100514e-05,1.285234e-05,1.451629e-06,-9.628699e-07,0.00028733612787410894
PART_003_R247G182B210A255,936,-0.0003241354,0.000109215,0.0001067239,7.699647e-06,-1.045155e-06,1.380668e-06,0.000432326387176407
PART_003_R247G182B210A255,937,-0.0003270226,0.0001096682,0.0001064298,9.226376e-06,-2.64197e-06,2.80603e-06,0.0004354251968183347
PART_003_R247G182B210A255,938,-0.0003309949,0.0001108323,0.0001089756,1.109279e-05,-3.000587e-06,3.196734e-06,0.0004413855449539283
PART_001_R158G218B229A255,939,-0.0003331855,0.0001120385,0.0001076202,1.274628e-05,-2.566643e-06,2.068029e-06,0.0004436178473798232
PART_001_R158G218B229A255,940,-0.0003347666,0.0001128273,0.0001091008,1.39233e-05,-1.469135e-06,1.324487e-06,0.0004464073702014385
PART_001_R158G218B229A255,941,-0.0003353632,0.0001131015,0.0001078198,1.43445e-05,1.423008e-15,1.383368e-14,0.00044653904816459224
PART_001_R158G218B229A255,942,-0.0003347666,0.0001128273,0.0001091008,1.39233e-05,1.469135e-06,-1.324487e-06,0.0004464073702014385
PART_001_R158G218B229A255,943,-0.0003331855,0.0001120385,0.0001076202,1.274628e-05,2.566643e-06,-2.068029e-06,0.0004436178473798232
PART_001_R158G218B229A255,944,-0.0003309949,0.0001108323,0.0001089756,1.109279e-05,3.000587e-06,-3.196734e-06,0.0004413855449539283
PART_002_R214G39B40A255,945,-0.0003270226,0.0001096682,0.0001064298,9.226376e-06,2.64197e-06,-2.80603e-06,0.0004354251968183347
PART_002_R214G39B40A255,946,-0.0003241354,0.000109215,0.0001067239,7.699647e-06,1.045155e-06,-1.380668e-06,0.000432326387176407
PART_003_R247G182B210A255,947,-0.0004310562,0.0001415872,0.0001429766,6.530654e-06,-5.595409e-07,1.332949e-06,0.0005734563998928333
PART_003_R247G182B210A255,948,-0.0004346069,0.0001428774,0.0001420661,7.295414e-06,-1.437361e-06,2.975024e-06,0.0005772457721466818
PART_001_R158G218B229A255,949,-0.0004392732,0.0001443962,0.0001450221,8.550564e-06,-1.854375e-06,3.390536e-06,0.0005842087115764434
PART_001_R158G218B229A255,950,-0.0004415176,0.0001456536,0.0001430162,9.67411e-06,-1.624208e-06,2.021122e-06,0.0005861137285847302
PART_001_R158G218B229A255,951,-0.0004431593,0.0001464946,0.0001447628,1.04178e-05,-9.589036e-07,1.385875e-06,0.0005890735695987719
PART_001_R158G218B229A255,952,-0.0004438589,0.0001467983,0.0001430602,1.072997e-05,1.309755e-15,2.045092e-14,0.0005890902837364852
PART_001_R158G218B229A255,953,-0.0004431593,0.0001464946,0.0001447628,1.04178e-05,9.589036e-07,-1.385875e-06,0.0005890735695987719
PART_001_R158G218B229A255,954,-0.0004415176,0.0001456536,0.0001430162,9.67411e-06,1.624208e-06,-2.021122e-06,0.0005861137285847302
PART_001_R158G218B229A255,955,-0.0004392732,0.0001443962,0.0001450221,8.550564e-06,1.854375e-06,-3.390536e-06,0.0005842087115764434
PART_001_R158G218B229A255,956,-0.0004346069,0.0001428774,0.0001420661,7.295414e-06,1.437361e-06,-2.975024e-06,0.0005772457721466818
PART_002_R214G39B40A255,957,-0.0004310562,0.0001415872,0.0001429766,6.530654e-06,5.595409e-07,-1.332949e-06,0.0005734563998928333
PART_003_R247G182B210A255,958,-0.0005429301,0.0001806478,0.0001797219,1.773001e-06,-1.856342e-07,1.476928e-06,0.0007231265116204551
PART_001_R158G218B229A255,959,-0.0005462865,0.0001818906,0.0001780365,2.267464e-06,-3.825011e-07,2.512871e-06,0.0007262816825119206
PART_001_R158G218B229A255,960,-0.0005509531,0.0001837505,0.0001811455,2.550752e-06,-6.297896e-07,3.109726e-06,0.0007334384657893685
PART_001_R158G218B229A255,961,-0.0005530362,0.0001851834,0.0001782739,2.991903e-06,-5.863848e-07,1.462112e-06,0.0007348125543257932
PART_001_R158G218B229A255,962,-0.0005543862,0.0001861583,0.0001798638,3.220707e-06,-3.329804e-07,1.172542e-06,0.0007374415203309719
PART_001_R158G218B229A255,963,-0.0005551753,0.0001865053,0.0001778177,3.323453e-06,3.674581e-16,2.850526e-14,0.0007373976528638328
PART_001_R158G218B229A255,964,-0.0005543862,0.0001861583,0.0001798638,3.220707e-06,3.329804e-07,-1.172542e-06,0.0007374415203309719
PART_001_R158G218B229A255,965,-0.0005530362,0.0001851834,0.0001782739,2.991903e-06,5.863848e-07,-1.462112e-06,0.0007348125543257932
PART_001_R158G218B229A255,966,-0.0005509531,0.0001837505,0.0001811455,2.550752e-06,6.297896e-07,-3.109726e-06,0.0007334384657893685
PART_001_R158G218B229A255,967,-0.0005462865,0.0001818906,0.0001780365,2.267464e-06,3.825011e-07,-2.512871e-06,0.0007262816825119206
PART_001_R158G218B229A255,968,-0.0005429301,0.0001806478,0.0001797219,1.773001e-06,1.856342e-07,-1.476928e-06,0.0007231265116204551
PART_003_R247G182B210A255,969,0.0005386708,-0.0001772058,-0.0001767566,2.979359e-06,2.326383e-08,-1.206564e-06,0.0007156737631025105
PART_000_R31G119B180A255,970,0.0005427665,-0.0001783039,-0.0001799674,2.833812e-06,-3.095388e-07,-2.967345e-06,0.0007219387674325415
PART_000_R31G119B180A255,971,0.0005445955,-0.0001793877,-0.0001780996,3.114658e-06,-4.377767e-07,-2.74734e-06,0.0007233761761240447
PART_000_R31G119B180A255,972,0.000547074,-0.0001802503,-0.0001803348,3.280301e-06,-4.109813e-07,-2.384899e-06,0.0007274008210640467
PART_000_R31G119B180A255,973,0.0005479519,-0.0001809192,-0.0001782285,3.488507e-06,-2.493894e-07,-1.048846e-06,0.0007275569686802613
PART_000_R31G119B180A255,974,0.0005484564,-0.0001810842,-0.0001800316,3.52655e-06,2.472489e-16,-2.815584e-14,0.0007290404585784438
PART_000_R31G119B180A255,975,0.0005479519,-0.0001809192,-0.0001782285,3.488507e-06,2.493894e-07,1.048846e-06,0.0007275569686802613
PART_000_R31G119B180A255,976,0.000547074,-0.0001802503,-0.0001803348,3.280301e-06,4.109813e-07,2.384899e-06,0.0007274008210640467
PART_000_R31G119B180A255,977,0.0005445955,-0.0001793877,-0.0001780996,3.114658e-06,4.377767e-07,2.74734e-06,0.0007233761761240447
PART_000_R31G119B180A255,978,0.0005427665,-0.0001783039,-0.0001799674,2.833812e-06,3.095388e-07,2.967345e-06,0.0007219387674325415
PART_000_R31G119B180A255,979,0.0005386708,-0.0001772058,-0.0001767566,2.979359e-06,-2.326383e-08,1.206564e-06,0.0007156737631025105
PART_003_R247G182B210A255,980,0.000430726,-0.0001435863,-0.0001410978,6.927673e-06,-4.67229e-07,-1.205744e-06,0.0005732020836748334
PART_003_R247G182B210A255,981,0.0004343266,-0.0001441488,-0.0001437086,7.179507e-06,-1.001704e-06,-2.667934e-06,0.0005784101806854761
PART_000_R31G119B180A255,982,0.000436372,-0.0001452048,-0.0001424836,7.693789e-06,-1.287014e-06,-2.828722e-06,0.000580398957465137
PART_000_R31G119B180A255,983,0.000439003,-0.0001461453,-0.0001446638,8.319196e-06,-1.189859e-06,-2.380421e-06,0.000584604741856137
PART_000_R31G119B180A255,984,0.0004399715,-0.0001467277,-0.000143098,8.796821e-06,-6.780267e-07,-1.151327e-06,0.0005850957972142756
PART_000_R31G119B180A255,985,0.0004405931,-0.0001469608,-0.0001447478,8.948321e-06,9.575115e-16,-2.020538e-14,0.0005866553019786552
PART_000_R31G119B180A255,986,0.0004399715,-0.0001467277,-0.000143098,8.796821e-06,6.780267e-07,1.151326e-06,0.0005850957972083723
PART_000_R31G119B180A255,987,0.000439003,-0.0001461453,-0.0001446638,8.319196e-06,1.189859e-06,2.380421e-06,0.000584604741856137
PART_000_R31G119B180A255,988,0.000436372,-0.0001452048,-0.0001424836,7.693789e-06,1.287014e-06,2.828722e-06,0.000580398957465137
PART_000_R31G119B180A255,989,0.0004343266,-0.0001441488,-0.0001437086,7.179507e-06,1.001704e-06,2.667934e-06,0.0005784101806854761
PART_002_R214G39B40A255,990,0.000430726,-0.0001435863,-0.0001410978,6.927673e-06,4.67229e-07,1.205744e-06,0.0005732020836748334
PART_003_R247G182B210A255,991,0.0003215268,-0.0001060895,-0.0001053607,1.179155e-05,-7.246037e-07,-9.641686e-07,0.00042774533356277695
PART_003_R247G182B210A255,992,0.0003244502,-0.0001064749,-0.0001077068,1.210595e-05,-1.808513e-06,-2.352339e-06,0.0004320820416872747
PART_003_R247G182B210A255,993,0.0003263077,-0.000107191,-0.0001069909,1.302995e-05,-2.116991e-06,-2.50314e-06,0.0004340230416983625
PART_000_R31G119B180A255,994,0.0003285453,-0.0001079172,-0.0001087674,1.408422e-05,-1.827892e-06,-2.097894e-06,0.00043759529244269976
PART_000_R31G119B180A255,995,0.0003294451,-0.0001084135,-0.0001076699,1.482302e-05,-1.046035e-06,-1.05288e-06,0.0004382475201096614
PART_000_R31G119B180A255,996,0.0003300093,-0.0001085885,-0.0001089745,1.5101e-05,9.550161e-16,-1.377219e-14,0.00043956978799121314
PART_000_R31G119B180A255,997,0.0003294451,-0.0001084135,-0.0001076699,1.482302e-05,1.046035e-06,1.05288e-06,0.0004382475201096614
PART_000_R31G119B180A255,998,0.0003285453,-0.0001079172,-0.0001087674,1.408422e-05,1.827892e-06,2.097894e-06,0.00043759529244269976
PART_000_R31G119B180A255,999,0.0003263077,-0.000107191,-0.0001069909,1.302995e-05,2.116991e-06,2.50314e-06,0.0004340230416983625
PART_002_R214G39B40A255,1000,0.0003244502,-0.0001064749,-0.0001077068,1.210595e-05,1.808513e-06,2.352339e-06,0.0004320820416872747
PART_002_R214G39B40A255,1001,0.0003215268,-0.0001060895,-0.0001053607,1.179155e-05,7.246037e-07,9.641686e-07,0.00042774533356277695
PART_003_R247G182B210A255,1002,0.0002149644,-7.223433e-05,-7.015324e-05,1.257749e-05,-9.854228e-07,-7.758291e-07,0.00028700009358003194
PART_003_R247G182B210A255,1003,0.0002169917,-7.235354e-05,-7.174973e-05,1.318327e-05,-2.380238e-06,-1.755723e-06,0.00028998959129606034
PART_003_R247G182B210A255,1004,0.0002183614,-7.28349e-05,-7.138586e-05,1.437073e-05,-2.817206e-06,-1.87197e-06,0.00029159785007822043
PART_003_R247G182B210A255,1005,0.0002200296,-7.337885e-05,-7.267893e-05,1.562948e-05,-2.366069e-06,-1.581793e-06,0.0002943480745089373
PART_000_R31G119B180A255,1006,0.0002207598,-7.378836e-05,-7.196481e-05,1.655963e-05,-1.345288e-06,-7.952202e-07,0.000295050523061626
PART_000_R31G119B180A255,1007,0.0002211614,-7.392306e-05,-7.286145e-05,1.689551e-05,2.013002e-15,-8.491109e-15,0.0002960051954107958
PART_000_R31G119B180A255,1008,0.0002207598,-7.378836e-05,-7.196481e-05,1.655963e-05,1.345288e-06,7.952202e-07,0.000295050523061626
PART_000_R31G119B180A255,1009,0.0002200296,-7.337885e-05,-7.267893e-05,1.562948e-05,2.366069e-06,1.581793e-06,0.0002943480745089373
PART_002_R214G39B40A255,1010,0.0002183614,-7.28349e-05,-7.138586e-05,1.437073e-05,2.817206e-06,1.87197e-06,0.00029159785007822043
PART_002_R214G39B40A255,1011,0.0002169917,-7.235354e-05,-7.174973e-05,1.318327e-05,2.380238e-06,1.755723e-06,0.00028998959129606034
PART_002_R214G39B40A255,1012,0.0002149644,-7.223433e-05,-7.015324e-05,1.257749e-05,9.854228e-07,7.758291e-07,0.00028700009358003194
PART_003_R247G182B210A255,1013,0.0001070854,-3.549985e-05,-3.501024e-05,1.646761e-05,-1.152876e-06,-3.821224e-07,0.00014518592917496612
PART_003_R247G182B210A255,1014,0.0001080941,-3.554023e-05,-3.587072e-05,1.700791e-05,-2.777535e-06,-9.292958e-07,0.00014687389682886259
PART_003_R247G182B210A255,1015,0.0001088132,-3.575302e-05,-3.571521e-05,1.839346e-05,-3.236509e-06,-1.009219e-06,0.00014813293353846816
PART_003_R247G182B210A255,1016,0.0001096797,-3.600962e-05,-3.638555e-05,1.993983e-05,-2.757421e-06,-8.427112e-07,0.00014999339762467926
PART_003_R247G182B210A255,1017,0.0001100592,-3.619782e-05,-3.605001e-05,2.104502e-05,-1.539363e-06,-4.291449e-07,0.00015068463594117482
PART_000_R31G119B180A255,1018,0.0001102764,-3.627626e-05,-3.649428e-05,2.144417e-05,1.691528e-15,-4.040686e-15,0.0001512918979248258
PART_000_R31G119B180A255,1019,0.0001100592,-3.619782e-05,-3.605001e-05,2.104502e-05,1.539363e-06,4.291449e-07,0.00015068463594117482
PART_002_R214G39B40A255,1020,0.0001096797,-3.600962e-05,-3.638555e-05,1.993983e-05,2.757421e-06,8.427112e-07,0.00014999339762467926
PART_002_R214G39B40A255,1021,0.0001088132,-3.575302e-05,-3.571521e-05,1.839346e-05,3.236509e-06,1.009219e-06,0.00014813293353846816
PART_002_R214G39B40A255,1022,0.0001080941,-3.554023e-05,-3.587072e-05,1.700791e-05,2.777535e-06,9.292958e-07,0.00014687389682886259
PART_002_R214G39B40A255,1023,0.0001070854,-3.549985e-05,-3.501024e-05,1.646761e-05,1.152876e-06,3.821224e-07,0.00014518592917496612
PART_003_R247G182B210A255,1024,1.170276e-13,-3.892004e-14,-3.835417e-14,1.470253e-05,-1.174167e-06,-4.145752e-16,2.5546607791140627e-05
PART_003_R247G182B210A255,1025,1.182023e-13,-3.878104e-14,-3.95492e-14,1.534904e-05,-2.883659e-06,-1.017261e-15,2.7050426141738382e-05
PART_003_R247G182B210A255,1026,1.188837e-13,-3.918523e-14,-3.892408e-14,1.675445e-05,-3.411806e-06,-1.102456e-15,2.9615132026590866e-05
PART_003_R247G182B210A255,1027,1.199059e-13,-3.953034e-14,-3.986934e-14,1.826748e-05,-2.858088e-06,-9.34274e-16,3.202512260239501e-05
PART_003_R247G182B210A255,1028,1.202224e-13,-3.965263e-14,-3.931722e-14,1.937548e-05,-1.622226e-06,-4.655098e-16,3.3676735698051674e-05
PART_003_R247G182B210A255,1029,1.205171e-13,-3.983099e-14,-3.995264e-14,1.977994e-05,2.25818e-15,-3.318463e-18,3.4259861050663934e-05
PART_002_R214G39B40A255,1030,1.201932e-13,-3.964342e-14,-3.930778e-14,1.937548e-05,1.622226e-06,4.602282e-16,3.3676735698051674e-05
PART_002_R214G39B40A255,1031,1.198469e-13,-3.951017e-14,-3.985039e-14,1.826748e-05,2.858088e-06,9.284252e-16,3.202512260239501e-05
PART_002_R214G39B40A255,1032,1.187963e-13,-3.91565e-14,-3.889448e-14,1.675445e-05,3.411806e-06,1.099874e-15,2.9615132026590866e-05
PART_002_R214G39B40A255,1033,1.180861e-13,-3.874418e-14,-3.951043e-14,1.534904e-05,2.883659e-06,1.013856e-15,2.7050426141738382e-05
PART_002_R214G39B40A255,1034,1.168814e-13,-3.887071e-14,-3.83059e-14,1.470253e-05,1.174167e-06,4.140331e-16,2.5546607791140627e-05
PART_003_R247G182B210A255,1035,-0.0001070854,3.549985e-05,3.501024e-05,1.646761e-05,-1.152876e-06,3.821224e-07,0.00014518592917496612
PART_003_R247G182B210A255,1036,-0.0001080941,3.554023e-05,3.587072e-05,1.700791e-05,-2.777535e-06,9.292958e-07,0.00014687389682886259
PART_003_R247G182B210A255,1037,-0.0001088132,3.575302e-05,3.571521e-05,1.839346e-05,-3.236509e-06,1.009219e-06,0.00014813293353846816
PART_003_R247G182B210A255,1038,-0.0001096797,3.600962e-05,3.638555e-05,1.993983e-05,-2.757421e-06,8.427112e-07,0.00014999339762467926
PART_003_R247G182B210A255,1039,-0.0001100592,3.619782e-05,3.605001e-05,2.104502e-05,-1.539363e-06,4.291449e-07,0.00015068463594117482
PART_001_R158G218B229A255,1040,-0.0001102764,3.627626e-05,3.649428e-05,2.144417e-05,1.691482e-15,4.034948e-15,0.0001512918979248258
PART_001_R158G218B229A255,1041,-0.0001100592,3.619782e-05,3.605001e-05,2.104502e-05,1.539363e-06,-4.291449e-07,0.00015068463594117482
PART_002_R214G39B40A255,1042,-0.0001096797,3.600962e-05,3.638555e-05,1.993983e-05,2.757421e-06,-8.427112e-07,0.00014999339762467926
PART_002_R214G39B40A255,1043,-0.0001088132,3.575302e-05,3.571521e-05,1.839346e-05,3.236509e-06,-1.009219e-06,0.00014813293353846816
PART_002_R214G39B40A255,1044,-0.0001080941,3.554023e-05,3.587072e-05,1.700791e-05,2.777535e-06,-9.292958e-07,0.00014687389682886259
PART_002_R214G39B40A255,1045,-0.0001070854,3.549985e-05,3.501024e-05,1.646761e-05,1.152876e-06,-3.821224e-07,0.00014518592917496612
PART_003_R247G182B210A255,1046,-0.0002149644,7.223433e-05,7.015324e-05,1.257749e-05,-9.854228e-07,7.758291e-07,0.00028700009358003194
PART_003_R247G182B210A255,1047,-0.0002169917,7.235354e-05,7.174973e-05,1.318327e-05,-2.380238e-06,1.755723e-06,0.00028998959129606034
PART_003_R247G182B210A255,1048,-0.0002183614,7.28349e-05,7.138586e-05,1.437073e-05,-2.817206e-06,1.87197e-06,0.00029159785007822043
PART_003_R247G182B210A255,1049,-0.0002200296,7.337885e-05,7.267893e-05,1.562948e-05,-2.366069e-06,1.581793e-06,0.0002943480745089373
PART_001_R158G218B229A255,1050,-0.0002207597,7.378836e-05,7.196481e-05,1.655963e-05,-1.345288e-06,7.952202e-07,0.00029505042354091294
PART_001_R158G218B229A255,1051,-0.0002211614,7.392306e-05,7.286145e-05,1.689551e-05,2.013047e-15,8.484378e-15,0.0002960051954107958
PART_001_R158G218B229A255,1052,-0.0002207597,7.378836e-05,7.196481e-05,1.655963e-05,1.345288e-06,-7.952202e-07,0.00029505042354091294
PART_001_R158G218B229A255,1053,-0.0002200296,7.337885e-05,7.267893e-05,1.562948e-05,2.366069e-06,-1.581793e-06,0.0002943480745089373
PART_002_R214G39B40A255,1054,-0.0002183614,7.28349e-05,7.138586e-05,1.437073e-05,2.817206e-06,-1.87197e-06,0.00029159785007822043
PART_002_R214G39B40A255,1055,-0.0002169917,7.235354e-05,7.174973e-05,1.318327e-05,2.380238e-06,-1.755723e-06,0.00028998959129606034
PART_002_R214G39B40A255,1056,-0.0002149644,7.223433e-05,7.015324e-05,1.257749e-05,9.854228e-07,-7.758291e-07,0.00028700009358003194
PART_003_R247G182B210A255,1057,-0.0003215268,0.0001060895,0.0001053607,1.179155e-05,-7.246037e-07,9.641686e-07,0.00042774533356277695
PART_003_R247G182B210A255,1058,-0.0003244502,0.0001064749,0.0001077068,1.210595e-05,-1.808513e-06,2.352339e-06,0.0004320820416872747
PART_003_R247G182B210A255,1059,-0.0003263077,0.000107191,0.0001069909,1.302995e-05,-2.116991e-06,2.50314e-06,0.0004340230416983625
PART_001_R158G218B229A255,1060,-0.0003285453,0.0001079172,0.0001087674,1.408422e-05,-1.827892e-06,2.097894e-06,0.00043759529244269976
PART_001_R158G218B229A255,1061,-0.0003294451,0.0001084135,0.0001076699,1.482302e-05,-1.046035e-06,1.05288e-06,0.0004382475201096614
PART_001_R158G218B229A255,1062,-0.0003300093,0.0001085885,0.0001089745,1.5101e-05,9.559597e-16,1.376733e-14,0.00043956978799121314
PART_001_R158G218B229A255,1063,-0.0003294451,0.0001084135,0.0001076699,1.482302e-05,1.046035e-06,-1.05288e-06,0.0004382475201096614
PART_001_R158G218B229A255,1064,-0.0003285453,0.0001079172,0.0001087674,1.408422e-05,1.827892e-06,-2.097894e-06,0.00043759529244269976
PART_001_R158G218B229A255,1065,-0.0003263077,0.000107191,0.0001069909,1.302995e-05,2.116991e-06,-2.50314e-06,0.0004340230416983625
PART_002_R214G39B40A255,1066,-0.0003244502,0.0001064749,0.0001077068,1.210595e-05,1.808513e-06,-2.352339e-06,0.0004320820416872747
PART_002_R214G39B40A255,1067,-0.0003215268,0.0001060895,0.0001053607,1.179155e-05,7.246037e-07,-9.641686e-07,0.00042774533356277695
PART_003_R247G182B210A255,1068,-0.000430726,0.0001435863,0.0001410978,6.927673e-06,-4.67229e-07,1.205744e-06,0.0005732020836748334
PART_003_R247G182B210A255,1069,-0.0004343266,0.0001441488,0.0001437086,7.179507e-06,-1.001704e-06,2.667934e-06,0.0005784101806854761
PART_001_R158G218B229A255,1070,-0.000436372,0.0001452048,0.0001424836,7.693789e-06,-1.287014e-06,2.828722e-06,0.000580398957465137
PART_001_R158G218B229A255,1071,-0.000439003,0.0001461453,0.0001446638,8.319196e-06,-1.189859e-06,2.380421e-06,0.000584604741856137
PART_001_R158G218B229A255,1072,-0.0004399715,0.0001467277,0.000143098,8.796821e-06,-6.780267e-07,1.151327e-06,0.0005850957972142756
PART_001_R158G218B229A255,1073,-0.0004405931,0.0001469608,0.0001447478,8.948321e-06,9.579028e-16,2.019531e-14,0.0005866553019786552
PART_001_R158G218B229A255,1074,-0.0004399715,0.0001467277,0.000143098,8.796821e-06,6.780267e-07,-1.151326e-06,0.0005850957972083723
PART_001_R158G218B229A255,1075,-0.000439003,0.0001461453,0.0001446638,8.319196e-06,1.189859e-06,-2.380421e-06,0.000584604741856137
PART_001_R158G218B229A255,1076,-0.000436372,0.0001452048,0.0001424836,7.693789e-06,1.287014e-06,-2.828722e-06,0.000580398957465137
PART_001_R158G218B229A255,1077,-0.0004343266,0.0001441488,0.0001437086,7.179507e-06,1.001704e-06,-2.667934e-06,0.0005784101806854761
PART_002_R214G39B40A255,1078,-0.000430726,0.0001435863,0.0001410978,6.927673e-06,4.67229e-07,-1.205744e-06,0.0005732020836748334
PART_003_R247G182B210A255,1079,-0.0005386708,0.0001772058,0.0001767566,2.979359e-06,2.326383e-08,1.206564e-06,0.0007156737631025105
PART_001_R158G218B229A255,1080,-0.0005427665,0.0001783039,0.0001799674,2.833812e-06,-3.095388e-07,2.967345e-06,0.0007219387674325415
PART_001_R158G218B229A255,1081,-0.0005445955,0.0001793877,0.0001780996,3.114658e-06,-4.377767e-07,2.74734e-06,0.0007233761761240447
PART_001_R158G218B229A255,1082,-0.000547074,0.0001802503,0.0001803348,3.280301e-06,-4.109813e-07,2.384899e-06,0.0007274008210640467
PART_001_R158G218B229A255,1083,-0.0005479519,0.0001809192,0.0001782285,3.488507e-06,-2.493894e-07,1.048846e-06,0.0007275569686802613
PART_001_R158G218B229A255,1084,-0.0005484564,0.0001810842,0.0001800316,3.52655e-06,2.483501e-16,2.814609e-14,0.0007290404585784438
PART_001_R158G218B229A255,1085,-0.0005479519,0.0001809192,0.0001782285,3.488507e-06,2.493894e-07,-1.048846e-06,0.0007275569686802613
PART_001_R158G218B229A255,1086,-0.000547074,0.0001802503,0.0001803348,3.280301e-06,4.109813e-07,-2.384899e-06,0.0007274008210640467
PART_001_R158G218B229A255,1087,-0.0005445955,0.0001793877,0.0001780996,3.114658e-06,4.377767e-07,-2.74734e-06,0.0007233761761240447
PART_001_R158G218B229A255,1088,-0.0005427665,0.0001783039,0.0001799674,2.833812e-06,3.095388e-07,-2.967345e-06,0.0007219387674325415
PART_001_R158G218B229A255,1089,-0.0005386708,0.0001772058,0.0001767566,2.979359e-06,-2.326383e-08,-1.206564e-06,0.0007156737631025105
PART_003_R247G182B210A255,1090,0.0005379977,-0.0001782469,-0.0001779617,2.990262e-06,-6.734239e-08,-1.211236e-06,0.0007161238547148821
PART_000_R31G119B180A255,1091,0.0005390854,-0.000178602,-0.0001768554,2.828521e-06,-1.554049e-07,-2.610286e-06,0.0007168467456448948
PART_000_R31G119B180A255,1092,0.0005415974,-0.0001793907,-0.000179118,2.821314e-06,-3.180171e-07,-2.817913e-06,0.0007208850851527893
PART_000_R31G119B180A255,1093,0.0005425208,-0.0001799844,-0.0001775455,2.961607e-06,-2.814535e-07,-2.113705e-06,0.000721316538400955
PART_000_R31G119B180A255,1094,0.0005438389,-0.0001804454,-0.0001793361,3.022032e-06,-1.731867e-07,-1.20362e-06,0.0007237522803524903
PART_000_R31G119B180A255,1095,0.0005438197,-0.0001805795,-0.0001776619,3.082277e-06,1.578293e-16,-2.836734e-14,0.0007229645271650567
PART_000_R31G119B180A255,1096,0.0005438389,-0.0001804454,-0.0001793361,3.022032e-06,1.731867e-07,1.20362e-06,0.0007237522803524903
PART_000_R31G119B180A255,1097,0.0005425208,-0.0001799844,-0.0001775455,2.961607e-06,2.814535e-07,2.113705e-06,0.000721316538400955
PART_000_R31G119B180A255,1098,0.0005415974,-0.0001793907,-0.000179118,2.821314e-06,3.180171e-07,2.817913e-06,0.0007208850851527893
PART_000_R31G119B180A255,1099,0.0005390854,-0.000178602,-0.0001768554,2.828521e-06,1.554049e-07,2.610286e-06,0.0007168467456448948
PART_000_R31G119B180A255,1100,0.0005379977,-0.0001782469,-0.0001779617,2.990262e-06,6.734239e-08,1.211236e-06,0.0007161238547148821
PART_003_R247G182B210A255,1101,0.0004286844,-0.0001409037,-0.0001421149,8.905171e-06,-2.694874e-07,-8.45167e-07,0.0005704053144716813
PART_003_R247G182B210A255,1102,0.0004299468,-0.000141394,-0.000141346,8.44479e-06,-6.660104e-07,-2.247542e-06,0.0005715184302971832
PART_000_R31G119B180A255,1103,0.0004323674,-0.0001420347,-0.0001433505,8.616836e-06,-8.863523e-07,-2.466493e-06,0.0005752726825684832
PART_000_R31G119B180A255,1104,0.0004333587,-0.0001425723,-0.0001422317,8.930245e-06,-8.077259e-07,-1.996676e-06,0.0005759805863972983
PART_000_R31G119B180A255,1105,0.000434716,-0.0001429372,-0.0001439405,9.194119e-06,-4.780953e-07,-1.119236e-06,0.0005783786171724083
PART_000_R31G119B180A255,1106,0.0004346971,-0.0001430766,-0.0001425376,9.307884e-06,7.204515e-16,-2.06812e-14,0.0005777293735150242
PART_000_R31G119B180A255,1107,0.000434716,-0.0001429372,-0.0001439405,9.194119e-06,4.780953e-07,1.119236e-06,0.0005783786171724083
PART_000_R31G119B180A255,1108,0.0004333587,-0.0001425723,-0.0001422317,8.930245e-06,8.077259e-07,1.996676e-06,0.0005759805863972983
PART_000_R31G119B180A255,1109,0.0004323674,-0.0001420347,-0.0001433505,8.616836e-06,8.863523e-07,2.466493e-06,0.0005752726825684832
PART_000_R31G119B180A255,1110,0.0004299468,-0.000141394,-0.000141346,8.44479e-06,6.660105e-07,2.247542e-06,0.0005715184302975329
PART_002_R214G39B40A255,1111,0.0004286844,-0.0001409037,-0.0001421149,8.905171e-06,2.694874e-07,8.45167e-07,0.0005704053144716813
PART_003_R247G182B210A255,1112,0.0003218073,-0.0001070381,-0.0001063103,1.176023e-05,-4.75378e-07,-7.781778e-07,0.00042896875967328045
PART_003_R247G182B210A255,1113,0.0003228309,-0.0001071485,-0.0001059469,1.156034e-05,-1.246247e-06,-1.835004e-06,0.00042986364177076186
PART_003_R247G182B210A255,1114,0.0003248576,-0.0001076193,-0.0001076189,1.184461e-05,-1.422665e-06,-2.04195e-06,0.00043298448125502197
PART_000_R31G119B180A255,1115,0.0003258426,-0.0001081593,-0.0001068424,1.229499e-05,-1.259733e-06,-1.686746e-06,0.00043388321329859
PART_000_R31G119B180A255,1116,0.0003270285,-0.0001085025,-0.0001082259,1.27029e-05,-7.234405e-07,-9.394634e-07,0.00043595317348552574
PART_000_R31G119B180A255,1117,0.0003270478,-0.0001086259,-0.000107168,1.284313e-05,5.092396e-16,-1.425273e-14,0.0004355150601545952
PART_000_R31G119B180A255,1118,0.0003270285,-0.0001085025,-0.0001082259,1.27029e-05,7.234405e-07,9.394634e-07,0.00043595317348552574
PART_000_R31G119B180A255,1119,0.0003258426,-0.0001081593,-0.0001068424,1.229499e-05,1.259733e-06,1.686746e-06,0.00043388321329859
PART_000_R31G119B180A255,1120,0.0003248576,-0.0001076193,-0.0001076189,1.184461e-05,1.422665e-06,2.04195e-06,0.00043298448125502197
PART_002_R214G39B40A255,1121,0.0003228309,-0.0001071485,-0.0001059469,1.156034e-05,1.246247e-06,1.835004e-06,0.00042986364177076186
PART_002_R214G39B40A255,1122,0.0003218073,-0.0001070381,-0.0001063103,1.176023e-05,4.75378e-07,7.781778e-07,0.00042896875967328045
PART_003_R247G182B210A255,1123,0.0002138213,-7.040845e-05,-7.082062e-05,1.587052e-05,-6.578121e-07,-5.127256e-07,0.0002857649010521402
PART_003_R247G182B210A255,1124,0.0002145534,-7.05312e-05,-7.056742e-05,1.561017e-05,-1.588924e-06,-1.32764e-06,0.0002864043476937619
PART_003_R247G182B210A255,1125,0.0002160078,-7.082033e-05,-7.179383e-05,1.607531e-05,-1.923621e-06,-1.482328e-06,0.0002886927270698794
PART_003_R247G182B210A255,1126,0.0002167352,-7.112731e-05,-7.1341e-05,1.674693e-05,-1.617423e-06,-1.21241e-06,0.00028944778569797334
PART_000_R31G119B180A255,1127,0.000217579,-7.138135e-05,-7.227858e-05,1.728818e-05,-9.304208e-07,-6.845322e-07,0.0002909618516117823
PART_000_R31G119B180A255,1128,0.0002176242,-7.146297e-05,-7.159441e-05,1.748692e-05,1.514203e-15,-8.871866e-15,0.0002907349030748914
PART_000_R31G119B180A255,1129,0.000217579,-7.138135e-05,-7.227858e-05,1.728818e-05,9.304208e-07,6.845322e-07,0.0002909618516117823
PART_000_R31G119B180A255,1130,0.0002167352,-7.112731e-05,-7.1341e-05,1.674693e-05,1.617423e-06,1.21241e-06,0.00028944778569797334
PART_002_R214G39B40A255,1131,0.0002160078,-7.082033e-05,-7.179383e-05,1.607531e-05,1.923621e-06,1.482328e-06,0.0002886927270698794
PART_002_R214G39B40A255,1132,0.0002145534,-7.05312e-05,-7.056742e-05,1.561017e-05,1.588924e-06,1.32764e-06,0.0002864043476937619
PART_002_R214G39B40A255,1133,0.0002138213,-7.040845e-05,-7.082062e-05,1.587052e-05,6.578121e-07,5.127256e-07,0.0002857649010521402
PART_003_R247G182B210A255,1134,0.0001071787,-3.577144e-05,-3.536089e-05,1.590831e-05,-7.247446e-07,-2.931081e-07,0.00014538665475136964
PART_003_R247G182B210A255,1135,0.0001075592,-3.577273e-05,-3.528921e-05,1.578173e-05,-1.875368e-06,-6.985178e-07,0.00014571951103561058
PART_003_R247G182B210A255,1136,0.0001083116,-3.591814e-05,-3.590958e-05,1.632552e-05,-2.177347e-06,-7.772221e-07,0.0001470258001829319
PART_003_R247G182B210A255,1137,0.0001087144,-3.610594e-05,-3.569763e-05,1.703698e-05,-1.883024e-06,-6.428577e-07,0.00014763678132677024
PART_003_R247G182B210A255,1138,0.0001091695,-3.623724e-05,-3.619112e-05,1.763041e-05,-1.057011e-06,-3.591785e-07,0.0001485686673571667
PART_000_R31G119B180A255,1139,0.0001091953,-3.629316e-05,-3.583637e-05,1.784879e-05,1.052945e-15,-4.248426e-15,0.00014851390806932727
PART_000_R31G119B180A255,1140,0.0001091695,-3.623724e-05,-3.619112e-05,1.763041e-05,1.057011e-06,3.591785e-07,0.0001485686673571667
PART_002_R214G39B40A255,1141,0.0001087144,-3.610594e-05,-3.569763e-05,1.703698e-05,1.883024e-06,6.428577e-07,0.00014763678132677024
PART_002_R214G39B40A255,1142,0.0001083116,-3.591814e-05,-3.590958e-05,1.632552e-05,2.177347e-06,7.77222e-07,0.000147025800181346
PART_002_R214G39B40A255,1143,0.0001075592,-3.577273e-05,-3.528921e-05,1.578173e-05,1.875368e-06,6.985178e-07,0.00014571951103561058
PART_002_R214G39B40A255,1144,0.0001071787,-3.577144e-05,-3.536089e-05,1.590831e-05,7.247446e-07,2.931081e-07,0.00014538665475136964
PART_003_R247G182B210A255,1145,1.173571e-13,-3.903605e-14,-3.883976e-14,1.82422e-05,-7.94205e-07,-3.10507e-16,3.162634767509639e-05
PART_003_R247G182B210A255,1146,1.176755e-13,-3.885022e-14,-3.874973e-14,1.803237e-05,-1.927122e-06,-7.768326e-16,3.14108341350457e-05
PART_003_R247G182B210A255,1147,1.185853e-13,-3.915965e-14,-3.933946e-14,1.862703e-05,-2.313078e-06,-8.465163e-16,3.251076328487155e-05
PART_003_R247G182B210A255,1148,1.189043e-13,-3.942224e-14,-3.890133e-14,1.944883e-05,-1.94897e-06,-7.101003e-16,3.385507963791254e-05
PART_003_R247G182B210A255,1149,1.194979e-13,-3.948187e-14,-3.969274e-14,2.010565e-05,-1.118145e-06,-3.960707e-16,3.48778186028108e-05
PART_003_R247G182B210A255,1150,1.194045e-13,-3.963106e-14,-3.901439e-14,2.034162e-05,1.642958e-15,-1.986292e-18,3.523271934825923e-05
PART_002_R214G39B40A255,1151,1.194686e-13,-3.947298e-14,-3.968382e-14,2.010565e-05,1.118145e-06,3.894768e-16,3.48778186028108e-05
PART_002_R214G39B40A255,1152,1.188451e-13,-3.940663e-14,-3.888147e-14,1.944883e-05,1.94897e-06,7.053396e-16,3.385507963791254e-05
PART_002_R214G39B40A255,1153,1.184963e-13,-3.913016e-14,-3.931082e-14,1.862703e-05,2.313078e-06,8.429367e-16,3.251076328487155e-05
PART_002_R214G39B40A255,1154,1.175568e-13,-3.881227e-14,-3.870983e-14,1.803237e-05,1.927122e-06,7.737527e-16,3.14108341350457e-05
PART_002_R214G39B40A255,1155,1.172089e-13,-3.898726e-14,-3.879191e-14,1.82422e-05,7.94205e-07,3.093076e-16,3.162634767509639e-05
PART_003_R247G182B210A255,1156,-0.0001071787,3.577144e-05,3.536089e-05,1.590831e-05,-7.247446e-07,2.931081e-07,0.00014538665475136964
PART_003_R247G182B210A255,1157,-0.0001075592,3.577273e-05,3.528921e-05,1.578173e-05,-1.875368e-06,6.985178e-07,0.00014571951103561058
PART_003_R247G182B210A255,1158,-0.0001083116,3.591814e-05,3.590958e-05,1.632552e-05,-2.177347e-06,7.77222e-07,0.000147025800181346
PART_003_R247G182B210A255,1159,-0.0001087144,3.610594e-05,3.569763e-05,1.703698e-05,-1.883024e-06,6.428577e-07,0.00014763678132677024
PART_003_R247G182B210A255,1160,-0.0001091695,3.623724e-05,3.619112e-05,1.763041e-05,-1.057011e-06,3.591785e-07,0.0001485686673571667
PART_001_R158G218B229A255,1161,-0.0001091953,3.629316e-05,3.583637e-05,1.784879e-05,1.053094e-15,4.2418e-15,0.00014851390806932727
PART_001_R158G218B229A255,1162,-0.0001091695,3.623724e-05,3.619112e-05,1.763041e-05,1.057011e-06,-3.591785e-07,0.0001485686673571667
PART_002_R214G39B40A255,1163,-0.0001087144,3.610594e-05,3.569763e-05,1.703698e-05,1.883024e-06,-6.428577e-07,0.00014763678132677024
PART_002_R214G39B40A255,1164,-0.0001083116,3.591814e-05,3.590958e-05,1.632552e-05,2.177347e-06,-7.77222e-07,0.000147025800181346
PART_002_R214G39B40A255,1165,-0.0001075592,3.577273e-05,3.528921e-05,1.578173e-05,1.875368e-06,-6.985178e-07,0.00014571951103561058
PART_002_R214G39B40A255,1166,-0.0001071787,3.577144e-05,3.536089e-05,1.590831e-05,7.247446e-07,-2.931081e-07,0.00014538665475136964
PART_003_R247G182B210A255,1167,-0.0002138213,7.040845e-05,7.082062e-05,1.587052e-05,-6.578121e-07,5.127256e-07,0.0002857649010521402
PART_003_R247G182B210A255,1168,-0.0002145534,7.05312e-05,7.056742e-05,1.561017e-05,-1.588924e-06,1.32764e-06,0.0002864043476937619
PART_003_R247G182B210A255,1169,-0.0002160078,7.082033e-05,7.179383e-05,1.607531e-05,-1.923621e-06,1.482328e-06,0.0002886927270698794
PART_003_R247G182B210A255,1170,-0.0002167352,7.112731e-05,7.1341e-05,1.674693e-05,-1.617423e-06,1.21241e-06,0.00028944778569797334
PART_001_R158G218B229A255,1171,-0.000217579,7.138135e-05,7.227857e-05,1.728818e-05,-9.304208e-07,6.845322e-07,0.00029096184661534034
PART_001_R158G218B229A255,1172,-0.0002176242,7.146297e-05,7.159441e-05,1.748692e-05,1.513758e-15,8.864001e-15,0.0002907349030748914
PART_001_R158G218B229A255,1173,-0.000217579,7.138135e-05,7.227857e-05,1.728818e-05,9.304208e-07,-6.845322e-07,0.00029096184661534034
PART_001_R158G218B229A255,1174,-0.0002167352,7.112731e-05,7.1341e-05,1.674693e-05,1.617423e-06,-1.21241e-06,0.00028944778569797334
PART_002_R214G39B40A255,1175,-0.0002160078,7.082033e-05,7.179383e-05,1.607531e-05,1.923621e-06,-1.482328e-06,0.0002886927270698794
PART_002_R214G39B40A255,1176,-0.0002145534,7.05312e-05,7.056742e-05,1.561017e-05,1.588924e-06,-1.32764e-06,0.0002864043476937619
PART_002_R214G39B40A255,1177,-0.0002138213,7.040845e-05,7.082062e-05,1.587052e-05,6.578121e-07,-5.127256e-07,0.0002857649010521402
PART_003_R247G182B210A255,1178,-0.0003218073,0.0001070381,0.0001063103,1.176023e-05,-4.75378e-07,7.781778e-07,0.00042896875967328045
PART_003_R247G182B210A255,1179,-0.0003228309,0.0001071485,0.0001059469,1.156034e-05,-1.246247e-06,1.835004e-06,0.00042986364177076186
PART_003_R247G182B210A255,1180,-0.0003248576,0.0001076193,0.0001076189,1.184461e-05,-1.422665e-06,2.04195e-06,0.00043298448125502197
PART_001_R158G218B229A255,1181,-0.0003258426,0.0001081593,0.0001068424,1.229499e-05,-1.259733e-06,1.686746e-06,0.00043388321329859
PART_001_R158G218B229A255,1182,-0.0003270285,0.0001085025,0.0001082259,1.27029e-05,-7.234405e-07,9.394634e-07,0.00043595317348552574
PART_001_R158G218B229A255,1183,-0.0003270478,0.0001086259,0.000107168,1.284313e-05,5.107058e-16,1.424729e-14,0.0004355150601545952
PART_001_R158G218B229A255,1184,-0.0003270285,0.0001085025,0.0001082259,1.27029e-05,7.234405e-07,-9.394634e-07,0.00043595317348552574
PART_001_R158G218B229A255,1185,-0.0003258426,0.0001081593,0.0001068424,1.229499e-05,1.259733e-06,-1.686746e-06,0.00043388321329859
PART_001_R158G218B229A255,1186,-0.0003248576,0.0001076193,0.0001076189,1.184461e-05,1.422665e-06,-2.04195e-06,0.00043298448125502197
PART_002_R214G39B40A255,1187,-0.0003228309,0.0001071485,0.0001059469,1.156034e-05,1.246247e-06,-1.835004e-06,0.00042986364177076186
PART_002_R214G39B40A255,1188,-0.0003218073,0.0001070381,0.0001063103,1.176023e-05,4.75378e-07,-7.781778e-07,0.00042896875967328045
PART_003_R247G182B210A255,1189,-0.0004286844,0.0001409037,0.0001421149,8.905171e-06,-2.694874e-07,8.45167e-07,0.0005704053144716813
PART_003_R247G182B210A255,1190,-0.0004299468,0.000141394,0.000141346,8.44479e-06,-6.660104e-07,2.247542e-06,0.0005715184302971832
PART_001_R158G218B229A255,1191,-0.0004323674,0.0001420347,0.0001433505,8.616836e-06,-8.863523e-07,2.466493e-06,0.0005752726825684832
PART_001_R158G218B229A255,1192,-0.0004333587,0.0001425723,0.0001422317,8.930245e-06,-8.077259e-07,1.996676e-06,0.0005759805863972983
PART_001_R158G218B229A255,1193,-0.000434716,0.0001429372,0.0001439405,9.194119e-06,-4.780953e-07,1.119236e-06,0.0005783786171724083
PART_001_R158G218B229A255,1194,-0.0004346971,0.0001430766,0.0001425376,9.307884e-06,7.219516e-16,2.066998e-14,0.0005777293735150242
PART_001_R158G218B229A255,1195,-0.000434716,0.0001429372,0.0001439405,9.194119e-06,4.780953e-07,-1.119236e-06,0.0005783786171724083
PART_001_R158G218B229A255,1196,-0.0004333587,0.0001425723,0.0001422317,8.930245e-06,8.077259e-07,-1.996676e-06,0.0005759805863972983
PART_001_R158G218B229A255,1197,-0.0004323674,0.0001420347,0.0001433505,8.616836e-06,8.863523e-07,-2.466493e-06,0.0005752726825684832
PART_001_R158G218B229A255,1198,-0.0004299468,0.000141394,0.000141346,8.44479e-06,6.660105e-07,-2.247542e-06,0.0005715184302975329
PART_002_R214G39B40A255,1199,-0.0004286844,0.0001409037,0.0001421149,8.905171e-06,2.694874e-07,-8.45167e-07,0.0005704053144716813
PART_003_R247G182B210A255,1200,-0.0005379977,0.0001782469,0.0001779617,2.990262e-06,-6.734239e-08,1.211236e-06,0.0007161238547148821
PART_001_R158G218B229A255,1201,-0.0005390854,0.000178602,0.0001768554,2.828521e-06,-1.554049e-07,2.610286e-06,0.0007168467456448948
PART_001_R158G218B229A255,1202,-0.0005415974,0.0001793907,0.000179118,2.821314e-06,-3.180171e-07,2.817913e-06,0.0007208850851527893
PART_001_R158G218B229A255,1203,-0.0005425208,0.0001799844,0.0001775455,2.961607e-06,-2.814535e-07,2.113705e-06,0.000721316538400955
PART_001_R158G218B229A255,1204,-0.0005438389,0.0001804454,0.0001793361,3.022032e-06,-1.731867e-07,1.20362e-06,0.0007237522803524903
PART_001_R158G218B229A255,1205,-0.0005438197,0.0001805795,0.0001776619,3.082277e-06,1.607042e-16,2.835895e-14,0.0007229645271650567
PART_001_R158G218B229A255,1206,-0.0005438389,0.0001804454,0.0001793361,3.022032e-06,1.731867e-07,-1.20362e-06,0.0007237522803524903
PART_001_R158G218B229A255,1207,-0.0005425208,0.0001799844,0.0001775455,2.961607e-06,2.814535e-07,-2.113705e-06,0.000721316538400955
PART_001_R158G218B229A255,1208,-0.0005415974,0.0001793907,0.000179118,2.821314e-06,3.180171e-07,-2.817913e-06,0.0007208850851527893
PART_001_R158G218B229A255,1209,-0.0005390854,0.000178602,0.0001768554,2.828521e-06,1.554049e-07,-2.610286e-06,0.0007168467456448948
PART_001_R158G218B229A255,1210,-0.0005379977,0.0001782469,0.0001779617,2.990262e-06,6.734239e-08,-1.211236e-06,0.0007161238547148821
PART_003_R247G182B210A255,1211,0.0005332916,-0.0001757371,-0.0001753034,3.488812e-06,5.208042e-08,-1.025819e-06,0.0007088399397964795
PART_000_R31G119B180A255,1212,0.0005351448,-0.0001760741,-0.0001772887,3.071754e-06,-1.26653e-07,-2.33683e-06,0.0007118584008849748
PART_000_R31G119B180A255,1213,0.0005357971,-0.0001765188,-0.0001761628,3.071994e-06,-1.897305e-07,-2.502995e-06,0.0007121711157121693
PART_000_R31G119B180A255,1214,0.0005372901,-0.0001768424,-0.0001779207,3.059666e-06,-1.929406e-07,-1.979175e-06,0.0007147002078558897
PART_000_R31G119B180A255,1215,0.0005375195,-0.0001771343,-0.0001765486,3.132604e-06,-1.137945e-07,-1.072168e-06,0.0007143841762468972
PART_000_R31G119B180A255,1216,0.0005381309,-0.0001771945,-0.0001780629,3.123758e-06,8.554186e-17,-2.821188e-14,0.000715780444112025
PART_000_R31G119B180A255,1217,0.0005375195,-0.0001771343,-0.0001765486,3.132604e-06,1.137945e-07,1.072168e-06,0.0007143841762468972
PART_000_R31G119B180A255,1218,0.0005372901,-0.0001768424,-0.0001779207,3.059666e-06,1.929406e-07,1.979175e-06,0.0007147002078558897
PART_000_R31G119B180A255,1219,0.0005357971,-0.0001765188,-0.0001761628,3.071994e-06,1.897305e-07,2.502995e-06,0.0007121711157121693
PART_000_R31G119B180A255,1220,0.0005351448,-0.0001760741,-0.0001772887,3.071754e-06,1.26653e-07,2.33683e-06,0.0007118584008849748
PART_000_R31G119B180A255,1221,0.0005332916,-0.0001757371,-0.0001753034,3.488812e-06,-5.208041e-08,1.025819e-06,0.0007088399397964774
PART_003_R247G182B210A255,1222,0.000426615,-0.0001414371,-0.0001402308,8.817485e-06,-2.22749e-07,-7.647951e-07,0.0005676570707187849
PART_003_R247G182B210A255,1223,0.000428207,-0.0001415799,-0.0001417504,8.195519e-06,-4.184513e-07,-1.713935e-06,0.0005700571258807069
PART_000_R31G119B180A255,1224,0.0004289641,-0.0001420062,-0.0001409455,8.031808e-06,-5.750194e-07,-2.104955e-06,0.000570622812930927
PART_000_R31G119B180A255,1225,0.0004304637,-0.0001424003,-0.0001425374,8.106249e-06,-5.457869e-07,-1.672375e-06,0.0005731126755968694
PART_000_R31G119B180A255,1226,0.0004307541,-0.0001426392,-0.0001414898,8.208872e-06,-3.161738e-07,-9.526994e-07,0.0005729985330616675
PART_000_R31G119B180A255,1227,0.0004313699,-0.0001427473,-0.000142818,8.252694e-06,5.18662e-16,-2.055215e-14,0.0005743304582687069
PART_000_R31G119B180A255,1228,0.0004307541,-0.0001426392,-0.0001414898,8.208872e-06,3.161738e-07,9.526994e-07,0.0005729985330616675
PART_000_R31G119B180A255,1229,0.0004304637,-0.0001424003,-0.0001425374,8.106249e-06,5.457869e-07,1.672375e-06,0.0005731126755968694
PART_000_R31G119B180A255,1230,0.0004289641,-0.0001420062,-0.0001409455,8.031808e-06,5.750194e-07,2.104955e-06,0.000570622812930927
PART_000_R31G119B180A255,1231,0.000428207,-0.0001415799,-0.0001417504,8.195519e-06,4.184513e-07,1.713935e-06,0.0005700571258807069
PART_002_R214G39B40A255,1232,0.000426615,-0.0001414371,-0.0001402308,8.817485e-06,2.22749e-07,7.647951e-07,0.0005676570707187849
PART_003_R247G182B210A255,1233,0.0003190951,-0.0001051433,-0.0001049154,1.366927e-05,-3.065061e-07,-5.660656e-07,0.00042478627331561365
PART_003_R247G182B210A255,1234,0.0003204138,-0.0001052613,-0.0001062937,1.297359e-05,-8.125001e-07,-1.347519e-06,0.00042679291651464635
PART_003_R247G182B210A255,1235,0.0003211238,-0.0001055332,-0.0001057823,1.283633e-05,-9.497239e-07,-1.641291e-06,0.000427372951293148
PART_000_R31G119B180A255,1236,0.0003223613,-0.0001058381,-0.0001070329,1.299697e-05,-8.367037e-07,-1.327269e-06,0.0004293971532116888
PART_000_R31G119B180A255,1237,0.0003226568,-0.0001060438,-0.0001062884,1.316375e-05,-4.876412e-07,-7.664037e-07,0.000429431546214506
PART_000_R31G119B180A255,1238,0.0003231643,-0.000106117,-0.0001073176,1.324736e-05,2.455743e-16,-1.421064e-14,0.0004304947720237016
PART_000_R31G119B180A255,1239,0.0003226568,-0.0001060438,-0.0001062884,1.316375e-05,4.876412e-07,7.664036e-07,0.0004294315462139706
PART_000_R31G119B180A255,1240,0.0003223613,-0.0001058381,-0.0001070329,1.299697e-05,8.367037e-07,1.327269e-06,0.0004293971532116888
PART_000_R31G119B180A255,1241,0.0003211238,-0.0001055332,-0.0001057823,1.283633e-05,9.497239e-07,1.641291e-06,0.000427372951293148
PART_002_R214G39B40A255,1242,0.0003204138,-0.0001052613,-0.0001062937,1.297359e-05,8.125001e-07,1.347519e-06,0.00042679291651464635
PART_002_R214G39B40A255,1243,0.0003190951,-0.0001051433,-0.0001049154,1.366927e-05,3.065061e-07,5.660656e-07,0.00042478627331561365
PART_003_R247G182B210A255,1244,0.0002129976,-7.077754e-05,-6.993464e-05,1.552589e-05,-4.320537e-07,-4.225113e-07,0.0002846297627381838
PART_003_R247G182B210A255,1245,0.0002138993,-7.079821e-05,-7.082471e-05,1.493178e-05,-1.038571e-06,-9.440096e-07,0.0002858933383272704
PART_003_R247G182B210A255,1246,0.0002144244,-7.098145e-05,-7.05418e-05,1.48539e-05,-1.277796e-06,-1.146349e-06,0.0002863598601340012
PART_003_R247G182B210A255,1247,0.0002153361,-7.120303e-05,-7.144323e-05,1.503391e-05,-1.075933e-06,-9.342773e-07,0.00028785014205931627
PART_000_R31G119B180A255,1248,0.0002155904,-7.138226e-05,-7.094242e-05,1.524317e-05,-6.248772e-07,-5.363024e-07,0.0002879694010866632
PART_000_R31G119B180A255,1249,0.0002159409,-7.143592e-05,-7.165266e-05,1.533701e-05,1.13185e-15,-8.871631e-15,0.0002887099605637587
PART_000_R31G119B180A255,1250,0.0002155904,-7.138226e-05,-7.094242e-05,1.524317e-05,6.248772e-07,5.363024e-07,0.0002879694010866632
PART_000_R31G119B180A255,1251,0.0002153361,-7.120303e-05,-7.144323e-05,1.503391e-05,1.075933e-06,9.342773e-07,0.00028785014205931627
PART_002_R214G39B40A255,1252,0.0002144244,-7.098145e-05,-7.05418e-05,1.48539e-05,1.277796e-06,1.146349e-06,0.0002863598601340012
PART_002_R214G39B40A255,1253,0.0002138993,-7.079821e-05,-7.082471e-05,1.493178e-05,1.038571e-06,9.440095e-07,0.0002858933383262798
PART_002_R214G39B40A255,1254,0.0002129976,-7.077754e-05,-6.993464e-05,1.552589e-05,4.320537e-07,4.225113e-07,0.0002846297627381838
PART_003_R247G182B210A255,1255,0.0001062372,-3.502192e-05,-3.492275e-05,1.843622e-05,-4.93803e-07,-2.040158e-07,0.00014477803412861525
PART_003_R247G182B210A255,1256,0.0001066991,-3.503513e-05,-3.541563e-05,1.777258e-05,-1.220784e-06,-4.877641e-07,0.00014524271097099095
PART_003_R247G182B210A255,1257,0.0001069825,-3.512013e-05,-3.528036e-05,1.774433e-05,-1.446301e-06,-5.9494e-07,0.00014549183204901918
PART_003_R247G182B210A255,1258,0.0001074488,-3.52244e-05,-3.573935e-05,1.803421e-05,-1.261307e-06,-4.808045e-07,0.00014632341279508621
PART_003_R247G182B210A255,1259,0.0001075818,-3.529924e-05,-3.550653e-05,1.830173e-05,-7.079584e-07,-2.777287e-07,0.00014646244347738706
PART_000_R31G119B180A255,1260,0.0001077658,-3.533595e-05,-3.585417e-05,1.841817e-05,6.526315e-16,-4.258277e-15,0.00014686805150325444
PART_000_R31G119B180A255,1261,0.0001075818,-3.529924e-05,-3.550653e-05,1.830173e-05,7.079584e-07,2.777287e-07,0.00014646244347738706
PART_002_R214G39B40A255,1262,0.0001074488,-3.52244e-05,-3.573935e-05,1.803421e-05,1.261307e-06,4.808045e-07,0.00014632341279508621
PART_002_R214G39B40A255,1263,0.0001069825,-3.512013e-05,-3.528036e-05,1.774433e-05,1.446301e-06,5.9494e-07,0.00014549183204901918
PART_002_R214G39B40A255,1264,0.0001066991,-3.503513e-05,-3.541563e-05,1.777258e-05,1.220784e-06,4.877641e-07,0.00014524271097099095
PART_002_R214G39B40A255,1265,0.0001062372,-3.502192e-05,-3.492275e-05,1.843622e-05,4.93803e-07,2.040158e-07,0.00014477803412861525
PART_003_R247G182B210A255,1266,1.161826e-13,-3.845925e-14,-3.823398e-14,1.769685e-05,-5.07965e-07,-2.217532e-16,3.066446779403117e-05
PART_003_R247G182B210A255,1267,1.167644e-13,-3.828556e-14,-3.906014e-14,1.711033e-05,-1.257182e-06,-5.232394e-16,2.971584927055042e-05
PART_003_R247G182B210A255,1268,1.169603e-13,-3.854534e-14,-3.844538e-14,1.709472e-05,-1.535356e-06,-6.677262e-16,2.972810639404077e-05
PART_003_R247G182B210A255,1269,1.175677e-13,-3.872488e-14,-3.917346e-14,1.734697e-05,-1.29307e-06,-5.202743e-16,3.0129191735215865e-05
PART_003_R247G182B210A255,1270,1.175835e-13,-3.87264e-14,-3.871217e-14,1.760657e-05,-7.515727e-07,-3.122136e-16,3.052324533965639e-05
PART_003_R247G182B210A255,1271,1.178865e-13,-3.886149e-14,-3.926982e-14,1.772153e-05,1.190462e-15,-4.207848e-18,3.0694590347856084e-05
PART_002_R214G39B40A255,1272,1.17552e-13,-3.871339e-14,-3.870186e-14,1.760657e-05,7.515727e-07,3.060182e-16,3.052324533965639e-05
PART_002_R214G39B40A255,1273,1.175077e-13,-3.870168e-14,-3.915519e-14,1.734697e-05,1.29307e-06,5.138424e-16,3.0129191735215865e-05
PART_002_R214G39B40A255,1274,1.168704e-13,-3.851563e-14,-3.841471e-14,1.709472e-05,1.535356e-06,6.643144e-16,2.972810639404077e-05
PART_002_R214G39B40A255,1275,1.166446e-13,-3.824458e-14,-3.902114e-14,1.711033e-05,1.257182e-06,5.193989e-16,2.971584927055042e-05
PART_002_R214G39B40A255,1276,1.16033e-13,-3.840808e-14,-3.818505e-14,1.769685e-05,5.07965e-07,2.208808e-16,3.066446779403117e-05
PART_003_R247G182B210A255,1277,-0.0001062372,3.502192e-05,3.492275e-05,1.843622e-05,-4.93803e-07,2.040158e-07,0.00014477803412861525
PART_003_R247G182B210A255,1278,-0.0001066991,3.503513e-05,3.541563e-05,1.777258e-05,-1.220784e-06,4.877641e-07,0.00014524271097099095
PART_003_R247G182B210A255,1279,-0.0001069825,3.512013e-05,3.528036e-05,1.774433e-05,-1.446301e-06,5.9494e-07,0.00014549183204901918
PART_003_R247G182B210A255,1280,-0.0001074488,3.52244e-05,3.573935e-05,1.803421e-05,-1.261307e-06,4.808045e-07,0.00014632341279508621
PART_003_R247G182B210A255,1281,-0.0001075818,3.529924e-05,3.550653e-05,1.830173e-05,-7.079584e-07,2.777287e-07,0.00014646244347738706
PART_001_R158G218B229A255,1282,-0.0001077658,3.533595e-05,3.585417e-05,1.841817e-05,6.518583e-16,4.251983e-15,0.00014686805150325444
PART_001_R158G218B229A255,1283,-0.0001075818,3.529924e-05,3.550653e-05,1.830173e-05,7.079584e-07,-2.777287e-07,0.00014646244347738706
PART_002_R214G39B40A255,1284,-0.0001074488,3.52244e-05,3.573935e-05,1.803421e-05,1.261307e-06,-4.808045e-07,0.00014632341279508621
PART_002_R214G39B40A255,1285,-0.0001069825,3.512013e-05,3.528036e-05,1.774433e-05,1.446301e-06,-5.9494e-07,0.00014549183204901918
PART_002_R214G39B40A255,1286,-0.0001066991,3.503513e-05,3.541563e-05,1.777258e-05,1.220784e-06,-4.877641e-07,0.00014524271097099095
PART_002_R214G39B40A255,1287,-0.0001062372,3.502192e-05,3.492275e-05,1.843622e-05,4.93803e-07,-2.040158e-07,0.00014477803412861525
PART_003_R247G182B210A255,1288,-0.0002129976,7.077754e-05,6.993464e-05,1.552589e-05,-4.320537e-07,4.225113e-07,0.0002846297627381838
PART_003_R247G182B210A255,1289,-0.0002138993,7.079821e-05,7.082471e-05,1.493178e-05,-1.038571e-06,9.440096e-07,0.0002858933383272704
PART_003_R247G182B210A255,1290,-0.0002144244,7.098145e-05,7.05418e-05,1.48539e-05,-1.277796e-06,1.146349e-06,0.0002863598601340012
PART_003_R247G182B210A255,1291,-0.0002153361,7.120303e-05,7.144323e-05,1.503391e-05,-1.075933e-06,9.342773e-07,0.00028785014205931627
PART_001_R158G218B229A255,1292,-0.0002155904,7.138226e-05,7.094242e-05,1.524317e-05,-6.248772e-07,5.363024e-07,0.0002879694010866632
PART_001_R158G218B229A255,1293,-0.0002159409,7.143592e-05,7.165266e-05,1.533701e-05,1.133422e-15,8.86393e-15,0.0002887099605637587
PART_001_R158G218B229A255,1294,-0.0002155904,7.138226e-05,7.094242e-05,1.524317e-05,6.248772e-07,-5.363024e-07,0.0002879694010866632
PART_001_R158G218B229A255,1295,-0.0002153361,7.120303e-05,7.144323e-05,1.503391e-05,1.075933e-06,-9.342773e-07,0.00028785014205931627
PART_002_R214G39B40A255,1296,-0.0002144244,7.098145e-05,7.05418e-05,1.48539e-05,1.277796e-06,-1.146349e-06,0.0002863598601340012
PART_002_R214G39B40A255,1297,-0.0002138993,7.079821e-05,7.082471e-05,1.493178e-05,1.038571e-06,-9.440095e-07,0.0002858933383262798
PART_002_R214G39B40A255,1298,-0.0002129976,7.077754e-05,6.993464e-05,1.552589e-05,4.320537e-07,-4.225113e-07,0.0002846297627381838
PART_003_R247G182B210A255,1299,-0.0003190951,0.0001051433,0.0001049154,1.366927e-05,-3.065061e-07,5.660656e-07,0.00042478627331561365
PART_003_R247G182B210A255,1300,-0.0003204138,0.0001052613,0.0001062937,1.297359e-05,-8.125001e-07,1.347519e-06,0.00042679291651464635
PART_003_R247G182B210A255,1301,-0.0003211238,0.0001055332,0.0001057823,1.283633e-05,-9.497239e-07,1.641291e-06,0.000427372951293148
PART_001_R158G218B229A255,1302,-0.0003223613,0.0001058381,0.0001070329,1.299697e-05,-8.367037e-07,1.327269e-06,0.0004293971532116888
PART_001_R158G218B229A255,1303,-0.0003226568,0.0001060438,0.0001062884,1.316375e-05,-4.876412e-07,7.664037e-07,0.000429431546214506
PART_001_R158G218B229A255,1304,-0.0003231643,0.000106117,0.0001073176,1.324736e-05,2.52631e-16,1.420401e-14,0.0004304947720237016
PART_001_R158G218B229A255,1305,-0.0003226568,0.0001060438,0.0001062884,1.316375e-05,4.876412e-07,-7.664036e-07,0.0004294315462139706
PART_001_R158G218B229A255,1306,-0.0003223613,0.0001058381,0.0001070329,1.299697e-05,8.367037e-07,-1.327269e-06,0.0004293971532116888
PART_001_R158G218B229A255,1307,-0.0003211238,0.0001055332,0.0001057823,1.283633e-05,9.497239e-07,-1.641291e-06,0.000427372951293148
PART_002_R214G39B40A255,1308,-0.0003204138,0.0001052613,0.0001062937,1.297359e-05,8.125001e-07,-1.347519e-06,0.00042679291651464635
PART_002_R214G39B40A255,1309,-0.0003190951,0.0001051433,0.0001049154,1.366927e-05,3.065061e-07,-5.660656e-07,0.00042478627331561365
PART_003_R247G182B210A255,1310,-0.000426615,0.0001414371,0.0001402308,8.817485e-06,-2.22749e-07,7.647951e-07,0.0005676570707187849
PART_003_R247G182B210A255,1311,-0.000428207,0.0001415799,0.0001417504,8.195519e-06,-4.184513e-07,1.713935e-06,0.0005700571258807069
PART_001_R158G218B229A255,1312,-0.0004289641,0.0001420062,0.0001409455,8.031808e-06,-5.750194e-07,2.104955e-06,0.000570622812930927
PART_001_R158G218B229A255,1313,-0.0004304637,0.0001424003,0.0001425374,8.106249e-06,-5.457869e-07,1.672375e-06,0.0005731126755968694
PART_001_R158G218B229A255,1314,-0.0004307541,0.0001426392,0.0001414898,8.208872e-06,-3.161738e-07,9.526994e-07,0.0005729985330616675
PART_001_R158G218B229A255,1315,-0.0004313699,0.0001427473,0.000142818,8.252694e-06,5.264818e-16,2.054318e-14,0.0005743304582687069
PART_001_R158G218B229A255,1316,-0.0004307541,0.0001426392,0.0001414898,8.208872e-06,3.161738e-07,-9.526994e-07,0.0005729985330616675
PART_001_R158G218B229A255,1317,-0.0004304637,0.0001424003,0.0001425374,8.106249e-06,5.457869e-07,-1.672375e-06,0.0005731126755968694
PART_001_R158G218B229A255,1318,-0.0004289641,0.0001420062,0.0001409455,8.031808e-06,5.750194e-07,-2.104955e-06,0.000570622812930927
PART_001_R158G218B229A255,1319,-0.000428207,0.0001415799,0.0001417504,8.195519e-06,4.184513e-07,-1.713935e-06,0.0005700571258807069
PART_002_R214G39B40A255,1320,-0.000426615,0.0001414371,0.0001402308,8.817485e-06,2.22749e-07,-7.647951e-07,0.0005676570707187849
PART_003_R247G182B210A255,1321,-0.0005332916,0.0001757371,0.0001753034,3.488812e-06,5.208042e-08,1.025819e-06,0.0007088399397964795
PART_001_R158G218B229A255,1322,-0.0005351448,0.0001760741,0.0001772887,3.071754e-06,-1.26653e-07,2.33683e-06,0.0007118584008849748
PART_001_R158G218B229A255,1323,-0.0005357971,0.0001765188,0.0001761628,3.071994e-06,-1.897305e-07,2.502995e-06,0.0007121711157121693
PART_001_R158G218B229A255,1324,-0.0005372901,0.0001768424,0.0001779207,3.059666e-06,-1.929406e-07,1.979175e-06,0.0007147002078558897
PART_001_R158G218B229A255,1325,-0.0005375195,0.0001771343,0.0001765486,3.132604e-06,-1.137945e-07,1.072168e-06,0.0007143841762468972
PART_001_R158G218B229A255,1326,-0.0005381309,0.0001771945,0.0001780629,3.123758e-06,8.505227e-17,2.820426e-14,0.000715780444112025
PART_001_R158G218B229A255,1327,-0.0005375195,0.0001771343,0.0001765486,3.132604e-06,1.137945e-07,-1.072168e-06,0.0007143841762468972
PART_001_R158G218B229A255,1328,-0.0005372901,0.0001768424,0.0001779207,3.059666e-06,1.929406e-07,-1.979175e-06,0.0007147002078558897
PART_001_R158G218B229A255,1329,-0.0005357971,0.0001765188,0.0001761628,3.071994e-06,1.897305e-07,-2.502995e-06,0.0007121711157121693
PART_001_R158G218B229A255,1330,-0.0005351448,0.0001760741,0.0001772887,3.071754e-06,1.26653e-07,-2.33683e-06,0.0007118584008849748
PART_001_R158G218B229A255,1331,-0.0005332916,0.0001757371,0.0001753034,3.488812e-06,-5.208041e-08,-1.025819e-06,0.0007088399397964774
PART_003_R247G182B210A255,1332,0.0005307361,-0.0001755027,-0.0001754352,3.406756e-06,-4.51898e-09,-9.30278e-07,0.000706231541588703
PART_000_R31G119B180A255,1333,0.0005308823,-0.0001755196,-0.0001745979,3.017479e-06,-3.872602e-08,-2.100152e-06,0.0007059702225846353
PART_000_R31G119B180A255,1334,0.0005321428,-0.0001758366,-0.0001760955,2.881486e-06,-1.368079e-07,-2.183605e-06,0.0007081366133356806
PART_000_R31G119B180A255,1335,0.0005324177,-0.0001760395,-0.0001751126,2.869252e-06,-1.148838e-07,-1.784203e-06,0.0007080184192192931
PART_000_R31G119B180A255,1336,0.0005332725,-0.0001762457,-0.0001764552,2.850244e-06,-7.773625e-08,-9.532382e-07,0.000709642078709359
PART_000_R31G119B180A255,1337,0.0005330609,-0.0001762795,-0.0001752786,2.873028e-06,4.216022e-17,-2.858747e-14,0.0007088579469373793
PART_000_R31G119B180A255,1338,0.0005332725,-0.0001762457,-0.0001764552,2.850244e-06,7.773625e-08,9.532382e-07,0.000709642078709359
PART_000_R31G119B180A255,1339,0.0005324177,-0.0001760395,-0.0001751126,2.869252e-06,1.148838e-07,1.784203e-06,0.0007080184192192931
PART_000_R31G119B180A255,1340,0.0005321428,-0.0001758366,-0.0001760955,2.881486e-06,1.368079e-07,2.183605e-06,0.0007081366133356806
PART_000_R31G119B180A255,1341,0.0005308823,-0.0001755196,-0.0001745979,3.017479e-06,3.872602e-08,2.100152e-06,0.0007059702225846353
PART_000_R31G119B180A255,1342,0.0005307361,-0.0001755027,-0.0001754352,3.406756e-06,4.518979e-09,9.30278e-07,0.000706231541588703
PART_003_R247G182B210A255,1343,0.0004238052,-0.0001394981,-0.0001403591,9.68622e-06,-1.255711e-07,-5.193618e-07,0.0005639846437104441
PART_003_R247G182B210A255,1344,0.0004240819,-0.0001396482,-0.0001396564,8.785604e-06,-2.579622e-07,-1.485223e-06,0.0005639455878970715
PART_000_R31G119B180A255,1345,0.0004252653,-0.0001399012,-0.000140925,8.482719e-06,-3.640108e-07,-1.643052e-06,0.0005658773756632267
PART_000_R31G119B180A255,1346,0.0004255799,-0.00014011,-0.0001401791,8.405012e-06,-3.499718e-07,-1.44409e-06,0.0005659175851814795
PART_000_R31G119B180A255,1347,0.0004264106,-0.0001402484,-0.0001413988,8.412654e-06,-2.0712e-07,-7.720244e-07,0.0005674238849553628
PART_000_R31G119B180A255,1348,0.0004262247,-0.0001403115,-0.0001404064,8.425614e-06,3.927599e-16,-2.101749e-14,0.000566771569607775
PART_000_R31G119B180A255,1349,0.0004264106,-0.0001402484,-0.0001413988,8.412654e-06,2.0712e-07,7.720244e-07,0.0005674238849553628
PART_000_R31G119B180A255,1350,0.0004255799,-0.00014011,-0.0001401791,8.405012e-06,3.499719e-07,1.44409e-06,0.000565917585181665
PART_000_R31G119B180A255,1351,0.0004252653,-0.0001399012,-0.000140925,8.482719e-06,3.640108e-07,1.643052e-06,0.0005658773756632267
PART_000_R31G119B180A255,1352,0.0004240819,-0.0001396482,-0.0001396564,8.785604e-06,2.579622e-07,1.485223e-06,0.0005639455878970715
PART_002_R214G39B40A255,1353,0.0004238052,-0.0001394981,-0.0001403591,9.68622e-06,1.255711e-07,5.193618e-07,0.0005639846437104441
PART_003_R247G182B210A255,1354,0.000318018,-0.0001052889,-0.0001051114,1.343793e-05,-1.921109e-07,-4.271819e-07,0.0004238584883897991
PART_003_R247G182B210A255,1355,0.0003182432,-0.0001052657,-0.0001047261,1.257116e-05,-5.40895e-07,-1.080915e-06,0.0004238042462860437
PART_003_R247G182B210A255,1356,0.0003192175,-0.0001054254,-0.0001057621,1.216502e-05,-5.981393e-07,-1.212887e-06,0.0004253400203167134
PART_000_R31G119B180A255,1357,0.0003195592,-0.0001056546,-0.0001052143,1.203805e-05,-5.482064e-07,-1.097066e-06,0.00042551028675461364
PART_000_R31G119B180A255,1358,0.0003202569,-0.0001057915,-0.0001061811,1.20492e-05,-3.158994e-07,-5.881304e-07,0.0004267555109411886
PART_000_R31G119B180A255,1359,0.000320132,-0.0001058427,-0.0001054304,1.205179e-05,2.251837e-17,-1.463064e-14,0.00042628009874867755
PART_000_R31G119B180A255,1360,0.0003202569,-0.0001057915,-0.0001061811,1.20492e-05,3.158994e-07,5.881304e-07,0.0004267555109411886
PART_000_R31G119B180A255,1361,0.0003195592,-0.0001056546,-0.0001052143,1.203805e-05,5.482064e-07,1.097066e-06,0.00042551028675461364
PART_000_R31G119B180A255,1362,0.0003192175,-0.0001054254,-0.0001057621,1.216502e-05,5.981393e-07,1.212887e-06,0.0004253400203167134
PART_002_R214G39B40A255,1363,0.0003182432,-0.0001052657,-0.0001047261,1.257116e-05,5.40895e-07,1.080915e-06,0.0004238042462860437
PART_002_R214G39B40A255,1364,0.000318018,-0.0001052889,-0.0001051114,1.343793e-05,1.921109e-07,4.271819e-07,0.0004238584883897991
PART_003_R247G182B210A255,1365,0.0002116107,-6.9646e-05,-7.008113e-05,1.715566e-05,-2.768469e-07,-2.636562e-07,0.0002830393830324293
PART_003_R247G182B210A255,1366,0.0002117929,-6.968819e-05,-6.977705e-05,1.619882e-05,-6.614301e-07,-7.372179e-07,0.00028292538341681203
PART_003_R247G182B210A255,1367,0.0002124916,-6.979229e-05,-7.052999e-05,1.580813e-05,-8.359067e-07,-8.218757e-07,0.00028398379031521824
PART_003_R247G182B210A255,1368,0.0002127447,-6.99019e-05,-7.020128e-05,1.571619e-05,-7.010726e-07,-7.37224e-07,0.00028410897513005573
PART_000_R31G119B180A255,1369,0.0002132335,-7.001109e-05,-7.084668e-05,1.574764e-05,-4.101853e-07,-4.017484e-07,0.00028497337731769754
PART_000_R31G119B180A255,1370,0.0002131637,-7.004051e-05,-7.035983e-05,1.576444e-05,8.657121e-16,-9.175332e-15,0.0002846765041250586
PART_000_R31G119B180A255,1371,0.0002132335,-7.001109e-05,-7.084668e-05,1.574764e-05,4.101853e-07,4.017484e-07,0.00028497337731769754
PART_000_R31G119B180A255,1372,0.0002127447,-6.99019e-05,-7.020128e-05,1.571619e-05,7.010726e-07,7.37224e-07,0.00028410897513005573
PART_002_R214G39B40A255,1373,0.0002124916,-6.979229e-05,-7.052999e-05,1.580813e-05,8.359067e-07,8.218757e-07,0.00028398379031521824
PART_002_R214G39B40A255,1374,0.0002117929,-6.968819e-05,-6.977705e-05,1.619882e-05,6.614301e-07,7.372179e-07,0.00028292538341681203
PART_002_R214G39B40A255,1375,0.0002116107,-6.9646e-05,-7.008113e-05,1.715566e-05,2.768469e-07,2.636562e-07,0.0002830393830324293
PART_003_R247G182B210A255,1376,0.0001059378,-3.510292e-05,-3.50088e-05,1.802705e-05,-2.97875e-07,-1.467606e-07,0.0001444107793892198
PART_003_R247G182B210A255,1377,0.0001060295,-3.508366e-05,-3.489735e-05,1.713004e-05,-8.005021e-07,-3.732454e-07,0.0001441156584212454
PART_003_R247G182B210A255,1378,0.0001063873,-3.513425e-05,-3.526961e-05,1.67462e-05,-9.263887e-07,-4.169556e-07,0.00014454039428840533
PART_003_R247G182B210A255,1379,0.0001065332,-3.521152e-05,-3.511085e-05,1.663624e-05,-8.290854e-07,-3.764912e-07,0.00014460320594665327
PART_003_R247G182B210A255,1380,0.0001067925,-3.526114e-05,-3.545106e-05,1.666461e-05,-4.615209e-07,-2.029288e-07,0.00014505220356284877
PART_000_R31G119B180A255,1381,0.0001067582,-3.528756e-05,-3.51958e-05,1.668132e-05,3.323965e-16,-4.422489e-15,0.00014490952883011108
PART_000_R31G119B180A255,1382,0.0001067925,-3.526114e-05,-3.545106e-05,1.666461e-05,4.615209e-07,2.029288e-07,0.00014505220356284877
PART_002_R214G39B40A255,1383,0.0001065332,-3.521152e-05,-3.511085e-05,1.663624e-05,8.290854e-07,3.764912e-07,0.00014460320594665327
PART_002_R214G39B40A255,1384,0.0001063873,-3.513425e-05,-3.526961e-05,1.67462e-05,9.263887e-07,4.169556e-07,0.00014454039428840533
PART_002_R214G39B40A255,1385,0.0001060295,-3.508366e-05,-3.489735e-05,1.713004e-05,8.005021e-07,3.732454e-07,0.0001441156584212454
PART_002_R214G39B40A255,1386,0.0001059378,-3.510292e-05,-3.50088e-05,1.802705e-05,2.97875e-07,1.467606e-07,0.0001444107793892198
PART_003_R247G182B210A255,1387,1.159564e-13,-3.828058e-14,-3.847535e-14,1.956988e-05,-3.3188e-07,-1.482579e-16,3.390090032206224e-05
PART_003_R247G182B210A255,1388,1.159531e-13,-3.808108e-14,-3.831411e-14,1.860902e-05,-8.049074e-07,-4.20789e-16,3.226190483912759e-05
PART_003_R247G182B210A255,1389,1.164277e-13,-3.827971e-14,-3.863859e-14,1.823304e-05,-1.001268e-06,-4.467108e-16,3.1628133927695956e-05
PART_003_R247G182B210A255,1390,1.164662e-13,-3.842196e-14,-3.826717e-14,1.816879e-05,-8.457049e-07,-4.257192e-16,3.1503340148719975e-05
PART_003_R247G182B210A255,1391,1.168455e-13,-3.839225e-14,-3.888109e-14,1.822229e-05,-4.94921e-07,-2.201972e-16,3.1573571209494544e-05
PART_003_R247G182B210A255,1392,1.166795e-13,-3.851108e-14,-3.831914e-14,1.824409e-05,8.686353e-16,-3.483211e-18,3.159969081785928e-05
PART_002_R214G39B40A255,1393,1.168161e-13,-3.838379e-14,-3.887065e-14,1.822229e-05,4.94921e-07,2.135467e-16,3.1573571209494544e-05
PART_002_R214G39B40A255,1394,1.164051e-13,-3.840526e-14,-3.824719e-14,1.816879e-05,8.457049e-07,4.198802e-16,3.1503340148719975e-05
PART_002_R214G39B40A255,1395,1.16336e-13,-3.825521e-14,-3.860666e-14,1.823304e-05,1.001268e-06,4.445923e-16,3.1628133927695956e-05
PART_002_R214G39B40A255,1396,1.158332e-13,-3.80401e-14,-3.827718e-14,1.860902e-05,8.049074e-07,4.178397e-16,3.226190483912759e-05
PART_002_R214G39B40A255,1397,1.158034e-13,-3.8232e-14,-3.842411e-14,1.956988e-05,3.3188e-07,1.459963e-16,3.390090032206224e-05
PART_003_R247G182B210A255,1398,-0.0001059378,3.510292e-05,3.50088e-05,1.802705e-05,-2.97875e-07,1.467606e-07,0.0001444107793892198
PART_003_R247G182B210A255,1399,-0.0001060295,3.508366e-05,3.489735e-05,1.713004e-05,-8.005021e-07,3.732454e-07,0.0001441156584212454
PART_003_R247G182B210A255,1400,-0.0001063873,3.513425e-05,3.526961e-05,1.67462e-05,-9.263887e-07,4.169556e-07,0.00014454039428840533
PART_003_R247G182B210A255,1401,-0.0001065332,3.521152e-05,3.511085e-05,1.663624e-05,-8.290854e-07,3.764912e-07,0.00014460320594665327
PART_003_R247G182B210A255,1402,-0.0001067925,3.526114e-05,3.545106e-05,1.666461e-05,-4.615209e-07,2.029288e-07,0.00014505220356284877
PART_001_R158G218B229A255,1403,-0.0001067582,3.528756e-05,3.51958e-05,1.668132e-05,3.331584e-16,4.415106e-15,0.00014490952883011108
PART_001_R158G218B229A255,1404,-0.0001067925,3.526114e-05,3.545106e-05,1.666461e-05,4.615209e-07,-2.029288e-07,0.00014505220356284877
PART_002_R214G39B40A255,1405,-0.0001065332,3.521152e-05,3.511085e-05,1.663624e-05,8.290854e-07,-3.764912e-07,0.00014460320594665327
PART_002_R214G39B40A255,1406,-0.0001063873,3.513425e-05,3.526961e-05,1.67462e-05,9.263887e-07,-4.169556e-07,0.00014454039428840533
PART_002_R214G39B40A255,1407,-0.0001060295,3.508366e-05,3.489735e-05,1.713004e-05,8.005022e-07,-3.732454e-07,0.00014411565842291176
PART_002_R214G39B40A255,1408,-0.0001059378,3.510292e-05,3.50088e-05,1.802705e-05,2.97875e-07,-1.467606e-07,0.0001444107793892198
PART_003_R247G182B210A255,1409,-0.0002116107,6.9646e-05,7.008113e-05,1.715566e-05,-2.768469e-07,2.636562e-07,0.0002830393830324293
PART_003_R247G182B210A255,1410,-0.0002117929,6.968819e-05,6.977705e-05,1.619882e-05,-6.614301e-07,7.372179e-07,0.00028292538341681203
PART_003_R247G182B210A255,1411,-0.0002124916,6.979229e-05,7.052999e-05,1.580813e-05,-8.359067e-07,8.218757e-07,0.00028398379031521824
PART_003_R247G182B210A255,1412,-0.0002127447,6.99019e-05,7.020128e-05,1.571619e-05,-7.010726e-07,7.37224e-07,0.00028410897513005573
PART_001_R158G218B229A255,1413,-0.0002132335,7.001109e-05,7.084668e-05,1.574764e-05,-4.101853e-07,4.017484e-07,0.00028497337731769754
PART_001_R158G218B229A255,1414,-0.0002131637,7.004051e-05,7.035982e-05,1.576444e-05,8.656185e-16,9.167108e-15,0.0002846764991397008
PART_001_R158G218B229A255,1415,-0.0002132335,7.001109e-05,7.084668e-05,1.574764e-05,4.101853e-07,-4.017484e-07,0.00028497337731769754
PART_001_R158G218B229A255,1416,-0.0002127447,6.99019e-05,7.020128e-05,1.571619e-05,7.010726e-07,-7.37224e-07,0.00028410897513005573
PART_002_R214G39B40A255,1417,-0.0002124916,6.979229e-05,7.052999e-05,1.580813e-05,8.359067e-07,-8.218757e-07,0.00028398379031521824
PART_002_R214G39B40A255,1418,-0.0002117929,6.968819e-05,6.977705e-05,1.619882e-05,6.614301e-07,-7.372179e-07,0.00028292538341681203
PART_002_R214G39B40A255,1419,-0.0002116107,6.9646e-05,7.008113e-05,1.715566e-05,2.768469e-07,-2.636562e-07,0.0002830393830324293
PART_003_R247G182B210A255,1420,-0.000318018,0.0001052889,0.0001051114,1.343793e-05,-1.921109e-07,4.271819e-07,0.0004238584883897991
PART_003_R247G182B210A255,1421,-0.0003182432,0.0001052657,0.0001047261,1.257116e-05,-5.40895e-07,1.080915e-06,0.0004238042462860437
PART_003_R247G182B210A255,1422,-0.0003192175,0.0001054254,0.0001057621,1.216502e-05,-5.981393e-07,1.212887e-06,0.0004253400203167134
PART_001_R158G218B229A255,1423,-0.0003195592,0.0001056546,0.0001052143,1.203805e-05,-5.482064e-07,1.097066e-06,0.00042551028675461364
PART_001_R158G218B229A255,1424,-0.0003202569,0.0001057915,0.0001061811,1.20492e-05,-3.158994e-07,5.881304e-07,0.0004267555109411886
PART_001_R158G218B229A255,1425,-0.000320132,0.0001058427,0.0001054304,1.205179e-05,2.247687e-17,1.462428e-14,0.00042628009874867755
PART_001_R158G218B229A255,1426,-0.0003202569,0.0001057915,0.0001061811,1.20492e-05,3.158994e-07,-5.881304e-07,0.0004267555109411886
PART_001_R158G218B229A255,1427,-0.0003195592,0.0001056546,0.0001052143,1.203805e-05,5.482064e-07,-1.097066e-06,0.00042551028675461364
PART_001_R158G218B229A255,1428,-0.0003192175,0.0001054254,0.0001057621,1.216502e-05,5.981393e-07,-1.212887e-06,0.0004253400203167134
PART_002_R214G39B40A255,1429,-0.0003182432,0.0001052657,0.0001047261,1.257116e-05,5.40895e-07,-1.080915e-06,0.0004238042462860437
PART_002_R214G39B40A255,1430,-0.000318018,0.0001052889,0.0001051114,1.343793e-05,1.921109e-07,-4.271819e-07,0.0004238584883897991
PART_003_R247G182B210A255,1431,-0.0004238052,0.0001394981,0.0001403591,9.68622e-06,-1.255711e-07,5.193618e-07,0.0005639846437104441
PART_003_R247G182B210A255,1432,-0.0004240819,0.0001396482,0.0001396564,8.785604e-06,-2.579622e-07,1.485223e-06,0.0005639455878970715
PART_001_R158G218B229A255,1433,-0.0004252653,0.0001399012,0.000140925,8.482719e-06,-3.640108e-07,1.643052e-06,0.0005658773756632267
PART_001_R158G218B229A255,1434,-0.0004255799,0.00014011,0.0001401791,8.405012e-06,-3.499718e-07,1.44409e-06,0.0005659175851814795
PART_001_R158G218B229A255,1435,-0.0004264106,0.0001402484,0.0001413988,8.412654e-06,-2.0712e-07,7.720244e-07,0.0005674238849553628
PART_001_R158G218B229A255,1436,-0.0004262247,0.0001403115,0.0001404064,8.425614e-06,3.963115e-16,2.100819e-14,0.000566771569607775
PART_001_R158G218B229A255,1437,-0.0004264106,0.0001402484,0.0001413988,8.412654e-06,2.0712e-07,-7.720244e-07,0.0005674238849553628
PART_001_R158G218B229A255,1438,-0.0004255799,0.00014011,0.0001401791,8.405012e-06,3.499719e-07,-1.44409e-06,0.000565917585181665
PART_001_R158G218B229A255,1439,-0.0004252653,0.0001399012,0.000140925,8.482719e-06,3.640108e-07,-1.643052e-06,0.0005658773756632267
PART_001_R158G218B229A255,1440,-0.0004240819,0.0001396482,0.0001396564,8.785604e-06,2.579622e-07,-1.485223e-06,0.0005639455878970715
PART_002_R214G39B40A255,1441,-0.0004238052,0.0001394981,0.0001403591,9.68622e-06,1.255711e-07,-5.193618e-07,0.0005639846437104441
PART_003_R247G182B210A255,1442,-0.0005307361,0.0001755027,0.0001754352,3.406756e-06,-4.51898e-09,9.30278e-07,0.000706231541588703
PART_001_R158G218B229A255,1443,-0.0005308823,0.0001755196,0.0001745979,3.017479e-06,-3.872602e-08,2.100152e-06,0.0007059702225846353
PART_001_R158G218B229A255,1444,-0.0005321428,0.0001758366,0.0001760955,2.881486e-06,-1.368079e-07,2.183605e-06,0.0007081366133356806
PART_001_R158G218B229A255,1445,-0.0005324177,0.0001760395,0.0001751126,2.869252e-06,-1.148838e-07,1.784203e-06,0.0007080184192192931
PART_001_R158G218B229A255,1446,-0.0005332725,0.0001762457,0.0001764552,2.850244e-06,-7.773625e-08,9.532382e-07,0.000709642078709359
PART_001_R158G218B229A255,1447,-0.0005330609,0.0001762795,0.0001752786,2.873028e-06,4.150123e-17,2.858087e-14,0.0007088579469373793
PART_001_R158G218B229A255,1448,-0.0005332725,0.0001762457,0.0001764552,2.850244e-06,7.773625e-08,-9.532382e-07,0.000709642078709359
PART_001_R158G218B229A255,1449,-0.0005324177,0.0001760395,0.0001751126,2.869252e-06,1.148838e-07,-1.784203e-06,0.0007080184192192931
PART_001_R158G218B229A255,1450,-0.0005321428,0.0001758366,0.0001760955,2.881486e-06,1.368079e-07,-2.183605e-06,0.0007081366133356806
PART_001_R158G218B229A255,1451,-0.0005308823,0.0001755196,0.0001745979,3.017479e-06,3.872602e-08,-2.100152e-06,0.0007059702225846353
PART_001_R158G218B229A255,1452,-0.0005307361,0.0001755027,0.0001754352,3.406756e-06,4.518979e-09,-9.30278e-07,0.000706231541588703
PART_003_R247G182B210A255,1453,0.0005258698,-0.0001734753,-0.0001730121,3.631404e-06,6.140771e-08,-8.264376e-07,0.0006991433818559712
PART_000_R31G119B180A255,1454,0.0005267269,-0.000173522,-0.0001742821,3.127812e-06,-3.426766e-08,-1.831001e-06,0.0007006573839849515
PART_000_R31G119B180A255,1455,0.0005268367,-0.000173703,-0.0001734978,3.009816e-06,-6.892082e-08,-1.995843e-06,0.000700465062677527
PART_000_R31G119B180A255,1456,0.00052764,-0.0001737905,-0.0001746954,2.918303e-06,-7.733808e-08,-1.544352e-06,0.0007019066975914571
PART_000_R31G119B180A255,1457,0.0005276086,-0.0001739151,-0.0001737847,2.918075e-06,-4.542579e-08,-8.712969e-07,0.0007014783454432915
PART_000_R31G119B180A255,1458,0.0005280472,-0.0001739234,-0.0001748462,2.893925e-06,2.500441e-18,-2.850037e-14,0.0007024503382443466
PART_000_R31G119B180A255,1459,0.0005276086,-0.0001739151,-0.0001737847,2.918075e-06,4.542579e-08,8.712969e-07,0.0007014783454432915
PART_000_R31G119B180A255,1460,0.00052764,-0.0001737905,-0.0001746954,2.918303e-06,7.733808e-08,1.544352e-06,0.0007019066975914571
PART_000_R31G119B180A255,1461,0.0005268367,-0.000173703,-0.0001734978,3.009816e-06,6.892082e-08,1.995843e-06,0.000700465062677527
PART_000_R31G119B180A255,1462,0.0005267269,-0.000173522,-0.0001742821,3.127812e-06,3.426767e-08,1.831001e-06,0.0007006573839849529
PART_000_R31G119B180A255,1463,0.0005258698,-0.0001734753,-0.0001730121,3.631404e-06,-6.140771e-08,8.264376e-07,0.0006991433818559712
PART_003_R247G182B210A255,1464,0.0004207625,-0.0001391755,-0.0001385209,9.513348e-06,-1.083833e-07,-4.81572e-07,0.0005598541767964762
PART_003_R247G182B210A255,1465,0.0004214778,-0.0001391725,-0.0001394344,8.583954e-06,-1.425363e-07,-1.126117e-06,0.0005609818000277513
PART_000_R31G119B180A255,1466,0.0004216477,-0.0001393355,-0.0001388192,8.141237e-06,-2.19149e-07,-1.451429e-06,0.0005609082677753282
PART_000_R31G119B180A255,1467,0.0004224271,-0.0001394895,-0.0001398551,7.960661e-06,-2.202145e-07,-1.145254e-06,0.0005622722048990171
PART_000_R31G119B180A255,1468,0.0004224381,-0.0001395746,-0.0001391404,7.885952e-06,-1.289659e-07,-6.797507e-07,0.0005619630222470882
PART_000_R31G119B180A255,1469,0.0004228549,-0.0001396249,-0.0001400475,7.872138e-06,2.936003e-16,-2.094153e-14,0.0005628563934365081
PART_000_R31G119B180A255,1470,0.0004224381,-0.0001395746,-0.0001391404,7.885952e-06,1.289659e-07,6.797507e-07,0.0005619630222470882
PART_000_R31G119B180A255,1471,0.0004224271,-0.0001394895,-0.0001398551,7.960661e-06,2.202145e-07,1.145254e-06,0.0005622722048990171
PART_000_R31G119B180A255,1472,0.0004216477,-0.0001393355,-0.0001388192,8.141237e-06,2.19149e-07,1.451429e-06,0.0005609082677753282
PART_000_R31G119B180A255,1473,0.0004214778,-0.0001391725,-0.0001394344,8.583954e-06,1.425363e-07,1.126117e-06,0.0005609818000277513
PART_002_R214G39B40A255,1474,0.0004207625,-0.0001391755,-0.0001385209,9.513348e-06,1.083833e-07,4.815719e-07,0.0005598541767962181
PART_003_R247G182B210A255,1475,0.0003151507,-0.0001039107,-0.0001037322,1.432358e-05,-1.154133e-07,-3.258125e-07,0.0004197064922376161
PART_003_R247G182B210A255,1476,0.0003157461,-0.0001039149,-0.0001045834,1.326547e-05,-3.422063e-07,-7.787133e-07,0.00042062623999624505
PART_003_R247G182B210A255,1477,0.0003159318,-0.0001039972,-0.0001041656,1.268334e-05,-3.783786e-07,-1.010185e-06,0.00042059149030398166
PART_000_R31G119B180A255,1478,0.0003165605,-0.0001041213,-0.0001049533,1.243596e-05,-3.431691e-07,-8.208685e-07,0.00042165176438215137
PART_000_R31G119B180A255,1479,0.0003166003,-0.0001041982,-0.0001044374,1.233227e-05,-2.027185e-07,-4.960945e-07,0.00042146080017455744
PART_000_R31G119B180A255,1480,0.0003169324,-0.0001042267,-0.00010513,1.2316e-05,-1.024715e-16,-1.458922e-14,0.00042215078828154517
PART_000_R31G119B180A255,1481,0.0003166003,-0.0001041982,-0.0001044374,1.233227e-05,2.027185e-07,4.960945e-07,0.00042146080017455744
PART_000_R31G119B180A255,1482,0.0003165605,-0.0001041213,-0.0001049533,1.243596e-05,3.431691e-07,8.208685e-07,0.00042165176438215137
PART_000_R31G119B180A255,1483,0.0003159318,-0.0001039972,-0.0001041656,1.268334e-05,3.783786e-07,1.010185e-06,0.00042059149030398166
PART_002_R214G39B40A255,1484,0.0003157461,-0.0001039149,-0.0001045834,1.326547e-05,3.422063e-07,7.787133e-07,0.00042062623999624505
PART_002_R214G39B40A255,1485,0.0003151507,-0.0001039107,-0.0001037322,1.432358e-05,1.154133e-07,3.258125e-07,0.0004197064922376161
PART_003_R247G182B210A255,1486,0.0002102416,-6.959268e-05,-6.918234e-05,1.684091e-05,-1.780686e-07,-2.229252e-07,0.00028114704054049087
PART_003_R247G182B210A255,1487,0.0002106424,-6.958009e-05,-6.969611e-05,1.578822e-05,-4.123568e-07,-5.064442e-07,0.0002816136573740879
PART_003_R247G182B210A255,1488,0.0002107843,-6.963671e-05,-6.945026e-05,1.517372e-05,-5.367657e-07,-6.580529e-07,0.000281560973689059
PART_003_R247G182B210A255,1489,0.0002112428,-6.971473e-05,-7.001903e-05,1.486563e-05,-4.421855e-07,-5.359475e-07,0.00028228909084071616
PART_000_R31G119B180A255,1490,0.0002112931,-6.979245e-05,-6.965974e-05,1.473766e-05,-2.641076e-07,-3.253807e-07,0.000282177114434367
PART_000_R31G119B180A255,1491,0.0002115203,-6.981018e-05,-7.014212e-05,1.471158e-05,6.874198e-16,-9.163826e-15,0.00028264752919318864
PART_000_R31G119B180A255,1492,0.0002112931,-6.979245e-05,-6.965974e-05,1.473766e-05,2.641076e-07,3.253807e-07,0.000282177114434367
PART_000_R31G119B180A255,1493,0.0002112428,-6.971473e-05,-7.001903e-05,1.486563e-05,4.421856e-07,5.359475e-07,0.0002822890908411861
PART_002_R214G39B40A255,1494,0.0002107843,-6.963671e-05,-6.945026e-05,1.517372e-05,5.367657e-07,6.580529e-07,0.000281560973689059
PART_002_R214G39B40A255,1495,0.0002106424,-6.958009e-05,-6.969611e-05,1.578822e-05,4.123568e-07,5.064442e-07,0.0002816136573740879
PART_002_R214G39B40A255,1496,0.0002102416,-6.959268e-05,-6.918234e-05,1.684091e-05,1.780686e-07,2.229252e-07,0.00028114704054049087
PART_003_R247G182B210A255,1497,0.0001049816,-3.46059e-05,-3.456002e-05,1.929056e-05,-1.950307e-07,-1.052439e-07,0.0001435088584088888
PART_003_R247G182B210A255,1498,0.0001051904,-3.459974e-05,-3.485652e-05,1.817626e-05,-5.019533e-07,-2.520556e-07,0.00014342008311084826
PART_003_R247G182B210A255,1499,0.0001052715,-3.462732e-05,-3.47291e-05,1.754622e-05,-5.916072e-07,-3.283495e-07,0.00014321631207633203
PART_003_R247G182B210A255,1500,0.0001055037,-3.466645e-05,-3.5015e-05,1.726138e-05,-5.341151e-07,-2.652707e-07,0.0001434976703813469
PART_003_R247G182B210A255,1501,0.0001055308,-3.469149e-05,-3.484996e-05,1.713772e-05,-2.961288e-07,-1.619e-07,0.0001434084474635475
PART_000_R31G119B180A255,1502,0.0001056485,-3.470959e-05,-3.508156e-05,1.711476e-05,1.406492e-16,-4.419711e-15,0.00014363664510994088
PART_000_R31G119B180A255,1503,0.0001055308,-3.469149e-05,-3.484996e-05,1.713772e-05,2.961288e-07,1.619e-07,0.0001434084474635475
PART_002_R214G39B40A255,1504,0.0001055037,-3.466645e-05,-3.5015e-05,1.726138e-05,5.341151e-07,2.652707e-07,0.0001434976703813469
PART_002_R214G39B40A255,1505,0.0001052715,-3.462732e-05,-3.47291e-05,1.754622e-05,5.916072e-07,3.283495e-07,0.00014321631207633203
PART_002_R214G39B40A255,1506,0.0001051904,-3.459974e-05,-3.485652e-05,1.817626e-05,5.019533e-07,2.520555e-07,0.000143420083110321
PART_002_R214G39B40A255,1507,0.0001049816,-3.46059e-05,-3.456002e-05,1.929056e-05,1.950307e-07,1.052439e-07,0.0001435088584088888
PART_003_R247G182B210A255,1508,1.148452e-13,-3.80002e-14,-3.783164e-14,1.918677e-05,-2.063092e-07,-1.123437e-16,3.3234381588299696e-05
PART_003_R247G182B210A255,1509,1.151461e-13,-3.781524e-14,-3.844142e-14,1.811347e-05,-5.050563e-07,-2.661276e-16,3.138564372322494e-05
PART_003_R247G182B210A255,1510,1.151307e-13,-3.799999e-14,-3.785644e-14,1.748611e-05,-6.436073e-07,-3.751678e-16,3.0307339372933083e-05
PART_003_R247G182B210A255,1511,1.154671e-13,-3.810797e-14,-3.83691e-14,1.716914e-05,-5.35272e-07,-2.82768e-16,2.9752271398344562e-05
PART_003_R247G182B210A255,1512,1.153817e-13,-3.805506e-14,-3.801011e-14,1.703394e-05,-3.216721e-07,-1.862981e-16,2.9508909749269884e-05
PART_003_R247G182B210A255,1513,1.155986e-13,-3.816695e-14,-3.841231e-14,1.700652e-05,6.607763e-16,-3.199032e-18,2.945615669993626e-05
PART_002_R214G39B40A255,1514,1.153515e-13,-3.804856e-14,-3.799904e-14,1.703394e-05,3.216721e-07,1.79806e-16,2.9508909749269884e-05
PART_002_R214G39B40A255,1515,1.154057e-13,-3.809193e-14,-3.834729e-14,1.716914e-05,5.35272e-07,2.777065e-16,2.9752271398344562e-05
PART_002_R214G39B40A255,1516,1.150392e-13,-3.796833e-14,-3.782623e-14,1.748611e-05,6.436073e-07,3.71302e-16,3.0307339372933083e-05
PART_002_R214G39B40A255,1517,1.150216e-13,-3.777013e-14,-3.840287e-14,1.811347e-05,5.050563e-07,2.632019e-16,3.138564372322494e-05
PART_002_R214G39B40A255,1518,1.146926e-13,-3.79538e-14,-3.778015e-14,1.918677e-05,2.063092e-07,1.104819e-16,3.3234381588299696e-05
PART_003_R247G182B210A255,1519,-0.0001049816,3.46059e-05,3.456002e-05,1.929056e-05,-1.950307e-07,1.052439e-07,0.0001435088584088888
PART_003_R247G182B210A255,1520,-0.0001051904,3.459974e-05,3.485652e-05,1.817626e-05,-5.019533e-07,2.520556e-07,0.00014342008311084826
PART_003_R247G182B210A255,1521,-0.0001052715,3.462732e-05,3.47291e-05,1.754622e-05,-5.916072e-07,3.283495e-07,0.00014321631207633203
PART_003_R247G182B210A255,1522,-0.0001055037,3.466645e-05,3.5015e-05,1.726138e-05,-5.341151e-07,2.652707e-07,0.0001434976703813469
PART_003_R247G182B210A255,1523,-0.0001055308,3.469149e-05,3.484996e-05,1.713772e-05,-2.961288e-07,1.619e-07,0.0001434084474635475
PART_001_R158G218B229A255,1524,-0.0001056485,3.470959e-05,3.508156e-05,1.711476e-05,1.366594e-16,4.410446e-15,0.00014363664510994088
PART_001_R158G218B229A255,1525,-0.0001055308,3.469149e-05,3.484996e-05,1.713772e-05,2.961288e-07,-1.619e-07,0.0001434084474635475
PART_002_R214G39B40A255,1526,-0.0001055037,3.466645e-05,3.5015e-05,1.726138e-05,5.341151e-07,-2.652707e-07,0.0001434976703813469
PART_002_R214G39B40A255,1527,-0.0001052715,3.462732e-05,3.47291e-05,1.754622e-05,5.916072e-07,-3.283495e-07,0.00014321631207633203
PART_002_R214G39B40A255,1528,-0.0001051904,3.459974e-05,3.485652e-05,1.817626e-05,5.019533e-07,-2.520555e-07,0.000143420083110321
PART_002_R214G39B40A255,1529,-0.0001049816,3.46059e-05,3.456002e-05,1.929056e-05,1.950307e-07,-1.052439e-07,0.0001435088584088888
PART_003_R247G182B210A255,1530,-0.0002102416,6.959268e-05,6.918234e-05,1.684091e-05,-1.780686e-07,2.229252e-07,0.00028114704054049087
PART_003_R247G182B210A255,1531,-0.0002106424,6.958009e-05,6.969611e-05,1.578822e-05,-4.123568e-07,5.064442e-07,0.0002816136573740879
PART_003_R247G182B210A255,1532,-0.0002107843,6.963671e-05,6.945026e-05,1.517372e-05,-5.367657e-07,6.580529e-07,0.000281560973689059
PART_003_R247G182B210A255,1533,-0.0002112428,6.971473e-05,7.001903e-05,1.486563e-05,-4.421856e-07,5.359475e-07,0.0002822890908411861
PART_001_R158G218B229A255,1534,-0.0002112931,6.979245e-05,6.965974e-05,1.473766e-05,-2.641076e-07,3.253807e-07,0.000282177114434367
PART_001_R158G218B229A255,1535,-0.0002115203,6.981018e-05,7.014212e-05,1.471158e-05,6.832464e-16,9.155514e-15,0.00028264752919318864
PART_001_R158G218B229A255,1536,-0.0002112931,6.979245e-05,6.965974e-05,1.473766e-05,2.641076e-07,-3.253807e-07,0.000282177114434367
PART_001_R158G218B229A255,1537,-0.0002112428,6.971473e-05,7.001903e-05,1.486563e-05,4.421856e-07,-5.359475e-07,0.0002822890908411861
PART_002_R214G39B40A255,1538,-0.0002107843,6.963671e-05,6.945026e-05,1.517372e-05,5.367657e-07,-6.580529e-07,0.000281560973689059
PART_002_R214G39B40A255,1539,-0.0002106424,6.958009e-05,6.969611e-05,1.578822e-05,4.123568e-07,-5.064442e-07,0.0002816136573740879
PART_002_R214G39B40A255,1540,-0.0002102416,6.959268e-05,6.918234e-05,1.684091e-05,1.780686e-07,-2.229252e-07,0.00028114704054049087
PART_003_R247G182B210A255,1541,-0.0003151507,0.0001039107,0.0001037322,1.432358e-05,-1.154133e-07,3.258125e-07,0.0004197064922376161
PART_003_R247G182B210A255,1542,-0.0003157461,0.0001039149,0.0001045834,1.326547e-05,-3.422063e-07,7.787133e-07,0.00042062623999624505
PART_003_R247G182B210A255,1543,-0.0003159318,0.0001039972,0.0001041656,1.268334e-05,-3.783786e-07,1.010185e-06,0.00042059149030398166
PART_001_R158G218B229A255,1544,-0.0003165605,0.0001041213,0.0001049533,1.243596e-05,-3.431691e-07,8.208685e-07,0.00042165176438215137
PART_001_R158G218B229A255,1545,-0.0003166003,0.0001041982,0.0001044374,1.233227e-05,-2.027185e-07,4.960945e-07,0.00042146080017455744
PART_001_R158G218B229A255,1546,-0.0003169324,0.0001042267,0.00010513,1.2316e-05,-1.029314e-16,1.457741e-14,0.00042215078828154517
PART_001_R158G218B229A255,1547,-0.0003166003,0.0001041982,0.0001044374,1.233227e-05,2.027185e-07,-4.960945e-07,0.00042146080017455744
PART_001_R158G218B229A255,1548,-0.0003165605,0.0001041213,0.0001049533,1.243596e-05,3.431691e-07,-8.208685e-07,0.00042165176438215137
PART_001_R158G218B229A255,1549,-0.0003159318,0.0001039972,0.0001041656,1.268334e-05,3.783786e-07,-1.010185e-06,0.00042059149030398166
PART_002_R214G39B40A255,1550,-0.0003157461,0.0001039149,0.0001045834,1.326547e-05,3.422063e-07,-7.787133e-07,0.00042062623999624505
PART_002_R214G39B40A255,1551,-0.0003151507,0.0001039107,0.0001037322,1.432358e-05,1.154133e-07,-3.258125e-07,0.0004197064922376161
PART_003_R247G182B210A255,1552,-0.0004207625,0.0001391755,0.0001385209,9.513348e-06,-1.083833e-07,4.81572e-07,0.0005598541767964762
PART_003_R247G182B210A255,1553,-0.0004214778,0.0001391725,0.0001394344,8.583954e-06,-1.425363e-07,1.126117e-06,0.0005609818000277513
PART_001_R158G218B229A255,1554,-0.0004216477,0.0001393355,0.0001388192,8.141237e-06,-2.19149e-07,1.451429e-06,0.0005609082677753282
PART_001_R158G218B229A255,1555,-0.0004224271,0.0001394895,0.0001398551,7.960661e-06,-2.202145e-07,1.145254e-06,0.0005622722048990171
PART_001_R158G218B229A255,1556,-0.0004224381,0.0001395746,0.0001391404,7.885952e-06,-1.289659e-07,6.797507e-07,0.0005619630222470882
PART_001_R158G218B229A255,1557,-0.0004228549,0.0001396249,0.0001400475,7.872138e-06,2.937781e-16,2.09298e-14,0.0005628563934365081
PART_001_R158G218B229A255,1558,-0.0004224381,0.0001395746,0.0001391404,7.885952e-06,1.289659e-07,-6.797507e-07,0.0005619630222470882
PART_001_R158G218B229A255,1559,-0.0004224271,0.0001394895,0.0001398551,7.960661e-06,2.202145e-07,-1.145254e-06,0.0005622722048990171
PART_001_R158G218B229A255,1560,-0.0004216477,0.0001393355,0.0001388192,8.141237e-06,2.19149e-07,-1.451429e-06,0.0005609082677753282
PART_001_R158G218B229A255,1561,-0.0004214778,0.0001391725,0.0001394344,8.583954e-06,1.425363e-07,-1.126117e-06,0.0005609818000277513
PART_002_R214G39B40A255,1562,-0.0004207625,0.0001391755,0.0001385209,9.513348e-06,1.083833e-07,-4.815719e-07,0.0005598541767962181
PART_003_R247G182B210A255,1563,-0.0005258698,0.0001734753,0.0001730121,3.631404e-06,6.140771e-08,8.264376e-07,0.0006991433818559712
PART_001_R158G218B229A255,1564,-0.0005267269,0.000173522,0.0001742821,3.127812e-06,-3.426766e-08,1.831001e-06,0.0007006573839849515
PART_001_R158G218B229A255,1565,-0.0005268367,0.000173703,0.0001734978,3.009816e-06,-6.892082e-08,1.995843e-06,0.000700465062677527
PART_001_R158G218B229A255,1566,-0.00052764,0.0001737905,0.0001746954,2.918303e-06,-7.733808e-08,1.544352e-06,0.0007019066975914571
PART_001_R158G218B229A255,1567,-0.0005276086,0.0001739151,0.0001737847,2.918075e-06,-4.542579e-08,8.712969e-07,0.0007014783454432915
PART_001_R158G218B229A255,1568,-0.0005280472,0.0001739234,0.0001748462,2.893925e-06,5.082198e-20,2.849238e-14,0.0007024503382443466
PART_001_R158G218B229A255,1569,-0.0005276086,0.0001739151,0.0001737847,2.918075e-06,4.542579e-08,-8.712969e-07,0.0007014783454432915
PART_001_R158G218B229A255,1570,-0.00052764,0.0001737905,0.0001746954,2.918303e-06,7.733808e-08,-1.544352e-06,0.0007019066975914571
PART_001_R158G218B229A255,1571,-0.0005268367,0.000173703,0.0001734978,3.009816e-06,6.892082e-08,-1.995843e-06,0.000700465062677527
PART_001_R158G218B229A255,1572,-0.0005267269,0.000173522,0.0001742821,3.127812e-06,3.426767e-08,-1.831001e-06,0.0007006573839849529
PART_001_R158G218B229A255,1573,-0.0005258698,0.0001734753,0.0001730121,3.631404e-06,-6.140771e-08,-8.264376e-07,0.0006991433818559712
PART_003_R247G182B210A255,1574,0.000522358,-0.0001725818,-0.0001725519,3.553662e-06,2.506686e-08,-7.600219e-07,0.0006949533568116413
PART_000_R31G119B180A255,1575,0.0005222033,-0.0001724918,-0.000171928,3.088022e-06,1.037118e-08,-1.705639e-06,0.0006944402539546269
PART_000_R31G119B180A255,1576,0.0005228241,-0.000172625,-0.0001728829,2.903208e-06,-5.064614e-08,-1.750351e-06,0.0006956028739569353
PART_000_R31G119B180A255,1577,0.0005228228,-0.0001726659,-0.0001722246,2.82236e-06,-3.819131e-08,-1.436857e-06,0.000695289797572079
PART_000_R31G119B180A255,1578,0.0005233096,-0.0001727604,-0.000173118,2.770872e-06,-3.085514e-08,-7.601584e-07,0.0006962666565211776
PART_000_R31G119B180A255,1579,0.0005231044,-0.0001727531,-0.000172336,2.771237e-06,-1.217864e-17,-2.878025e-14,0.000695665603130513
PART_000_R31G119B180A255,1580,0.0005233096,-0.0001727604,-0.000173118,2.770872e-06,3.085514e-08,7.601583e-07,0.00069626665652085
PART_000_R31G119B180A255,1581,0.0005228228,-0.0001726659,-0.0001722246,2.82236e-06,3.819131e-08,1.436857e-06,0.000695289797572079
PART_000_R31G119B180A255,1582,0.0005228241,-0.000172625,-0.0001728829,2.903208e-06,5.064615e-08,1.750351e-06,0.0006956028739569374
PART_000_R31G119B180A255,1583,0.0005222033,-0.0001724918,-0.000171928,3.088022e-06,-1.037117e-08,1.705639e-06,0.0006944402539546264
PART_000_R31G119B180A255,1584,0.000522358,-0.0001725818,-0.0001725519,3.553662e-06,-2.506686e-08,7.600219e-07,0.0006949533568116413
PART_003_R247G182B210A255,1585,0.0004175522,-0.0001375913,-0.0001381611,9.910084e-06,-6.451963e-08,-3.49283e-07,0.000555694123425326
PART_003_R247G182B210A255,1586,0.0004174876,-0.000137616,-0.0001375676,8.867503e-06,-7.517893e-08,-1.018874e-06,0.0005552946705650462
PART_000_R31G119B180A255,1587,0.0004180569,-0.000137716,-0.000138349,8.376231e-06,-1.243301e-07,-1.1602e-06,0.0005562825627434744
PART_000_R31G119B180A255,1588,0.0004180836,-0.0001377909,-0.0001378161,8.129945e-06,-1.329779e-07,-1.029774e-06,0.0005560683328446586
PART_000_R31G119B180A255,1589,0.0004185404,-0.0001378336,-0.0001386068,8.018378e-06,-7.819411e-08,-5.496846e-07,0.000556935024981126
PART_000_R31G119B180A255,1590,0.0004183607,-0.0001378644,-0.0001379405,7.986871e-06,2.359376e-16,-2.124842e-14,0.0005564351415182564
PART_000_R31G119B180A255,1591,0.0004185404,-0.0001378336,-0.0001386068,8.018378e-06,7.819411e-08,5.496845e-07,0.00055693502498083
PART_000_R31G119B180A255,1592,0.0004180836,-0.0001377909,-0.0001378161,8.129945e-06,1.329779e-07,1.029774e-06,0.0005560683328446586
PART_000_R31G119B180A255,1593,0.0004180569,-0.000137716,-0.000138349,8.376231e-06,1.243301e-07,1.1602e-06,0.0005562825627434744
PART_000_R31G119B180A255,1594,0.0004174876,-0.000137616,-0.0001375676,8.867503e-06,7.517893e-08,1.018874e-06,0.0005552946705650462
PART_002_R214G39B40A255,1595,0.0004175522,-0.0001375913,-0.0001381611,9.910084e-06,6.451964e-08,3.49283e-07,0.0005556941234253294
PART_003_R247G182B210A255,1596,0.0003132761,-0.0001035446,-0.0001035112,1.410555e-05,-6.861702e-08,-2.517742e-07,0.00041751967518993303
PART_003_R247G182B210A255,1597,0.0003132253,-0.0001034847,-0.0001031804,1.300366e-05,-2.265566e-07,-6.543913e-07,0.0004171681148329488
PART_003_R247G182B210A255,1598,0.0003136844,-0.000103521,-0.0001038115,1.23219e-05,-2.213272e-07,-7.579663e-07,0.0004178982968413058
PART_000_R31G119B180A255,1599,0.0003137478,-0.0001036192,-0.0001033995,1.194793e-05,-2.138255e-07,-7.076231e-07,0.00041777202380776176
PART_000_R31G119B180A255,1600,0.0003141218,-0.0001036689,-0.0001040182,1.177918e-05,-1.233534e-07,-3.796973e-07,0.00041846367908243833
PART_000_R31G119B180A255,1601,0.0003139928,-0.0001036889,-0.0001035118,1.172154e-05,-2.056189e-16,-1.485651e-14,0.00041808640966927487
PART_000_R31G119B180A255,1602,0.0003141218,-0.0001036689,-0.0001040182,1.177918e-05,1.233534e-07,3.796972e-07,0.00041846367908216615
PART_000_R31G119B180A255,1603,0.0003137478,-0.0001036192,-0.0001033995,1.194793e-05,2.138255e-07,7.076231e-07,0.00041777202380776176
PART_000_R31G119B180A255,1604,0.0003136844,-0.000103521,-0.0001038115,1.23219e-05,2.213272e-07,7.579663e-07,0.0004178982968413058
PART_002_R214G39B40A255,1605,0.0003132253,-0.0001034847,-0.0001031804,1.300366e-05,2.265566e-07,6.543913e-07,0.0004171681148329488
PART_002_R214G39B40A255,1606,0.0003132761,-0.0001035446,-0.0001035112,1.410555e-05,6.861702e-08,2.517742e-07,0.00041751967518993303
PART_003_R247G182B210A255,1607,0.0002086539,-6.87377e-05,-6.904146e-05,1.761883e-05,-1.115435e-07,-1.418319e-07,0.0002792164387702505
PART_003_R247G182B210A255,1608,0.0002086352,-6.874676e-05,-6.875778e-05,1.64214e-05,-2.496902e-07,-4.133914e-07,0.00027884313771527156
PART_003_R247G182B210A255,1609,0.0002089629,-6.877515e-05,-6.92172e-05,1.568443e-05,-3.409946e-07,-4.722674e-07,0.00027928554546507626
PART_003_R247G182B210A255,1610,0.0002090131,-6.880454e-05,-6.896695e-05,1.526296e-05,-2.746804e-07,-4.414983e-07,0.00027915492614171805
PART_000_R31G119B180A255,1611,0.0002092719,-6.885261e-05,-6.937116e-05,1.506388e-05,-1.658636e-07,-2.408479e-07,0.0002796046341153889
PART_000_R31G119B180A255,1612,0.0002091909,-6.886005e-05,-6.904435e-05,1.49999e-05,5.612326e-16,-9.347696e-15,0.0002793538984022015
PART_000_R31G119B180A255,1613,0.0002092719,-6.885261e-05,-6.937116e-05,1.506388e-05,1.658636e-07,2.408478e-07,0.0002796046341151305
PART_000_R31G119B180A255,1614,0.0002090131,-6.880454e-05,-6.896695e-05,1.526296e-05,2.746804e-07,4.414983e-07,0.00027915492614171805
PART_002_R214G39B40A255,1615,0.0002089629,-6.877515e-05,-6.92172e-05,1.568443e-05,3.409946e-07,4.722674e-07,0.00027928554546507626
PART_002_R214G39B40A255,1616,0.0002086352,-6.874676e-05,-6.875778e-05,1.64214e-05,2.496902e-07,4.133914e-07,0.00027884313771527156
PART_002_R214G39B40A255,1617,0.0002086539,-6.87377e-05,-6.904146e-05,1.761883e-05,1.115435e-07,1.418319e-07,0.0002792164387702505
PART_003_R247G182B210A255,1618,0.0001043969,-3.451279e-05,-3.449642e-05,1.898709e-05,-1.122979e-07,-7.580371e-08,0.00014274176726983027
PART_003_R247G182B210A255,1619,0.0001043854,-3.448966e-05,-3.438947e-05,1.7806e-05,-3.232753e-07,-1.996104e-07,0.00014221101362929818
PART_003_R247G182B210A255,1620,0.0001045518,-3.450244e-05,-3.461019e-05,1.704262e-05,-3.607892e-07,-2.289584e-07,0.00014220751326206573
PART_003_R247G182B210A255,1621,0.0001045855,-3.453249e-05,-3.44857e-05,1.658176e-05,-3.412733e-07,-2.157558e-07,0.0001420304944312188
PART_003_R247G182B210A255,1622,0.0001047215,-3.454761e-05,-3.470203e-05,1.635678e-05,-1.837156e-07,-1.161729e-07,0.00014219771193761533
PART_000_R31G119B180A255,1623,0.0001046809,-3.45615e-05,-3.452706e-05,1.62847e-05,-3.482364e-18,-4.518468e-15,0.00014205360255159882
PART_000_R31G119B180A255,1624,0.0001047215,-3.454761e-05,-3.470203e-05,1.635678e-05,1.837156e-07,1.161729e-07,0.00014219771193761533
PART_002_R214G39B40A255,1625,0.0001045855,-3.453249e-05,-3.44857e-05,1.658176e-05,3.412733e-07,2.157558e-07,0.0001420304944312188
PART_002_R214G39B40A255,1626,0.0001045518,-3.450244e-05,-3.461019e-05,1.704262e-05,3.607892e-07,2.289584e-07,0.00014220751326206573
PART_002_R214G39B40A255,1627,0.0001043854,-3.448966e-05,-3.438947e-05,1.7806e-05,3.232753e-07,1.996104e-07,0.00014221101362929818
PART_002_R214G39B40A255,1628,0.0001043969,-3.451279e-05,-3.449642e-05,1.898709e-05,1.122979e-07,7.580371e-08,0.00014274176726983027
PART_003_R247G182B210A255,1629,1.142577e-13,-3.765304e-14,-3.791582e-14,2.0106e-05,-1.314183e-07,-7.019362e-17,3.4825357432605404e-05
PART_003_R247G182B210A255,1630,1.141504e-13,-3.745572e-14,-3.7767e-14,1.888101e-05,-3.094557e-07,-2.273826e-16,3.2707260728331974e-05
PART_003_R247G182B210A255,1631,1.143975e-13,-3.762051e-14,-3.790184e-14,1.810976e-05,-4.080145e-07,-2.453838e-16,3.1374984450505e-05
PART_003_R247G182B210A255,1632,1.143328e-13,-3.770118e-14,-3.760421e-14,1.766152e-05,-3.362344e-07,-2.473036e-16,3.059619301230841e-05
PART_003_R247G182B210A255,1633,1.145548e-13,-3.763266e-14,-3.804254e-14,1.744352e-05,-2.048063e-07,-1.257791e-16,3.0215145322052634e-05
PART_003_R247G182B210A255,1634,1.14405e-13,-3.774021e-14,-3.760967e-14,1.73709e-05,5.049917e-16,-3.265524e-18,3.008728137319821e-05
PART_002_R214G39B40A255,1635,1.145219e-13,-3.762008e-14,-3.803229e-14,1.744352e-05,2.048063e-07,1.200534e-16,3.0215145322052634e-05
PART_002_R214G39B40A255,1636,1.142715e-13,-3.76834e-14,-3.758235e-14,1.766152e-05,3.362344e-07,2.396841e-16,3.059619301230841e-05
PART_002_R214G39B40A255,1637,1.143019e-13,-3.757801e-14,-3.787222e-14,1.810976e-05,4.080145e-07,2.41074e-16,3.1374984450505e-05
PART_002_R214G39B40A255,1638,1.14024e-13,-3.740758e-14,-3.772526e-14,1.888101e-05,3.094557e-07,2.233253e-16,3.2707260728331974e-05
PART_002_R214G39B40A255,1639,1.141018e-13,-3.76023e-14,-3.786418e-14,2.0106e-05,1.314183e-07,7.160478e-17,3.4825357432605404e-05
PART_003_R247G182B210A255,1640,-0.0001043969,3.451279e-05,3.449642e-05,1.898709e-05,-1.122979e-07,7.580371e-08,0.00014274176726983027
PART_003_R247G182B210A255,1641,-0.0001043854,3.448966e-05,3.438947e-05,1.7806e-05,-3.232753e-07,1.996104e-07,0.00014221101362929818
PART_003_R247G182B210A255,1642,-0.0001045518,3.450244e-05,3.461019e-05,1.704262e-05,-3.607892e-07,2.289584e-07,0.00014220751326206573
PART_003_R247G182B210A255,1643,-0.0001045855,3.453249e-05,3.44857e-05,1.658176e-05,-3.412733e-07,2.157558e-07,0.0001420304944312188
PART_003_R247G182B210A255,1644,-0.0001047215,3.454761e-05,3.470203e-05,1.635678e-05,-1.837156e-07,1.161729e-07,0.00014219771193761533
PART_001_R158G218B229A255,1645,-0.0001046809,3.45615e-05,3.452706e-05,1.62847e-05,-2.28233e-18,4.511377e-15,0.00014205360255159882
PART_001_R158G218B229A255,1646,-0.0001047215,3.454761e-05,3.470203e-05,1.635678e-05,1.837156e-07,-1.161729e-07,0.00014219771193761533
PART_002_R214G39B40A255,1647,-0.0001045855,3.453249e-05,3.44857e-05,1.658176e-05,3.412733e-07,-2.157558e-07,0.0001420304944312188
PART_002_R214G39B40A255,1648,-0.0001045518,3.450244e-05,3.461019e-05,1.704262e-05,3.607892e-07,-2.289584e-07,0.00014220751326206573
PART_002_R214G39B40A255,1649,-0.0001043854,3.448966e-05,3.438947e-05,1.7806e-05,3.232753e-07,-1.996104e-07,0.00014221101362929818
PART_002_R214G39B40A255,1650,-0.0001043969,3.451279e-05,3.449642e-05,1.898709e-05,1.122979e-07,-7.580371e-08,0.00014274176726983027
PART_003_R247G182B210A255,1651,-0.0002086539,6.87377e-05,6.904146e-05,1.761883e-05,-1.115435e-07,1.418319e-07,0.0002792164387702505
PART_003_R247G182B210A255,1652,-0.0002086352,6.874676e-05,6.875778e-05,1.64214e-05,-2.496902e-07,4.133914e-07,0.00027884313771527156
PART_003_R247G182B210A255,1653,-0.0002089629,6.877515e-05,6.92172e-05,1.568443e-05,-3.409946e-07,4.722674e-07,0.00027928554546507626
PART_003_R247G182B210A255,1654,-0.0002090131,6.880454e-05,6.896695e-05,1.526296e-05,-2.746804e-07,4.414983e-07,0.00027915492614171805
PART_001_R158G218B229A255,1655,-0.0002092719,6.885261e-05,6.937116e-05,1.506388e-05,-1.658636e-07,2.408479e-07,0.0002796046341153889
PART_001_R158G218B229A255,1656,-0.0002091909,6.886005e-05,6.904435e-05,1.49999e-05,5.603377e-16,9.340526e-15,0.0002793538984022015
PART_001_R158G218B229A255,1657,-0.0002092719,6.885261e-05,6.937116e-05,1.506388e-05,1.658636e-07,-2.408478e-07,0.0002796046341151305
PART_001_R158G218B229A255,1658,-0.0002090131,6.880454e-05,6.896695e-05,1.526296e-05,2.746804e-07,-4.414983e-07,0.00027915492614171805
PART_002_R214G39B40A255,1659,-0.0002089629,6.877515e-05,6.92172e-05,1.568443e-05,3.409946e-07,-4.722674e-07,0.00027928554546507626
PART_002_R214G39B40A255,1660,-0.0002086352,6.874676e-05,6.875778e-05,1.64214e-05,2.496902e-07,-4.133914e-07,0.00027884313771527156
PART_002_R214G39B40A255,1661,-0.0002086539,6.87377e-05,6.904146e-05,1.761883e-05,1.115435e-07,-1.418319e-07,0.0002792164387702505
PART_003_R247G182B210A255,1662,-0.0003132761,0.0001035446,0.0001035112,1.410555e-05,-6.861702e-08,2.517742e-07,0.00041751967518993303
PART_003_R247G182B210A255,1663,-0.0003132253,0.0001034847,0.0001031804,1.300366e-05,-2.265566e-07,6.543913e-07,0.0004171681148329488
PART_003_R247G182B210A255,1664,-0.0003136844,0.000103521,0.0001038115,1.23219e-05,-2.213272e-07,7.579663e-07,0.0004178982968413058
PART_001_R158G218B229A255,1665,-0.0003137478,0.0001036192,0.0001033995,1.194793e-05,-2.138255e-07,7.076231e-07,0.00041777202380776176
PART_001_R158G218B229A255,1666,-0.0003141218,0.0001036689,0.0001040182,1.177918e-05,-1.233534e-07,3.796973e-07,0.00041846367908243833
PART_001_R158G218B229A255,1667,-0.0003139928,0.0001036889,0.0001035118,1.172154e-05,-2.06831e-16,1.484523e-14,0.00041808640966927487
PART_001_R158G218B229A255,1668,-0.0003141218,0.0001036689,0.0001040182,1.177918e-05,1.233534e-07,-3.796972e-07,0.00041846367908216615
PART_001_R158G218B229A255,1669,-0.0003137478,0.0001036192,0.0001033995,1.194793e-05,2.138255e-07,-7.076231e-07,0.00041777202380776176
PART_001_R158G218B229A255,1670,-0.0003136844,0.000103521,0.0001038115,1.23219e-05,2.213272e-07,-7.579663e-07,0.0004178982968413058
PART_002_R214G39B40A255,1671,-0.0003132253,0.0001034847,0.0001031804,1.300366e-05,2.265566e-07,-6.543913e-07,0.0004171681148329488
PART_002_R214G39B40A255,1672,-0.0003132761,0.0001035446,0.0001035112,1.410555e-05,6.861702e-08,-2.517742e-07,0.00041751967518993303
PART_003_R247G182B210A255,1673,-0.0004175522,0.0001375913,0.0001381611,9.910084e-06,-6.451964e-08,3.49283e-07,0.0005556941234253294
PART_003_R247G182B210A255,1674,-0.0004174876,0.000137616,0.0001375676,8.867503e-06,-7.517893e-08,1.018874e-06,0.0005552946705650462
PART_001_R158G218B229A255,1675,-0.0004180569,0.000137716,0.000138349,8.376231e-06,-1.243301e-07,1.1602e-06,0.0005562825627434744
PART_001_R158G218B229A255,1676,-0.0004180836,0.0001377909,0.0001378161,8.129945e-06,-1.329779e-07,1.029774e-06,0.0005560683328446586
PART_001_R158G218B229A255,1677,-0.0004185404,0.0001378336,0.0001386068,8.018378e-06,-7.819411e-08,5.496846e-07,0.000556935024981126
PART_001_R158G218B229A255,1678,-0.0004183607,0.0001378644,0.0001379405,7.986871e-06,2.315466e-16,2.123891e-14,0.0005564351415182564
PART_001_R158G218B229A255,1679,-0.0004185404,0.0001378336,0.0001386068,8.018378e-06,7.819411e-08,-5.496845e-07,0.00055693502498083
PART_001_R158G218B229A255,1680,-0.0004180836,0.0001377909,0.0001378161,8.129945e-06,1.329779e-07,-1.029774e-06,0.0005560683328446586
PART_001_R158G218B229A255,1681,-0.0004180569,0.000137716,0.000138349,8.376231e-06,1.243301e-07,-1.1602e-06,0.0005562825627434744
PART_001_R158G218B229A255,1682,-0.0004174876,0.000137616,0.0001375676,8.867503e-06,7.517893e-08,-1.018874e-06,0.0005552946705650462
PART_002_R214G39B40A255,1683,-0.0004175522,0.0001375913,0.0001381611,9.910084e-06,6.451964e-08,-3.49283e-07,0.0005556941234253294
PART_003_R247G182B210A255,1684,-0.000522358,0.0001725818,0.0001725519,3.553662e-06,2.506686e-08,7.600219e-07,0.0006949533568116413
PART_001_R158G218B229A255,1685,-0.0005222033,0.0001724918,0.000171928,3.088022e-06,1.037118e-08,1.705639e-06,0.0006944402539546269
PART_001_R158G218B229A255,1686,-0.0005228241,0.000172625,0.0001728829,2.903208e-06,-5.064614e-08,1.750351e-06,0.0006956028739569353
PART_001_R158G218B229A255,1687,-0.0005228228,0.0001726659,0.0001722246,2.82236e-06,-3.819131e-08,1.436857e-06,0.000695289797572079
PART_001_R158G218B229A255,1688,-0.0005233096,0.0001727604,0.000173118,2.770872e-06,-3.085514e-08,7.601584e-07,0.0006962666565211776
PART_001_R158G218B229A255,1689,-0.0005231044,0.0001727531,0.000172336,2.771237e-06,-1.913278e-17,2.877331e-14,0.000695665603130513
PART_001_R158G218B229A255,1690,-0.0005233096,0.0001727604,0.000173118,2.770872e-06,3.085514e-08,-7.601583e-07,0.00069626665652085
PART_001_R158G218B229A255,1691,-0.0005228228,0.0001726659,0.0001722246,2.82236e-06,3.819131e-08,-1.436857e-06,0.000695289797572079
PART_001_R158G218B229A255,1692,-0.0005228241,0.000172625,0.0001728829,2.903208e-06,5.064615e-08,-1.750351e-06,0.0006956028739569374
PART_001_R158G218B229A255,1693,-0.0005222033,0.0001724918,0.000171928,3.088022e-06,-1.037117e-08,-1.705639e-06,0.0006944402539546264
PART_001_R158G218B229A255,1694,-0.000522358,0.0001725818,0.0001725519,3.553662e-06,-2.506686e-08,-7.600219e-07,0.0006949533568116413
PART_003_R247G182B210A255,1695,0.0005174946,-0.0001708087,-0.0001703537,3.663051e-06,6.143725e-08,-7.092212e-07,0.0006881062679194357
PART_000_R31G119B180A255,1696,0.0005179195,-0.0001707567,-0.0001711918,3.137701e-06,5.912228e-09,-1.551441e-06,0.0006889205304591807
PART_000_R31G119B180A255,1697,0.0005178377,-0.0001708411,-0.0001706241,2.973095e-06,-1.839327e-08,-1.657078e-06,0.0006885955634317639
PART_000_R31G119B180A255,1698,0.0005182539,-0.0001708376,-0.0001714025,2.851239e-06,-2.501162e-08,-1.28065e-06,0.0006893953822257052
PART_000_R31G119B180A255,1699,0.0005181491,-0.0001708963,-0.0001707898,2.816404e-06,-1.55348e-08,-7.18156e-07,0.0006890105482725898
PART_000_R31G119B180A255,1700,0.0005184229,-0.0001708821,-0.0001714917,2.78873e-06,-3.010355e-17,-2.871453e-14,0.0006896269179855139
PART_000_R31G119B180A255,1701,0.0005181491,-0.0001708963,-0.0001707898,2.816404e-06,1.55348e-08,7.181559e-07,0.0006890105482722771
PART_000_R31G119B180A255,1702,0.0005182539,-0.0001708376,-0.0001714025,2.851239e-06,2.501162e-08,1.28065e-06,0.0006893953822257052
PART_000_R31G119B180A255,1703,0.0005178377,-0.0001708411,-0.0001706241,2.973095e-06,1.839327e-08,1.657077e-06,0.0006885955634245445
PART_000_R31G119B180A255,1704,0.0005179195,-0.0001707567,-0.0001711918,3.137701e-06,-5.912227e-09,1.551441e-06,0.0006889205304591807
PART_000_R31G119B180A255,1705,0.0005174946,-0.0001708087,-0.0001703537,3.663051e-06,-6.143725e-08,7.092212e-07,0.0006881062679194357
PART_003_R247G182B210A255,1706,0.0004140659,-0.0001368141,-0.0001364365,9.772302e-06,-6.079033e-08,-3.359335e-07,0.000550951674825696
PART_003_R247G182B210A255,1707,0.0004144099,-0.0001367728,-0.0001369964,8.741947e-06,-2.805558e-08,-8.314971e-07,0.000551504310648295
PART_000_R31G119B180A255,1708,0.0004143667,-0.0001368383,-0.0001365204,8.195444e-06,-6.450687e-08,-1.072061e-06,0.0005512320576225166
PART_000_R31G119B180A255,1709,0.0004147592,-0.0001368966,-0.00013717,7.909764e-06,-7.685374e-08,-8.564437e-07,0.0005519646097563258
PART_000_R31G119B180A255,1710,0.0004146832,-0.0001369194,-0.0001366793,7.760703e-06,-4.481925e-08,-5.054015e-07,0.0005516470828727338
PART_000_R31G119B180A255,1711,0.0004149352,-0.0001369457,-0.0001372668,7.72011e-06,1.928508e-16,-2.117873e-14,0.0005522034409004043
PART_000_R31G119B180A255,1712,0.0004146832,-0.0001369194,-0.0001366793,7.760703e-06,4.481925e-08,5.054014e-07,0.000551647082872459
PART_000_R31G119B180A255,1713,0.0004147592,-0.0001368966,-0.00013717,7.909764e-06,7.685374e-08,8.564436e-07,0.0005519646097558602
PART_000_R31G119B180A255,1714,0.0004143667,-0.0001368383,-0.0001365204,8.195444e-06,6.450687e-08,1.072061e-06,0.0005512320576225166
PART_000_R31G119B180A255,1715,0.0004144099,-0.0001367728,-0.0001369964,8.741947e-06,2.805557e-08,8.314971e-07,0.0005515043106482935
PART_002_R214G39B40A255,1716,0.0004140659,-0.0001368141,-0.0001364365,9.772302e-06,6.079033e-08,3.359335e-07,0.000550951674825696
PART_003_R247G182B210A255,1717,0.0003103584,-0.000102398,-0.0001022113,1.45162e-05,-3.711851e-08,-2.063188e-07,0.00041342848353854755
PART_003_R247G182B210A255,1718,0.0003106422,-0.0001023639,-0.0001027636,1.334285e-05,-1.441603e-07,-5.028812e-07,0.00041385286381625744
PART_003_R247G182B210A255,1719,0.000310632,-0.0001023748,-0.0001024305,1.259217e-05,-1.302066e-07,-6.659139e-07,0.0004136117670577801
PART_000_R31G119B180A255,1720,0.0003109419,-0.0001024292,-0.0001029069,1.21758e-05,-1.254948e-07,-5.555938e-07,0.0004141486273116649
PART_000_R31G119B180A255,1721,0.0003108962,-0.0001024544,-0.0001025491,1.195741e-05,-7.487672e-08,-3.362883e-07,0.0004139168598173141
PART_000_R31G119B180A255,1722,0.0003110932,-0.000102465,-0.0001029919,1.189592e-05,-2.555134e-16,-1.480781e-14,0.00041433453267181246
PART_000_R31G119B180A255,1723,0.0003108962,-0.0001024544,-0.0001025491,1.195741e-05,7.487672e-08,3.362883e-07,0.0004139168598173141
PART_000_R31G119B180A255,1724,0.0003109419,-0.0001024292,-0.0001029069,1.21758e-05,1.254948e-07,5.555938e-07,0.0004141486273116649
PART_000_R31G119B180A255,1725,0.000310632,-0.0001023748,-0.0001024305,1.259217e-05,1.302066e-07,6.659138e-07,0.0004136117670572971
PART_002_R214G39B40A255,1726,0.0003106422,-0.0001023639,-0.0001027636,1.334285e-05,1.441603e-07,5.028812e-07,0.00041385286381625744
PART_002_R214G39B40A255,1727,0.0003103584,-0.000102398,-0.0001022113,1.45162e-05,3.711851e-08,2.063188e-07,0.00041342848353854755
PART_003_R247G182B210A255,1728,0.0002069869,-6.841403e-05,-6.81824e-05,1.738454e-05,-7.228252e-08,-1.256998e-07,0.0002769271827548678
PART_003_R247G182B210A255,1729,0.0002071749,-6.839773e-05,-6.848721e-05,1.617425e-05,-1.478822e-07,-2.986294e-07,0.0002770380711849872
PART_003_R247G182B210A255,1730,0.0002071728,-6.840717e-05,-6.828759e-05,1.535335e-05,-2.154118e-07,-3.991861e-07,0.0002768016864756973
PART_003_R247G182B210A255,1731,0.0002073963,-6.842716e-05,-6.863647e-05,1.484528e-05,-1.632246e-07,-3.32869e-07,0.0002771243707298568
PART_000_R31G119B180A255,1732,0.0002073753,-6.846357e-05,-6.837855e-05,1.457572e-05,-1.029711e-07,-2.054482e-07,0.00027694972628102753
PART_000_R31G119B180A255,1733,0.0002075092,-6.846662e-05,-6.869139e-05,1.449648e-05,4.826788e-16,-9.326464e-15,0.00027722766569817286
PART_000_R31G119B180A255,1734,0.0002073753,-6.846357e-05,-6.837855e-05,1.457572e-05,1.029711e-07,2.054481e-07,0.000276949726280805
PART_000_R31G119B180A255,1735,0.0002073963,-6.842716e-05,-6.863647e-05,1.484528e-05,1.632246e-07,3.32869e-07,0.0002771243707298568
PART_002_R214G39B40A255,1736,0.0002071728,-6.840717e-05,-6.828759e-05,1.535335e-05,2.154118e-07,3.99186e-07,0.0002768016864752647
PART_002_R214G39B40A255,1737,0.0002071749,-6.839773e-05,-6.848721e-05,1.617425e-05,1.478822e-07,2.986294e-07,0.0002770380711849872
PART_002_R214G39B40A255,1738,0.0002069869,-6.841403e-05,-6.81824e-05,1.738454e-05,7.228252e-08,1.256998e-07,0.0002769271827548678
PART_003_R247G182B210A255,1739,0.0001034248,-3.411568e-05,-3.40663e-05,1.95885e-05,-7.082488e-08,-5.751945e-08,0.00014163949766507456
PART_003_R247G182B210A255,1740,0.0001035233,-3.410286e-05,-3.425408e-05,1.832709e-05,-1.986128e-07,-1.404317e-07,0.0001413139016504518
PART_003_R247G182B210A255,1741,0.0001035266,-3.410836e-05,-3.414502e-05,1.746518e-05,-2.211602e-07,-1.894474e-07,0.0001409389271973584
PART_003_R247G182B210A255,1742,0.000103639,-3.412228e-05,-3.431829e-05,1.694111e-05,-2.145541e-07,-1.567714e-07,0.00014094831227066414
PART_003_R247G182B210A255,1743,0.0001036288,-3.412732e-05,-3.420216e-05,1.665199e-05,-1.127228e-07,-9.734478e-08,0.00014077995854058417
PART_000_R31G119B180A255,1744,0.0001036976,-3.41378e-05,-3.434816e-05,1.656716e-05,-8.180136e-17,-4.503435e-15,0.00014089375135409803
PART_000_R31G119B180A255,1745,0.0001036288,-3.412732e-05,-3.420216e-05,1.665199e-05,1.127228e-07,9.734478e-08,0.00014077995854058417
PART_002_R214G39B40A255,1746,0.000103639,-3.412228e-05,-3.431829e-05,1.694111e-05,2.145541e-07,1.567714e-07,0.00014094831227066414
PART_002_R214G39B40A255,1747,0.0001035266,-3.410836e-05,-3.414502e-05,1.746518e-05,2.211602e-07,1.894474e-07,0.0001409389271973584
PART_002_R214G39B40A255,1748,0.0001035233,-3.410286e-05,-3.425408e-05,1.832709e-05,1.986128e-07,1.404317e-07,0.0001413139016504518
PART_002_R214G39B40A255,1749,0.0001034248,-3.411568e-05,-3.40663e-05,1.95885e-05,7.082488e-08,5.751945e-08,0.00014163949766507456
PART_003_R247G182B210A255,1750,1.131596e-13,-3.744314e-14,-3.729706e-14,1.983674e-05,-8.0598e-08,-5.754911e-17,3.435852513708369e-05
PART_003_R247G182B210A255,1751,1.133251e-13,-3.725579e-14,-3.776797e-14,1.859339e-05,-1.866817e-07,-1.482392e-16,3.2206319337168053e-05
PART_003_R247G182B210A255,1752,1.132413e-13,-3.740541e-14,-3.723713e-14,1.772797e-05,-2.576522e-07,-2.181686e-16,3.070898752696342e-05
PART_003_R247G182B210A255,1753,1.134243e-13,-3.749561e-14,-3.758654e-14,1.717756e-05,-2.027465e-07,-1.682635e-16,2.9754479008891864e-05
PART_003_R247G182B210A255,1754,1.133222e-13,-3.741538e-14,-3.732401e-14,1.687656e-05,-1.303278e-07,-1.128085e-16,2.923193097123689e-05
PART_003_R247G182B210A255,1755,1.134565e-13,-3.751036e-14,-3.758878e-14,1.678631e-05,4.216896e-16,-4.546026e-18,2.9074741791601522e-05
PART_002_R214G39B40A255,1756,1.132925e-13,-3.73989e-14,-3.731543e-14,1.687656e-05,1.303278e-07,1.073945e-16,2.923193097123689e-05
PART_002_R214G39B40A255,1757,1.133623e-13,-3.747263e-14,-3.756546e-14,1.717756e-05,2.027465e-07,1.619942e-16,2.9754479008891864e-05
PART_002_R214G39B40A255,1758,1.131492e-13,-3.738199e-14,-3.720297e-14,1.772797e-05,2.576522e-07,2.124537e-16,3.070898752696342e-05
PART_002_R214G39B40A255,1759,1.132012e-13,-3.720938e-14,-3.772818e-14,1.859339e-05,1.866817e-07,1.469907e-16,3.2206319337168053e-05
PART_002_R214G39B40A255,1760,1.130018e-13,-3.739283e-14,-3.72444e-14,1.983674e-05,8.0598e-08,5.49555e-17,3.435852513708369e-05
PART_003_R247G182B210A255,1761,-0.0001034248,3.411568e-05,3.40663e-05,1.95885e-05,-7.082488e-08,5.751945e-08,0.00014163949766507456
PART_003_R247G182B210A255,1762,-0.0001035233,3.410286e-05,3.425408e-05,1.832709e-05,-1.986128e-07,1.404317e-07,0.0001413139016504518
PART_003_R247G182B210A255,1763,-0.0001035266,3.410836e-05,3.414502e-05,1.746518e-05,-2.211602e-07,1.894474e-07,0.0001409389271973584
PART_003_R247G182B210A255,1764,-0.000103639,3.412228e-05,3.431829e-05,1.694111e-05,-2.145541e-07,1.567714e-07,0.00014094831227066414
PART_003_R247G182B210A255,1765,-0.0001036288,3.412732e-05,3.420216e-05,1.665199e-05,-1.127228e-07,9.734478e-08,0.00014077995854058417
PART_001_R158G218B229A255,1766,-0.0001036976,3.41378e-05,3.434816e-05,1.656716e-05,-8.322395e-17,4.49757e-15,0.00014089375135409803
PART_001_R158G218B229A255,1767,-0.0001036288,3.412732e-05,3.420216e-05,1.665199e-05,1.127228e-07,-9.734477e-08,0.00014077995854056344
PART_002_R214G39B40A255,1768,-0.000103639,3.412228e-05,3.431829e-05,1.694111e-05,2.145541e-07,-1.567714e-07,0.00014094831227066414
PART_002_R214G39B40A255,1769,-0.0001035266,3.410836e-05,3.414502e-05,1.746518e-05,2.211602e-07,-1.894474e-07,0.0001409389271973584
PART_002_R214G39B40A255,1770,-0.0001035233,3.410286e-05,3.425408e-05,1.832709e-05,1.986128e-07,-1.404317e-07,0.0001413139016504518
PART_002_R214G39B40A255,1771,-0.0001034248,3.411568e-05,3.40663e-05,1.95885e-05,7.082488e-08,-5.751945e-08,0.00014163949766507456
PART_003_R247G182B210A255,1772,-0.0002069869,6.841403e-05,6.81824e-05,1.738454e-05,-7.228252e-08,1.256998e-07,0.0002769271827548678
PART_003_R247G182B210A255,1773,-0.0002071749,6.839773e-05,6.848721e-05,1.617425e-05,-1.478822e-07,2.986294e-07,0.0002770380711849872
PART_003_R247G182B210A255,1774,-0.0002071728,6.840717e-05,6.828759e-05,1.535335e-05,-2.154118e-07,3.991861e-07,0.0002768016864756973
PART_003_R247G182B210A255,1775,-0.0002073963,6.842716e-05,6.863646e-05,1.484528e-05,-1.632246e-07,3.32869e-07,0.00027712436574577564
PART_001_R158G218B229A255,1776,-0.0002073753,6.846357e-05,6.837855e-05,1.457572e-05,-1.029711e-07,2.054482e-07,0.00027694972628102753
PART_001_R158G218B229A255,1777,-0.0002075092,6.846662e-05,6.869139e-05,1.449648e-05,4.896003e-16,9.318469e-15,0.00027722766569817286
PART_001_R158G218B229A255,1778,-0.0002073753,6.846357e-05,6.837855e-05,1.457572e-05,1.029711e-07,-2.054481e-07,0.000276949726280805
PART_001_R158G218B229A255,1779,-0.0002073963,6.842716e-05,6.863646e-05,1.484528e-05,1.632246e-07,-3.32869e-07,0.00027712436574577564
PART_002_R214G39B40A255,1780,-0.0002071728,6.840717e-05,6.828759e-05,1.535335e-05,2.154118e-07,-3.99186e-07,0.0002768016864752647
PART_002_R214G39B40A255,1781,-0.0002071749,6.839773e-05,6.848721e-05,1.617425e-05,1.478822e-07,-2.986294e-07,0.0002770380711849872
PART_002_R214G39B40A255,1782,-0.0002069869,6.841403e-05,6.81824e-05,1.738454e-05,7.228252e-08,-1.256998e-07,0.0002769271827548678
PART_003_R247G182B210A255,1783,-0.0003103584,0.000102398,0.0001022113,1.45162e-05,-3.711851e-08,2.063188e-07,0.00041342848353854755
PART_003_R247G182B210A255,1784,-0.0003106422,0.0001023639,0.0001027636,1.334285e-05,-1.441603e-07,5.028812e-07,0.00041385286381625744
PART_003_R247G182B210A255,1785,-0.000310632,0.0001023748,0.0001024305,1.259217e-05,-1.302066e-07,6.659139e-07,0.0004136117670577801
PART_001_R158G218B229A255,1786,-0.0003109419,0.0001024292,0.0001029069,1.21758e-05,-1.254948e-07,5.555938e-07,0.0004141486273116649
PART_001_R158G218B229A255,1787,-0.0003108962,0.0001024544,0.0001025491,1.195741e-05,-7.487672e-08,3.362883e-07,0.0004139168598173141
PART_001_R158G218B229A255,1788,-0.0003110932,0.000102465,0.0001029919,1.189592e-05,-2.569186e-16,1.479778e-14,0.00041433453267181246
PART_001_R158G218B229A255,1789,-0.0003108962,0.0001024544,0.0001025491,1.195741e-05,7.487672e-08,-3.362883e-07,0.0004139168598173141
PART_001_R158G218B229A255,1790,-0.0003109419,0.0001024292,0.0001029069,1.21758e-05,1.254948e-07,-5.555938e-07,0.0004141486273116649
PART_001_R158G218B229A255,1791,-0.000310632,0.0001023748,0.0001024305,1.259217e-05,1.302066e-07,-6.659138e-07,0.0004136117670572971
PART_002_R214G39B40A255,1792,-0.0003106422,0.0001023639,0.0001027636,1.334285e-05,1.441603e-07,-5.028812e-07,0.00041385286381625744
PART_002_R214G39B40A255,1793,-0.0003103584,0.000102398,0.0001022113,1.45162e-05,3.711851e-08,-2.063188e-07,0.00041342848353854755
PART_003_R247G182B210A255,1794,-0.0004140659,0.0001368141,0.0001364365,9.772302e-06,-6.079033e-08,3.359335e-07,0.000550951674825696
PART_003_R247G182B210A255,1795,-0.0004144099,0.0001367728,0.0001369964,8.741947e-06,-2.805558e-08,8.314971e-07,0.000551504310648295
PART_001_R158G218B229A255,1796,-0.0004143667,0.0001368383,0.0001365204,8.195444e-06,-6.450687e-08,1.072061e-06,0.0005512320576225166
PART_001_R158G218B229A255,1797,-0.0004147592,0.0001368966,0.00013717,7.909764e-06,-7.685374e-08,8.564437e-07,0.0005519646097563258
PART_001_R158G218B229A255,1798,-0.0004146832,0.0001369194,0.0001366793,7.760703e-06,-4.481925e-08,5.054015e-07,0.0005516470828727338
PART_001_R158G218B229A255,1799,-0.0004149352,0.0001369457,0.0001372668,7.72011e-06,1.877838e-16,2.117116e-14,0.0005522034409004043
PART_001_R158G218B229A255,1800,-0.0004146832,0.0001369194,0.0001366793,7.760703e-06,4.481925e-08,-5.054014e-07,0.000551647082872459
PART_001_R158G218B229A255,1801,-0.0004147592,0.0001368966,0.00013717,7.909764e-06,7.685374e-08,-8.564436e-07,0.0005519646097558602
PART_001_R158G218B229A255,1802,-0.0004143667,0.0001368383,0.0001365204,8.195444e-06,6.450687e-08,-1.072061e-06,0.0005512320576225166
PART_001_R158G218B229A255,1803,-0.0004144099,0.0001367728,0.0001369964,8.741947e-06,2.805557e-08,-8.314971e-07,0.0005515043106482935
PART_002_R214G39B40A255,1804,-0.0004140659,0.0001368141,0.0001364365,9.772302e-06,6.079033e-08,-3.359335e-07,0.000550951674825696
PART_003_R247G182B210A255,1805,-0.0005174946,0.0001708087,0.0001703537,3.663051e-06,6.143725e-08,7.092212e-07,0.0006881062679194357
PART_001_R158G218B229A255,1806,-0.0005179195,0.0001707567,0.0001711918,3.137701e-06,5.912228e-09,1.551441e-06,0.0006889205304591807
PART_001_R158G218B229A255,1807,-0.0005178377,0.0001708411,0.0001706241,2.973095e-06,-1.839327e-08,1.657078e-06,0.0006885955634317639
PART_001_R158G218B229A255,1808,-0.0005182539,0.0001708376,0.0001714025,2.851239e-06,-2.501162e-08,1.28065e-06,0.0006893953822257052
PART_001_R158G218B229A255,1809,-0.0005181491,0.0001708963,0.0001707898,2.816404e-06,-1.55348e-08,7.18156e-07,0.0006890105482725898
PART_001_R158G218B229A255,1810,-0.0005184229,0.0001708821,0.0001714917,2.78873e-06,-3.395924e-17,2.870648e-14,0.0006896269179855139
PART_001_R158G218B229A255,1811,-0.0005181491,0.0001708963,0.0001707898,2.816404e-06,1.55348e-08,-7.181559e-07,0.0006890105482722771
PART_001_R158G218B229A255,1812,-0.0005182539,0.0001708376,0.0001714025,2.851239e-06,2.501162e-08,-1.28065e-06,0.0006893953822257052
PART_001_R158G218B229A255,1813,-0.0005178377,0.0001708411,0.0001706241,2.973095e-06,1.839327e-08,-1.657077e-06,0.0006885955634245445
PART_001_R158G218B229A255,1814,-0.0005179195,0.0001707567,0.0001711918,3.137701e-06,-5.912227e-09,-1.551441e-06,0.0006889205304591807
PART_001_R158G218B229A255,1815,-0.0005174946,0.0001708087,0.0001703537,3.663051e-06,-6.143725e-08,-7.092212e-07,0.0006881062679194357
PART_003_R247G182B210A255,1816,0.0005134988,-0.0001695896,-0.0001695328,3.608362e-06,3.822941e-08,-6.769469e-07,0.0006830896032032904
PART_000_R31G119B180A255,1817,0.0005132991,-0.0001694762,-0.0001690962,3.116809e-06,2.770055e-08,-1.494498e-06,0.0006826116366176999
PART_000_R31G119B180A255,1818,0.0005136137,-0.0001695462,-0.0001697004,2.917026e-06,-1.458244e-08,-1.525557e-06,0.000683260803598968
PART_000_R31G119B180A255,1819,0.0005135271,-0.0001695273,-0.0001692513,2.807657e-06,-7.209608e-09,-1.230273e-06,0.000682937080707548
PART_000_R31G119B180A255,1820,0.0005137939,-0.0001695776,-0.000169822,2.745118e-06,-1.06649e-08,-6.54345e-07,0.0006835112102958292
PART_000_R31G119B180A255,1821,0.0005136385,-0.0001695557,-0.0001693116,2.733938e-06,-3.980716e-17,-2.889677e-14,0.000683088596043876
PART_000_R31G119B180A255,1822,0.0005137939,-0.0001695776,-0.000169822,2.745118e-06,1.066491e-08,6.543449e-07,0.0006835112102955424
PART_000_R31G119B180A255,1823,0.0005135271,-0.0001695273,-0.0001692513,2.807657e-06,7.209607e-09,1.230273e-06,0.000682937080707548
PART_000_R31G119B180A255,1824,0.0005136137,-0.0001695462,-0.0001697004,2.917026e-06,1.458244e-08,1.525557e-06,0.000683260803598968
PART_000_R31G119B180A255,1825,0.0005132991,-0.0001694762,-0.0001690962,3.116809e-06,-2.770054e-08,1.494497e-06,0.0006826116366111306
PART_000_R31G119B180A255,1826,0.0005134988,-0.0001695896,-0.0001695328,3.608362e-06,-3.822941e-08,6.769469e-07,0.0006830896032032904
PART_003_R247G182B210A255,1827,0.0004106618,-0.0001354125,-0.0001357846,9.958981e-06,-4.162257e-08,-2.73209e-07,0.0005465329330062308
PART_003_R247G182B210A255,1828,0.0004105218,-0.0001353974,-0.0001353183,8.878181e-06,-2.824431e-09,-7.882317e-07,0.0005460979099226686
PART_000_R31G119B180A255,1829,0.0004108038,-0.0001354439,-0.0001357969,8.318992e-06,-2.686271e-08,-9.255343e-07,0.0005466165828916235
PART_000_R31G119B180A255,1830,0.0004107377,-0.0001354705,-0.0001354137,8.007332e-06,-4.204257e-08,-8.053737e-07,0.0005463576480915388
PART_000_R31G119B180A255,1831,0.0004109814,-0.0001354771,-0.0001359123,7.846158e-06,-2.392088e-08,-4.36145e-07,0.0005468456448858138
PART_000_R31G119B180A255,1832,0.0004108456,-0.0001354954,-0.0001354712,7.797098e-06,1.663471e-16,-2.136627e-14,0.0005464957928713677
PART_000_R31G119B180A255,1833,0.0004109814,-0.0001354771,-0.0001359123,7.846158e-06,2.392088e-08,4.36145e-07,0.0005468456448858138
PART_000_R31G119B180A255,1834,0.0004107377,-0.0001354705,-0.0001354137,8.007332e-06,4.204257e-08,8.053737e-07,0.0005463576480915388
PART_000_R31G119B180A255,1835,0.0004108038,-0.0001354439,-0.0001357969,8.318992e-06,2.686271e-08,9.255343e-07,0.0005466165828916235
PART_000_R31G119B180A255,1836,0.0004105218,-0.0001353974,-0.0001353183,8.878181e-06,2.82443e-09,7.882317e-07,0.0005460979099226686
PART_002_R214G39B40A255,1837,0.0004106618,-0.0001354125,-0.0001357846,9.958981e-06,4.162257e-08,2.73209e-07,0.0005465329330062308
PART_003_R247G182B210A255,1838,0.0003080688,-0.0001017551,-0.0001017459,1.436365e-05,-2.026202e-08,-1.73543e-07,0.00041057385891347784
PART_003_R247G182B210A255,1839,0.0003079573,-0.0001016927,-0.000101501,1.31873e-05,-1.001189e-07,-4.506072e-07,0.0004101913982517045
PART_003_R247G182B210A255,1840,0.0003081789,-0.0001016865,-0.0001018877,1.240533e-05,-6.689603e-08,-5.430602e-07,0.0004105298117344046
PART_000_R31G119B180A255,1841,0.0003081461,-0.0001017343,-0.000101578,1.193656e-05,-7.335442e-08,-5.059717e-07,0.00041032442162991864
PART_000_R31G119B180A255,1842,0.0003083413,-0.0001017502,-0.0001019655,1.169436e-05,-4.198356e-08,-2.765932e-07,0.0004106992651478349
PART_000_R31G119B180A255,1843,0.0003082414,-0.0001017579,-0.0001016277,1.161312e-05,-2.95241e-16,-1.496534e-14,0.00041042740492329844
PART_000_R31G119B180A255,1844,0.0003083413,-0.0001017502,-0.0001019655,1.169436e-05,4.198356e-08,2.765932e-07,0.0004106992651478349
PART_000_R31G119B180A255,1845,0.0003081461,-0.0001017343,-0.000101578,1.193656e-05,7.335442e-08,5.059717e-07,0.00041032442162991864
PART_000_R31G119B180A255,1846,0.0003081789,-0.0001016865,-0.0001018877,1.240533e-05,6.689603e-08,5.430602e-07,0.0004105298117344046
PART_002_R214G39B40A255,1847,0.0003079573,-0.0001016927,-0.000101501,1.31873e-05,1.001189e-07,4.506072e-07,0.0004101913982517045
PART_002_R214G39B40A255,1848,0.0003080688,-0.0001017551,-0.0001017459,1.436365e-05,2.026202e-08,1.73543e-07,0.00041057385891347784
PART_003_R247G182B210A255,1849,0.0002052876,-6.768182e-05,-6.787457e-05,1.774946e-05,-4.625607e-08,-8.847089e-08,0.00027479104089188545
PART_003_R247G182B210A255,1850,0.0002052194,-6.768154e-05,-6.764259e-05,1.648184e-05,-8.384585e-08,-2.604955e-07,0.00027437104966053933
PART_003_R247G182B210A255,1851,0.0002053765,-6.768313e-05,-6.792827e-05,1.561803e-05,-1.367803e-07,-3.097586e-07,0.0002745189830012118
PART_003_R247G182B210A255,1852,0.0002053562,-6.768344e-05,-6.774169e-05,1.506732e-05,-9.544972e-08,-2.91784e-07,0.00027431352154974863
PART_000_R31G119B180A255,1853,0.0002054897,-6.770802e-05,-6.798677e-05,1.47734e-05,-6.233861e-08,-1.627431e-07,0.0002745324697301716
PART_000_R31G119B180A255,1854,0.0002054248,-6.770702e-05,-6.777195e-05,1.467704e-05,4.315336e-16,-9.433268e-15,0.00027434463047593024
PART_000_R31G119B180A255,1855,0.0002054897,-6.770802e-05,-6.798677e-05,1.47734e-05,6.233861e-08,1.62743e-07,0.00027453246972999375
PART_000_R31G119B180A255,1856,0.0002053562,-6.768344e-05,-6.774169e-05,1.506732e-05,9.544972e-08,2.91784e-07,0.00027431352154974863
PART_002_R214G39B40A255,1857,0.0002053765,-6.768313e-05,-6.792827e-05,1.561803e-05,1.367803e-07,3.097586e-07,0.0002745189830012118
PART_002_R214G39B40A255,1858,0.0002052194,-6.768154e-05,-6.764259e-05,1.648184e-05,8.384585e-08,2.604955e-07,0.00027437104966053933
PART_002_R214G39B40A255,1859,0.0002052876,-6.768182e-05,-6.787457e-05,1.774946e-05,4.625607e-08,8.847088e-08,0.0002747910408918758
PART_003_R247G182B210A255,1860,0.0001026816,-3.391791e-05,-3.391582e-05,1.938172e-05,-3.864282e-08,-4.456776e-08,0.0001406630878829475
PART_003_R247G182B210A255,1861,0.0001026455,-3.389729e-05,-3.383231e-05,1.810929e-05,-1.295086e-07,-1.185472e-07,0.00014006782929549134
PART_003_R247G182B210A255,1862,0.0001027245,-3.389708e-05,-3.396433e-05,1.720508e-05,-1.276988e-07,-1.420574e-07,0.00013986708776834653
PART_003_R247G182B210A255,1863,0.0001027179,-3.390877e-05,-3.386937e-05,1.660859e-05,-1.360166e-07,-1.354028e-07,0.00013960340864576469
PART_003_R247G182B210A255,1864,0.0001027876,-3.391049e-05,-3.400469e-05,1.628056e-05,-6.613329e-08,-7.449114e-08,0.00013962253869892515
PART_000_R31G119B180A255,1865,0.0001027549,-3.391941e-05,-3.388583e-05,1.617316e-05,-1.348233e-16,-4.563737e-15,0.00013949907501994234
PART_000_R31G119B180A255,1866,0.0001027876,-3.391049e-05,-3.400469e-05,1.628056e-05,6.613329e-08,7.449113e-08,0.00013962253869890916
PART_002_R214G39B40A255,1867,0.0001027179,-3.390877e-05,-3.386937e-05,1.660859e-05,1.360166e-07,1.354027e-07,0.0001396034086454737
PART_002_R214G39B40A255,1868,0.0001027245,-3.389708e-05,-3.396433e-05,1.720508e-05,1.276988e-07,1.420574e-07,0.00013986708776834653
PART_002_R214G39B40A255,1869,0.0001026455,-3.389729e-05,-3.383231e-05,1.810929e-05,1.295086e-07,1.185472e-07,0.00014006782929549134
PART_002_R214G39B40A255,1870,0.0001026816,-3.391791e-05,-3.391582e-05,1.938172e-05,3.864282e-08,4.456776e-08,0.0001406630878829475
PART_003_R247G182B210A255,1871,1.123774e-13,-3.702941e-14,-3.727026e-14,2.027118e-05,-5.161752e-08,-3.8025e-17,3.5110827516341916e-05
PART_003_R247G182B210A255,1872,1.122541e-13,-3.683425e-14,-3.716448e-14,1.896854e-05,-1.090973e-07,-1.332137e-16,3.285501842728751e-05
PART_003_R247G182B210A255,1873,1.12392e-13,-3.697867e-14,-3.718349e-14,1.805158e-05,-1.627402e-07,-1.522847e-16,3.126752428011032e-05
PART_003_R247G182B210A255,1874,1.123041e-13,-3.704936e-14,-3.695052e-14,1.745188e-05,-1.22024e-07,-1.545297e-16,3.0228281727100002e-05
PART_003_R247G182B210A255,1875,1.124257e-13,-3.696696e-14,-3.725691e-14,1.712231e-05,-8.190612e-08,-8.251583e-17,2.965705017438148e-05
PART_003_R247G182B210A255,1876,1.123129e-13,-3.706974e-14,-3.693308e-14,1.701183e-05,3.532477e-16,-2.076713e-18,2.9465353889724454e-05
PART_002_R214G39B40A255,1877,1.12394e-13,-3.695265e-14,-3.724912e-14,1.712231e-05,8.190612e-08,7.891001e-17,2.965705017438148e-05
PART_002_R214G39B40A255,1878,1.12239e-13,-3.702681e-14,-3.69294e-14,1.745188e-05,1.22024e-07,1.49658e-16,3.0228281727100002e-05
PART_002_R214G39B40A255,1879,1.122956e-13,-3.695048e-14,-3.714858e-14,1.805158e-05,1.627402e-07,1.498647e-16,3.126752428011032e-05
PART_002_R214G39B40A255,1880,1.121279e-13,-3.678958e-14,-3.712574e-14,1.896854e-05,1.090973e-07,1.291488e-16,3.285501842728751e-05
PART_002_R214G39B40A255,1881,1.122176e-13,-3.69817e-14,-3.72166e-14,2.027118e-05,5.161752e-08,3.777936e-17,3.5110827516341916e-05
PART_003_R247G182B210A255,1882,-0.0001026816,3.391791e-05,3.391582e-05,1.938172e-05,-3.864282e-08,4.456776e-08,0.0001406630878829475
PART_003_R247G182B210A255,1883,-0.0001026455,3.389729e-05,3.383231e-05,1.810929e-05,-1.295086e-07,1.185472e-07,0.00014006782929549134
PART_003_R247G182B210A255,1884,-0.0001027245,3.389708e-05,3.396433e-05,1.720508e-05,-1.276988e-07,1.420574e-07,0.00013986708776834653
PART_003_R247G182B210A255,1885,-0.0001027179,3.390877e-05,3.386937e-05,1.660859e-05,-1.360166e-07,1.354028e-07,0.00013960340864576469
PART_003_R247G182B210A255,1886,-0.0001027876,3.391049e-05,3.400469e-05,1.628056e-05,-6.613329e-08,7.449114e-08,0.00013962253869892515
PART_001_R158G218B229A255,1887,-0.0001027549,3.391941e-05,3.388583e-05,1.617316e-05,-1.338863e-16,4.555615e-15,0.00013949907501994234
PART_001_R158G218B229A255,1888,-0.0001027876,3.391049e-05,3.400469e-05,1.628056e-05,6.613329e-08,-7.449113e-08,0.00013962253869890916
PART_002_R214G39B40A255,1889,-0.0001027179,3.390877e-05,3.386937e-05,1.660859e-05,1.360166e-07,-1.354027e-07,0.0001396034086454737
PART_002_R214G39B40A255,1890,-0.0001027245,3.389708e-05,3.396433e-05,1.720508e-05,1.276988e-07,-1.420574e-07,0.00013986708776834653
PART_002_R214G39B40A255,1891,-0.0001026455,3.389729e-05,3.383231e-05,1.810929e-05,1.295086e-07,-1.185472e-07,0.00014006782929549134
PART_002_R214G39B40A255,1892,-0.0001026816,3.391791e-05,3.391582e-05,1.938172e-05,3.864282e-08,-4.456776e-08,0.0001406630878829475
PART_003_R247G182B210A255,1893,-0.0002052876,6.768182e-05,6.787457e-05,1.774946e-05,-4.625607e-08,8.847089e-08,0.00027479104089188545
PART_003_R247G182B210A255,1894,-0.0002052194,6.768154e-05,6.764259e-05,1.648184e-05,-8.384585e-08,2.604955e-07,0.00027437104966053933
PART_003_R247G182B210A255,1895,-0.0002053765,6.768313e-05,6.792827e-05,1.561803e-05,-1.367803e-07,3.097586e-07,0.0002745189830012118
PART_003_R247G182B210A255,1896,-0.0002053562,6.768344e-05,6.774169e-05,1.506732e-05,-9.544972e-08,2.91784e-07,0.00027431352154974863
PART_001_R158G218B229A255,1897,-0.0002054897,6.770802e-05,6.798677e-05,1.47734e-05,-6.233861e-08,1.627431e-07,0.0002745324697301716
PART_001_R158G218B229A255,1898,-0.0002054248,6.770702e-05,6.777195e-05,1.467704e-05,4.316556e-16,9.421708e-15,0.00027434463047593024
PART_001_R158G218B229A255,1899,-0.0002054897,6.770802e-05,6.798677e-05,1.47734e-05,6.233861e-08,-1.62743e-07,0.00027453246972999375
PART_001_R158G218B229A255,1900,-0.0002053562,6.768344e-05,6.774169e-05,1.506732e-05,9.544972e-08,-2.91784e-07,0.00027431352154974863
PART_002_R214G39B40A255,1901,-0.0002053765,6.768313e-05,6.792827e-05,1.561803e-05,1.367803e-07,-3.097586e-07,0.0002745189830012118
PART_002_R214G39B40A255,1902,-0.0002052194,6.768154e-05,6.764259e-05,1.648184e-05,8.384585e-08,-2.604955e-07,0.00027437104966053933
PART_002_R214G39B40A255,1903,-0.0002052876,6.768182e-05,6.787457e-05,1.774946e-05,4.625607e-08,-8.847088e-08,0.0002747910408918758
PART_003_R247G182B210A255,1904,-0.0003080688,0.0001017551,0.0001017459,1.436365e-05,-2.026202e-08,1.73543e-07,0.00041057385891347784
PART_003_R247G182B210A255,1905,-0.0003079573,0.0001016927,0.000101501,1.31873e-05,-1.001189e-07,4.506072e-07,0.0004101913982517045
PART_003_R247G182B210A255,1906,-0.0003081789,0.0001016865,0.0001018877,1.240533e-05,-6.689604e-08,5.430602e-07,0.0004105298117344095
PART_001_R158G218B229A255,1907,-0.0003081461,0.0001017343,0.000101578,1.193656e-05,-7.335442e-08,5.059717e-07,0.00041032442162991864
PART_001_R158G218B229A255,1908,-0.0003083413,0.0001017502,0.0001019655,1.169436e-05,-4.198356e-08,2.765932e-07,0.0004106992651478349
PART_001_R158G218B229A255,1909,-0.0003082414,0.0001017579,0.0001016277,1.161312e-05,-2.937282e-16,1.495655e-14,0.00041042740492329844
PART_001_R158G218B229A255,1910,-0.0003083413,0.0001017502,0.0001019655,1.169436e-05,4.198356e-08,-2.765932e-07,0.0004106992651478349
PART_001_R158G218B229A255,1911,-0.0003081461,0.0001017343,0.000101578,1.193656e-05,7.335442e-08,-5.059717e-07,0.00041032442162991864
PART_001_R158G218B229A255,1912,-0.0003081789,0.0001016865,0.0001018877,1.240533e-05,6.689603e-08,-5.430602e-07,0.0004105298117344046
PART_002_R214G39B40A255,1913,-0.0003079573,0.0001016927,0.000101501,1.31873e-05,1.001189e-07,-4.506072e-07,0.0004101913982517045
PART_002_R214G39B40A255,1914,-0.0003080688,0.0001017551,0.0001017459,1.436365e-05,2.026202e-08,-1.73543e-07,0.00041057385891347784
PART_003_R247G182B210A255,1915,-0.0004106618,0.0001354125,0.0001357846,9.958981e-06,-4.162257e-08,2.73209e-07,0.0005465329330062308
PART_003_R247G182B210A255,1916,-0.0004105218,0.0001353974,0.0001353183,8.878181e-06,-2.824431e-09,7.882317e-07,0.0005460979099226686
PART_001_R158G218B229A255,1917,-0.0004108038,0.0001354439,0.0001357969,8.318992e-06,-2.686271e-08,9.255343e-07,0.0005466165828916235
PART_001_R158G218B229A255,1918,-0.0004107377,0.0001354705,0.0001354137,8.007332e-06,-4.204257e-08,8.053737e-07,0.0005463576480915388
PART_001_R158G218B229A255,1919,-0.0004109814,0.0001354771,0.0001359123,7.846158e-06,-2.392088e-08,4.36145e-07,0.0005468456448858138
PART_001_R158G218B229A255,1920,-0.0004108456,0.0001354954,0.0001354712,7.797098e-06,1.724136e-16,2.135428e-14,0.0005464957928713677
PART_001_R158G218B229A255,1921,-0.0004109814,0.0001354771,0.0001359123,7.846158e-06,2.392088e-08,-4.36145e-07,0.0005468456448858138
PART_001_R158G218B229A255,1922,-0.0004107377,0.0001354705,0.0001354137,8.007332e-06,4.204257e-08,-8.053737e-07,0.0005463576480915388
PART_001_R158G218B229A255,1923,-0.0004108038,0.0001354439,0.0001357969,8.318992e-06,2.686271e-08,-9.255343e-07,0.0005466165828916235
PART_001_R158G218B229A255,1924,-0.0004105218,0.0001353974,0.0001353183,8.878181e-06,2.82443e-09,-7.882317e-07,0.0005460979099226686
PART_002_R214G39B40A255,1925,-0.0004106618,0.0001354125,0.0001357846,9.958981e-06,4.162257e-08,-2.73209e-07,0.0005465329330062308
PART_003_R247G182B210A255,1926,-0.0005134988,0.0001695896,0.0001695328,3.608362e-06,3.822941e-08,6.769469e-07,0.0006830896032032904
PART_001_R158G218B229A255,1927,-0.0005132991,0.0001694762,0.0001690962,3.116809e-06,2.770055e-08,1.494498e-06,0.0006826116366176999
PART_001_R158G218B229A255,1928,-0.0005136137,0.0001695462,0.0001697004,2.917026e-06,-1.458244e-08,1.525557e-06,0.000683260803598968
PART_001_R158G218B229A255,1929,-0.0005135271,0.0001695273,0.0001692513,2.807657e-06,-7.209608e-09,1.230273e-06,0.000682937080707548
PART_001_R158G218B229A255,1930,-0.0005137939,0.0001695776,0.000169822,2.745118e-06,-1.06649e-08,6.54345e-07,0.0006835112102958292
PART_001_R158G218B229A255,1931,-0.0005136385,0.0001695557,0.0001693116,2.733938e-06,-4.165369e-17,2.888366e-14,0.000683088596043876
PART_001_R158G218B229A255,1932,-0.0005137939,0.0001695776,0.000169822,2.745118e-06,1.066491e-08,-6.543449e-07,0.0006835112102955424
PART_001_R158G218B229A255,1933,-0.0005135271,0.0001695273,0.0001692513,2.807657e-06,7.209607e-09,-1.230273e-06,0.000682937080707548
PART_001_R158G218B229A255,1934,-0.0005136137,0.0001695462,0.0001697004,2.917026e-06,1.458244e-08,-1.525557e-06,0.000683260803598968
PART_001_R158G218B229A255,1935,-0.0005132991,0.0001694762,0.0001690962,3.116809e-06,-2.770054e-08,-1.494497e-06,0.0006826116366111306
PART_001_R158G218B229A255,1936,-0.0005134988,0.0001695896,0.0001695328,3.608362e-06,-3.822941e-08,-6.769469e-07,0.0006830896032032904
PART_003_R247G182B210A255,1937,0.0005086993,-0.0001679504,-0.0001675306,3.664688e-06,5.857444e-08,-6.547129e-07,0.0006764706359128395
PART_000_R31G119B180A255,1938,0.000508932,-0.0001678691,-0.0001681007,3.137698e-06,2.164069e-08,-1.422699e-06,0.0006769432315955598
PART_000_R31G119B180A255,1939,0.0005088129,-0.0001679228,-0.0001676943,2.955324e-06,3.311735e-11,-1.485753e-06,0.0006766457344615861
PART_000_R31G119B180A255,1940,0.0005090318,-0.000167889,-0.0001681976,2.82398e-06,-3.941033e-09,-1.15168e-06,0.0006770957585169646
PART_000_R31G119B180A255,1941,0.000508927,-0.0001679247,-0.0001677821,2.774015e-06,-3.958691e-09,-6.358722e-07,0.0006767983625868701
PART_000_R31G119B180A255,1942,0.0005090918,-0.0001679018,-0.0001682404,2.746632e-06,-4.044582e-17,-2.882426e-14,0.0006771796741529609
PART_000_R31G119B180A255,1943,0.000508927,-0.0001679247,-0.0001677821,2.774015e-06,3.958691e-09,6.358721e-07,0.0006767983625865883
PART_000_R31G119B180A255,1944,0.0005090318,-0.000167889,-0.0001681976,2.82398e-06,3.941032e-09,1.15168e-06,0.0006770957585169646
PART_000_R31G119B180A255,1945,0.0005088129,-0.0001679228,-0.0001676943,2.955324e-06,-3.311697e-11,1.485753e-06,0.0006766457344615861
PART_000_R31G119B180A255,1946,0.000508932,-0.0001678691,-0.0001681007,3.137698e-06,-2.164069e-08,1.422698e-06,0.0006769432315892549
PART_000_R31G119B180A255,1947,0.0005086993,-0.0001679504,-0.0001675306,3.664688e-06,-5.857444e-08,6.547129e-07,0.0006764706359128395
PART_003_R247G182B210A255,1948,0.0004070083,-0.0001344096,-0.0001341893,9.869754e-06,-4.250284e-08,-2.708367e-07,0.000541577859793234
PART_003_R247G182B210A255,1949,0.0004071926,-0.0001343646,-0.000134534,8.808529e-06,1.422888e-08,-7.029857e-07,0.000541858120804125
PART_000_R31G119B180A255,1950,0.000407099,-0.0001343989,-0.0001341754,8.227851e-06,-4.695735e-09,-8.906326e-07,0.0005415759163937029
PART_000_R31G119B180A255,1951,0.0004073001,-0.0001344228,-0.0001345822,7.903241e-06,-2.045089e-08,-7.220227e-07,0.0005419769601034687
PART_000_R31G119B180A255,1952,0.0004072146,-0.0001344229,-0.0001342457,7.726329e-06,-1.109261e-08,-4.176441e-07,0.0005417147282190687
PART_000_R31G119B180A255,1953,0.0004073631,-0.0001344401,-0.0001346219,7.674681e-06,1.48794e-16,-2.130395e-14,0.0005420571395974739
PART_000_R31G119B180A255,1954,0.0004072146,-0.0001344229,-0.0001342457,7.726329e-06,1.109261e-08,4.176441e-07,0.0005417147282190687
PART_000_R31G119B180A255,1955,0.0004073001,-0.0001344228,-0.0001345822,7.903241e-06,2.045089e-08,7.220227e-07,0.0005419769601034687
PART_000_R31G119B180A255,1956,0.000407099,-0.0001343989,-0.0001341754,8.227851e-06,4.695735e-09,8.906326e-07,0.0005415759163937029
PART_000_R31G119B180A255,1957,0.0004071926,-0.0001343646,-0.000134534,8.808529e-06,-1.422888e-08,7.029857e-07,0.000541858120804125
PART_002_R214G39B40A255,1958,0.0004070083,-0.0001344096,-0.0001341893,9.869754e-06,4.250284e-08,2.708367e-07,0.000541577859793234
PART_003_R247G182B210A255,1959,0.0003051717,-0.0001007253,-0.0001005432,1.455452e-05,-8.279466e-09,-1.54572e-07,0.0004065883273855257
PART_003_R247G182B210A255,1960,0.0003053213,-0.0001006816,-0.0001009185,1.335121e-05,-6.884283e-08,-3.83998e-07,0.00040677981024605934
PART_003_R247G182B210A255,1961,0.000305259,-0.0001006695,-0.0001006662,1.254359e-05,-3.307325e-08,-5.05937e-07,0.0004065087990531297
PART_000_R31G119B180A255,1962,0.0003054144,-0.0001007001,-0.0001009513,1.206344e-05,-3.901629e-08,-4.347281e-07,0.00040677784779946685
PART_000_R31G119B180A255,1963,0.0003053537,-0.0001007067,-0.0001007047,1.180123e-05,-2.330661e-08,-2.584455e-07,0.00040657378842188325
PART_000_R31G119B180A255,1964,0.0003054682,-0.0001007107,-0.0001009848,1.172113e-05,-3.137393e-16,-1.491808e-14,0.0004068228880458186
PART_000_R31G119B180A255,1965,0.0003053537,-0.0001007067,-0.0001007047,1.180123e-05,2.330662e-08,2.584455e-07,0.000406573788421885
PART_000_R31G119B180A255,1966,0.0003054144,-0.0001007001,-0.0001009513,1.206344e-05,3.901629e-08,4.347281e-07,0.00040677784779946685
PART_000_R31G119B180A255,1967,0.000305259,-0.0001006695,-0.0001006662,1.254359e-05,3.307325e-08,5.05937e-07,0.0004065087990531297
PART_002_R214G39B40A255,1968,0.0003053213,-0.0001006816,-0.0001009185,1.335121e-05,6.884283e-08,3.83998e-07,0.00040677981024605934
PART_002_R214G39B40A255,1969,0.0003051717,-0.0001007253,-0.0001005432,1.455452e-05,8.279466e-09,1.54572e-07,0.0004065883273855257
PART_003_R247G182B210A255,1970,0.000203494,-6.721386e-05,-6.707467e-05,1.759676e-05,-3.222243e-08,-8.342582e-08,0.00027234912684742066
PART_003_R247G182B210A255,1971,0.0002035918,-6.720199e-05,-6.725825e-05,1.63389e-05,-4.641806e-08,-2.099388e-07,0.0002722967726081512
PART_003_R247G182B210A255,1972,0.0002035504,-6.719659e-05,-6.710881e-05,1.544684e-05,-8.876653e-08,-2.804009e-07,0.00027202251421352573
PART_003_R247G182B210A255,1973,0.000203661,-6.719544e-05,-6.732401e-05,1.48647e-05,-5.191876e-08,-2.41481e-07,0.0002721417141424157
PART_000_R31G119B180A255,1974,0.0002036241,-6.721637e-05,-6.713943e-05,1.454161e-05,-3.775227e-08,-1.47987e-07,0.00027197090448089693
PART_000_R31G119B180A255,1975,0.0002037015,-6.721396e-05,-6.734157e-05,1.444095e-05,3.988886e-16,-9.405734e-15,0.00027213121354207384
PART_000_R31G119B180A255,1976,0.0002036241,-6.721637e-05,-6.713943e-05,1.454161e-05,3.775227e-08,1.47987e-07,0.00027197090448089693
PART_000_R31G119B180A255,1977,0.000203661,-6.719544e-05,-6.732401e-05,1.48647e-05,5.191876e-08,2.41481e-07,0.0002721417141424157
PART_002_R214G39B40A255,1978,0.0002035504,-6.719659e-05,-6.710881e-05,1.544684e-05,8.876653e-08,2.804009e-07,0.00027202251421352573
PART_002_R214G39B40A255,1979,0.0002035918,-6.720199e-05,-6.725825e-05,1.63389e-05,4.641806e-08,2.099388e-07,0.0002722967726081512
PART_002_R214G39B40A255,1980,0.000203494,-6.721386e-05,-6.707467e-05,1.759676e-05,3.222243e-08,8.342582e-08,0.00027234912684742066
PART_003_R247G182B210A255,1981,0.000101714,-3.356689e-05,-3.351511e-05,1.96615e-05,-2.362483e-08,-3.703037e-08,0.00013947632978670245
PART_003_R247G182B210A255,1982,0.0001017651,-3.355316e-05,-3.364011e-05,1.836133e-05,-8.174974e-08,-9.277389e-08,0.00013904771181356336
PART_003_R247G182B210A255,1983,0.0001017463,-3.35515e-05,-3.355429e-05,1.741973e-05,-7.47693e-08,-1.261922e-07,0.0001386227892449993
PART_003_R247G182B210A255,1984,0.0001018016,-3.355679e-05,-3.365972e-05,1.68048e-05,-8.646562e-08,-1.082297e-07,0.00013850306226251426
PART_003_R247G182B210A255,1985,0.0001017828,-3.355464e-05,-3.357929e-05,1.645199e-05,-3.841006e-08,-6.669165e-08,0.0001383169585968368
PART_000_R31G119B180A255,1986,0.0001018224,-3.356223e-05,-3.366974e-05,1.634203e-05,-1.729601e-16,-4.547702e-15,0.00013836455699987264
PART_000_R31G119B180A255,1987,0.0001017828,-3.355464e-05,-3.357929e-05,1.645199e-05,3.841006e-08,6.669164e-08,0.00013831695859682234
PART_002_R214G39B40A255,1988,0.0001018016,-3.355679e-05,-3.365972e-05,1.68048e-05,8.646562e-08,1.082297e-07,0.00013850306226251426
PART_002_R214G39B40A255,1989,0.0001017463,-3.35515e-05,-3.355429e-05,1.741973e-05,7.47693e-08,1.261922e-07,0.0001386227892449993
PART_002_R214G39B40A255,1990,0.0001017651,-3.355316e-05,-3.364011e-05,1.836133e-05,8.174974e-08,9.277388e-08,0.00013904771181354336
PART_002_R214G39B40A255,1991,0.000101714,-3.356689e-05,-3.351511e-05,1.96615e-05,2.362483e-08,3.703037e-08,0.00013947632978670245
PART_003_R247G182B210A255,1992,1.113001e-13,-3.682341e-14,-3.670388e-14,2.009609e-05,-3.274715e-08,-3.375765e-17,3.4807495126650516e-05
PART_003_R247G182B210A255,1993,1.113989e-13,-3.663129e-14,-3.708235e-14,1.880158e-05,-6.35323e-08,-9.624412e-17,3.256547774175331e-05
PART_003_R247G182B210A255,1994,1.113028e-13,-3.677874e-14,-3.660553e-14,1.785322e-05,-1.049704e-07,-1.451798e-16,3.092321861417127e-05
PART_003_R247G182B210A255,1995,1.11402e-13,-3.683555e-14,-3.685406e-14,1.721607e-05,-6.964562e-08,-1.169075e-16,2.9819351942519738e-05
PART_003_R247G182B210A255,1996,1.113158e-13,-3.676443e-14,-3.666185e-14,1.685215e-05,-5.266505e-08,-7.887931e-17,2.9188922551029093e-05
PART_003_R247G182B210A255,1997,1.113931e-13,-3.68477e-14,-3.6827e-14,1.673663e-05,3.171717e-16,-4.352902e-18,2.8988693507481498e-05
PART_002_R214G39B40A255,1998,1.112836e-13,-3.674535e-14,-3.665446e-14,1.685215e-05,5.266505e-08,7.106268e-17,2.9188922551029093e-05
PART_002_R214G39B40A255,1999,1.113399e-13,-3.681517e-14,-3.68293e-14,1.721607e-05,6.964562e-08,1.115788e-16,2.9819351942519738e-05
PART_002_R214G39B40A255,2000,1.112071e-13,-3.674101e-14,-3.65745e-14,1.785322e-05,1.049704e-07,1.399146e-16,3.092321861417127e-05
PART_002_R214G39B40A255,2001,1.112675e-13,-3.658879e-14,-3.703819e-14,1.880158e-05,6.35323e-08,9.512519e-17,3.256547774175331e-05
PART_002_R214G39B40A255,2002,1.111394e-13,-3.67705e-14,-3.664991e-14,2.009609e-05,3.274715e-08,3.4686e-17,3.4807495126650516e-05
PART_003_R247G182B210A255,2003,-0.000101714,3.356689e-05,3.351511e-05,1.96615e-05,-2.362483e-08,3.703037e-08,0.00013947632978670245
PART_003_R247G182B210A255,2004,-0.0001017651,3.355316e-05,3.364011e-05,1.836133e-05,-8.174974e-08,9.277389e-08,0.00013904771181356336
PART_003_R247G182B210A255,2005,-0.0001017463,3.35515e-05,3.355429e-05,1.741973e-05,-7.47693e-08,1.261922e-07,0.0001386227892449993
PART_003_R247G182B210A255,2006,-0.0001018016,3.355679e-05,3.365972e-05,1.68048e-05,-8.646562e-08,1.082297e-07,0.00013850306226251426
PART_003_R247G182B210A255,2007,-0.0001017828,3.355464e-05,3.357929e-05,1.645199e-05,-3.841006e-08,6.669165e-08,0.0001383169585968368
PART_001_R158G218B229A255,2008,-0.0001018224,3.356223e-05,3.366974e-05,1.634203e-05,-1.719625e-16,4.541997e-15,0.00013836455699987264
PART_001_R158G218B229A255,2009,-0.0001017828,3.355464e-05,3.357929e-05,1.645199e-05,3.841006e-08,-6.669164e-08,0.00013831695859682234
PART_002_R214G39B40A255,2010,-0.0001018016,3.355679e-05,3.365972e-05,1.68048e-05,8.646562e-08,-1.082297e-07,0.00013850306226251426
PART_002_R214G39B40A255,2011,-0.0001017463,3.35515e-05,3.355429e-05,1.741973e-05,7.47693e-08,-1.261922e-07,0.0001386227892449993
PART_002_R214G39B40A255,2012,-0.0001017651,3.355316e-05,3.364011e-05,1.836133e-05,8.174974e-08,-9.277388e-08,0.00013904771181354336
PART_002_R214G39B40A255,2013,-0.000101714,3.356689e-05,3.351511e-05,1.96615e-05,2.362483e-08,-3.703037e-08,0.00013947632978670245
PART_003_R247G182B210A255,2014,-0.000203494,6.721386e-05,6.707467e-05,1.759676e-05,-3.222243e-08,8.342582e-08,0.00027234912684742066
PART_003_R247G182B210A255,2015,-0.0002035918,6.720199e-05,6.725825e-05,1.63389e-05,-4.641806e-08,2.099388e-07,0.0002722967726081512
PART_003_R247G182B210A255,2016,-0.0002035504,6.719659e-05,6.710881e-05,1.544684e-05,-8.876653e-08,2.804009e-07,0.00027202251421352573
PART_003_R247G182B210A255,2017,-0.000203661,6.719544e-05,6.732401e-05,1.48647e-05,-5.191876e-08,2.41481e-07,0.0002721417141424157
PART_001_R158G218B229A255,2018,-0.0002036241,6.721637e-05,6.713943e-05,1.454161e-05,-3.775227e-08,1.47987e-07,0.00027197090448089693
PART_001_R158G218B229A255,2019,-0.0002037015,6.721396e-05,6.734157e-05,1.444095e-05,4.053798e-16,9.397939e-15,0.00027213121354207384
PART_001_R158G218B229A255,2020,-0.0002036241,6.721637e-05,6.713943e-05,1.454161e-05,3.775227e-08,-1.47987e-07,0.00027197090448089693
PART_001_R158G218B229A255,2021,-0.000203661,6.719544e-05,6.732401e-05,1.48647e-05,5.191876e-08,-2.41481e-07,0.0002721417141424157
PART_002_R214G39B40A255,2022,-0.0002035504,6.719659e-05,6.710881e-05,1.544684e-05,8.876653e-08,-2.804009e-07,0.00027202251421352573
PART_002_R214G39B40A255,2023,-0.0002035918,6.720199e-05,6.725825e-05,1.63389e-05,4.641806e-08,-2.099388e-07,0.0002722967726081512
PART_002_R214G39B40A255,2024,-0.000203494,6.721386e-05,6.707467e-05,1.759676e-05,3.222243e-08,-8.342582e-08,0.00027234912684742066
PART_003_R247G182B210A255,2025,-0.0003051717,0.0001007253,0.0001005432,1.455452e-05,-8.279465e-09,1.54572e-07,0.00040658832738552564
PART_003_R247G182B210A255,2026,-0.0003053213,0.0001006816,0.0001009185,1.335121e-05,-6.884283e-08,3.83998e-07,0.00040677981024605934
PART_003_R247G182B210A255,2027,-0.000305259,0.0001006695,0.0001006662,1.254359e-05,-3.307325e-08,5.05937e-07,0.0004065087990531297
PART_001_R158G218B229A255,2028,-0.0003054144,0.0001007001,0.0001009513,1.206344e-05,-3.901629e-08,4.347281e-07,0.00040677784779946685
PART_001_R158G218B229A255,2029,-0.0003053537,0.0001007067,0.0001007047,1.180123e-05,-2.330662e-08,2.584455e-07,0.000406573788421885
PART_001_R158G218B229A255,2030,-0.0003054682,0.0001007107,0.0001009848,1.172113e-05,-3.051453e-16,1.490693e-14,0.0004068228880458186
PART_001_R158G218B229A255,2031,-0.0003053537,0.0001007067,0.0001007047,1.180123e-05,2.330662e-08,-2.584455e-07,0.000406573788421885
PART_001_R158G218B229A255,2032,-0.0003054144,0.0001007001,0.0001009513,1.206344e-05,3.901629e-08,-4.347281e-07,0.00040677784779946685
PART_001_R158G218B229A255,2033,-0.000305259,0.0001006695,0.0001006662,1.254359e-05,3.307325e-08,-5.05937e-07,0.0004065087990531297
PART_002_R214G39B40A255,2034,-0.0003053213,0.0001006816,0.0001009185,1.335121e-05,6.884283e-08,-3.83998e-07,0.00040677981024605934
PART_002_R214G39B40A255,2035,-0.0003051717,0.0001007253,0.0001005432,1.455452e-05,8.279465e-09,-1.54572e-07,0.00040658832738552564
PART_003_R247G182B210A255,2036,-0.0004070083,0.0001344096,0.0001341893,9.869754e-06,-4.250284e-08,2.708367e-07,0.000541577859793234
PART_003_R247G182B210A255,2037,-0.0004071926,0.0001343646,0.000134534,8.808529e-06,1.422888e-08,7.029857e-07,0.000541858120804125
PART_001_R158G218B229A255,2038,-0.000407099,0.0001343989,0.0001341754,8.227851e-06,-4.695735e-09,8.906326e-07,0.0005415759163937029
PART_001_R158G218B229A255,2039,-0.0004073001,0.0001344228,0.0001345822,7.903241e-06,-2.045089e-08,7.220227e-07,0.0005419769601034687
PART_001_R158G218B229A255,2040,-0.0004072146,0.0001344229,0.0001342457,7.726329e-06,-1.109261e-08,4.176441e-07,0.0005417147282190687
PART_001_R158G218B229A255,2041,-0.0004073631,0.0001344401,0.0001346219,7.674681e-06,1.499316e-16,2.129458e-14,0.0005420571395974739
PART_001_R158G218B229A255,2042,-0.0004072146,0.0001344229,0.0001342457,7.726329e-06,1.109261e-08,-4.176441e-07,0.0005417147282190687
PART_001_R158G218B229A255,2043,-0.0004073001,0.0001344228,0.0001345822,7.903241e-06,2.045089e-08,-7.220227e-07,0.0005419769601034687
PART_001_R158G218B229A255,2044,-0.000407099,0.0001343989,0.0001341754,8.227851e-06,4.695735e-09,-8.906326e-07,0.0005415759163937029
PART_001_R158G218B229A255,2045,-0.0004071926,0.0001343646,0.000134534,8.808529e-06,-1.422888e-08,-7.029857e-07,0.000541858120804125
PART_002_R214G39B40A255,2046,-0.0004070083,0.0001344096,0.0001341893,9.869754e-06,4.250284e-08,-2.708367e-07,0.000541577859793234
PART_003_R247G182B210A255,2047,-0.0005086993,0.0001679504,0.0001675306,3.664688e-06,5.857444e-08,6.547129e-07,0.0006764706359128395
PART_001_R158G218B229A255,2048,-0.000508932,0.0001678691,0.0001681007,3.137698e-06,2.164069e-08,1.422699e-06,0.0006769432315955598
PART_001_R158G218B229A255,2049,-0.0005088129,0.0001679228,0.0001676943,2.955324e-06,3.311736e-11,1.485753e-06,0.0006766457344615861
PART_001_R158G218B229A255,2050,-0.0005090318,0.000167889,0.0001681976,2.82398e-06,-3.941033e-09,1.15168e-06,0.0006770957585169646
PART_001_R158G218B229A255,2051,-0.000508927,0.0001679247,0.0001677821,2.774015e-06,-3.958691e-09,6.358722e-07,0.0006767983625868701
PART_001_R158G218B229A255,2052,-0.0005090918,0.0001679018,0.0001682404,2.746632e-06,-4.25922e-17,2.882184e-14,0.0006771796741529609
PART_001_R158G218B229A255,2053,-0.000508927,0.0001679247,0.0001677821,2.774015e-06,3.958691e-09,-6.358721e-07,0.0006767983625865883
PART_001_R158G218B229A255,2054,-0.0005090318,0.000167889,0.0001681976,2.82398e-06,3.941032e-09,-1.15168e-06,0.0006770957585169646
PART_001_R158G218B229A255,2055,-0.0005088129,0.0001679228,0.0001676943,2.955324e-06,-3.311697e-11,-1.485753e-06,0.0006766457344615861
PART_001_R158G218B229A255,2056,-0.000508932,0.0001678691,0.0001681007,3.137698e-06,-2.164069e-08,-1.422698e-06,0.0006769432315892549
PART_001_R158G218B229A255,2057,-0.0005086993,0.0001679504,0.0001675306,3.664688e-06,-5.857444e-08,-6.547129e-07,0.0006764706359128395
PART_003_R247G182B210A255,2058,0.0005044573,-0.0001665768,-0.0001664785,3.629915e-06,4.386708e-08,-6.41735e-07,0.000671015335493001
PART_000_R31G119B180A255,2059,0.0005042921,-0.0001664651,-0.000166194,3.128728e-06,3.233991e-08,-1.400549e-06,0.000670647975570595
PART_000_R31G119B180A255,2060,0.0005044624,-0.000166516,-0.0001665788,2.926302e-06,-9.590457e-10,-1.426172e-06,0.0006710334911810182
PART_000_R31G119B180A255,2061,0.0005043691,-0.0001664782,-0.0001662756,2.805609e-06,3.758554e-09,-1.131613e-06,0.0006707664894081831
PART_000_R31G119B180A255,2062,0.0005045174,-0.0001665127,-0.0001666371,2.740468e-06,-2.857529e-09,-6.056613e-07,0.0006711099147842434
PART_000_R31G119B180A255,2063,0.0005044092,-0.0001664865,-0.0001663054,2.723695e-06,-4.957684e-17,-2.894126e-14,0.0006708217568086094
PART_000_R31G119B180A255,2064,0.0005045174,-0.0001665127,-0.0001666371,2.740468e-06,2.857529e-09,6.056612e-07,0.0006711099147839727
PART_000_R31G119B180A255,2065,0.0005043691,-0.0001664782,-0.0001662756,2.805609e-06,-3.758555e-09,1.131613e-06,0.0006707664894081831
PART_000_R31G119B180A255,2066,0.0005044624,-0.000166516,-0.0001665788,2.926302e-06,9.590461e-10,1.426172e-06,0.0006710334911810182
PART_000_R31G119B180A255,2067,0.0005042921,-0.0001664651,-0.000166194,3.128728e-06,-3.233991e-08,1.400549e-06,0.000670647975570595
PART_000_R31G119B180A255,2068,0.0005044573,-0.0001665768,-0.0001664785,3.629915e-06,-4.386708e-08,6.41735e-07,0.000671015335493001
PART_003_R247G182B210A255,2069,0.0004035107,-0.0001331056,-0.0001333521,9.959601e-06,-3.401382e-08,-2.433931e-07,0.0005370169012736478
PART_003_R247G182B210A255,2070,0.0004033842,-0.0001330801,-0.0001330013,8.872745e-06,2.249677e-08,-6.889881e-07,0.000536646327147326
PART_000_R31G119B180A255,2071,0.0004035338,-0.0001331103,-0.0001332949,8.291513e-06,8.470983e-09,-8.257481e-07,0.0005369304256618022
PART_000_R31G119B180A255,2072,0.0004034554,-0.0001331221,-0.0001330237,7.957235e-06,-7.972857e-09,-7.027341e-07,0.0005367066782011297
PART_000_R31G119B180A255,2073,0.0004035879,-0.0001331167,-0.0001333388,7.777428e-06,-3.462593e-09,-3.859241e-07,0.0005369850939163182
PART_000_R31G119B180A255,2074,0.0004034935,-0.0001331308,-0.0001330465,7.722162e-06,1.400205e-16,-2.14082e-14,0.000536748828025132
PART_000_R31G119B180A255,2075,0.0004035879,-0.0001331167,-0.0001333388,7.777428e-06,3.462592e-09,3.85924e-07,0.0005369850939161026
PART_000_R31G119B180A255,2076,0.0004034554,-0.0001331221,-0.0001330237,7.957235e-06,7.972858e-09,7.027341e-07,0.0005367066782011298
PART_000_R31G119B180A255,2077,0.0004035338,-0.0001331103,-0.0001332949,8.291513e-06,-8.470983e-09,8.257481e-07,0.0005369304256618022
PART_000_R31G119B180A255,2078,0.0004033842,-0.0001330801,-0.0001330013,8.872745e-06,-2.249677e-08,6.889881e-07,0.000536646327147326
PART_002_R214G39B40A255,2079,0.0004035107,-0.0001331056,-0.0001333521,9.959601e-06,3.401382e-08,2.433931e-07,0.0005370169012736478
PART_003_R247G182B210A255,2080,0.0003026756,-9.994495e-05,-9.992704e-05,1.4461e-05,-3.253205e-09,-1.420175e-07,0.00040339003305818184
PART_003_R247G182B210A255,2081,0.0003025751,-9.988807e-05,-9.976562e-05,1.326439e-05,-5.398027e-08,-3.647398e-07,0.0004030577831508467
PART_003_R247G182B210A255,2082,0.0003026896,-9.986995e-05,-0.0001000062,1.244982e-05,-1.000244e-08,-4.52829e-07,0.0004032054911772728
PART_000_R31G119B180A255,2083,0.0003026368,-9.990027e-05,-9.977684e-05,1.194886e-05,-2.016763e-08,-4.157697e-07,0.00040300777708132224
PART_000_R31G119B180A255,2084,0.000302741,-9.990437e-05,-0.0001000216,1.167956e-05,-1.099319e-08,-2.317091e-07,0.00040321198845928106
PART_000_R31G119B180A255,2085,0.0003026705,-9.990761e-05,-9.979548e-05,1.159022e-05,-3.262237e-16,-1.500927e-14,0.0004030223390083729
PART_000_R31G119B180A255,2086,0.000302741,-9.990437e-05,-0.0001000216,1.167956e-05,1.099319e-08,2.317091e-07,0.00040321198845928106
PART_000_R31G119B180A255,2087,0.0003026368,-9.990027e-05,-9.977684e-05,1.194886e-05,2.016763e-08,4.157697e-07,0.00040300777708132224
PART_000_R31G119B180A255,2088,0.0003026896,-9.986995e-05,-0.0001000062,1.244982e-05,1.000244e-08,4.52829e-07,0.0004032054911772728
PART_002_R214G39B40A255,2089,0.0003025751,-9.988807e-05,-9.976562e-05,1.326439e-05,5.398027e-08,3.647398e-07,0.0004030577831508467
PART_002_R214G39B40A255,2090,0.0003026756,-9.994495e-05,-9.992704e-05,1.4461e-05,3.253205e-09,1.420175e-07,0.00040339003305818184
PART_003_R247G182B210A255,2091,0.0002017419,-6.654422e-05,-6.666478e-05,1.776729e-05,-2.288413e-08,-6.755004e-08,0.00027010525047821903
PART_003_R247G182B210A255,2092,0.0002016772,-6.654268e-05,-6.648743e-05,1.648541e-05,-2.349384e-08,-1.963132e-07,0.000269708196821139
PART_003_R247G182B210A255,2093,0.0002017577,-6.653641e-05,-6.667075e-05,1.558039e-05,-6.020518e-08,-2.420286e-07,0.00026971507633768294
PART_003_R247G182B210A255,2094,0.0002017221,-6.652779e-05,-6.653632e-05,1.498394e-05,-2.716403e-08,-2.255687e-07,0.0002695069608757339
PART_000_R31G119B180A255,2095,0.0002017926,-6.654427e-05,-6.668373e-05,1.465448e-05,-2.25403e-08,-1.290471e-07,0.0002696042105499232
PART_000_R31G119B180A255,2096,0.0002017461,-6.654041e-05,-6.654356e-05,1.454647e-05,3.727593e-16,-9.464126e-15,0.000269468543486604
PART_000_R31G119B180A255,2097,0.0002017926,-6.654427e-05,-6.668373e-05,1.465448e-05,2.25403e-08,1.290471e-07,0.0002696042105499232
PART_000_R31G119B180A255,2098,0.0002017221,-6.652779e-05,-6.653632e-05,1.498394e-05,2.716403e-08,2.255687e-07,0.0002695069608757339
PART_002_R214G39B40A255,2099,0.0002017577,-6.653641e-05,-6.667075e-05,1.558039e-05,6.020518e-08,2.420286e-07,0.00026971507633768294
PART_002_R214G39B40A255,2100,0.0002016772,-6.654268e-05,-6.648743e-05,1.648541e-05,2.349384e-08,1.963132e-07,0.000269708196821139
PART_002_R214G39B40A255,2101,0.0002017419,-6.654422e-05,-6.666478e-05,1.776729e-05,2.288413e-08,6.755004e-08,0.00027010525047821903
PART_003_R247G182B210A255,2102,0.0001008911,-3.33151e-05,-3.331199e-05,1.953326e-05,-1.223472e-08,-3.204177e-08,0.00013840352240677652
PART_003_R247G182B210A255,2103,0.0001008574,-3.329773e-05,-3.325465e-05,1.823679e-05,-5.781193e-08,-8.470154e-08,0.00013780273740541437
PART_003_R247G182B210A255,2104,0.0001008974,-3.329399e-05,-3.333493e-05,1.72859e-05,-4.038344e-08,-1.059167e-07,0.00013751098205474715
PART_003_R247G182B210A255,2105,0.000100881,-3.329925e-05,-3.326511e-05,1.664269e-05,-5.733453e-08,-1.000567e-07,0.0001372251326432226
PART_003_R247G182B210A255,2106,0.0001009175,-3.329628e-05,-3.335088e-05,1.627672e-05,-2.087056e-08,-5.659461e-08,0.00013716951393404465
PART_000_R31G119B180A255,2107,0.000100894,-3.330335e-05,-3.326949e-05,1.615679e-05,-1.947227e-16,-4.580668e-15,0.00013706754378978053
PART_000_R31G119B180A255,2108,0.0001009175,-3.329628e-05,-3.335088e-05,1.627672e-05,2.087056e-08,5.65946e-08,0.00013716951393403227
PART_002_R214G39B40A255,2109,0.000100881,-3.329925e-05,-3.326511e-05,1.664269e-05,5.733453e-08,1.000567e-07,0.0001372251326432226
PART_002_R214G39B40A255,2110,0.0001008974,-3.329399e-05,-3.333493e-05,1.72859e-05,4.038344e-08,1.059167e-07,0.00013751098205474715
PART_002_R214G39B40A255,2111,0.0001008574,-3.329773e-05,-3.325465e-05,1.823679e-05,5.781193e-08,8.470153e-08,0.00013780273740539593
PART_002_R214G39B40A255,2112,0.0001008911,-3.33151e-05,-3.331199e-05,1.953326e-05,1.223472e-08,3.204177e-08,0.00013840352240677652
PART_003_R247G182B210A255,2113,1.104142e-13,-3.638929e-14,-3.659745e-14,2.029862e-05,-2.265802e-08,-2.66629e-17,3.51582630667502e-05
PART_003_R247G182B210A255,2114,1.103126e-13,-3.620108e-14,-3.654849e-14,1.898028e-05,-3.546539e-08,-9.386904e-17,3.287486669200141e-05
PART_003_R247G182B210A255,2115,1.1039e-13,-3.635547e-14,-3.647895e-14,1.801575e-05,-7.021921e-08,-1.202168e-16,3.120443135838016e-05
PART_003_R247G182B210A255,2116,1.103084e-13,-3.640924e-14,-3.631023e-14,1.736206e-05,-3.998122e-08,-1.138793e-16,3.007204977757017e-05
PART_003_R247G182B210A255,2117,1.103745e-13,-3.63121e-14,-3.652579e-14,1.699061e-05,-3.440002e-08,-6.493672e-17,2.942866008843128e-05
PART_003_R247G182B210A255,2118,1.102933e-13,-3.641965e-14,-3.627777e-14,1.686644e-05,2.946042e-16,-2.516323e-18,2.9213531022812016e-05
PART_002_R214G39B40A255,2119,1.103439e-13,-3.630603e-14,-3.651641e-14,1.699061e-05,3.440002e-08,5.789851e-17,2.942866008843128e-05
PART_002_R214G39B40A255,2120,1.102426e-13,-3.637628e-14,-3.628612e-14,1.736206e-05,3.998122e-08,1.075664e-16,3.007204977757017e-05
PART_002_R214G39B40A255,2121,1.102908e-13,-3.631644e-14,-3.644605e-14,1.801575e-05,7.021921e-08,1.122564e-16,3.120443135838016e-05
PART_002_R214G39B40A255,2122,1.101853e-13,-3.616985e-14,-3.650122e-14,1.898028e-05,3.546539e-08,9.142365e-17,3.287486669200141e-05
PART_002_R214G39B40A255,2123,1.102559e-13,-3.634679e-14,-3.65432e-14,2.029862e-05,2.265802e-08,2.537372e-17,3.51582630667502e-05
PART_003_R247G182B210A255,2124,-0.0001008911,3.33151e-05,3.331199e-05,1.953326e-05,-1.223472e-08,3.204177e-08,0.00013840352240677652
PART_003_R247G182B210A255,2125,-0.0001008574,3.329773e-05,3.325465e-05,1.823679e-05,-5.781193e-08,8.470154e-08,0.00013780273740541437
PART_003_R247G182B210A255,2126,-0.0001008974,3.329399e-05,3.333493e-05,1.72859e-05,-4.038344e-08,1.059167e-07,0.00013751098205474715
PART_003_R247G182B210A255,2127,-0.000100881,3.329925e-05,3.326511e-05,1.664269e-05,-5.733453e-08,1.000567e-07,0.0001372251326432226
PART_003_R247G182B210A255,2128,-0.0001009175,3.329628e-05,3.335088e-05,1.627672e-05,-2.087056e-08,5.659461e-08,0.00013716951393404465
PART_001_R158G218B229A255,2129,-0.000100894,3.330335e-05,3.326948e-05,1.615679e-05,-1.91166e-16,4.572232e-15,0.0001370675388969511
PART_001_R158G218B229A255,2130,-0.0001009175,3.329628e-05,3.335088e-05,1.627672e-05,2.087056e-08,-5.65946e-08,0.00013716951393403227
PART_002_R214G39B40A255,2131,-0.000100881,3.329925e-05,3.326511e-05,1.664269e-05,5.733453e-08,-1.000567e-07,0.0001372251326432226
PART_002_R214G39B40A255,2132,-0.0001008974,3.329399e-05,3.333493e-05,1.72859e-05,4.038344e-08,-1.059167e-07,0.00013751098205474715
PART_002_R214G39B40A255,2133,-0.0001008574,3.329773e-05,3.325465e-05,1.823679e-05,5.781193e-08,-8.470153e-08,0.00013780273740539593
PART_002_R214G39B40A255,2134,-0.0001008911,3.33151e-05,3.331199e-05,1.953326e-05,1.223472e-08,-3.204177e-08,0.00013840352240677652
PART_003_R247G182B210A255,2135,-0.0002017419,6.654422e-05,6.666478e-05,1.776729e-05,-2.288413e-08,6.755004e-08,0.00027010525047821903
PART_003_R247G182B210A255,2136,-0.0002016772,6.654268e-05,6.648743e-05,1.648541e-05,-2.349384e-08,1.963132e-07,0.000269708196821139
PART_003_R247G182B210A255,2137,-0.0002017577,6.653641e-05,6.667075e-05,1.558039e-05,-6.020518e-08,2.420286e-07,0.00026971507633768294
PART_003_R247G182B210A255,2138,-0.0002017221,6.652779e-05,6.653632e-05,1.498394e-05,-2.716403e-08,2.255687e-07,0.0002695069608757339
PART_001_R158G218B229A255,2139,-0.0002017926,6.654427e-05,6.668373e-05,1.465448e-05,-2.25403e-08,1.290471e-07,0.0002696042105499232
PART_001_R158G218B229A255,2140,-0.0002017461,6.654041e-05,6.654356e-05,1.454647e-05,3.763334e-16,9.456214e-15,0.000269468543486604
PART_001_R158G218B229A255,2141,-0.0002017926,6.654427e-05,6.668373e-05,1.465448e-05,2.25403e-08,-1.290471e-07,0.0002696042105499232
PART_001_R158G218B229A255,2142,-0.0002017221,6.652779e-05,6.653632e-05,1.498394e-05,2.716403e-08,-2.255687e-07,0.0002695069608757339
PART_002_R214G39B40A255,2143,-0.0002017577,6.653641e-05,6.667075e-05,1.558039e-05,6.020518e-08,-2.420286e-07,0.00026971507633768294
PART_002_R214G39B40A255,2144,-0.0002016772,6.654268e-05,6.648743e-05,1.648541e-05,2.349384e-08,-1.963132e-07,0.000269708196821139
PART_002_R214G39B40A255,2145,-0.0002017419,6.654422e-05,6.666478e-05,1.776729e-05,2.288413e-08,-6.755004e-08,0.00027010525047821903
PART_003_R247G182B210A255,2146,-0.0003026756,9.994495e-05,9.992704e-05,1.4461e-05,-3.253205e-09,1.420175e-07,0.00040339003305818184
PART_003_R247G182B210A255,2147,-0.0003025751,9.988807e-05,9.976562e-05,1.326439e-05,-5.398027e-08,3.647398e-07,0.0004030577831508467
PART_003_R247G182B210A255,2148,-0.0003026896,9.986995e-05,0.0001000062,1.244982e-05,-1.000244e-08,4.52829e-07,0.0004032054911772728
PART_001_R158G218B229A255,2149,-0.0003026368,9.990027e-05,9.977684e-05,1.194886e-05,-2.016763e-08,4.157697e-07,0.00040300777708132224
PART_001_R158G218B229A255,2150,-0.000302741,9.990437e-05,0.0001000216,1.167956e-05,-1.099319e-08,2.317091e-07,0.00040321198845928106
PART_001_R158G218B229A255,2151,-0.0003026705,9.990761e-05,9.979548e-05,1.159022e-05,-3.235911e-16,1.500326e-14,0.0004030223390083729
PART_001_R158G218B229A255,2152,-0.000302741,9.990437e-05,0.0001000216,1.167956e-05,1.099319e-08,-2.317091e-07,0.00040321198845928106
PART_001_R158G218B229A255,2153,-0.0003026368,9.990027e-05,9.977684e-05,1.194886e-05,2.016763e-08,-4.157697e-07,0.00040300777708132224
PART_001_R158G218B229A255,2154,-0.0003026896,9.986995e-05,0.0001000062,1.244982e-05,1.000244e-08,-4.52829e-07,0.0004032054911772728
PART_002_R214G39B40A255,2155,-0.0003025751,9.988807e-05,9.976562e-05,1.326439e-05,5.398027e-08,-3.647398e-07,0.0004030577831508467
PART_002_R214G39B40A255,2156,-0.0003026756,9.994495e-05,9.992704e-05,1.4461e-05,3.253205e-09,-1.420175e-07,0.00040339003305818184
PART_003_R247G182B210A255,2157,-0.0004035107,0.0001331056,0.0001333521,9.959601e-06,-3.401382e-08,2.433931e-07,0.0005370169012736478
PART_003_R247G182B210A255,2158,-0.0004033842,0.0001330801,0.0001330013,8.872745e-06,2.249677e-08,6.889881e-07,0.000536646327147326
PART_001_R158G218B229A255,2159,-0.0004035338,0.0001331103,0.0001332949,8.291513e-06,8.470983e-09,8.257481e-07,0.0005369304256618022
PART_001_R158G218B229A255,2160,-0.0004034554,0.0001331221,0.0001330237,7.957235e-06,-7.972857e-09,7.027341e-07,0.0005367066782011297
PART_001_R158G218B229A255,2161,-0.0004035879,0.0001331167,0.0001333388,7.777428e-06,-3.462593e-09,3.859241e-07,0.0005369850939163182
PART_001_R158G218B229A255,2162,-0.0004034935,0.0001331308,0.0001330465,7.722162e-06,1.338448e-16,2.14034e-14,0.000536748828025132
PART_001_R158G218B229A255,2163,-0.0004035879,0.0001331167,0.0001333388,7.777428e-06,3.462592e-09,-3.85924e-07,0.0005369850939161026
PART_001_R158G218B229A255,2164,-0.0004034554,0.0001331221,0.0001330237,7.957235e-06,7.972858e-09,-7.027341e-07,0.0005367066782011298
PART_001_R158G218B229A255,2165,-0.0004035338,0.0001331103,0.0001332949,8.291513e-06,-8.470983e-09,-8.257481e-07,0.0005369304256618022
PART_001_R158G218B229A255,2166,-0.0004033842,0.0001330801,0.0001330013,8.872745e-06,-2.249677e-08,-6.889881e-07,0.000536646327147326
PART_002_R214G39B40A255,2167,-0.0004035107,0.0001331056,0.0001333521,9.959601e-06,3.401382e-08,-2.433931e-07,0.0005370169012736478
PART_003_R247G182B210A255,2168,-0.0005044573,0.0001665768,0.0001664785,3.629915e-06,4.386708e-08,6.41735e-07,0.000671015335493001
PART_001_R158G218B229A255,2169,-0.0005042921,0.0001664651,0.000166194,3.128728e-06,3.233991e-08,1.400549e-06,0.000670647975570595
PART_001_R158G218B229A255,2170,-0.0005044624,0.000166516,0.0001665788,2.926302e-06,-9.590457e-10,1.426172e-06,0.0006710334911810182
PART_001_R158G218B229A255,2171,-0.0005043691,0.0001664782,0.0001662756,2.805609e-06,3.758554e-09,1.131613e-06,0.0006707664894081831
PART_001_R158G218B229A255,2172,-0.0005045174,0.0001665127,0.0001666371,2.740468e-06,-2.857529e-09,6.056613e-07,0.0006711099147842434
PART_001_R158G218B229A255,2173,-0.0005044092,0.0001664865,0.0001663054,2.723695e-06,-4.686972e-17,2.893638e-14,0.0006708217568086094
PART_001_R158G218B229A255,2174,-0.0005045174,0.0001665127,0.0001666371,2.740468e-06,2.857529e-09,-6.056612e-07,0.0006711099147839727
PART_001_R158G218B229A255,2175,-0.0005043691,0.0001664782,0.0001662756,2.805609e-06,-3.758555e-09,-1.131613e-06,0.0006707664894081831
PART_001_R158G218B229A255,2176,-0.0005044624,0.000166516,0.0001665788,2.926302e-06,9.590461e-10,-1.426172e-06,0.0006710334911810182
PART_001_R158G218B229A255,2177,-0.0005042921,0.0001664651,0.000166194,3.128728e-06,-3.233991e-08,-1.400549e-06,0.000670647975570595
PART_001_R158G218B229A255,2178,-0.0005044573,0.0001665768,0.0001664785,3.629915e-06,-4.386708e-08,-6.41735e-07,0.000671015335493001
PART_003_R247G182B210A255,2179,0.0004997295,-0.0001650074,-0.0001646302,3.660103e-06,5.544882e-08,-6.331056e-07,0.0006645795290982856
PART_000_R31G119B180A255,2180,0.0004998696,-0.0001649191,-0.0001650302,3.136296e-06,2.719156e-08,-1.370997e-06,0.0006648706913300763
PART_000_R31G119B180A255,2181,0.0004997664,-0.0001649648,-0.0001647455,2.947041e-06,5.664375e-09,-1.412121e-06,0.0006646456787636166
PART_000_R31G119B180A255,2182,0.0004998876,-0.000164923,-0.0001650761,2.813894e-06,3.66994e-09,-1.097151e-06,0.0006649077417766434
PART_000_R31G119B180A255,2183,0.0004998045,-0.0001649517,-0.0001647932,2.757553e-06,-3.548038e-11,-5.989048e-07,0.0006646949338301862
PART_000_R31G119B180A255,2184,0.0004999046,-0.0001649262,-0.0001650946,2.731325e-06,-6.432876e-17,-2.888508e-14,0.0006649318453064846
PART_000_R31G119B180A255,2185,0.0004998045,-0.0001649517,-0.0001647932,2.757553e-06,3.548051e-11,5.989047e-07,0.0006646949338299159
PART_000_R31G119B180A255,2186,0.0004998876,-0.000164923,-0.0001650761,2.813894e-06,-3.669941e-09,1.097151e-06,0.0006649077417766434
PART_000_R31G119B180A255,2187,0.0004997664,-0.0001649648,-0.0001647455,2.947041e-06,-5.664375e-09,1.412121e-06,0.0006646456787636166
PART_000_R31G119B180A255,2188,0.0004998696,-0.0001649191,-0.0001650302,3.136296e-06,-2.719155e-08,1.370997e-06,0.0006648706913300751
PART_000_R31G119B180A255,2189,0.0004997295,-0.0001650074,-0.0001646302,3.660103e-06,-5.544882e-08,6.331056e-07,0.0006645795290982856
PART_003_R247G182B210A255,2190,0.0003998116,-0.0001319954,-0.0001318698,9.906796e-06,-3.578823e-08,-2.448175e-07,0.0005320211683150719
PART_003_R247G182B210A255,2191,0.0003999218,-0.0001319549,-0.0001320793,8.836663e-06,2.778898e-08,-6.534724e-07,0.0005321602654970321
PART_000_R31G119B180A255,2192,0.0003998356,-0.0001319811,-0.0001318158,8.246721e-06,1.57023e-08,-8.147676e-07,0.0005319277563002689
PART_000_R31G119B180A255,2193,0.0003999444,-0.0001319938,-0.0001320741,7.909297e-06,-6.708703e-10,-6.669495e-07,0.0005321559687799709
PART_000_R31G119B180A255,2194,0.0003998741,-0.0001319868,-0.0001318444,7.723232e-06,9.466223e-10,-3.795172e-07,0.0005319583416721567
PART_000_R31G119B180A255,2195,0.0003999629,-0.0001320008,-0.0001320867,7.667506e-06,1.301144e-16,-2.136285e-14,0.0005321723904179079
PART_000_R31G119B180A255,2196,0.0003998741,-0.0001319868,-0.0001318444,7.723232e-06,-9.46623e-10,3.795172e-07,0.0005319583416721567
PART_000_R31G119B180A255,2197,0.0003999444,-0.0001319938,-0.0001320741,7.909297e-06,6.708712e-10,6.669495e-07,0.0005321559687799709
PART_000_R31G119B180A255,2198,0.0003998356,-0.0001319811,-0.0001318158,8.246721e-06,-1.57023e-08,8.147676e-07,0.0005319277563002689
PART_000_R31G119B180A255,2199,0.0003999218,-0.0001319549,-0.0001320793,8.836663e-06,-2.778898e-08,6.534724e-07,0.0005321602654970321
PART_002_R214G39B40A255,2200,0.0003998116,-0.0001319954,-0.0001318698,9.906796e-06,3.578823e-08,2.448175e-07,0.0005320211683150719
PART_003_R247G182B210A255,2201,0.0002998216,-9.897767e-05,-9.881097e-05,1.45502e-05,1.059759e-09,-1.347756e-07,0.00039951168338359046
PART_003_R247G182B210A255,2202,0.0002999095,-9.893304e-05,-9.907723e-05,1.334254e-05,-4.307228e-08,-3.381479e-07,0.0003995839340224727
PART_003_R247G182B210A255,2203,0.0002998475,-9.891505e-05,-9.889369e-05,1.25186e-05,9.620461e-10,-4.40181e-07,0.0003993416851385277
PART_000_R31G119B180A255,2204,0.0002999301,-9.893879e-05,-9.906401e-05,1.20167e-05,-8.182962e-09,-3.857425e-07,0.00039947465912328886
PART_000_R31G119B180A255,2205,0.0002998779,-9.893975e-05,-9.889579e-05,1.173962e-05,-4.60816e-09,-2.25234e-07,0.0003993139067802585
PART_000_R31G119B180A255,2206,0.0002999459,-9.894165e-05,-9.907375e-05,1.165246e-05,-3.376273e-16,-1.496098e-14,0.000399463800003107
PART_000_R31G119B180A255,2207,0.0002998779,-9.893975e-05,-9.889579e-05,1.173962e-05,4.608161e-09,2.252339e-07,0.0003993139067800893
PART_000_R31G119B180A255,2208,0.0002999301,-9.893879e-05,-9.906401e-05,1.20167e-05,8.182962e-09,3.857425e-07,0.00039947465912328886
PART_000_R31G119B180A255,2209,0.0002998475,-9.891505e-05,-9.889369e-05,1.25186e-05,-9.620464e-10,4.40181e-07,0.0003993416851385277
PART_002_R214G39B40A255,2210,0.0002999095,-9.893304e-05,-9.907723e-05,1.334254e-05,4.307228e-08,3.381479e-07,0.0003995839340224727
PART_002_R214G39B40A255,2211,0.0002998216,-9.897767e-05,-9.881097e-05,1.45502e-05,-1.059759e-09,1.347756e-07,0.00039951168338359046
PART_003_R247G182B210A255,2212,0.0001999059,-6.600548e-05,-6.592065e-05,1.767642e-05,-1.854105e-08,-6.682036e-08,0.00026762603357205413
PART_003_R247G182B210A255,2213,0.0001999632,-6.599819e-05,-6.603085e-05,1.640671e-05,-1.14464e-08,-1.759254e-07,0.00026749164842622045
PART_003_R247G182B210A255,2214,0.0001999208,-6.598939e-05,-6.592621e-05,1.549347e-05,-4.360701e-08,-2.31888e-07,0.0002672297565588731
PART_003_R247G182B210A255,2215,0.0001999787,-6.598152e-05,-6.606178e-05,1.488702e-05,-1.187461e-08,-2.046189e-07,0.0002672474268435829
PART_000_R31G119B180A255,2216,0.0001999451,-6.599714e-05,-6.592975e-05,1.454604e-05,-1.387209e-08,-1.236871e-07,0.00026709954328287737
PART_000_R31G119B180A255,2217,0.0001999908,-6.599295e-05,-6.606232e-05,1.443754e-05,3.559453e-16,-9.439926e-15,0.00026719120317246915
PART_000_R31G119B180A255,2218,0.0001999451,-6.599714e-05,-6.592975e-05,1.454604e-05,1.387209e-08,1.23687e-07,0.00026709954328273843
PART_000_R31G119B180A255,2219,0.0001999787,-6.598152e-05,-6.606178e-05,1.488702e-05,1.187461e-08,2.046189e-07,0.0002672474268435829
PART_002_R214G39B40A255,2220,0.0001999208,-6.598939e-05,-6.592621e-05,1.549347e-05,4.360701e-08,2.31888e-07,0.0002672297565588731
PART_002_R214G39B40A255,2221,0.0001999632,-6.599819e-05,-6.603085e-05,1.640671e-05,1.14464e-08,1.759254e-07,0.00026749164842622045
PART_002_R214G39B40A255,2222,0.0001999059,-6.600548e-05,-6.592065e-05,1.767642e-05,1.854105e-08,6.682036e-08,0.00026762603357205413
PART_003_R247G182B210A255,2223,9.99373e-05,-3.298826e-05,-3.293932e-05,1.966257e-05,-7.459256e-09,-2.918785e-08,0.0001371953141301071
PART_003_R247G182B210A255,2224,9.9967e-05,-3.297512e-05,-3.302639e-05,1.835669e-05,-4.108546e-08,-7.444025e-08,0.0001367163184574743
PART_003_R247G182B210A255,2225,9.994662e-05,-3.297168e-05,-3.29624e-05,1.739184e-05,-2.245705e-08,-1.004406e-07,0.0001362846328565362
PART_003_R247G182B210A255,2226,9.997546e-05,-3.297453e-05,-3.302766e-05,1.674573e-05,-3.981721e-08,-8.871779e-08,0.0001361030972653959
PART_003_R247G182B210A255,2227,9.995831e-05,-3.297019e-05,-3.2973e-05,1.637089e-05,-1.112689e-08,-5.378293e-08,0.0001359205165405176
PART_000_R31G119B180A255,2228,9.998162e-05,-3.297677e-05,-3.302867e-05,1.625159e-05,-2.032614e-16,-4.565496e-15,0.0001359307884109682
PART_000_R31G119B180A255,2229,9.995831e-05,-3.297019e-05,-3.2973e-05,1.637089e-05,1.11269e-08,5.378292e-08,0.0001359205165405082
PART_002_R214G39B40A255,2230,9.997546e-05,-3.297453e-05,-3.302766e-05,1.674573e-05,3.98172e-08,8.871778e-08,0.00013610309726536758
PART_002_R214G39B40A255,2231,9.994662e-05,-3.297168e-05,-3.29624e-05,1.739184e-05,2.245705e-08,1.004406e-07,0.0001362846328565362
PART_002_R214G39B40A255,2232,9.9967e-05,-3.297512e-05,-3.302639e-05,1.835669e-05,4.108546e-08,7.444024e-08,0.00013671631845745796
PART_002_R214G39B40A255,2233,9.99373e-05,-3.298826e-05,-3.293932e-05,1.966257e-05,7.459256e-09,2.918785e-08,0.0001371953141301071
PART_003_R247G182B210A255,2234,1.093593e-13,-3.616552e-14,-3.608858e-14,2.019372e-05,-1.634973e-08,-2.190766e-17,3.497656049779928e-05
PART_003_R247G182B210A255,2235,1.09418e-13,-3.597209e-14,-3.639746e-14,1.888703e-05,-2.052291e-08,-8.146255e-17,3.2713314876854107e-05
PART_003_R247G182B210A255,2236,1.0934e-13,-3.611781e-14,-3.59757e-14,1.79137e-05,-5.013137e-08,-1.141572e-16,3.102756004800852e-05
PART_003_R247G182B210A255,2237,1.093958e-13,-3.61846e-14,-3.614496e-14,1.724793e-05,-2.138281e-08,-1.002197e-16,2.987431404280926e-05
PART_003_R247G182B210A255,2238,1.093234e-13,-3.608659e-14,-3.601893e-14,1.686286e-05,-2.399072e-08,-6.181286e-17,2.9207359839648953e-05
PART_003_R247G182B210A255,2239,1.093645e-13,-3.618893e-14,-3.610868e-14,1.673809e-05,2.759873e-16,-4.862816e-18,2.8991222301660553e-05
PART_002_R214G39B40A255,2240,1.092863e-13,-3.606837e-14,-3.600864e-14,1.686286e-05,2.399072e-08,5.693798e-17,2.9207359839648953e-05
PART_002_R214G39B40A255,2241,1.093275e-13,-3.616465e-14,-3.612165e-14,1.724793e-05,2.138281e-08,9.19827e-17,2.987431404280926e-05
PART_002_R214G39B40A255,2242,1.092434e-13,-3.609005e-14,-3.594071e-14,1.79137e-05,5.013137e-08,1.127469e-16,3.102756004800852e-05
PART_002_R214G39B40A255,2243,1.092869e-13,-3.592612e-14,-3.635169e-14,1.888703e-05,2.052291e-08,7.578404e-17,3.2713314876854107e-05
PART_002_R214G39B40A255,2244,1.09193e-13,-3.611174e-14,-3.603091e-14,2.019372e-05,1.634973e-08,2.475369e-17,3.497656049779928e-05
PART_003_R247G182B210A255,2245,-9.99373e-05,3.298826e-05,3.293932e-05,1.966257e-05,-7.459256e-09,2.918785e-08,0.0001371953141301071
PART_003_R247G182B210A255,2246,-9.9967e-05,3.297512e-05,3.302639e-05,1.835669e-05,-4.108546e-08,7.444025e-08,0.0001367163184574743
PART_003_R247G182B210A255,2247,-9.994662e-05,3.297168e-05,3.29624e-05,1.739184e-05,-2.245705e-08,1.004406e-07,0.0001362846328565362
PART_003_R247G182B210A255,2248,-9.997546e-05,3.297453e-05,3.302766e-05,1.674573e-05,-3.981721e-08,8.871779e-08,0.0001361030972653959
PART_003_R247G182B210A255,2249,-9.995831e-05,3.297019e-05,3.2973e-05,1.637089e-05,-1.112689e-08,5.378293e-08,0.0001359205165405176
PART_001_R158G218B229A255,2250,-9.998162e-05,3.297677e-05,3.302867e-05,1.625159e-05,-1.935415e-16,4.559457e-15,0.0001359307884109682
PART_001_R158G218B229A255,2251,-9.995831e-05,3.297019e-05,3.2973e-05,1.637089e-05,1.11269e-08,-5.378292e-08,0.0001359205165405082
PART_002_R214G39B40A255,2252,-9.997546e-05,3.297453e-05,3.302766e-05,1.674573e-05,3.981721e-08,-8.871778e-08,0.00013610309726537636
PART_002_R214G39B40A255,2253,-9.994662e-05,3.297168e-05,3.29624e-05,1.739184e-05,2.245705e-08,-1.004406e-07,0.0001362846328565362
PART_002_R214G39B40A255,2254,-9.9967e-05,3.297512e-05,3.302639e-05,1.835669e-05,4.108546e-08,-7.444024e-08,0.00013671631845745796
PART_002_R214G39B40A255,2255,-9.99373e-05,3.298826e-05,3.293932e-05,1.966257e-05,7.459256e-09,-2.918785e-08,0.0001371953141301071
PART_003_R247G182B210A255,2256,-0.0001999059,6.600548e-05,6.592065e-05,1.767642e-05,-1.854105e-08,6.682036e-08,0.00026762603357205413
PART_003_R247G182B210A255,2257,-0.0001999632,6.599819e-05,6.603085e-05,1.640671e-05,-1.14464e-08,1.759254e-07,0.00026749164842622045
PART_003_R247G182B210A255,2258,-0.0001999208,6.598939e-05,6.592621e-05,1.549347e-05,-4.360701e-08,2.31888e-07,0.0002672297565588731
PART_003_R247G182B210A255,2259,-0.0001999787,6.598152e-05,6.606178e-05,1.488702e-05,-1.187461e-08,2.046189e-07,0.0002672474268435829
PART_001_R158G218B229A255,2260,-0.0001999451,6.599714e-05,6.592974e-05,1.454604e-05,-1.387209e-08,1.236871e-07,0.00026709953830706475
PART_001_R158G218B229A255,2261,-0.0001999908,6.599295e-05,6.606232e-05,1.443754e-05,3.572311e-16,9.430354e-15,0.00026719120317246915
PART_001_R158G218B229A255,2262,-0.0001999451,6.599714e-05,6.592974e-05,1.454604e-05,1.387209e-08,-1.23687e-07,0.0002670995383069258
PART_001_R158G218B229A255,2263,-0.0001999787,6.598152e-05,6.606178e-05,1.488702e-05,1.187461e-08,-2.046189e-07,0.0002672474268435829
PART_002_R214G39B40A255,2264,-0.0001999208,6.598939e-05,6.592621e-05,1.549347e-05,4.360701e-08,-2.31888e-07,0.0002672297565588731
PART_002_R214G39B40A255,2265,-0.0001999632,6.599819e-05,6.603085e-05,1.640671e-05,1.14464e-08,-1.759254e-07,0.00026749164842622045
PART_002_R214G39B40A255,2266,-0.0001999059,6.600548e-05,6.592065e-05,1.767642e-05,1.854105e-08,-6.682036e-08,0.00026762603357205413
PART_003_R247G182B210A255,2267,-0.0002998216,9.897767e-05,9.881097e-05,1.45502e-05,1.05976e-09,1.347756e-07,0.00039951168338359046
PART_003_R247G182B210A255,2268,-0.0002999095,9.893304e-05,9.907723e-05,1.334254e-05,-4.307228e-08,3.381479e-07,0.0003995839340224727
PART_003_R247G182B210A255,2269,-0.0002998475,9.891505e-05,9.889369e-05,1.25186e-05,9.62046e-10,4.40181e-07,0.0003993416851385277
PART_001_R158G218B229A255,2270,-0.0002999301,9.893879e-05,9.906401e-05,1.20167e-05,-8.182962e-09,3.857425e-07,0.00039947465912328886
PART_001_R158G218B229A255,2271,-0.0002998779,9.893975e-05,9.889579e-05,1.173962e-05,-4.60816e-09,2.25234e-07,0.0003993139067802585
PART_001_R158G218B229A255,2272,-0.0002999459,9.894165e-05,9.907375e-05,1.165246e-05,-3.389665e-16,1.49593e-14,0.000399463800003107
PART_001_R158G218B229A255,2273,-0.0002998779,9.893975e-05,9.889579e-05,1.173962e-05,4.608161e-09,-2.252339e-07,0.0003993139067800893
PART_001_R158G218B229A255,2274,-0.0002999301,9.893879e-05,9.906401e-05,1.20167e-05,8.182962e-09,-3.857425e-07,0.00039947465912328886
PART_001_R158G218B229A255,2275,-0.0002998475,9.891505e-05,9.889369e-05,1.25186e-05,-9.620464e-10,-4.40181e-07,0.0003993416851385277
PART_002_R214G39B40A255,2276,-0.0002999095,9.893304e-05,9.907723e-05,1.334254e-05,4.307228e-08,-3.381479e-07,0.0003995839340224727
PART_002_R214G39B40A255,2277,-0.0002998216,9.897767e-05,9.881097e-05,1.45502e-05,-1.05976e-09,-1.347756e-07,0.00039951168338359046
PART_003_R247G182B210A255,2278,-0.0003998116,0.0001319954,0.0001318698,9.906796e-06,-3.578823e-08,2.448175e-07,0.0005320211683150719
PART_003_R247G182B210A255,2279,-0.0003999218,0.0001319549,0.0001320793,8.836663e-06,2.778898e-08,6.534724e-07,0.0005321602654970321
PART_001_R158G218B229A255,2280,-0.0003998356,0.0001319811,0.0001318158,8.246721e-06,1.57023e-08,8.147676e-07,0.0005319277563002689
PART_001_R158G218B229A255,2281,-0.0003999444,0.0001319938,0.0001320741,7.909297e-06,-6.708703e-10,6.669495e-07,0.0005321559687799709
PART_001_R158G218B229A255,2282,-0.0003998741,0.0001319868,0.0001318444,7.723232e-06,9.466223e-10,3.795172e-07,0.0005319583416721567
PART_001_R158G218B229A255,2283,-0.0003999629,0.0001320008,0.0001320867,7.667506e-06,1.266772e-16,2.134951e-14,0.0005321723904179079
PART_001_R158G218B229A255,2284,-0.0003998741,0.0001319868,0.0001318444,7.723232e-06,-9.46623e-10,-3.795172e-07,0.0005319583416721567
PART_001_R158G218B229A255,2285,-0.0003999444,0.0001319938,0.0001320741,7.909297e-06,6.708712e-10,-6.669495e-07,0.0005321559687799709
PART_001_R158G218B229A255,2286,-0.0003998356,0.0001319811,0.0001318158,8.246721e-06,-1.57023e-08,-8.147676e-07,0.0005319277563002689
PART_001_R158G218B229A255,2287,-0.0003999218,0.0001319549,0.0001320793,8.836663e-06,-2.778898e-08,-6.534724e-07,0.0005321602654970321
PART_002_R214G39B40A255,2288,-0.0003998116,0.0001319954,0.0001318698,9.906796e-06,3.578823e-08,-2.448175e-07,0.0005320211683150719
PART_003_R247G182B210A255,2289,-0.0004997295,0.0001650074,0.0001646302,3.660103e-06,5.544882e-08,6.331056e-07,0.0006645795290982856
PART_001_R158G218B229A255,2290,-0.0004998696,0.0001649191,0.0001650302,3.136296e-06,2.719156e-08,1.370997e-06,0.0006648706913300763
PART_001_R158G218B229A255,2291,-0.0004997664,0.0001649648,0.0001647455,2.947041e-06,5.664375e-09,1.412121e-06,0.0006646456787636166
PART_001_R158G218B229A255,2292,-0.0004998876,0.000164923,0.0001650761,2.813894e-06,3.66994e-09,1.097151e-06,0.0006649077417766434
PART_001_R158G218B229A255,2293,-0.0004998045,0.0001649517,0.0001647932,2.757553e-06,-3.548038e-11,5.989048e-07,0.0006646949338301862
PART_001_R158G218B229A255,2294,-0.0004999046,0.0001649262,0.0001650946,2.731325e-06,-6.276514e-17,2.887624e-14,0.0006649318453064846
PART_001_R158G218B229A255,2295,-0.0004998045,0.0001649517,0.0001647932,2.757553e-06,3.548051e-11,-5.989047e-07,0.0006646949338299159
PART_001_R158G218B229A255,2296,-0.0004998876,0.000164923,0.0001650761,2.813894e-06,-3.669941e-09,-1.097151e-06,0.0006649077417766434
PART_001_R158G218B229A255,2297,-0.0004997664,0.0001649648,0.0001647455,2.947041e-06,-5.664375e-09,-1.412121e-06,0.0006646456787636166
PART_001_R158G218B229A255,2298,-0.0004998696,0.0001649191,0.0001650302,3.136296e-06,-2.719155e-08,-1.370997e-06,0.0006648706913300751
PART_001_R158G218B229A255,2299,-0.0004997295,0.0001650074,0.0001646302,3.660103e-06,-5.544882e-08,-6.331056e-07,0.0006645795290982856
PART_003_R247G182B210A255,2300,0.0004953594,-0.0001635628,-0.0001634269,3.638957e-06,4.613171e-08,-6.285533e-07,0.0006588853119025879
PART_000_R31G119B180A255,2301,0.0004952407,-0.0001634577,-0.0001632565,3.133417e-06,3.263334e-08,-1.364225e-06,0.000658624425569356
PART_000_R31G119B180A255,2302,0.0004953403,-0.0001635039,-0.0001635042,2.93196e-06,3.693217e-09,-1.387751e-06,0.0006588683057294139
PART_000_R31G119B180A255,2303,0.0004952651,-0.0001634616,-0.0001633043,2.80678e-06,6.975865e-09,-1.090935e-06,0.0006586687156163452
PART_000_R31G119B180A255,2304,0.0004953512,-0.0001634909,-0.000163534,2.741803e-06,-1.448935e-10,-5.86125e-07,0.0006588815475965405
PART_000_R31G119B180A255,2305,0.0004952783,-0.000163464,-0.0001633191,2.722331e-06,-5.014266e-17,-2.895522e-14,0.0006586867391288903
PART_000_R31G119B180A255,2306,0.0004953512,-0.0001634909,-0.000163534,2.741803e-06,1.448936e-10,5.861249e-07,0.0006588815475962736
PART_000_R31G119B180A255,2307,0.0004952651,-0.0001634616,-0.0001633043,2.80678e-06,-6.975865e-09,1.090935e-06,0.0006586687156163452
PART_000_R31G119B180A255,2308,0.0004953403,-0.0001635039,-0.0001635042,2.93196e-06,-3.693217e-09,1.387751e-06,0.0006588683057294139
PART_000_R31G119B180A255,2309,0.0004952407,-0.0001634577,-0.0001632565,3.133417e-06,-3.263334e-08,1.364225e-06,0.000658624425569356
PART_000_R31G119B180A255,2310,0.0004953594,-0.0001635628,-0.0001634269,3.638957e-06,-4.613171e-08,6.285533e-07,0.0006588853119025879
PART_003_R247G182B210A255,2311,0.0003962658,-0.0001307434,-0.0001309116,9.950921e-06,-3.178135e-08,-2.333357e-07,0.0005273751956400434
PART_003_R247G182B210A255,2312,0.0003961719,-0.0001307159,-0.0001306522,8.866028e-06,2.992788e-08,-6.510451e-07,0.0005270809128752065
PART_000_R31G119B180A255,2313,0.0003962583,-0.0001307422,-0.0001308319,8.278554e-06,1.954726e-08,-7.883197e-07,0.0005272421415728423
PART_000_R31G119B180A255,2314,0.0003961935,-0.0001307506,-0.0001306436,7.937581e-06,3.252777e-09,-6.614182e-07,0.0005270711915722127
PART_000_R31G119B180A255,2315,0.0003962693,-0.000130742,-0.0001308456,7.751504e-06,3.338594e-09,-3.663207e-07,0.0005272344634791246
PART_000_R31G119B180A255,2316,0.0003962056,-0.0001307547,-0.0001306509,7.694329e-06,1.252101e-16,-2.142844e-14,0.0005270769186443955
PART_000_R31G119B180A255,2317,0.0003962693,-0.000130742,-0.0001308456,7.751504e-06,-3.338595e-09,3.663206e-07,0.0005272344634789162
PART_000_R31G119B180A255,2318,0.0003961935,-0.0001307506,-0.0001306436,7.937581e-06,-3.252776e-09,6.614181e-07,0.0005270711915718362
PART_000_R31G119B180A255,2319,0.0003962583,-0.0001307422,-0.0001308319,8.278554e-06,-1.954726e-08,7.883196e-07,0.0005272421415723938
PART_000_R31G119B180A255,2320,0.0003961719,-0.0001307159,-0.0001306522,8.866028e-06,-2.992788e-08,6.51045e-07,0.0005270809128748359
PART_002_R214G39B40A255,2321,0.0003962658,-0.0001307434,-0.0001309116,9.950921e-06,3.178135e-08,2.333357e-07,0.0005273751956400434
PART_003_R247G182B210A255,2322,0.0002972225,-9.813216e-05,-9.809861e-05,1.449718e-05,1.980651e-09,-1.305934e-07,0.00039613457311879453
PART_003_R247G182B210A255,2323,0.000297148,-9.808071e-05,-9.800441e-05,1.329641e-05,-3.880481e-08,-3.325035e-07,0.0003958614692404627
PART_003_R247G182B210A255,2324,0.0002972129,-9.806065e-05,-9.815637e-05,1.247278e-05,8.414231e-09,-4.190935e-07,0.00039591193708878644
PART_000_R31G119B180A255,2325,0.0002971662,-9.808546e-05,-9.798833e-05,1.196269e-05,-2.250748e-09,-3.799465e-07,0.00039574643943135
PART_000_R31G119B180A255,2326,0.0002972249,-9.808598e-05,-9.814605e-05,1.168447e-05,-4.975755e-10,-2.143237e-07,0.0003958587628202406
PART_000_R31G119B180A255,2327,0.0002971769,-9.808783e-05,-9.799332e-05,1.159288e-05,-3.335641e-16,-1.501988e-14,0.0003957272341456472
PART_000_R31G119B180A255,2328,0.0002972249,-9.808598e-05,-9.814605e-05,1.168447e-05,4.975763e-10,2.143236e-07,0.00039585876282007817
PART_000_R31G119B180A255,2329,0.0002971662,-9.808546e-05,-9.798833e-05,1.196269e-05,2.250748e-09,3.799464e-07,0.000395746439431062
PART_000_R31G119B180A255,2330,0.0002972129,-9.806065e-05,-9.815637e-05,1.247278e-05,-8.414232e-09,4.190935e-07,0.0003959119370887865
PART_002_R214G39B40A255,2331,0.000297148,-9.808071e-05,-9.800441e-05,1.329641e-05,3.880481e-08,3.325035e-07,0.0003958614692404627
PART_002_R214G39B40A255,2332,0.0002972225,-9.813216e-05,-9.809861e-05,1.449718e-05,-1.980652e-09,1.305933e-07,0.0003961345731186957
PART_003_R247G182B210A255,2333,0.0001981293,-6.536961e-05,-6.544601e-05,1.775652e-05,-1.543439e-08,-6.035418e-08,0.00026532566098088896
PART_003_R247G182B210A255,2334,0.0001980806,-6.536858e-05,-6.531421e-05,1.647536e-05,-4.118796e-09,-1.721855e-07,0.0002649633014639465
PART_003_R247G182B210A255,2335,0.0001981258,-6.536071e-05,-6.543607e-05,1.555917e-05,-3.438637e-08,-2.167653e-07,0.00026489886899838433
PART_003_R247G182B210A255,2336,0.000198094,-6.535015e-05,-6.534213e-05,1.494854e-05,-3.906175e-09,-1.994639e-07,0.0002647096586057477
PART_000_R31G119B180A255,2337,0.0001981334,-6.536418e-05,-6.54304e-05,1.460707e-05,-8.79333e-09,-1.160387e-07,0.0002647424559256689
PART_000_R31G119B180A255,2338,0.0001981015,-6.535955e-05,-6.533942e-05,1.449543e-05,3.445645e-16,-9.47302e-15,0.00026464461882690456
PART_000_R31G119B180A255,2339,0.0001981334,-6.536418e-05,-6.54304e-05,1.460707e-05,8.793329e-09,1.160386e-07,0.00026474245592553733
PART_000_R31G119B180A255,2340,0.000198094,-6.535015e-05,-6.534213e-05,1.494854e-05,3.906176e-09,1.994639e-07,0.00026470965860574775
PART_002_R214G39B40A255,2341,0.0001981258,-6.536071e-05,-6.543607e-05,1.555916e-05,3.438637e-08,2.167653e-07,0.000264898867236297
PART_002_R214G39B40A255,2342,0.0001980806,-6.536858e-05,-6.531421e-05,1.647536e-05,4.118796e-09,1.721855e-07,0.0002649633014639465
PART_002_R214G39B40A255,2343,0.0001981293,-6.536961e-05,-6.544601e-05,1.775652e-05,1.543439e-08,6.035417e-08,0.00026532566098088213
PART_003_R247G182B210A255,2344,9.907501e-05,-3.271045e-05,-3.270308e-05,1.958905e-05,-3.917548e-09,-2.750429e-08,0.00013607950329897319
PART_003_R247G182B210A255,2345,9.90498e-05,-3.269544e-05,-3.266783e-05,1.828858e-05,-3.39549e-08,-7.202484e-08,0.00013548655666036
PART_003_R247G182B210A255,2346,9.907209e-05,-3.269121e-05,-3.271731e-05,1.732443e-05,-1.116861e-08,-9.244337e-08,0.00013514969687812185
PART_003_R247G182B210A255,2347,9.905665e-05,-3.26945e-05,-3.266743e-05,1.666758e-05,-3.011252e-08,-8.614178e-08,0.00013486381800229617
PART_003_R247G182B210A255,2348,9.907697e-05,-3.269013e-05,-3.272321e-05,1.628921e-05,-5.21967e-09,-4.970296e-08,0.00013476999359102258
PART_000_R31G119B180A255,2349,9.906081e-05,-3.269654e-05,-3.26666e-05,1.61655e-05,-2.117705e-16,-4.584558e-15,0.00013468491203960856
PART_000_R31G119B180A255,2350,9.907697e-05,-3.269013e-05,-3.272321e-05,1.628921e-05,5.219671e-09,4.970296e-08,0.0001347699935910227
PART_002_R214G39B40A255,2351,9.905665e-05,-3.26945e-05,-3.266743e-05,1.666758e-05,3.011252e-08,8.614177e-08,0.000134863818002277
PART_002_R214G39B40A255,2352,9.907209e-05,-3.269121e-05,-3.271731e-05,1.732443e-05,1.116861e-08,9.244337e-08,0.00013514969687812185
PART_002_R214G39B40A255,2353,9.90498e-05,-3.269544e-05,-3.266783e-05,1.828858e-05,3.39549e-08,7.202483e-08,0.00013548655666034402
PART_002_R214G39B40A255,2354,9.907501e-05,-3.271045e-05,-3.270308e-05,1.958905e-05,3.917548e-09,2.750429e-08,0.00013607950329897319
PART_003_R247G182B210A255,2355,1.084326e-13,-3.575265e-14,-3.59237e-14,2.028823e-05,-1.324926e-08,-2.17823e-17,3.5140252648883604e-05
PART_003_R247G182B210A255,2356,1.08349e-13,-3.55601e-14,-3.591276e-14,1.897078e-05,-1.141529e-08,-7.916285e-17,3.285836076787364e-05
PART_003_R247G182B210A255,2357,1.083926e-13,-3.569454e-14,-3.579441e-14,1.799332e-05,-3.875589e-08,-9.904356e-17,3.116541672951333e-05
PART_003_R247G182B210A255,2358,1.083256e-13,-3.575872e-14,-3.567086e-14,1.732273e-05,-1.173082e-08,-1.004014e-16,3.0003855365521174e-05
PART_003_R247G182B210A255,2359,1.08361e-13,-3.568673e-14,-3.582325e-14,1.693708e-05,-1.778623e-08,-5.484665e-17,2.9335899267435676e-05
PART_003_R247G182B210A255,2360,1.082989e-13,-3.576913e-14,-3.563569e-14,1.680862e-05,2.694594e-16,-2.487736e-18,2.911338384511838e-05
PART_002_R214G39B40A255,2361,1.083301e-13,-3.567459e-14,-3.581692e-14,1.693708e-05,1.778623e-08,5.122432e-17,2.9335899267435676e-05
PART_002_R214G39B40A255,2362,1.082609e-13,-3.574918e-14,-3.564424e-14,1.732273e-05,1.173082e-08,9.337861e-17,3.0003855365521174e-05
PART_002_R214G39B40A255,2363,1.082925e-13,-3.568066e-14,-3.575737e-14,1.799332e-05,3.875589e-08,9.946454e-17,3.116541672951333e-05
PART_002_R214G39B40A255,2364,1.082206e-13,-3.552627e-14,-3.58724e-14,1.897078e-05,1.141529e-08,7.518095e-17,3.285836076787364e-05
PART_002_R214G39B40A255,2365,1.082658e-13,-3.570755e-14,-3.58626e-14,2.028823e-05,1.324926e-08,1.885326e-17,3.5140252648883604e-05
PART_003_R247G182B210A255,2366,-9.907501e-05,3.271045e-05,3.270308e-05,1.958905e-05,-3.917548e-09,2.750429e-08,0.00013607950329897319
PART_003_R247G182B210A255,2367,-9.90498e-05,3.269544e-05,3.266783e-05,1.828858e-05,-3.39549e-08,7.202484e-08,0.00013548655666036
PART_003_R247G182B210A255,2368,-9.907209e-05,3.269121e-05,3.271731e-05,1.732443e-05,-1.116861e-08,9.244337e-08,0.00013514969687812185
PART_003_R247G182B210A255,2369,-9.905665e-05,3.26945e-05,3.266743e-05,1.666758e-05,-3.011252e-08,8.614178e-08,0.00013486381800229617
PART_003_R247G182B210A255,2370,-9.907697e-05,3.269013e-05,3.272321e-05,1.628921e-05,-5.21967e-09,4.970296e-08,0.00013476999359102258
PART_001_R158G218B229A255,2371,-9.906081e-05,3.269654e-05,3.26666e-05,1.61655e-05,-2.026437e-16,4.58238e-15,0.00013468491203960856
PART_001_R158G218B229A255,2372,-9.907697e-05,3.269013e-05,3.272321e-05,1.628921e-05,5.219671e-09,-4.970296e-08,0.0001347699935910227
PART_002_R214G39B40A255,2373,-9.905665e-05,3.26945e-05,3.266743e-05,1.666758e-05,3.011252e-08,-8.614177e-08,0.000134863818002277
PART_002_R214G39B40A255,2374,-9.907209e-05,3.269121e-05,3.271731e-05,1.732443e-05,1.116861e-08,-9.244337e-08,0.00013514969687812185
PART_002_R214G39B40A255,2375,-9.90498e-05,3.269544e-05,3.266783e-05,1.828858e-05,3.39549e-08,-7.202483e-08,0.00013548655666034402
PART_002_R214G39B40A255,2376,-9.907501e-05,3.271045e-05,3.270308e-05,1.958905e-05,3.917549e-09,-2.750429e-08,0.00013607950329897327
PART_003_R247G182B210A255,2377,-0.0001981293,6.536961e-05,6.544601e-05,1.775652e-05,-1.543439e-08,6.035418e-08,0.00026532566098088896
PART_003_R247G182B210A255,2378,-0.0001980806,6.536858e-05,6.531421e-05,1.647536e-05,-4.118796e-09,1.721855e-07,0.0002649633014639465
PART_003_R247G182B210A255,2379,-0.0001981258,6.536071e-05,6.543607e-05,1.555917e-05,-3.438637e-08,2.167653e-07,0.00026489886899838433
PART_003_R247G182B210A255,2380,-0.000198094,6.535015e-05,6.534213e-05,1.494854e-05,-3.906175e-09,1.994639e-07,0.0002647096586057477
PART_001_R158G218B229A255,2381,-0.0001981334,6.536418e-05,6.54304e-05,1.460707e-05,-8.79333e-09,1.160387e-07,0.0002647424559256689
PART_001_R158G218B229A255,2382,-0.0001981015,6.535955e-05,6.533942e-05,1.449543e-05,3.538565e-16,9.468098e-15,0.00026464461882690456
PART_001_R158G218B229A255,2383,-0.0001981334,6.536418e-05,6.54304e-05,1.460707e-05,8.793329e-09,-1.160386e-07,0.00026474245592553733
PART_001_R158G218B229A255,2384,-0.000198094,6.535015e-05,6.534213e-05,1.494854e-05,3.906176e-09,-1.994639e-07,0.00026470965860574775
PART_002_R214G39B40A255,2385,-0.0001981258,6.536071e-05,6.543607e-05,1.555916e-05,3.438637e-08,-2.167653e-07,0.000264898867236297
PART_002_R214G39B40A255,2386,-0.0001980806,6.536858e-05,6.531421e-05,1.647536e-05,4.118796e-09,-1.721855e-07,0.0002649633014639465
PART_002_R214G39B40A255,2387,-0.0001981293,6.536961e-05,6.544601e-05,1.775652e-05,1.543439e-08,-6.035417e-08,0.00026532566098088213
PART_003_R247G182B210A255,2388,-0.0002972225,9.813216e-05,9.809861e-05,1.449718e-05,1.980652e-09,1.305934e-07,0.0003961345731187946
PART_003_R247G182B210A255,2389,-0.000297148,9.808071e-05,9.800441e-05,1.329641e-05,-3.880481e-08,3.325035e-07,0.0003958614692404627
PART_003_R247G182B210A255,2390,-0.0002972129,9.806065e-05,9.815637e-05,1.247278e-05,8.414231e-09,4.190935e-07,0.00039591193708878644
PART_001_R158G218B229A255,2391,-0.0002971662,9.808546e-05,9.798833e-05,1.196269e-05,-2.250748e-09,3.799465e-07,0.00039574643943135
PART_001_R158G218B229A255,2392,-0.0002972249,9.808598e-05,9.814605e-05,1.168447e-05,-4.975756e-10,2.143237e-07,0.0003958587628202406
PART_001_R158G218B229A255,2393,-0.0002971769,9.808783e-05,9.799332e-05,1.159288e-05,-3.384303e-16,1.50149e-14,0.0003957272341456472
PART_001_R158G218B229A255,2394,-0.0002972249,9.808598e-05,9.814605e-05,1.168447e-05,4.975763e-10,-2.143236e-07,0.00039585876282007817
PART_001_R158G218B229A255,2395,-0.0002971662,9.808546e-05,9.798833e-05,1.196269e-05,2.250748e-09,-3.799464e-07,0.000395746439431062
PART_001_R158G218B229A255,2396,-0.0002972129,9.806065e-05,9.815637e-05,1.247278e-05,-8.414232e-09,-4.190935e-07,0.0003959119370887865
PART_002_R214G39B40A255,2397,-0.000297148,9.808071e-05,9.800441e-05,1.329641e-05,3.880481e-08,-3.325035e-07,0.0003958614692404627
PART_002_R214G39B40A255,2398,-0.0002972225,9.813216e-05,9.809861e-05,1.449718e-05,-1.980652e-09,-1.305933e-07,0.0003961345731186957
PART_003_R247G182B210A255,2399,-0.0003962658,0.0001307434,0.0001309116,9.950921e-06,-3.178135e-08,2.333357e-07,0.0005273751956400434
PART_003_R247G182B210A255,2400,-0.0003961719,0.0001307159,0.0001306522,8.866028e-06,2.992788e-08,6.510451e-07,0.0005270809128752065
PART_001_R158G218B229A255,2401,-0.0003962583,0.0001307422,0.0001308319,8.278554e-06,1.954726e-08,7.883197e-07,0.0005272421415728423
PART_001_R158G218B229A255,2402,-0.0003961935,0.0001307506,0.0001306436,7.937581e-06,3.252777e-09,6.614182e-07,0.0005270711915722127
PART_001_R158G218B229A255,2403,-0.0003962693,0.000130742,0.0001308456,7.751504e-06,3.338594e-09,3.663207e-07,0.0005272344634791246
PART_001_R158G218B229A255,2404,-0.0003962056,0.0001307547,0.0001306509,7.694329e-06,1.257454e-16,2.141929e-14,0.0005270769186443955
PART_001_R158G218B229A255,2405,-0.0003962693,0.000130742,0.0001308456,7.751504e-06,-3.338595e-09,-3.663206e-07,0.0005272344634789162
PART_001_R158G218B229A255,2406,-0.0003961935,0.0001307506,0.0001306436,7.937581e-06,-3.252776e-09,-6.614181e-07,0.0005270711915718362
PART_001_R158G218B229A255,2407,-0.0003962583,0.0001307422,0.0001308319,8.278554e-06,-1.954726e-08,-7.883196e-07,0.0005272421415723938
PART_001_R158G218B229A255,2408,-0.0003961719,0.0001307159,0.0001306522,8.866028e-06,-2.992788e-08,-6.51045e-07,0.0005270809128748359
PART_002_R214G39B40A255,2409,-0.0003962658,0.0001307434,0.0001309116,9.950921e-06,3.178135e-08,-2.333357e-07,0.0005273751956400434
PART_003_R247G182B210A255,2410,-0.0004953594,0.0001635628,0.0001634269,3.638957e-06,4.613171e-08,6.285533e-07,0.0006588853119025879
PART_001_R158G218B229A255,2411,-0.0004952407,0.0001634577,0.0001632565,3.133417e-06,3.263334e-08,1.364225e-06,0.000658624425569356
PART_001_R158G218B229A255,2412,-0.0004953403,0.0001635039,0.0001635042,2.93196e-06,3.693217e-09,1.387751e-06,0.0006588683057294139
PART_001_R158G218B229A255,2413,-0.0004952651,0.0001634616,0.0001633043,2.80678e-06,6.975865e-09,1.090935e-06,0.0006586687156163452
PART_001_R158G218B229A255,2414,-0.0004953512,0.0001634909,0.000163534,2.741803e-06,-1.448934e-10,5.86125e-07,0.0006588815475965405
PART_001_R158G218B229A255,2415,-0.0004952783,0.000163464,0.0001633191,2.722331e-06,-5.463532e-17,2.894935e-14,0.0006586867391288903
PART_001_R158G218B229A255,2416,-0.0004953512,0.0001634909,0.000163534,2.741803e-06,1.448936e-10,-5.861249e-07,0.0006588815475962736
PART_001_R158G218B229A255,2417,-0.0004952651,0.0001634616,0.0001633043,2.80678e-06,-6.975865e-09,-1.090935e-06,0.0006586687156163452
PART_001_R158G218B229A255,2418,-0.0004953403,0.0001635039,0.0001635042,2.93196e-06,-3.693217e-09,-1.387751e-06,0.0006588683057294139
PART_001_R158G218B229A255,2419,-0.0004952407,0.0001634577,0.0001632565,3.133417e-06,-3.263334e-08,-1.364225e-06,0.000658624425569356
PART_001_R158G218B229A255,2420,-0.0004953594,0.0001635628,0.0001634269,3.638957e-06,-4.613171e-08,-6.285533e-07,0.0006588853119025879
PART_003_R247G182B210A255,2421,0.0004906906,-0.0001620292,-0.0001616911,3.655666e-06,5.281731e-08,-6.257687e-07,0.0006525824406689036
PART_000_R31G119B180A255,2422,0.0004907806,-0.0001619401,-0.000161981,3.135235e-06,2.885181e-08,-1.352941e-06,0.0006527679473586114
PART_000_R31G119B180A255,2423,0.0004907043,-0.0001619843,-0.0001617853,2.943063e-06,6.833602e-09,-1.384449e-06,0.0006526134370637959
PART_000_R31G119B180A255,2424,0.000490776,-0.0001619416,-0.0001620078,2.81041e-06,6.08406e-09,-1.077028e-06,0.0006527715181665097
PART_000_R31G119B180A255,2425,0.0004907161,-0.0001619687,-0.0001618148,2.751353e-06,1.049749e-09,-5.84414e-07,0.0006526260476704848
PART_000_R31G119B180A255,2426,0.0004907785,-0.0001619426,-0.000162016,2.726205e-06,-4.476908e-17,-2.890678e-14,0.0006527748816265958
PART_000_R31G119B180A255,2427,0.0004907161,-0.0001619687,-0.0001618148,2.751353e-06,-1.049749e-09,5.844139e-07,0.0006526260476702162
PART_000_R31G119B180A255,2428,0.000490776,-0.0001619416,-0.0001620078,2.81041e-06,-6.084061e-09,1.077028e-06,0.0006527715181665097
PART_000_R31G119B180A255,2429,0.0004907043,-0.0001619843,-0.0001617853,2.943063e-06,-6.833602e-09,1.384449e-06,0.0006526134370637959
PART_000_R31G119B180A255,2430,0.0004907806,-0.0001619401,-0.000161981,3.135235e-06,-2.885181e-08,1.352941e-06,0.0006527679473586114
PART_000_R31G119B180A255,2431,0.0004906906,-0.0001620292,-0.0001616911,3.655666e-06,-5.281731e-08,6.257687e-07,0.0006525824406689036
PART_003_R247G182B210A255,2432,0.0003925667,-0.0001295836,-0.0001295165,9.921195e-06,-3.324578e-08,-2.354591e-07,0.0005223996209578096
PART_003_R247G182B210A255,2433,0.0003926377,-0.0001295477,-0.0001296389,8.848383e-06,3.112015e-08,-6.369502e-07,0.0005224570080554831
PART_000_R31G119B180A255,2434,0.0003925726,-0.0001295726,-0.0001294476,8.256957e-06,2.145362e-08,-7.866249e-07,0.000522280333816728
PART_000_R31G119B180A255,2435,0.0003926359,-0.0001295823,-0.0001296146,7.915943e-06,5.288895e-09,-6.471262e-07,0.0005224155050953227
PART_000_R31G119B180A255,2436,0.0003925844,-0.0001295735,-0.0001294586,7.727425e-06,4.639543e-09,-3.648641e-07,0.0005222723700571498
PART_000_R31G119B180A255,2437,0.0003926393,-0.0001295864,-0.0001296162,7.670374e-06,1.309394e-16,-2.138035e-14,0.0005224095604660099
PART_000_R31G119B180A255,2438,0.0003925844,-0.0001295735,-0.0001294586,7.727425e-06,-4.639543e-09,3.648641e-07,0.0005222723700571498
PART_000_R31G119B180A255,2439,0.0003926359,-0.0001295823,-0.0001296146,7.915943e-06,-5.288894e-09,6.471261e-07,0.000522415505094951
PART_000_R31G119B180A255,2440,0.0003925726,-0.0001295726,-0.0001294476,8.256957e-06,-2.145362e-08,7.866248e-07,0.0005222803338162761
PART_000_R31G119B180A255,2441,0.0003926377,-0.0001295477,-0.0001296389,8.848383e-06,-3.112016e-08,6.369502e-07,0.0005224570080554848
PART_002_R214G39B40A255,2442,0.0003925667,-0.0001295836,-0.0001295165,9.921195e-06,3.324578e-08,2.354591e-07,0.0005223996209578096
PART_003_R247G182B210A255,2443,0.0002944086,-9.719838e-05,-9.704963e-05,1.453918e-05,3.507807e-09,-1.28175e-07,0.000392341700513253
PART_003_R247G182B210A255,2444,0.0002944647,-9.715465e-05,-9.724624e-05,1.33331e-05,-3.526518e-08,-3.225927e-07,0.00039234579479751805
PART_003_R247G182B210A255,2445,0.0002944167,-9.713598e-05,-9.711609e-05,1.250587e-05,1.123616e-08,-4.161166e-07,0.00039214209646400914
PART_000_R31G119B180A255,2446,0.0002944642,-9.715824e-05,-9.721685e-05,1.199744e-05,1.392005e-09,-3.681836e-07,0.00039220315439942324
PART_000_R31G119B180A255,2447,0.0002944253,-9.715785e-05,-9.710341e-05,1.171612e-05,1.336526e-09,-2.126276e-07,0.00039208160704292294
PART_000_R31G119B180A255,2448,0.0002944671,-9.715921e-05,-9.721715e-05,1.162646e-05,-3.378493e-16,-1.498412e-14,0.00039217264640213737
PART_000_R31G119B180A255,2449,0.0002944253,-9.715785e-05,-9.710341e-05,1.171612e-05,-1.336525e-09,2.126276e-07,0.00039208160704292294
PART_000_R31G119B180A255,2450,0.0002944642,-9.715824e-05,-9.721685e-05,1.199744e-05,-1.392005e-09,3.681835e-07,0.0003922031543991416
PART_000_R31G119B180A255,2451,0.0002944167,-9.713598e-05,-9.711609e-05,1.250587e-05,-1.123616e-08,4.161166e-07,0.00039214209646400914
PART_002_R214G39B40A255,2452,0.0002944647,-9.715465e-05,-9.724624e-05,1.33331e-05,3.526518e-08,3.225927e-07,0.00039234579479751805
PART_002_R214G39B40A255,2453,0.0002944086,-9.719838e-05,-9.704963e-05,1.453918e-05,-3.507807e-09,1.281749e-07,0.000392341700513155
PART_003_R247G182B210A255,2454,0.0001962851,-6.479757e-05,-6.474601e-05,1.770586e-05,-1.440609e-08,-6.093701e-08,0.0002628520610683507
PART_003_R247G182B210A255,2455,0.0001963217,-6.479328e-05,-6.481023e-05,1.643414e-05,-1.010788e-09,-1.64441e-07,0.0002626704836193538
PART_003_R247G182B210A255,2456,0.0001962886,-6.478442e-05,-6.474094e-05,1.55161e-05,-2.929994e-08,-2.141994e-07,0.0002624312491010922
PART_003_R247G182B210A255,2457,0.0001963215,-6.477486e-05,-6.482847e-05,1.490298e-05,7.621245e-10,-1.91391e-07,0.0002623961047482787
PART_000_R31G119B180A255,2458,0.0001962959,-6.478881e-05,-6.473355e-05,1.455705e-05,-6.109625e-09,-1.14518e-07,0.0002622719273532418
PART_000_R31G119B180A255,2459,0.0001963239,-6.478418e-05,-6.482236e-05,1.444596e-05,3.421763e-16,-9.455261e-15,0.000262323192429602
PART_000_R31G119B180A255,2460,0.0001962959,-6.478881e-05,-6.473355e-05,1.455705e-05,6.109625e-09,1.14518e-07,0.0002622719273532418
PART_000_R31G119B180A255,2461,0.0001963215,-6.477486e-05,-6.482847e-05,1.490298e-05,-7.621242e-10,1.913909e-07,0.0002623961047480599
PART_002_R214G39B40A255,2462,0.0001962886,-6.478442e-05,-6.474094e-05,1.55161e-05,2.929994e-08,2.141994e-07,0.0002624312491010922
PART_002_R214G39B40A255,2463,0.0001963217,-6.479328e-05,-6.481023e-05,1.643414e-05,1.010788e-09,1.64441e-07,0.0002626704836193538
PART_002_R214G39B40A255,2464,0.0001962851,-6.479757e-05,-6.474601e-05,1.770586e-05,1.440609e-08,6.093701e-08,0.0002628520610683507
PART_003_R247G182B210A255,2465,9.813517e-05,-3.239673e-05,-3.235269e-05,1.964895e-05,-2.652437e-09,-2.655359e-08,0.00013487429731772024
PART_003_R247G182B210A255,2466,9.815402e-05,-3.238425e-05,-3.24159e-05,1.834498e-05,-2.862676e-08,-6.820407e-08,0.00013436518805115316
PART_003_R247G182B210A255,2467,9.813787e-05,-3.238061e-05,-3.236955e-05,1.737529e-05,-6.00446e-09,-9.105707e-08,0.00013393788597528377
PART_003_R247G182B210A255,2468,9.815422e-05,-3.238301e-05,-3.241068e-05,1.671978e-05,-2.462569e-08,-8.173756e-08,0.00013372455323896605
PART_003_R247G182B210A255,2469,9.814115e-05,-3.237821e-05,-3.237427e-05,1.633839e-05,-2.244076e-09,-4.891883e-08,0.00013355008521784818
PART_000_R31G119B180A255,2470,9.815542e-05,-3.238444e-05,-3.240815e-05,1.621591e-05,-2.099363e-16,-4.574966e-15,0.00013353882552444662
PART_000_R31G119B180A255,2471,9.814115e-05,-3.237821e-05,-3.237427e-05,1.633839e-05,2.244077e-09,4.891882e-08,0.00013355008521783726
PART_002_R214G39B40A255,2472,9.815422e-05,-3.238301e-05,-3.241068e-05,1.671978e-05,2.462569e-08,8.173755e-08,0.0001337245532389477
PART_002_R214G39B40A255,2473,9.813787e-05,-3.238061e-05,-3.236955e-05,1.737529e-05,6.00446e-09,9.105707e-08,0.00013393788597528377
PART_002_R214G39B40A255,2474,9.815402e-05,-3.238425e-05,-3.24159e-05,1.834498e-05,2.862676e-08,6.820406e-08,0.00013436518805113793
PART_002_R214G39B40A255,2475,9.813517e-05,-3.239673e-05,-3.235269e-05,1.964895e-05,2.652437e-09,2.655359e-08,0.00013487429731772024
PART_003_R247G182B210A255,2476,1.073907e-13,-3.549504e-14,-3.545964e-14,2.022948e-05,-1.143969e-08,-2.150447e-17,3.5038492773102006e-05
PART_003_R247G182B210A255,2477,1.074271e-13,-3.531463e-14,-3.570992e-14,1.89212e-05,-7.383204e-09,-7.362919e-17,3.277248223517871e-05
PART_003_R247G182B210A255,2478,1.073603e-13,-3.544127e-14,-3.534246e-14,1.794206e-05,-3.257361e-08,-1.041571e-16,3.107661072657386e-05
PART_003_R247G182B210A255,2479,1.073905e-13,-3.549157e-14,-3.546449e-14,1.726838e-05,-5.91158e-09,-9.130634e-17,2.99097132770198e-05
PART_003_R247G182B210A255,2480,1.073375e-13,-3.542566e-14,-3.536723e-14,1.68774e-05,-1.449309e-08,-5.760883e-17,2.9232525077881535e-05
PART_003_R247G182B210A255,2481,1.073592e-13,-3.551066e-14,-3.542774e-14,1.674958e-05,2.663252e-16,-5.069069e-18,2.9011123565439518e-05
PART_002_R214G39B40A255,2482,1.073029e-13,-3.541698e-14,-3.536084e-14,1.68774e-05,1.449309e-08,5.287222e-17,2.9232525077881535e-05
PART_002_R214G39B40A255,2483,1.073254e-13,-3.549244e-14,-3.543699e-14,1.726838e-05,5.911581e-09,8.740448e-17,2.990971327702039e-05
PART_002_R214G39B40A255,2484,1.072625e-13,-3.542132e-14,-3.530543e-14,1.794206e-05,3.257361e-08,1.005657e-16,3.107661072657386e-05
PART_002_R214G39B40A255,2485,1.072931e-13,-3.526953e-14,-3.566919e-14,1.89212e-05,7.383204e-09,7.335814e-17,3.277248223517871e-05
PART_002_R214G39B40A255,2486,1.072278e-13,-3.545428e-14,-3.539853e-14,2.022948e-05,1.143969e-08,1.926831e-17,3.5038492773102006e-05
PART_003_R247G182B210A255,2487,-9.813517e-05,3.239673e-05,3.235269e-05,1.964895e-05,-2.652437e-09,2.655359e-08,0.00013487429731772024
PART_003_R247G182B210A255,2488,-9.815402e-05,3.238425e-05,3.24159e-05,1.834498e-05,-2.862676e-08,6.820406e-08,0.00013436518805113793
PART_003_R247G182B210A255,2489,-9.813787e-05,3.238061e-05,3.236955e-05,1.737529e-05,-6.00446e-09,9.105707e-08,0.00013393788597528377
PART_003_R247G182B210A255,2490,-9.815422e-05,3.238301e-05,3.241068e-05,1.671978e-05,-2.462569e-08,8.173756e-08,0.00013372455323896605
PART_003_R247G182B210A255,2491,-9.814115e-05,3.237821e-05,3.237427e-05,1.633839e-05,-2.244076e-09,4.891883e-08,0.00013355008521784818
PART_001_R158G218B229A255,2492,-9.815542e-05,3.238444e-05,3.240815e-05,1.621591e-05,-2.061945e-16,4.566354e-15,0.00013353882552444662
PART_001_R158G218B229A255,2493,-9.814115e-05,3.237821e-05,3.237427e-05,1.633839e-05,2.244077e-09,-4.891882e-08,0.00013355008521783726
PART_002_R214G39B40A255,2494,-9.815422e-05,3.238301e-05,3.241068e-05,1.671978e-05,2.462569e-08,-8.173755e-08,0.0001337245532389477
PART_002_R214G39B40A255,2495,-9.813787e-05,3.238061e-05,3.236955e-05,1.737529e-05,6.00446e-09,-9.105707e-08,0.00013393788597528377
PART_002_R214G39B40A255,2496,-9.815402e-05,3.238425e-05,3.24159e-05,1.834498e-05,2.862676e-08,-6.820406e-08,0.00013436518805113793
PART_002_R214G39B40A255,2497,-9.813517e-05,3.239673e-05,3.235269e-05,1.964895e-05,2.652437e-09,-2.655359e-08,0.00013487429731772024
PART_003_R247G182B210A255,2498,-0.0001962851,6.479757e-05,6.474601e-05,1.770586e-05,-1.440609e-08,6.093701e-08,0.0002628520610683507
PART_003_R247G182B210A255,2499,-0.0001963217,6.479328e-05,6.481023e-05,1.643414e-05,-1.010788e-09,1.64441e-07,0.0002626704836193538
PART_003_R247G182B210A255,2500,-0.0001962886,6.478442e-05,6.474094e-05,1.55161e-05,-2.929994e-08,2.141994e-07,0.0002624312491010922
PART_003_R247G182B210A255,2501,-0.0001963215,6.477486e-05,6.482847e-05,1.490298e-05,7.621245e-10,1.91391e-07,0.0002623961047482787
PART_001_R158G218B229A255,2502,-0.0001962959,6.478881e-05,6.473355e-05,1.455705e-05,-6.109625e-09,1.14518e-07,0.0002622719273532418
PART_001_R158G218B229A255,2503,-0.0001963239,6.478418e-05,6.482236e-05,1.444596e-05,3.433617e-16,9.45265e-15,0.000262323192429602
PART_001_R158G218B229A255,2504,-0.0001962959,6.478881e-05,6.473355e-05,1.455705e-05,6.109625e-09,-1.14518e-07,0.0002622719273532418
PART_001_R158G218B229A255,2505,-0.0001963215,6.477486e-05,6.482847e-05,1.490298e-05,-7.621241e-10,-1.913909e-07,0.00026239610474805986
PART_002_R214G39B40A255,2506,-0.0001962886,6.478442e-05,6.474094e-05,1.55161e-05,2.929994e-08,-2.141994e-07,0.0002624312491010922
PART_002_R214G39B40A255,2507,-0.0001963217,6.479328e-05,6.481023e-05,1.643414e-05,1.010788e-09,-1.64441e-07,0.0002626704836193538
PART_002_R214G39B40A255,2508,-0.0001962851,6.479757e-05,6.474601e-05,1.770586e-05,1.440609e-08,-6.093701e-08,0.0002628520610683507
PART_003_R247G182B210A255,2509,-0.0002944086,9.719838e-05,9.704963e-05,1.453918e-05,3.507807e-09,1.28175e-07,0.000392341700513253
PART_003_R247G182B210A255,2510,-0.0002944647,9.715465e-05,9.724624e-05,1.33331e-05,-3.526518e-08,3.225927e-07,0.00039234579479751805
PART_003_R247G182B210A255,2511,-0.0002944167,9.713598e-05,9.711609e-05,1.250587e-05,1.123616e-08,4.161166e-07,0.00039214209646400914
PART_001_R158G218B229A255,2512,-0.0002944642,9.715824e-05,9.721685e-05,1.199744e-05,1.392005e-09,3.681836e-07,0.00039220315439942324
PART_001_R158G218B229A255,2513,-0.0002944253,9.715785e-05,9.710341e-05,1.171612e-05,1.336526e-09,2.126276e-07,0.00039208160704292294
PART_001_R158G218B229A255,2514,-0.0002944671,9.715921e-05,9.721715e-05,1.162646e-05,-3.316812e-16,1.497711e-14,0.00039217264640213737
PART_001_R158G218B229A255,2515,-0.0002944253,9.715785e-05,9.710341e-05,1.171612e-05,-1.336525e-09,-2.126276e-07,0.00039208160704292294
PART_001_R158G218B229A255,2516,-0.0002944642,9.715824e-05,9.721685e-05,1.199744e-05,-1.392005e-09,-3.681835e-07,0.0003922031543991416
PART_001_R158G218B229A255,2517,-0.0002944167,9.713598e-05,9.711609e-05,1.250587e-05,-1.123616e-08,-4.161166e-07,0.00039214209646400914
PART_002_R214G39B40A255,2518,-0.0002944647,9.715465e-05,9.724624e-05,1.33331e-05,3.526518e-08,-3.225927e-07,0.00039234579479751805
PART_002_R214G39B40A255,2519,-0.0002944086,9.719838e-05,9.704963e-05,1.453918e-05,-3.507808e-09,-1.281749e-07,0.00039234170051315507
PART_003_R247G182B210A255,2520,-0.0003925667,0.0001295836,0.0001295165,9.921195e-06,-3.324578e-08,2.354591e-07,0.0005223996209578096
PART_003_R247G182B210A255,2521,-0.0003926377,0.0001295477,0.0001296389,8.848383e-06,3.112015e-08,6.369502e-07,0.0005224570080554831
PART_001_R158G218B229A255,2522,-0.0003925726,0.0001295726,0.0001294476,8.256957e-06,2.145362e-08,7.866249e-07,0.000522280333816728
PART_001_R158G218B229A255,2523,-0.0003926359,0.0001295823,0.0001296146,7.915943e-06,5.288895e-09,6.471262e-07,0.0005224155050953227
PART_001_R158G218B229A255,2524,-0.0003925844,0.0001295735,0.0001294586,7.727425e-06,4.639543e-09,3.648641e-07,0.0005222723700571498
PART_001_R158G218B229A255,2525,-0.0003926393,0.0001295864,0.0001296162,7.670374e-06,1.21578e-16,2.137638e-14,0.0005224095604660099
PART_001_R158G218B229A255,2526,-0.0003925844,0.0001295735,0.0001294586,7.727425e-06,-4.639543e-09,-3.648641e-07,0.0005222723700571498
PART_001_R158G218B229A255,2527,-0.0003926359,0.0001295823,0.0001296146,7.915943e-06,-5.288894e-09,-6.471261e-07,0.000522415505094951
PART_001_R158G218B229A255,2528,-0.0003925726,0.0001295726,0.0001294476,8.256957e-06,-2.145362e-08,-7.866248e-07,0.0005222803338162761
PART_001_R158G218B229A255,2529,-0.0003926377,0.0001295477,0.0001296389,8.848383e-06,-3.112016e-08,-6.369502e-07,0.0005224570080554848
PART_002_R214G39B40A255,2530,-0.0003925667,0.0001295836,0.0001295165,9.921195e-06,3.324578e-08,-2.354591e-07,0.0005223996209578096
PART_003_R247G182B210A255,2531,-0.0004906906,0.0001620292,0.0001616911,3.655666e-06,5.281731e-08,6.257687e-07,0.0006525824406689036
PART_001_R158G218B229A255,2532,-0.0004907806,0.0001619401,0.000161981,3.135235e-06,2.885181e-08,1.352941e-06,0.0006527679473586114
PART_001_R158G218B229A255,2533,-0.0004907043,0.0001619843,0.0001617853,2.943063e-06,6.833602e-09,1.384449e-06,0.0006526134370637959
PART_001_R158G218B229A255,2534,-0.000490776,0.0001619416,0.0001620078,2.81041e-06,6.08406e-09,1.077028e-06,0.0006527715181665097
PART_001_R158G218B229A255,2535,-0.0004907161,0.0001619687,0.0001618148,2.751353e-06,1.049749e-09,5.84414e-07,0.0006526260476704848
PART_001_R158G218B229A255,2536,-0.0004907785,0.0001619426,0.000162016,2.726205e-06,-4.80183e-17,2.889879e-14,0.0006527748816265958
PART_001_R158G218B229A255,2537,-0.0004907161,0.0001619687,0.0001618148,2.751353e-06,-1.049749e-09,-5.844139e-07,0.0006526260476702162
PART_001_R158G218B229A255,2538,-0.000490776,0.0001619416,0.0001620078,2.81041e-06,-6.084061e-09,-1.077028e-06,0.0006527715181665097
PART_001_R158G218B229A255,2539,-0.0004907043,0.0001619843,0.0001617853,2.943063e-06,-6.833602e-09,-1.384449e-06,0.0006526134370637959
PART_001_R158G218B229A255,2540,-0.0004907806,0.0001619401,0.000161981,3.135235e-06,-2.885181e-08,-1.352941e-06,0.0006527679473586114
PART_001_R158G218B229A255,2541,-0.0004906906,0.0001620292,0.0001616911,3.655666e-06,-5.281731e-08,-6.257687e-07,0.0006525824406689036
PART_003_R247G182B210A255,2542,0.0004862512,-0.0001605528,-0.0001603882,3.643071e-06,4.686035e-08,-6.24287e-07,0.0006467534068407722
PART_000_R31G119B180A255,2543,0.0004861708,-0.0001604536,-0.0001602984,3.135065e-06,3.174883e-08,-1.352039e-06,0.0006465738593583257
PART_000_R31G119B180A255,2544,0.0004862332,-0.0001604989,-0.0001604595,2.935142e-06,5.099245e-09,-1.374986e-06,0.0006467367675424198
PART_000_R31G119B180A255,2545,0.0004861787,-0.0001604565,-0.0001603318,2.808068e-06,7.561079e-09,-1.076231e-06,0.0006465938390894037
PART_000_R31G119B180A255,2546,0.0004862315,-0.0001604841,-0.0001604786,2.743867e-06,6.83476e-10,-5.793351e-07,0.0006467310907054235
PART_000_R31G119B180A255,2547,0.0004861828,-0.0001604576,-0.0001603401,2.723037e-06,-5.62667e-17,-2.89555e-14,0.0006465988596208008
PART_000_R31G119B180A255,2548,0.0004862315,-0.0001604841,-0.0001604786,2.743867e-06,-6.834759e-10,5.793351e-07,0.0006467310907054235
PART_000_R31G119B180A255,2549,0.0004861787,-0.0001604565,-0.0001603318,2.808068e-06,-7.561079e-09,1.076231e-06,0.0006465938390894037
PART_000_R31G119B180A255,2550,0.0004862332,-0.0001604989,-0.0001604595,2.935142e-06,-5.099244e-09,1.374986e-06,0.0006467367675424198
PART_000_R31G119B180A255,2551,0.0004861708,-0.0001604536,-0.0001602984,3.135065e-06,-3.174883e-08,1.352039e-06,0.0006465738593583257
PART_000_R31G119B180A255,2552,0.0004862512,-0.0001605528,-0.0001603882,3.643071e-06,-4.686035e-08,6.24287e-07,0.0006467534068407722
PART_003_R247G182B210A255,2553,0.0003889927,-0.0001283586,-0.000128478,9.943318e-06,-3.113281e-08,-2.306747e-07,0.0005176977157299659
PART_003_R247G182B210A255,2554,0.0003889282,-0.0001283311,-0.0001282857,8.861261e-06,3.131522e-08,-6.382091e-07,0.0005174654506722698
PART_000_R31G119B180A255,2555,0.0003889819,-0.0001283568,-0.0001283938,8.272355e-06,2.217158e-08,-7.762808e-07,0.000517557318855319
PART_000_R31G119B180A255,2556,0.0003889346,-0.0001283648,-0.0001282652,7.92993e-06,6.281795e-09,-6.466952e-07,0.0005174331476356368
PART_000_R31G119B180A255,2557,0.0003889806,-0.0001283558,-0.0001283966,7.742021e-06,5.200936e-09,-3.596724e-07,0.0005175309310525009
PART_000_R31G119B180A255,2558,0.0003889381,-0.0001283682,-0.0001282662,7.684389e-06,1.225614e-16,-2.142999e-14,0.0005174265191155165
PART_000_R31G119B180A255,2559,0.0003889806,-0.0001283558,-0.0001283966,7.742021e-06,-5.200937e-09,3.596723e-07,0.0005175309310522925
PART_000_R31G119B180A255,2560,0.0003889346,-0.0001283648,-0.0001282652,7.92993e-06,-6.281794e-09,6.466952e-07,0.0005174331476356368
PART_000_R31G119B180A255,2561,0.0003889819,-0.0001283568,-0.0001283938,8.272355e-06,-2.217158e-08,7.762808e-07,0.000517557318855319
PART_000_R31G119B180A255,2562,0.0003889282,-0.0001283311,-0.0001282857,8.861261e-06,-3.131522e-08,6.382091e-07,0.0005174654506722698
PART_002_R214G39B40A255,2563,0.0003889927,-0.0001283586,-0.000128478,9.943318e-06,3.113281e-08,2.306747e-07,0.0005176977157299659
PART_003_R247G182B210A255,2564,0.0002917563,-9.632276e-05,-9.627458e-05,1.451072e-05,3.266422e-09,-1.269742e-07,0.0003888680918599408
PART_003_R247G182B210A255,2565,0.0002917052,-9.627512e-05,-9.622957e-05,1.330965e-05,-3.432896e-08,-3.218562e-07,0.0003886422685935863
PART_003_R247G182B210A255,2566,0.0002917452,-9.625567e-05,-9.632641e-05,1.248418e-05,1.322989e-08,-4.081594e-07,0.0003886388964895857
PART_000_R31G119B180A255,2567,0.0002917102,-9.627887e-05,-9.620329e-05,1.197236e-05,2.856927e-09,-3.673105e-07,0.00038850562019782396
PART_000_R31G119B180A255,2568,0.0002917455,-9.627854e-05,-9.630716e-05,1.169163e-05,2.503767e-09,-2.084329e-07,0.00038856656401812216
PART_000_R31G119B180A255,2569,0.0002917133,-9.628001e-05,-9.620287e-05,1.159971e-05,-3.319708e-16,-1.501487e-14,0.00038847463825538803
PART_000_R31G119B180A255,2570,0.0002917455,-9.627854e-05,-9.630716e-05,1.169163e-05,-2.503767e-09,2.084328e-07,0.00038856656401796126
PART_000_R31G119B180A255,2571,0.0002917102,-9.627887e-05,-9.620329e-05,1.197236e-05,-2.856928e-09,3.673105e-07,0.00038850562019782396
PART_000_R31G119B180A255,2572,0.0002917452,-9.625567e-05,-9.632641e-05,1.248418e-05,-1.322989e-08,4.081594e-07,0.0003886388964895857
PART_002_R214G39B40A255,2573,0.0002917052,-9.627512e-05,-9.622957e-05,1.330965e-05,3.432896e-08,3.218561e-07,0.00038864226859333786
PART_002_R214G39B40A255,2574,0.0002917563,-9.632276e-05,-9.627458e-05,1.451072e-05,-3.266422e-09,1.269742e-07,0.0003888680918599408
PART_003_R247G182B210A255,2575,0.0001944956,-6.417978e-05,-6.422933e-05,1.774386e-05,-1.339317e-08,-5.832779e-08,0.000260519320753853
PART_003_R247G182B210A255,2576,0.000194462,-6.41792e-05,-6.413161e-05,1.646575e-05,9.834228e-10,-1.641581e-07,0.00026018533295186786
PART_003_R247G182B210A255,2577,0.0001944897,-6.41714e-05,-6.421545e-05,1.554755e-05,-2.67554e-08,-2.085562e-07,0.0002600812799543538
PART_003_R247G182B210A255,2578,0.0001944658,-6.416091e-05,-6.415134e-05,1.49334e-05,2.857195e-09,-1.903175e-07,0.00025991234705726737
PART_000_R31G119B180A255,2579,0.0001944893,-6.41743e-05,-6.42033e-05,1.45884e-05,-4.661722e-09,-1.116221e-07,0.00025990933368718136
PART_000_R31G119B180A255,2580,0.0001944679,-6.416957e-05,-6.41448e-05,1.447589e-05,3.380233e-16,-9.47501e-15,0.0002598376208813847
PART_000_R31G119B180A255,2581,0.0001944893,-6.41743e-05,-6.42033e-05,1.45884e-05,4.661722e-09,1.116221e-07,0.00025990933368718136
PART_000_R31G119B180A255,2582,0.0001944658,-6.416091e-05,-6.415134e-05,1.49334e-05,-2.857195e-09,1.903175e-07,0.00025991234705726737
PART_002_R214G39B40A255,2583,0.0001944897,-6.41714e-05,-6.421545e-05,1.554755e-05,2.67554e-08,2.085562e-07,0.0002600812799543538
PART_002_R214G39B40A255,2584,0.000194462,-6.41792e-05,-6.413161e-05,1.646575e-05,-9.834228e-10,1.641581e-07,0.00026018533295186786
PART_002_R214G39B40A255,2585,0.0001944956,-6.417978e-05,-6.422933e-05,1.774386e-05,1.339317e-08,5.832779e-08,0.000260519320753853
PART_003_R247G182B210A255,2586,9.725295e-05,-3.210678e-05,-3.209505e-05,1.960934e-05,-1.786331e-09,-2.606098e-08,0.00013373856282477642
PART_003_R247G182B210A255,2587,9.723562e-05,-3.209323e-05,-3.207632e-05,1.830943e-05,-2.699983e-08,-6.782701e-08,0.00013315211769504126
PART_003_R247G182B210A255,2588,9.72492e-05,-3.208924e-05,-3.210689e-05,1.734241e-05,-2.856171e-09,-8.806221e-08,0.00013278936719398143
PART_003_R247G182B210A255,2589,9.723741e-05,-3.209202e-05,-3.207188e-05,1.668274e-05,-2.18088e-08,-8.125669e-08,0.00013250833880012
PART_003_R247G182B210A255,2590,9.724949e-05,-3.208736e-05,-3.210918e-05,1.630097e-05,-5.42105e-10,-4.736697e-08,0.00013239340986127585
PART_000_R31G119B180A255,2591,9.723859e-05,-3.209352e-05,-3.206905e-05,1.617644e-05,-2.107346e-16,-4.590105e-15,0.00013232030136121252
PART_000_R31G119B180A255,2592,9.724949e-05,-3.208736e-05,-3.210918e-05,1.630097e-05,5.421055e-10,4.736696e-08,0.00013239340986126512
PART_002_R214G39B40A255,2593,9.723741e-05,-3.209202e-05,-3.207188e-05,1.668274e-05,2.18088e-08,8.125668e-08,0.0001325083388001016
PART_002_R214G39B40A255,2594,9.72492e-05,-3.208924e-05,-3.210689e-05,1.734241e-05,2.856171e-09,8.80622e-08,0.00013278936719396154
PART_002_R214G39B40A255,2595,9.723562e-05,-3.209323e-05,-3.207632e-05,1.830943e-05,2.699983e-08,6.782701e-08,0.00013315211769504126
PART_002_R214G39B40A255,2596,9.725295e-05,-3.210678e-05,-3.209505e-05,1.960934e-05,1.786331e-09,2.606098e-08,0.00013373856282477642
PART_003_R247G182B210A255,2597,1.064358e-13,-3.51082e-14,-3.524365e-14,2.027393e-05,-1.061214e-08,-1.630369e-17,3.511548163968773e-05
PART_003_R247G182B210A255,2598,1.063767e-13,-3.493126e-14,-3.527521e-14,1.895987e-05,-4.830721e-09,-7.457363e-17,3.28394592108076e-05
PART_003_R247G182B210A255,2599,1.064033e-13,-3.506483e-14,-3.511928e-14,1.798012e-05,-2.935386e-08,-9.759514e-17,3.114252286810577e-05
PART_003_R247G182B210A255,2600,1.063479e-13,-3.511254e-14,-3.502973e-14,1.730528e-05,-3.30734e-09,-9.321089e-17,2.9973624746611705e-05
PART_003_R247G182B210A255,2601,1.063592e-13,-3.503101e-14,-3.514663e-14,1.69154e-05,-1.264037e-08,-5.615617e-17,2.929834041062499e-05
PART_003_R247G182B210A255,2602,1.063132e-13,-3.513162e-14,-3.49886e-14,1.67859e-05,2.487806e-16,-3.339851e-18,2.907403165077042e-05
PART_002_R214G39B40A255,2603,1.063311e-13,-3.503534e-14,-3.513215e-14,1.69154e-05,1.264037e-08,5.025743e-17,2.929834041062499e-05
PART_002_R214G39B40A255,2604,1.062792e-13,-3.510733e-14,-3.500446e-14,1.730528e-05,3.30734e-09,8.701993e-17,2.9973624746611705e-05
PART_002_R214G39B40A255,2605,1.063003e-13,-3.504402e-14,-3.50824e-14,1.798012e-05,2.935386e-08,9.690311e-17,3.114252286810577e-05
PART_002_R214G39B40A255,2606,1.062448e-13,-3.488876e-14,-3.522927e-14,1.895987e-05,4.830721e-09,7.432206e-17,3.28394592108076e-05
PART_002_R214G39B40A255,2607,1.062718e-13,-3.505963e-14,-3.518698e-14,2.027393e-05,1.061214e-08,1.636806e-17,3.511548163968773e-05
PART_003_R247G182B210A255,2608,-9.725295e-05,3.210678e-05,3.209505e-05,1.960934e-05,-1.786331e-09,2.606098e-08,0.00013373856282477642
PART_003_R247G182B210A255,2609,-9.723562e-05,3.209323e-05,3.207632e-05,1.830943e-05,-2.699983e-08,6.782701e-08,0.00013315211769504126
PART_003_R247G182B210A255,2610,-9.72492e-05,3.208924e-05,3.210689e-05,1.734241e-05,-2.856171e-09,8.806221e-08,0.00013278936719398143
PART_003_R247G182B210A255,2611,-9.723741e-05,3.209202e-05,3.207188e-05,1.668275e-05,-2.18088e-08,8.125669e-08,0.0001325083425771075
PART_003_R247G182B210A255,2612,-9.724949e-05,3.208736e-05,3.210918e-05,1.630097e-05,-5.42105e-10,4.736697e-08,0.00013239340986127585
PART_001_R158G218B229A255,2613,-9.723859e-05,3.209352e-05,3.206905e-05,1.617644e-05,-2.008044e-16,4.581019e-15,0.00013232030136121252
PART_001_R158G218B229A255,2614,-9.724949e-05,3.208736e-05,3.210918e-05,1.630097e-05,5.421055e-10,-4.736696e-08,0.00013239340986126512
PART_002_R214G39B40A255,2615,-9.723741e-05,3.209202e-05,3.207188e-05,1.668274e-05,2.18088e-08,-8.125668e-08,0.0001325083388001016
PART_002_R214G39B40A255,2616,-9.72492e-05,3.208924e-05,3.210689e-05,1.734241e-05,2.856171e-09,-8.80622e-08,0.00013278936719396154
PART_002_R214G39B40A255,2617,-9.723562e-05,3.209323e-05,3.207632e-05,1.830943e-05,2.699983e-08,-6.782701e-08,0.00013315211769504126
PART_002_R214G39B40A255,2618,-9.725295e-05,3.210678e-05,3.209505e-05,1.960934e-05,1.786331e-09,-2.606098e-08,0.00013373856282477642
PART_003_R247G182B210A255,2619,-0.0001944956,6.417978e-05,6.422933e-05,1.774386e-05,-1.339317e-08,5.832779e-08,0.000260519320753853
PART_003_R247G182B210A255,2620,-0.000194462,6.41792e-05,6.413161e-05,1.646575e-05,9.834229e-10,1.641581e-07,0.00026018533295186786
PART_003_R247G182B210A255,2621,-0.0001944897,6.41714e-05,6.421545e-05,1.554755e-05,-2.67554e-08,2.085562e-07,0.0002600812799543538
PART_003_R247G182B210A255,2622,-0.0001944658,6.416091e-05,6.415134e-05,1.49334e-05,2.857195e-09,1.903175e-07,0.00025991234705726737
PART_001_R158G218B229A255,2623,-0.0001944893,6.41743e-05,6.42033e-05,1.45884e-05,-4.661722e-09,1.116221e-07,0.00025990933368718136
PART_001_R158G218B229A255,2624,-0.0001944679,6.416957e-05,6.41448e-05,1.447589e-05,3.363314e-16,9.46917e-15,0.0002598376208813847
PART_001_R158G218B229A255,2625,-0.0001944893,6.41743e-05,6.42033e-05,1.45884e-05,4.661722e-09,-1.116221e-07,0.00025990933368718136
PART_001_R158G218B229A255,2626,-0.0001944658,6.416091e-05,6.415134e-05,1.49334e-05,-2.857195e-09,-1.903175e-07,0.00025991234705726737
PART_002_R214G39B40A255,2627,-0.0001944897,6.41714e-05,6.421545e-05,1.554755e-05,2.67554e-08,-2.085562e-07,0.0002600812799543538
PART_002_R214G39B40A255,2628,-0.000194462,6.41792e-05,6.413161e-05,1.646575e-05,-9.83423e-10,-1.641581e-07,0.00026018533295186786
PART_002_R214G39B40A255,2629,-0.0001944956,6.417978e-05,6.422933e-05,1.774386e-05,1.339317e-08,-5.832779e-08,0.000260519320753853
PART_003_R247G182B210A255,2630,-0.0002917563,9.632275e-05,9.627458e-05,1.451072e-05,3.266422e-09,1.269742e-07,0.0003888680868694666
PART_003_R247G182B210A255,2631,-0.0002917052,9.627512e-05,9.622957e-05,1.330965e-05,-3.432896e-08,3.218562e-07,0.0003886422685935863
PART_003_R247G182B210A255,2632,-0.0002917452,9.625567e-05,9.632641e-05,1.248418e-05,1.322989e-08,4.081594e-07,0.0003886388964895857
PART_001_R158G218B229A255,2633,-0.0002917102,9.627887e-05,9.620329e-05,1.197236e-05,2.856927e-09,3.673105e-07,0.00038850562019782396
PART_001_R158G218B229A255,2634,-0.0002917455,9.627854e-05,9.630716e-05,1.169163e-05,2.503767e-09,2.084329e-07,0.00038856656401812216
PART_001_R158G218B229A255,2635,-0.0002917133,9.628001e-05,9.620287e-05,1.159971e-05,-3.385853e-16,1.501696e-14,0.00038847463825538803
PART_001_R158G218B229A255,2636,-0.0002917455,9.627854e-05,9.630716e-05,1.169163e-05,-2.503767e-09,-2.084328e-07,0.00038856656401796126
PART_001_R158G218B229A255,2637,-0.0002917102,9.627887e-05,9.620329e-05,1.197236e-05,-2.856928e-09,-3.673105e-07,0.00038850562019782396
PART_001_R158G218B229A255,2638,-0.0002917452,9.625567e-05,9.632641e-05,1.248418e-05,-1.322989e-08,-4.081594e-07,0.0003886388964895857
PART_002_R214G39B40A255,2639,-0.0002917052,9.627512e-05,9.622957e-05,1.330965e-05,3.432896e-08,-3.218561e-07,0.00038864226859333786
PART_002_R214G39B40A255,2640,-0.0002917563,9.632275e-05,9.627458e-05,1.451072e-05,-3.266423e-09,-1.269742e-07,0.00038886808686946665
PART_003_R247G182B210A255,2641,-0.0003889927,0.0001283586,0.000128478,9.943318e-06,-3.113281e-08,2.306747e-07,0.0005176977157299659
PART_003_R247G182B210A255,2642,-0.0003889282,0.0001283311,0.0001282857,8.861261e-06,3.131522e-08,6.382091e-07,0.0005174654506722698
PART_001_R158G218B229A255,2643,-0.0003889819,0.0001283568,0.0001283938,8.272355e-06,2.217158e-08,7.762808e-07,0.000517557318855319
PART_001_R158G218B229A255,2644,-0.0003889346,0.0001283648,0.0001282652,7.92993e-06,6.281795e-09,6.466952e-07,0.0005174331476356368
PART_001_R158G218B229A255,2645,-0.0003889806,0.0001283558,0.0001283966,7.742021e-06,5.200936e-09,3.596724e-07,0.0005175309310525009
PART_001_R158G218B229A255,2646,-0.0003889381,0.0001283682,0.0001282662,7.684389e-06,1.151812e-16,2.141913e-14,0.0005174265191155165
PART_001_R158G218B229A255,2647,-0.0003889806,0.0001283558,0.0001283966,7.742021e-06,-5.200937e-09,-3.596723e-07,0.0005175309310522925
PART_001_R158G218B229A255,2648,-0.0003889346,0.0001283648,0.0001282652,7.92993e-06,-6.281794e-09,-6.466952e-07,0.0005174331476356368
PART_001_R158G218B229A255,2649,-0.0003889819,0.0001283568,0.0001283938,8.272355e-06,-2.217158e-08,-7.762808e-07,0.000517557318855319
PART_001_R158G218B229A255,2650,-0.0003889282,0.0001283311,0.0001282857,8.861261e-06,-3.131522e-08,-6.382091e-07,0.0005174654506722698
PART_002_R214G39B40A255,2651,-0.0003889927,0.0001283586,0.000128478,9.943318e-06,3.113281e-08,-2.306747e-07,0.0005176977157299659
PART_003_R247G182B210A255,2652,-0.0004862512,0.0001605528,0.0001603882,3.643071e-06,4.686035e-08,6.24287e-07,0.0006467534068407722
PART_001_R158G218B229A255,2653,-0.0004861708,0.0001604536,0.0001602984,3.135065e-06,3.174883e-08,1.352039e-06,0.0006465738593583257
PART_001_R158G218B229A255,2654,-0.0004862332,0.0001604989,0.0001604595,2.935142e-06,5.099245e-09,1.374986e-06,0.0006467367675424198
PART_001_R158G218B229A255,2655,-0.0004861787,0.0001604565,0.0001603318,2.808068e-06,7.561079e-09,1.076231e-06,0.0006465938390894037
PART_001_R158G218B229A255,2656,-0.0004862315,0.0001604841,0.0001604786,2.743867e-06,6.83476e-10,5.793351e-07,0.0006467310907054235
PART_001_R158G218B229A255,2657,-0.0004861828,0.0001604576,0.0001603401,2.723037e-06,-6.421696e-17,2.894996e-14,0.0006465988596208008
PART_001_R158G218B229A255,2658,-0.0004862315,0.0001604841,0.0001604786,2.743867e-06,-6.834758e-10,-5.793351e-07,0.0006467310907054235
PART_001_R158G218B229A255,2659,-0.0004861787,0.0001604565,0.0001603318,2.808068e-06,-7.56108e-09,-1.076231e-06,0.0006465938390894037
PART_001_R158G218B229A255,2660,-0.0004862332,0.0001604989,0.0001604595,2.935142e-06,-5.099244e-09,-1.374986e-06,0.0006467367675424198
PART_001_R158G218B229A255,2661,-0.0004861708,0.0001604536,0.0001602984,3.135065e-06,-3.174883e-08,-1.352039e-06,0.0006465738593583257
PART_001_R158G218B229A255,2662,-0.0004862512,0.0001605528,0.0001603882,3.643071e-06,-4.686035e-08,-6.24287e-07,0.0006467534068407722
PART_003_R247G182B210A255,2663,0.0004816251,-0.000159037,-0.0001587308,3.652587e-06,5.073706e-08,-6.237461e-07,0.0006405412152824728
PART_000_R31G119B180A255,2664,0.0004816848,-0.0001589485,-0.0001589484,3.134686e-06,2.912075e-08,-1.347768e-06,0.0006406605120922667
PART_000_R31G119B180A255,2665,0.000481632,-0.0001589927,-0.0001588156,2.941061e-06,6.710403e-09,-1.37543e-06,0.0006405608542969906
PART_000_R31G119B180A255,2666,0.0004816771,-0.0001589508,-0.0001589695,2.809295e-06,6.694674e-09,-1.070777e-06,0.0006406584133449184
PART_000_R31G119B180A255,2667,0.0004816357,-0.0001589775,-0.0001588374,2.748999e-06,1.221502e-09,-5.794461e-07,0.0006405616441820885
PART_000_R31G119B180A255,2668,0.0004816758,-0.0001589516,-0.000158974,2.72465e-06,-5.126752e-17,-2.891885e-14,0.0006406559820521053
PART_000_R31G119B180A255,2669,0.0004816357,-0.0001589775,-0.0001588374,2.748999e-06,-1.221501e-09,5.794461e-07,0.0006405616441820885
PART_000_R31G119B180A255,2670,0.0004816771,-0.0001589508,-0.0001589695,2.809295e-06,-6.694675e-09,1.070777e-06,0.0006406584133449184
PART_000_R31G119B180A255,2671,0.000481632,-0.0001589927,-0.0001588156,2.941061e-06,-6.710403e-09,1.37543e-06,0.0006405608542969906
PART_000_R31G119B180A255,2672,0.0004816848,-0.0001589485,-0.0001589484,3.134686e-06,-2.912075e-08,1.347768e-06,0.0006406605120922667
PART_000_R31G119B180A255,2673,0.0004816251,-0.000159037,-0.0001587308,3.652587e-06,-5.073706e-08,6.237461e-07,0.0006405412152824728
PART_003_R247G182B210A255,2674,0.0003853065,-0.0001271763,-0.0001271456,9.927087e-06,-3.207227e-08,-2.324567e-07,0.0005127559793698463
PART_003_R247G182B210A255,2675,0.0003853541,-0.0001271438,-0.0001272112,8.853176e-06,3.127243e-08,-6.325796e-07,0.0005127621124715013
PART_000_R31G119B180A255,2676,0.0003853087,-0.0001271687,-0.000127072,8.262171e-06,2.240887e-08,-7.774649e-07,0.0005126306112274747
PART_000_R31G119B180A255,2677,0.000385348,-0.0001271778,-0.0001271816,7.920413e-06,6.625354e-09,-6.4113e-07,0.0005127124685231561
PART_000_R31G119B180A255,2678,0.0003853122,-0.0001271688,-0.0001270762,7.731515e-06,5.481148e-09,-3.599014e-07,0.000512610032914815
PART_000_R31G119B180A255,2679,0.0003853473,-0.0001271813,-0.0001271795,7.674101e-06,1.25089e-16,-2.139915e-14,0.0005127000280360774
PART_000_R31G119B180A255,2680,0.0003853122,-0.0001271688,-0.0001270762,7.731515e-06,-5.481148e-09,3.599014e-07,0.000512610032914815
PART_000_R31G119B180A255,2681,0.000385348,-0.0001271778,-0.0001271816,7.920413e-06,-6.625353e-09,6.4113e-07,0.000512712468523156
PART_000_R31G119B180A255,2682,0.0003853087,-0.0001271687,-0.000127072,8.262171e-06,-2.240887e-08,7.774649e-07,0.0005126306112274747
PART_000_R31G119B180A255,2683,0.0003853541,-0.0001271438,-0.0001272112,8.853176e-06,-3.127243e-08,6.325795e-07,0.0005127621124711312
PART_002_R214G39B40A255,2684,0.0003853065,-0.0001271763,-0.0001271456,9.927087e-06,3.207227e-08,2.324567e-07,0.0005127559793698463
PART_003_R247G182B210A255,2685,0.0002889726,-9.54064e-05,-9.527383e-05,1.453067e-05,3.843157e-09,-1.263695e-07,0.00038513600864601425
PART_003_R247G182B210A255,2686,0.0002890099,-9.536361e-05,-9.542479e-05,1.332658e-05,-3.317551e-08,-3.182432e-07,0.00038509689072438626
PART_003_R247G182B210A255,2687,0.0002889761,-9.534545e-05,-9.533355e-05,1.249946e-05,1.354761e-08,-4.084064e-07,0.0003849255654648288
PART_000_R31G119B180A255,2688,0.0002890056,-9.536754e-05,-9.539116e-05,1.19894e-05,3.730579e-09,-3.6285e-07,0.0003849459992831851
PART_000_R31G119B180A255,2689,0.0002889784,-9.536703e-05,-9.531555e-05,1.170728e-05,2.857744e-09,-2.084063e-07,0.0003848544369607707
PART_000_R31G119B180A255,2690,0.000289005,-9.536832e-05,-9.538829e-05,1.161677e-05,-3.343188e-16,-1.499318e-14,0.0003849095653494758
PART_000_R31G119B180A255,2691,0.0002889784,-9.536703e-05,-9.531555e-05,1.170728e-05,-2.857744e-09,2.084063e-07,0.0003848544369607707
PART_000_R31G119B180A255,2692,0.0002890056,-9.536754e-05,-9.539116e-05,1.19894e-05,-3.730579e-09,3.6285e-07,0.0003849459992831851
PART_000_R31G119B180A255,2693,0.0002889761,-9.534545e-05,-9.533355e-05,1.249946e-05,-1.354761e-08,4.084064e-07,0.0003849255654648288
PART_002_R214G39B40A255,2694,0.0002890099,-9.536361e-05,-9.542479e-05,1.332658e-05,3.317551e-08,3.182432e-07,0.00038509689072438626
PART_002_R214G39B40A255,2695,0.0002889726,-9.54064e-05,-9.527383e-05,1.453067e-05,-3.843157e-09,1.263695e-07,0.00038513600864601425
PART_003_R247G182B210A255,2696,0.0001926545,-6.35924e-05,-6.35614e-05,1.771696e-05,-1.331454e-08,-5.908655e-08,0.0002580624228498347
PART_003_R247G182B210A255,2697,0.000192679,-6.358979e-05,-6.359606e-05,1.644521e-05,1.386618e-09,-1.612536e-07,0.00025785017429209015
PART_003_R247G182B210A255,2698,0.0001926556,-6.358151e-05,-6.355264e-05,1.552685e-05,-2.541051e-08,-2.085471e-07,0.0002576304357695177
PART_003_R247G182B210A255,2699,0.0001926758,-6.357178e-05,-6.36104e-05,1.49125e-05,3.966697e-09,-1.873323e-07,0.00025756547386058236
PART_000_R31G119B180A255,2700,0.0001926577,-6.358519e-05,-6.354131e-05,1.45657e-05,-3.983025e-09,-1.114652e-07,0.000257460080077532
PART_000_R31G119B180A255,2701,0.0001926756,-6.358054e-05,-6.360214e-05,1.445386e-05,3.409668e-16,-9.46014e-15,0.0002574868678080154
PART_000_R31G119B180A255,2702,0.0001926577,-6.358519e-05,-6.354131e-05,1.45657e-05,3.983025e-09,1.114652e-07,0.000257460080077532
PART_000_R31G119B180A255,2703,0.0001926758,-6.357178e-05,-6.36104e-05,1.49125e-05,-3.966697e-09,1.873322e-07,0.0002575654738603641
PART_002_R214G39B40A255,2704,0.0001926556,-6.358151e-05,-6.355264e-05,1.552685e-05,2.541051e-08,2.085471e-07,0.0002576304357695177
PART_002_R214G39B40A255,2705,0.000192679,-6.358979e-05,-6.359606e-05,1.644521e-05,-1.386618e-09,1.612536e-07,0.00025785017429209015
PART_002_R214G39B40A255,2706,0.0001926545,-6.35924e-05,-6.35614e-05,1.771696e-05,1.331454e-08,5.908655e-08,0.0002580624228498347
PART_003_R247G182B210A255,2707,9.632383e-05,-3.180003e-05,-3.176088e-05,1.963723e-05,-1.541003e-09,-2.581919e-08,0.00013254272291656597
PART_003_R247G182B210A255,2708,9.633638e-05,-3.178799e-05,-3.180859e-05,1.833565e-05,-2.542749e-08,-6.644005e-08,0.00013201173182546646
PART_003_R247G182B210A255,2709,9.632492e-05,-3.178451e-05,-3.177534e-05,1.736606e-05,-1.787309e-09,-8.805325e-08,0.000131588809421696
PART_003_R247G182B210A255,2710,9.633495e-05,-3.178694e-05,-3.180156e-05,1.670824e-05,-2.034134e-08,-7.960556e-08,0.00013135679714840412
PART_003_R247G182B210A255,2711,9.632572e-05,-3.178218e-05,-3.177787e-05,1.632539e-05,1.652073e-10,-4.729737e-08,0.00013118934294788928
PART_000_R31G119B180A255,2712,9.633479e-05,-3.178826e-05,-3.179788e-05,1.620192e-05,-2.064742e-16,-4.575252e-15,0.00013116499232892557
PART_000_R31G119B180A255,2713,9.632572e-05,-3.178218e-05,-3.177787e-05,1.632539e-05,-1.652068e-10,4.729736e-08,0.0001311893429478785
PART_002_R214G39B40A255,2714,9.633495e-05,-3.178694e-05,-3.180156e-05,1.670824e-05,2.034134e-08,7.960556e-08,0.00013135679714840412
PART_002_R214G39B40A255,2715,9.632492e-05,-3.178451e-05,-3.177534e-05,1.736606e-05,1.787309e-09,8.805324e-08,0.00013158880942167593
PART_002_R214G39B40A255,2716,9.633638e-05,-3.178799e-05,-3.180859e-05,1.833565e-05,2.542749e-08,6.644005e-08,0.00013201173182546646
PART_002_R214G39B40A255,2717,9.632383e-05,-3.180003e-05,-3.176088e-05,1.963723e-05,1.541003e-09,2.581919e-08,0.00013254272291656597
PART_003_R247G182B210A255,2718,1.054111e-13,-3.483758e-14,-3.481292e-14,2.024272e-05,-1.022725e-08,-1.984259e-17,3.5061423998250947e-05
PART_003_R247G182B210A255,2719,1.054302e-13,-3.464763e-14,-3.503802e-14,1.893482e-05,-4.165737e-09,-7.168694e-17,3.279607106586541e-05
PART_003_R247G182B210A255,2720,1.053762e-13,-3.476993e-14,-3.470472e-14,1.795519e-05,-2.773036e-08,-1.001896e-16,3.109933842908715e-05
PART_003_R247G182B210A255,2721,1.053938e-13,-3.484019e-14,-3.478904e-14,1.728001e-05,-1.816413e-09,-9.089976e-17,2.992985544065271e-05
PART_003_R247G182B210A255,2722,1.053586e-13,-3.476646e-14,-3.472953e-14,1.688798e-05,-1.174907e-08,-5.530871e-17,2.9250846476010528e-05
PART_003_R247G182B210A255,2723,1.053667e-13,-3.486274e-14,-3.474179e-14,1.675926e-05,2.477654e-16,5.421011e-19,2.902788981725678e-05
PART_002_R214G39B40A255,2724,1.053197e-13,-3.475952e-14,-3.472137e-14,1.688798e-05,1.174907e-08,4.94159e-17,2.9250846476010528e-05
PART_002_R214G39B40A255,2725,1.05331e-13,-3.483672e-14,-3.475665e-14,1.728001e-05,1.816413e-09,8.553762e-17,2.992985544065271e-05
PART_002_R214G39B40A255,2726,1.05283e-13,-3.474044e-14,-3.467136e-14,1.795519e-05,2.773036e-08,9.773574e-17,3.109933842908715e-05
PART_002_R214G39B40A255,2727,1.052975e-13,-3.461467e-14,-3.498733e-14,1.893482e-05,4.165737e-09,6.952446e-17,3.279607106586541e-05
PART_002_R214G39B40A255,2728,1.052453e-13,-3.477253e-14,-3.476157e-14,2.024272e-05,1.022725e-08,2.093696e-17,3.5061423998250947e-05
PART_003_R247G182B210A255,2729,-9.632383e-05,3.180003e-05,3.176088e-05,1.963723e-05,-1.541003e-09,2.581919e-08,0.00013254272291656597
PART_003_R247G182B210A255,2730,-9.633638e-05,3.178799e-05,3.180859e-05,1.833565e-05,-2.542749e-08,6.644005e-08,0.00013201173182546646
PART_003_R247G182B210A255,2731,-9.632492e-05,3.178451e-05,3.177534e-05,1.736606e-05,-1.787309e-09,8.805325e-08,0.000131588809421696
PART_003_R247G182B210A255,2732,-9.633495e-05,3.178694e-05,3.180156e-05,1.670824e-05,-2.034134e-08,7.960556e-08,0.00013135679714840412
PART_003_R247G182B210A255,2733,-9.632572e-05,3.178218e-05,3.177787e-05,1.632539e-05,1.652073e-10,4.729737e-08,0.00013118934294788928
PART_001_R158G218B229A255,2734,-9.633479e-05,3.178826e-05,3.179788e-05,1.620192e-05,-2.051332e-16,4.570537e-15,0.00013116499232892557
PART_001_R158G218B229A255,2735,-9.632572e-05,3.178218e-05,3.177787e-05,1.632539e-05,-1.652068e-10,-4.729736e-08,0.0001311893429478785
PART_002_R214G39B40A255,2736,-9.633495e-05,3.178694e-05,3.180156e-05,1.670824e-05,2.034134e-08,-7.960555e-08,0.00013135679714838594
PART_002_R214G39B40A255,2737,-9.632492e-05,3.178451e-05,3.177534e-05,1.736606e-05,1.787309e-09,-8.805324e-08,0.00013158880942167593
PART_002_R214G39B40A255,2738,-9.633638e-05,3.178799e-05,3.180859e-05,1.833565e-05,2.542749e-08,-6.644005e-08,0.00013201173182546646
PART_002_R214G39B40A255,2739,-9.632383e-05,3.180003e-05,3.176088e-05,1.963723e-05,1.541003e-09,-2.581919e-08,0.00013254272291656597
PART_003_R247G182B210A255,2740,-0.0001926545,6.35924e-05,6.35614e-05,1.771696e-05,-1.331454e-08,5.908655e-08,0.0002580624228498347
PART_003_R247G182B210A255,2741,-0.000192679,6.358979e-05,6.359606e-05,1.644521e-05,1.386618e-09,1.612536e-07,0.00025785017429209015
PART_003_R247G182B210A255,2742,-0.0001926556,6.358151e-05,6.355264e-05,1.552685e-05,-2.541051e-08,2.085471e-07,0.0002576304357695177
PART_003_R247G182B210A255,2743,-0.0001926758,6.357178e-05,6.36104e-05,1.49125e-05,3.966697e-09,1.873323e-07,0.00025756547386058236
PART_001_R158G218B229A255,2744,-0.0001926577,6.358519e-05,6.354131e-05,1.45657e-05,-3.983025e-09,1.114652e-07,0.000257460080077532
PART_001_R158G218B229A255,2745,-0.0001926756,6.358054e-05,6.360214e-05,1.445386e-05,3.394061e-16,9.453585e-15,0.0002574868678080154
PART_001_R158G218B229A255,2746,-0.0001926577,6.358519e-05,6.354131e-05,1.45657e-05,3.983025e-09,-1.114652e-07,0.000257460080077532
PART_001_R158G218B229A255,2747,-0.0001926758,6.357178e-05,6.36104e-05,1.49125e-05,-3.966697e-09,-1.873322e-07,0.0002575654738603641
PART_002_R214G39B40A255,2748,-0.0001926556,6.358151e-05,6.355264e-05,1.552685e-05,2.541051e-08,-2.085471e-07,0.0002576304357695177
PART_002_R214G39B40A255,2749,-0.000192679,6.358979e-05,6.359606e-05,1.644521e-05,-1.386618e-09,-1.612536e-07,0.00025785017429209015
PART_002_R214G39B40A255,2750,-0.0001926545,6.35924e-05,6.35614e-05,1.771696e-05,1.331454e-08,-5.908655e-08,0.0002580624228498347
PART_003_R247G182B210A255,2751,-0.0002889726,9.54064e-05,9.527383e-05,1.453067e-05,3.843157e-09,1.263695e-07,0.00038513600864601425
PART_003_R247G182B210A255,2752,-0.0002890099,9.536361e-05,9.542479e-05,1.332658e-05,-3.317551e-08,3.182432e-07,0.00038509689072438626
PART_003_R247G182B210A255,2753,-0.0002889761,9.534545e-05,9.533355e-05,1.249946e-05,1.354761e-08,4.084064e-07,0.0003849255654648288
PART_001_R158G218B229A255,2754,-0.0002890056,9.536754e-05,9.539116e-05,1.19894e-05,3.730579e-09,3.6285e-07,0.0003849459992831851
PART_001_R158G218B229A255,2755,-0.0002889784,9.536703e-05,9.531555e-05,1.170728e-05,2.857744e-09,2.084063e-07,0.0003848544369607707
PART_001_R158G218B229A255,2756,-0.000289005,9.536832e-05,9.538829e-05,1.161677e-05,-3.279127e-16,1.498881e-14,0.0003849095653494758
PART_001_R158G218B229A255,2757,-0.0002889784,9.536703e-05,9.531555e-05,1.170728e-05,-2.857744e-09,-2.084063e-07,0.0003848544369607707
PART_001_R158G218B229A255,2758,-0.0002890056,9.536754e-05,9.539116e-05,1.19894e-05,-3.730579e-09,-3.6285e-07,0.0003849459992831851
PART_001_R158G218B229A255,2759,-0.0002889761,9.534545e-05,9.533355e-05,1.249946e-05,-1.354761e-08,-4.084064e-07,0.0003849255654648288
PART_002_R214G39B40A255,2760,-0.0002890099,9.536361e-05,9.542479e-05,1.332658e-05,3.317551e-08,-3.182432e-07,0.00038509689072438626
PART_002_R214G39B40A255,2761,-0.0002889726,9.54064e-05,9.527383e-05,1.453067e-05,-3.843158e-09,-1.263695e-07,0.0003851360086460143
PART_003_R247G182B210A255,2762,-0.0003853065,0.0001271763,0.0001271456,9.927087e-06,-3.207227e-08,2.324567e-07,0.0005127559793698463
PART_003_R247G182B210A255,2763,-0.0003853541,0.0001271438,0.0001272112,8.853176e-06,3.127243e-08,6.325796e-07,0.0005127621124715013
PART_001_R158G218B229A255,2764,-0.0003853087,0.0001271687,0.000127072,8.262171e-06,2.240887e-08,7.774649e-07,0.0005126306112274747
PART_001_R158G218B229A255,2765,-0.000385348,0.0001271778,0.0001271816,7.920413e-06,6.625354e-09,6.4113e-07,0.0005127124685231561
PART_001_R158G218B229A255,2766,-0.0003853122,0.0001271688,0.0001270762,7.731515e-06,5.481148e-09,3.599014e-07,0.000512610032914815
PART_001_R158G218B229A255,2767,-0.0003853473,0.0001271813,0.0001271795,7.674101e-06,1.050795e-16,2.139207e-14,0.0005127000280360774
PART_001_R158G218B229A255,2768,-0.0003853122,0.0001271688,0.0001270762,7.731515e-06,-5.481148e-09,-3.599014e-07,0.000512610032914815
PART_001_R158G218B229A255,2769,-0.000385348,0.0001271778,0.0001271816,7.920413e-06,-6.625353e-09,-6.4113e-07,0.000512712468523156
PART_001_R158G218B229A255,2770,-0.0003853087,0.0001271687,0.000127072,8.262171e-06,-2.240887e-08,-7.774649e-07,0.0005126306112274747
PART_001_R158G218B229A255,2771,-0.0003853541,0.0001271438,0.0001272112,8.853176e-06,-3.127243e-08,-6.325795e-07,0.0005127621124711312
PART_002_R214G39B40A255,2772,-0.0003853065,0.0001271763,0.0001271456,9.927087e-06,3.207227e-08,-2.324567e-07,0.0005127559793698463
PART_003_R247G182B210A255,2773,-0.0004816251,0.000159037,0.0001587308,3.652587e-06,5.073706e-08,6.237461e-07,0.0006405412152824728
PART_001_R158G218B229A255,2774,-0.0004816848,0.0001589485,0.0001589484,3.134686e-06,2.912075e-08,1.347768e-06,0.0006406605120922667
PART_001_R158G218B229A255,2775,-0.000481632,0.0001589927,0.0001588156,2.941061e-06,6.710403e-09,1.37543e-06,0.0006405608542969906
PART_001_R158G218B229A255,2776,-0.0004816771,0.0001589508,0.0001589695,2.809295e-06,6.694674e-09,1.070777e-06,0.0006406584133449184
PART_001_R158G218B229A255,2777,-0.0004816357,0.0001589775,0.0001588374,2.748999e-06,1.221502e-09,5.794461e-07,0.0006405616441820885
PART_001_R158G218B229A255,2778,-0.0004816758,0.0001589516,0.000158974,2.72465e-06,-5.631075e-17,2.891059e-14,0.0006406559820521053
PART_001_R158G218B229A255,2779,-0.0004816357,0.0001589775,0.0001588374,2.748999e-06,-1.221501e-09,-5.794461e-07,0.0006405616441820885
PART_001_R158G218B229A255,2780,-0.0004816771,0.0001589508,0.0001589695,2.809295e-06,-6.694675e-09,-1.070777e-06,0.0006406584133449184
PART_001_R158G218B229A255,2781,-0.000481632,0.0001589927,0.0001588156,2.941061e-06,-6.710403e-09,-1.37543e-06,0.0006405608542969906
PART_001_R158G218B229A255,2782,-0.0004816848,0.0001589485,0.0001589484,3.134686e-06,-2.912075e-08,-1.347768e-06,0.0006406605120922667
PART_001_R158G218B229A255,2783,-0.0004816251,0.000159037,0.0001587308,3.652587e-06,-5.073706e-08,-6.237461e-07,0.0006405412152824728
PART_003_R247G182B210A255,2784,0.0004771463,-0.0001575467,-0.0001573621,3.645132e-06,4.685499e-08,-6.232056e-07,0.000634633048857434
PART_000_R31G119B180A255,2785,0.0004770932,-0.0001574521,-0.0001573273,3.135513e-06,3.071643e-08,-1.34865e-06,0.0006345104536569703
PART_000_R31G119B180A255,2786,0.0004771338,-0.0001574969,-0.0001574326,2.936846e-06,5.444975e-09,-1.371672e-06,0.0006346233863461251
PART_000_R31G119B180A255,2787,0.0004770964,-0.0001574554,-0.0001573548,2.808853e-06,7.409184e-09,-1.071653e-06,0.0006345228723562233
PART_000_R31G119B180A255,2788,0.0004771301,-0.0001574824,-0.0001574485,2.745368e-06,8.904491e-10,-5.774242e-07,0.0006346141539050128
PART_000_R31G119B180A255,2789,0.0004770978,-0.0001574564,-0.0001573604,2.723801e-06,-5.675798e-17,-2.895084e-14,0.0006345237442571419
PART_000_R31G119B180A255,2790,0.0004771301,-0.0001574824,-0.0001574485,2.745368e-06,-8.90449e-10,5.774241e-07,0.0006346141539047398
PART_000_R31G119B180A255,2791,0.0004770964,-0.0001574554,-0.0001573548,2.808853e-06,-7.409184e-09,1.071653e-06,0.0006345228723562233
PART_000_R31G119B180A255,2792,0.0004771338,-0.0001574969,-0.0001574326,2.936846e-06,-5.444975e-09,1.371672e-06,0.0006346233863461251
PART_000_R31G119B180A255,2793,0.0004770932,-0.0001574521,-0.0001573273,3.135513e-06,-3.071643e-08,1.34865e-06,0.0006345104536569703
PART_000_R31G119B180A255,2794,0.0004771463,-0.0001575467,-0.0001573621,3.645132e-06,-4.685499e-08,6.232056e-07,0.000634633048857434
PART_003_R247G182B210A255,2795,0.0003817142,-0.0001259648,-0.0001260537,9.938425e-06,-3.079926e-08,-2.303635e-07,0.0005080153408407678
PART_003_R247G182B210A255,2796,0.0003816711,-0.0001259377,-0.0001259085,8.858478e-06,3.096795e-08,-6.34484e-07,0.0005078272353836785
PART_000_R31G119B180A255,2797,0.0003817061,-0.0001259632,-0.0001259708,8.269355e-06,2.225283e-08,-7.733282e-07,0.0005078768736597072
PART_000_R31G119B180A255,2798,0.0003816735,-0.0001259715,-0.000125884,7.926912e-06,6.750367e-09,-6.421451e-07,0.0005077881248444157
PART_000_R31G119B180A255,2799,0.0003817028,-0.0001259628,-0.0001259704,7.738575e-06,5.498992e-09,-3.578582e-07,0.000507846690101415
PART_000_R31G119B180A255,2800,0.0003816745,-0.0001259749,-0.0001258826,7.680905e-06,1.222209e-16,-2.142302e-14,0.0005077775642000019
PART_000_R31G119B180A255,2801,0.0003817028,-0.0001259628,-0.0001259704,7.738575e-06,-5.498992e-09,3.578582e-07,0.000507846690101415
PART_000_R31G119B180A255,2802,0.0003816735,-0.0001259715,-0.000125884,7.926912e-06,-6.750366e-09,6.42145e-07,0.0005077881248440364
PART_000_R31G119B180A255,2803,0.0003817061,-0.0001259632,-0.0001259708,8.269355e-06,-2.225283e-08,7.733282e-07,0.0005078768736597072
PART_000_R31G119B180A255,2804,0.0003816711,-0.0001259377,-0.0001259085,8.858478e-06,-3.096795e-08,6.34484e-07,0.0005078272353836785
PART_002_R214G39B40A255,2805,0.0003817142,-0.0001259648,-0.0001260537,9.938425e-06,3.079926e-08,2.303635e-07,0.0005080153408407678
PART_003_R247G182B210A255,2806,0.0002862913,-9.451708e-05,-9.445744e-05,1.4516e-05,3.417701e-09,-1.260602e-07,0.00038160778935961837
PART_003_R247G182B210A255,2807,0.0002862573,-9.447194e-05,-9.444652e-05,1.331516e-05,-3.305206e-08,-3.189091e-07,0.00038141482082335
PART_003_R247G182B210A255,2808,0.0002862833,-9.445342e-05,-9.450817e-05,1.248961e-05,1.386822e-08,-4.053774e-07,0.00038137876570764804
PART_000_R31G119B180A255,2809,0.0002862589,-9.447606e-05,-9.441692e-05,1.1978e-05,3.875321e-09,-3.634492e-07,0.0003812707835400243
PART_000_R31G119B180A255,2810,0.0002862813,-9.447566e-05,-9.448664e-05,1.169671e-05,3.094316e-09,-2.068065e-07,0.0003813012074861615
PART_000_R31G119B180A255,2811,0.0002862598,-9.447705e-05,-9.441459e-05,1.160495e-05,-3.328077e-16,-1.501833e-14,0.0003812358805503892
PART_000_R31G119B180A255,2812,0.0002862813,-9.447566e-05,-9.448664e-05,1.169671e-05,-3.094315e-09,2.068065e-07,0.00038130120748616146
PART_000_R31G119B180A255,2813,0.0002862589,-9.447606e-05,-9.441692e-05,1.1978e-05,-3.875322e-09,3.634492e-07,0.0003812707835400243
PART_000_R31G119B180A255,2814,0.0002862833,-9.445342e-05,-9.450817e-05,1.248961e-05,-1.386822e-08,4.053774e-07,0.00038137876570764804
PART_002_R214G39B40A255,2815,0.0002862573,-9.447194e-05,-9.444652e-05,1.331516e-05,3.305206e-08,3.189091e-07,0.00038141482082335
PART_002_R214G39B40A255,2816,0.0002862913,-9.451708e-05,-9.445744e-05,1.4516e-05,-3.417701e-09,1.260602e-07,0.00038160778935961837
PART_003_R247G182B210A255,2817,0.000190857,-6.298396e-05,-6.301701e-05,1.773518e-05,-1.292263e-08,-5.79862e-08,0.0002557092957380129
PART_003_R247G182B210A255,2818,0.0001908346,-6.298355e-05,-6.294343e-05,1.645943e-05,1.786562e-09,-1.618914e-07,0.0002553943790271924
PART_003_R247G182B210A255,2819,0.0001908526,-6.297607e-05,-6.300302e-05,1.554143e-05,-2.484292e-08,-2.064384e-07,0.00025526569092655915
PART_003_R247G182B210A255,2820,0.0001908359,-6.296603e-05,-6.296006e-05,1.492685e-05,4.282492e-09,-1.875494e-07,0.00025511260776755573
PART_000_R31G119B180A255,2821,0.0001908508,-6.297921e-05,-6.29892e-05,1.458101e-05,-3.672365e-09,-1.103874e-07,0.00025508834546614126
PART_000_R31G119B180A255,2822,0.0001908364,-6.297457e-05,-6.295223e-05,1.446844e-05,3.285247e-16,-9.473463e-15,0.0002550340097368339
PART_000_R31G119B180A255,2823,0.0001908508,-6.297921e-05,-6.29892e-05,1.458101e-05,3.672364e-09,1.103874e-07,0.0002550883454661412
PART_000_R31G119B180A255,2824,0.0001908359,-6.296603e-05,-6.296006e-05,1.492685e-05,-4.282492e-09,1.875494e-07,0.00025511260776755573
PART_002_R214G39B40A255,2825,0.0001908526,-6.297607e-05,-6.300302e-05,1.554143e-05,2.484292e-08,2.064383e-07,0.0002552656909263165
PART_002_R214G39B40A255,2826,0.0001908346,-6.298355e-05,-6.294343e-05,1.645943e-05,-1.786562e-09,1.618914e-07,0.0002553943790271924
PART_002_R214G39B40A255,2827,0.000190857,-6.298396e-05,-6.301701e-05,1.773518e-05,1.292263e-08,5.798619e-08,0.00025570929573800615
PART_003_R247G182B210A255,2828,9.543098e-05,-3.150452e-05,-3.148919e-05,1.961694e-05,-1.461886e-09,-2.569113e-08,0.00013139691954322416
PART_003_R247G182B210A255,2829,9.541945e-05,-3.149182e-05,-3.148203e-05,1.831791e-05,-2.526759e-08,-6.665408e-08,0.00013081238783647537
PART_003_R247G182B210A255,2830,9.542824e-05,-3.148814e-05,-3.150064e-05,1.735067e-05,-1.150751e-09,-8.692829e-08,0.00013043202844856242
PART_003_R247G182B210A255,2831,9.541996e-05,-3.149081e-05,-3.147625e-05,1.669109e-05,-1.966034e-08,-7.97675e-08,0.00013015488326408918
PART_003_R247G182B210A255,2832,9.542757e-05,-3.148619e-05,-3.150186e-05,1.630866e-05,5.270188e-10,-4.671492e-08,0.0001300269786704936
PART_000_R31G119B180A255,2833,9.542027e-05,-3.149222e-05,-3.147275e-05,1.618415e-05,-2.06092e-16,-4.587357e-15,0.0001299618776586742
PART_000_R31G119B180A255,2834,9.542757e-05,-3.148619e-05,-3.150186e-05,1.630866e-05,-5.270183e-10,4.671491e-08,0.0001300269786704828
PART_002_R214G39B40A255,2835,9.541996e-05,-3.149081e-05,-3.147625e-05,1.669109e-05,1.966034e-08,7.97675e-08,0.00013015488326408918
PART_002_R214G39B40A255,2836,9.542824e-05,-3.148814e-05,-3.150064e-05,1.735067e-05,1.150751e-09,8.692829e-08,0.00013043202844856242
PART_002_R214G39B40A255,2837,9.541945e-05,-3.149182e-05,-3.148203e-05,1.831791e-05,2.526759e-08,6.665408e-08,0.00013081238783647537
PART_002_R214G39B40A255,2838,9.543098e-05,-3.150452e-05,-3.148919e-05,1.961694e-05,1.461886e-09,2.569113e-08,0.00013139691954322416
PART_003_R247G182B210A255,2839,1.04448e-13,-3.446982e-14,-3.456611e-14,2.026382e-05,-1.0012e-08,-1.807907e-17,3.509797007944522e-05
PART_003_R247G182B210A255,2840,1.043972e-13,-3.427467e-14,-3.463368e-14,1.895234e-05,-3.600735e-09,-7.457363e-17,3.282641639476776e-05
PART_003_R247G182B210A255,2841,1.044137e-13,-3.442212e-14,-3.444818e-14,1.797286e-05,-2.697455e-08,-1.006478e-16,3.11299417381055e-05
PART_003_R247G182B210A255,2842,1.043686e-13,-3.447589e-14,-3.43863e-14,1.729745e-05,-1.365624e-09,-8.645411e-17,2.9960062334753025e-05
PART_003_R247G182B210A255,2843,1.043723e-13,-3.440217e-14,-3.447112e-14,1.690655e-05,-1.127707e-08,-5.060027e-17,2.9283010095009417e-05
PART_003_R247G182B210A255,2844,1.04334e-13,-3.448544e-14,-3.434571e-14,1.677697e-05,2.53762e-16,-5.942995e-18,2.9058564437058828e-05
PART_002_R214G39B40A255,2845,1.043385e-13,-3.439089e-14,-3.44601e-14,1.690655e-05,1.127707e-08,4.913088e-17,2.9283010095009417e-05
PART_002_R214G39B40A255,2846,1.042988e-13,-3.445681e-14,-3.436102e-14,1.729745e-05,1.365624e-09,8.524455e-17,2.9960062334753025e-05
PART_002_R214G39B40A255,2847,1.043087e-13,-3.439003e-14,-3.441569e-14,1.797286e-05,2.697455e-08,9.295678e-17,3.11299417381055e-05
PART_002_R214G39B40A255,2848,1.042609e-13,-3.42365e-14,-3.458111e-14,1.895234e-05,3.600735e-09,6.816244e-17,3.282641639476776e-05
PART_002_R214G39B40A255,2849,1.042728e-13,-3.440043e-14,-3.452076e-14,2.026382e-05,1.0012e-08,1.141292e-17,3.509797007944522e-05
PART_003_R247G182B210A255,2850,-9.543098e-05,3.150452e-05,3.148919e-05,1.961694e-05,-1.461887e-09,2.569113e-08,0.00013139691954322419
PART_003_R247G182B210A255,2851,-9.541945e-05,3.149182e-05,3.148203e-05,1.831791e-05,-2.526759e-08,6.665408e-08,0.00013081238783647537
PART_003_R247G182B210A255,2852,-9.542824e-05,3.148814e-05,3.150064e-05,1.735067e-05,-1.150751e-09,8.692829e-08,0.00013043202844856242
PART_003_R247G182B210A255,2853,-9.541996e-05,3.149081e-05,3.147625e-05,1.669109e-05,-1.966034e-08,7.97675e-08,0.00013015488326408918
PART_003_R247G182B210A255,2854,-9.542757e-05,3.148619e-05,3.150186e-05,1.630866e-05,5.270188e-10,4.671492e-08,0.0001300269786704936
PART_001_R158G218B229A255,2855,-9.542027e-05,3.149222e-05,3.147275e-05,1.618415e-05,-2.121902e-16,4.584811e-15,0.0001299618776586742
PART_001_R158G218B229A255,2856,-9.542757e-05,3.148619e-05,3.150186e-05,1.630866e-05,-5.270183e-10,-4.671491e-08,0.0001300269786704828
PART_002_R214G39B40A255,2857,-9.541996e-05,3.149081e-05,3.147625e-05,1.669109e-05,1.966034e-08,-7.97675e-08,0.00013015488326408918
PART_002_R214G39B40A255,2858,-9.542824e-05,3.148814e-05,3.150064e-05,1.735067e-05,1.150751e-09,-8.692829e-08,0.00013043202844856242
PART_002_R214G39B40A255,2859,-9.541945e-05,3.149182e-05,3.148203e-05,1.831791e-05,2.526759e-08,-6.665408e-08,0.00013081238783647537
PART_002_R214G39B40A255,2860,-9.543098e-05,3.150452e-05,3.148919e-05,1.961694e-05,1.461887e-09,-2.569113e-08,0.00013139691954322419
PART_003_R247G182B210A255,2861,-0.000190857,6.298396e-05,6.301701e-05,1.773518e-05,-1.292263e-08,5.79862e-08,0.0002557092957380129
PART_003_R247G182B210A255,2862,-0.0001908346,6.298355e-05,6.294343e-05,1.645943e-05,1.786562e-09,1.618914e-07,0.0002553943790271924
PART_003_R247G182B210A255,2863,-0.0001908525,6.297607e-05,6.300302e-05,1.554143e-05,-2.484292e-08,2.064384e-07,0.00025526559148423156
PART_003_R247G182B210A255,2864,-0.0001908359,6.296603e-05,6.296006e-05,1.492685e-05,4.282492e-09,1.875494e-07,0.00025511260776755573
PART_001_R158G218B229A255,2865,-0.0001908508,6.297921e-05,6.29892e-05,1.458101e-05,-3.672365e-09,1.103874e-07,0.00025508834546614126
PART_001_R158G218B229A255,2866,-0.0001908364,6.297457e-05,6.295223e-05,1.446844e-05,3.153394e-16,9.470252e-15,0.0002550340097368339
PART_001_R158G218B229A255,2867,-0.0001908508,6.297921e-05,6.29892e-05,1.458101e-05,3.672364e-09,-1.103874e-07,0.0002550883454661412
PART_001_R158G218B229A255,2868,-0.0001908359,6.296603e-05,6.296006e-05,1.492685e-05,-4.282492e-09,-1.875494e-07,0.00025511260776755573
PART_002_R214G39B40A255,2869,-0.0001908525,6.297607e-05,6.300302e-05,1.554143e-05,2.484292e-08,-2.064383e-07,0.000255265591483989
PART_002_R214G39B40A255,2870,-0.0001908346,6.298355e-05,6.294343e-05,1.645943e-05,-1.786562e-09,-1.618914e-07,0.0002553943790271924
PART_002_R214G39B40A255,2871,-0.000190857,6.298396e-05,6.301701e-05,1.773518e-05,1.292263e-08,-5.798619e-08,0.00025570929573800615
PART_003_R247G182B210A255,2872,-0.0002862913,9.451708e-05,9.445744e-05,1.4516e-05,3.417702e-09,1.260602e-07,0.0003816077893596184
PART_003_R247G182B210A255,2873,-0.0002862573,9.447194e-05,9.444652e-05,1.331516e-05,-3.305206e-08,3.189091e-07,0.00038141482082335
PART_003_R247G182B210A255,2874,-0.0002862833,9.445342e-05,9.450817e-05,1.248962e-05,1.386822e-08,4.053774e-07,0.0003813787666901056
PART_001_R158G218B229A255,2875,-0.0002862589,9.447606e-05,9.441692e-05,1.1978e-05,3.875321e-09,3.634492e-07,0.0003812707835400243
PART_001_R158G218B229A255,2876,-0.0002862813,9.447566e-05,9.448664e-05,1.169671e-05,3.094316e-09,2.068065e-07,0.0003813012074861615
PART_001_R158G218B229A255,2877,-0.0002862598,9.447705e-05,9.441459e-05,1.160495e-05,-3.311357e-16,1.501657e-14,0.0003812358805503892
PART_001_R158G218B229A255,2878,-0.0002862813,9.447566e-05,9.448664e-05,1.169671e-05,-3.094315e-09,-2.068065e-07,0.00038130120748616146
PART_001_R158G218B229A255,2879,-0.0002862589,9.447606e-05,9.441692e-05,1.1978e-05,-3.875322e-09,-3.634492e-07,0.0003812707835400243
PART_001_R158G218B229A255,2880,-0.0002862833,9.445342e-05,9.450817e-05,1.248961e-05,-1.386822e-08,-4.053774e-07,0.00038137876570764804
PART_002_R214G39B40A255,2881,-0.0002862573,9.447194e-05,9.444652e-05,1.331516e-05,3.305206e-08,-3.189091e-07,0.00038141482082335
PART_002_R214G39B40A255,2882,-0.0002862913,9.451708e-05,9.445744e-05,1.4516e-05,-3.417702e-09,-1.260602e-07,0.0003816077893596184
PART_003_R247G182B210A255,2883,-0.0003817142,0.0001259648,0.0001260537,9.938425e-06,-3.079926e-08,2.303635e-07,0.0005080153408407678
PART_003_R247G182B210A255,2884,-0.0003816711,0.0001259377,0.0001259085,8.858478e-06,3.096795e-08,6.34484e-07,0.0005078272353836785
PART_001_R158G218B229A255,2885,-0.0003817061,0.0001259632,0.0001259708,8.269355e-06,2.225283e-08,7.733282e-07,0.0005078768736597072
PART_001_R158G218B229A255,2886,-0.0003816735,0.0001259715,0.000125884,7.926912e-06,6.750367e-09,6.421451e-07,0.0005077881248444157
PART_001_R158G218B229A255,2887,-0.0003817028,0.0001259628,0.0001259704,7.738575e-06,5.498992e-09,3.578582e-07,0.000507846690101415
PART_001_R158G218B229A255,2888,-0.0003816745,0.0001259749,0.0001258826,7.680905e-06,1.066753e-16,2.142046e-14,0.0005077775642000019
PART_001_R158G218B229A255,2889,-0.0003817028,0.0001259628,0.0001259704,7.738575e-06,-5.498992e-09,-3.578582e-07,0.000507846690101415
PART_001_R158G218B229A255,2890,-0.0003816735,0.0001259715,0.000125884,7.926912e-06,-6.750366e-09,-6.42145e-07,0.0005077881248440364
PART_001_R158G218B229A255,2891,-0.0003817061,0.0001259632,0.0001259708,8.269355e-06,-2.225283e-08,-7.733282e-07,0.0005078768736597072
PART_001_R158G218B229A255,2892,-0.0003816711,0.0001259377,0.0001259085,8.858478e-06,-3.096795e-08,-6.34484e-07,0.0005078272353836785
PART_002_R214G39B40A255,2893,-0.0003817142,0.0001259648,0.0001260537,9.938425e-06,3.079926e-08,-2.303635e-07,0.0005080153408407678
PART_003_R247G182B210A255,2894,-0.0004771463,0.0001575467,0.0001573621,3.645132e-06,4.685499e-08,6.232056e-07,0.000634633048857434
PART_001_R158G218B229A255,2895,-0.0004770932,0.0001574521,0.0001573273,3.135513e-06,3.071643e-08,1.34865e-06,0.0006345104536569703
PART_001_R158G218B229A255,2896,-0.0004771338,0.0001574969,0.0001574326,2.936846e-06,5.444975e-09,1.371672e-06,0.0006346233863461251
PART_001_R158G218B229A255,2897,-0.0004770964,0.0001574554,0.0001573548,2.808853e-06,7.409184e-09,1.071653e-06,0.0006345228723562233
PART_001_R158G218B229A255,2898,-0.0004771301,0.0001574824,0.0001574485,2.745368e-06,8.904491e-10,5.774242e-07,0.0006346141539050128
PART_001_R158G218B229A255,2899,-0.0004770978,0.0001574564,0.0001573604,2.723801e-06,-4.759478e-17,2.894514e-14,0.0006345237442571419
PART_001_R158G218B229A255,2900,-0.0004771301,0.0001574824,0.0001574485,2.745368e-06,-8.90449e-10,-5.774241e-07,0.0006346141539047398
PART_001_R158G218B229A255,2901,-0.0004770964,0.0001574554,0.0001573548,2.808853e-06,-7.409184e-09,-1.071653e-06,0.0006345228723562233
PART_001_R158G218B229A255,2902,-0.0004771338,0.0001574969,0.0001574326,2.936846e-06,-5.444975e-09,-1.371672e-06,0.0006346233863461251
PART_001_R158G218B229A255,2903,-0.0004770932,0.0001574521,0.0001573273,3.135513e-06,-3.071643e-08,-1.34865e-06,0.0006345104536569703
PART_001_R158G218B229A255,2904,-0.0004771463,0.0001575467,0.0001573621,3.645132e-06,-4.685499e-08,-6.232056e-07,0.000634633048857434
PART_003_R247G182B210A255,2905,0.0004725489,-0.0001560393,-0.000155758,3.650695e-06,4.907706e-08,-6.233906e-07,0.0006284803403794053
PART_000_R31G119B180A255,2906,0.000472589,-0.0001559519,-0.0001559275,3.134493e-06,2.891117e-08,-1.346852e-06,0.0006285564786459591
PART_000_R31G119B180A255,2907,0.0004725537,-0.0001559958,-0.0001558379,2.940015e-06,6.344259e-09,-1.373011e-06,0.0006284956941615255
PART_000_R31G119B180A255,2908,0.000472583,-0.0001559551,-0.0001559476,2.80899e-06,6.75251e-09,-1.069391e-06,0.0006285559095058228
PART_000_R31G119B180A255,2909,0.0004725552,-0.0001559815,-0.0001558567,2.748059e-06,1.160824e-09,-5.780032e-07,0.0006284931305859377
PART_000_R31G119B180A255,2910,0.0004725814,-0.0001559561,-0.000155951,2.724254e-06,-5.666989e-17,-2.892284e-14,0.000628552661334418
PART_000_R31G119B180A255,2911,0.0004725552,-0.0001559815,-0.0001558567,2.748059e-06,-1.160824e-09,5.780031e-07,0.0006284931305856618
PART_000_R31G119B180A255,2912,0.000472583,-0.0001559551,-0.0001559476,2.80899e-06,-6.75251e-09,1.069391e-06,0.0006285559095058228
PART_000_R31G119B180A255,2913,0.0004725537,-0.0001559958,-0.0001558379,2.940015e-06,-6.344259e-09,1.373011e-06,0.0006284956941615255
PART_000_R31G119B180A255,2914,0.000472589,-0.0001559519,-0.0001559275,3.134493e-06,-2.891117e-08,1.346852e-06,0.0006285564786459591
PART_000_R31G119B180A255,2915,0.0004725489,-0.0001560393,-0.000155758,3.650695e-06,-4.907706e-08,6.233906e-07,0.0006284803403794053
PART_003_R247G182B210A255,2916,0.0003780417,-0.0001247726,-0.0001247646,9.92971e-06,-3.130225e-08,-2.316177e-07,0.0005031045210847461
PART_003_R247G182B210A255,2917,0.000378074,-0.0001247422,-0.0001247927,8.855097e-06,3.063755e-08,-6.320294e-07,0.0005030765003246465
PART_000_R31G119B180A255,2918,0.0003780434,-0.0001247672,-0.00012469,8.264696e-06,2.206298e-08,-7.749654e-07,0.0005029775414750007
PART_000_R31G119B180A255,2919,0.0003780689,-0.0001247762,-0.0001247628,7.9229e-06,6.656757e-09,-6.398658e-07,0.0005030268403376935
PART_000_R31G119B180A255,2920,0.0003780447,-0.0001247675,-0.0001246919,7.734116e-06,5.494795e-09,-3.584696e-07,0.0005029532153438579
PART_000_R31G119B180A255,2921,0.0003780676,-0.0001247797,-0.0001247598,7.676629e-06,1.082313e-16,-2.139892e-14,0.0005030131138950961
PART_000_R31G119B180A255,2922,0.0003780447,-0.0001247675,-0.0001246919,7.734116e-06,-5.494796e-09,3.584696e-07,0.0005029532153438579
PART_000_R31G119B180A255,2923,0.0003780689,-0.0001247762,-0.0001247628,7.9229e-06,-6.656756e-09,6.398658e-07,0.0005030268403376934
PART_000_R31G119B180A255,2924,0.0003780434,-0.0001247672,-0.00012469,8.264696e-06,-2.206298e-08,7.749653e-07,0.0005029775414745385
PART_000_R31G119B180A255,2925,0.000378074,-0.0001247422,-0.0001247927,8.855097e-06,-3.063755e-08,6.320294e-07,0.0005030765003246465
PART_002_R214G39B40A255,2926,0.0003780417,-0.0001247726,-0.0001247646,9.92971e-06,3.130226e-08,2.316177e-07,0.0005031045210847479
PART_003_R247G182B210A255,2927,0.000283528,-9.360944e-05,-9.349002e-05,1.452556e-05,3.676328e-09,-1.260537e-07,0.0003779161924910046
PART_003_R247G182B210A255,2928,0.0002835533,-9.356742e-05,-9.361046e-05,1.332279e-05,-3.256375e-08,-3.17491e-07,0.0003778479407969558
PART_003_R247G182B210A255,2929,0.0002835305,-9.354983e-05,-9.354652e-05,1.24963e-05,1.359576e-08,-4.063642e-07,0.0003777000074651388
PART_000_R31G119B180A255,2930,0.0002835496,-9.357187e-05,-9.357668e-05,1.198597e-05,3.968676e-09,-3.616883e-07,0.000377695379963034
PART_000_R31G119B180A255,2931,0.0002835311,-9.357149e-05,-9.352691e-05,1.170394e-05,3.055763e-09,-2.072082e-07,0.0003776249854113477
PART_000_R31G119B180A255,2932,0.0002835486,-9.35728e-05,-9.357302e-05,1.161314e-05,-3.266591e-16,-1.499586e-14,0.0003776575543620109
PART_000_R31G119B180A255,2933,0.0002835311,-9.357149e-05,-9.352691e-05,1.170394e-05,-3.055762e-09,2.072081e-07,0.00037762498541118306
PART_000_R31G119B180A255,2934,0.0002835496,-9.357187e-05,-9.357668e-05,1.198597e-05,-3.968676e-09,3.616883e-07,0.000377695379963034
PART_000_R31G119B180A255,2935,0.0002835305,-9.354983e-05,-9.354652e-05,1.24963e-05,-1.359576e-08,4.063642e-07,0.0003777000074651388
PART_002_R214G39B40A255,2936,0.0002835533,-9.356742e-05,-9.361046e-05,1.332279e-05,3.256375e-08,3.17491e-07,0.0003778479407969558
PART_002_R214G39B40A255,2937,0.000283528,-9.360944e-05,-9.349002e-05,1.452556e-05,-3.676328e-09,1.260537e-07,0.0003779161924910046
PART_003_R247G182B210A255,2938,0.0001890215,-6.238959e-05,-6.237136e-05,1.772141e-05,-1.301949e-08,-5.858974e-08,0.0002532688476838572
PART_003_R247G182B210A255,2939,0.0001890381,-6.238785e-05,-6.238673e-05,1.644974e-05,1.57636e-09,-1.607177e-07,0.000253034752699679
PART_003_R247G182B210A255,2940,0.0001890223,-6.23801e-05,-6.236141e-05,1.553186e-05,-2.451406e-08,-2.070555e-07,0.0002528286273509322
PART_003_R247G182B210A255,2941,0.0001890354,-6.237056e-05,-6.240019e-05,1.491759e-05,4.379917e-09,-1.864112e-07,0.0002527451573012529
PART_000_R31G119B180A255,2942,0.000189023,-6.238372e-05,-6.234888e-05,1.457094e-05,-3.56366e-09,-1.106068e-07,0.00025265303220424966
PART_000_R31G119B180A255,2943,0.0001890347,-6.237915e-05,-6.239148e-05,1.445892e-05,3.22642e-16,-9.467992e-15,0.0002526642142435709
PART_000_R31G119B180A255,2944,0.000189023,-6.238372e-05,-6.234888e-05,1.457094e-05,3.563659e-09,1.106068e-07,0.0002526530322042496
PART_000_R31G119B180A255,2945,0.0001890354,-6.237056e-05,-6.240019e-05,1.491759e-05,-4.379917e-09,1.864112e-07,0.0002527451573012529
PART_002_R214G39B40A255,2946,0.0001890223,-6.23801e-05,-6.236141e-05,1.553186e-05,2.451406e-08,2.070555e-07,0.0002528286273509322
PART_002_R214G39B40A255,2947,0.0001890381,-6.238785e-05,-6.238673e-05,1.644974e-05,-1.57636e-09,1.607177e-07,0.000253034752699679
PART_002_R214G39B40A255,2948,0.0001890215,-6.238959e-05,-6.237136e-05,1.772141e-05,1.301949e-08,5.858974e-08,0.0002532688476838572
PART_003_R247G182B210A255,2949,9.450919e-05,-3.120132e-05,-3.116629e-05,1.962996e-05,-1.435663e-09,-2.568169e-08,0.00013021036013325315
PART_003_R247G182B210A255,2950,9.45177e-05,-3.118956e-05,-3.12037e-05,1.832991e-05,-2.476418e-08,-6.611777e-08,0.00012966134610438172
PART_003_R247G182B210A255,2951,9.450993e-05,-3.118623e-05,-3.117973e-05,1.736121e-05,-1.152493e-09,-8.725552e-08,0.00012923995256309068
PART_003_R247G182B210A255,2952,9.451642e-05,-3.118875e-05,-3.119646e-05,1.670304e-05,-1.932795e-08,-7.912751e-08,0.0001289951687116846
PART_003_R247G182B210A255,2953,9.451013e-05,-3.118414e-05,-3.118148e-05,1.632013e-05,5.922171e-10,-4.683877e-08,0.0001288323006216387
PART_000_R31G119B180A255,2954,9.451606e-05,-3.119011e-05,-3.119252e-05,1.619637e-05,-1.956799e-16,-4.58023e-15,0.00012879950053194074
PART_000_R31G119B180A255,2955,9.451013e-05,-3.118414e-05,-3.118148e-05,1.632013e-05,-5.922166e-10,4.683876e-08,0.00012883230062162777
PART_002_R214G39B40A255,2956,9.451642e-05,-3.118875e-05,-3.119646e-05,1.670304e-05,1.932795e-08,7.912751e-08,0.0001289951687116846
PART_002_R214G39B40A255,2957,9.450993e-05,-3.118623e-05,-3.117973e-05,1.736121e-05,1.152493e-09,8.725552e-08,0.00012923995256309068
PART_002_R214G39B40A255,2958,9.45177e-05,-3.118956e-05,-3.12037e-05,1.832991e-05,2.476418e-08,6.611777e-08,0.00012966134610438172
PART_002_R214G39B40A255,2959,9.450919e-05,-3.120132e-05,-3.116629e-05,1.962996e-05,1.435663e-09,2.568169e-08,0.00013021036013325315
PART_003_R247G182B210A255,2960,1.034352e-13,-3.417926e-14,-3.417422e-14,2.024791e-05,-9.99165e-09,-2.040841e-17,3.5070413137051995e-05
PART_003_R247G182B210A255,2961,1.034434e-13,-3.398323e-14,-3.436984e-14,1.894033e-05,-3.737337e-09,-7.117957e-17,3.280561451077793e-05
PART_003_R247G182B210A255,2962,1.034013e-13,-3.413762e-14,-3.405068e-14,1.79612e-05,-2.660351e-08,-9.354293e-17,3.1109745089926934e-05
PART_003_R247G182B210A255,2963,1.034051e-13,-3.418099e-14,-3.412362e-14,1.728611e-05,-1.132522e-09,-9.203987e-17,2.994042084948237e-05
PART_003_R247G182B210A255,2964,1.033658e-13,-3.411854e-14,-3.408019e-14,1.689424e-05,-1.107614e-08,-5.124316e-17,2.9261688324077135e-05
PART_003_R247G182B210A255,2965,1.033737e-13,-3.417579e-14,-3.40824e-14,1.676529e-05,2.568333e-16,-1.152388e-18,2.9038334083626424e-05
PART_002_R214G39B40A255,2966,1.033377e-13,-3.410293e-14,-3.406536e-14,1.689424e-05,1.107614e-08,4.693494e-17,2.9261688324077135e-05
PART_002_R214G39B40A255,2967,1.033324e-13,-3.412201e-14,-3.410223e-14,1.728611e-05,1.132523e-09,8.318033e-17,2.9940420849482482e-05
PART_002_R214G39B40A255,2968,1.032878e-13,-3.408211e-14,-3.401883e-14,1.79612e-05,2.660351e-08,9.587058e-17,3.1109745089926934e-05
PART_002_R214G39B40A255,2969,1.03298e-13,-3.393032e-14,-3.43233e-14,1.894033e-05,3.737337e-09,6.613972e-17,3.280561451077793e-05
PART_002_R214G39B40A255,2970,1.032556e-13,-3.41142e-14,-3.411569e-14,2.024791e-05,9.99165e-09,2.371353e-17,3.5070413137051995e-05
PART_003_R247G182B210A255,2971,-9.450919e-05,3.120132e-05,3.116629e-05,1.962996e-05,-1.435663e-09,2.568169e-08,0.00013021036013325315
PART_003_R247G182B210A255,2972,-9.45177e-05,3.118956e-05,3.12037e-05,1.832991e-05,-2.476418e-08,6.611777e-08,0.00012966134610438172
PART_003_R247G182B210A255,2973,-9.450993e-05,3.118623e-05,3.117973e-05,1.736121e-05,-1.152493e-09,8.725552e-08,0.00012923995256309068
PART_003_R247G182B210A255,2974,-9.451642e-05,3.118875e-05,3.119646e-05,1.670304e-05,-1.932795e-08,7.912751e-08,0.0001289951687116846
PART_003_R247G182B210A255,2975,-9.451013e-05,3.118414e-05,3.118148e-05,1.632013e-05,5.922171e-10,4.683877e-08,0.0001288323006216387
PART_001_R158G218B229A255,2976,-9.451606e-05,3.119011e-05,3.119252e-05,1.619637e-05,-2.120416e-16,4.579222e-15,0.00012879950053194074
PART_001_R158G218B229A255,2977,-9.451013e-05,3.118414e-05,3.118148e-05,1.632013e-05,-5.922166e-10,-4.683876e-08,0.00012883230062162777
PART_002_R214G39B40A255,2978,-9.451642e-05,3.118875e-05,3.119646e-05,1.670304e-05,1.932795e-08,-7.912751e-08,0.0001289951687116846
PART_002_R214G39B40A255,2979,-9.450993e-05,3.118623e-05,3.117973e-05,1.736121e-05,1.152493e-09,-8.725552e-08,0.00012923995256309068
PART_002_R214G39B40A255,2980,-9.45177e-05,3.118956e-05,3.12037e-05,1.832991e-05,2.476418e-08,-6.611777e-08,0.00012966134610438172
PART_002_R214G39B40A255,2981,-9.450919e-05,3.120132e-05,3.116629e-05,1.962996e-05,1.435663e-09,-2.568169e-08,0.00013021036013325315
PART_003_R247G182B210A255,2982,-0.0001890215,6.238959e-05,6.237136e-05,1.772141e-05,-1.301949e-08,5.858974e-08,0.0002532688476838572
PART_003_R247G182B210A255,2983,-0.0001890381,6.238785e-05,6.238673e-05,1.644974e-05,1.57636e-09,1.607177e-07,0.000253034752699679
PART_003_R247G182B210A255,2984,-0.0001890223,6.23801e-05,6.236141e-05,1.553186e-05,-2.451406e-08,2.070555e-07,0.0002528286273509322
PART_003_R247G182B210A255,2985,-0.0001890354,6.237056e-05,6.240019e-05,1.491759e-05,4.379917e-09,1.864112e-07,0.0002527451573012529
PART_001_R158G218B229A255,2986,-0.000189023,6.238372e-05,6.234888e-05,1.457094e-05,-3.56366e-09,1.106068e-07,0.00025265303220424966
PART_001_R158G218B229A255,2987,-0.0001890347,6.237915e-05,6.239148e-05,1.445892e-05,3.241756e-16,9.463076e-15,0.0002526642142435709
PART_001_R158G218B229A255,2988,-0.000189023,6.238372e-05,6.234888e-05,1.457094e-05,3.563659e-09,-1.106068e-07,0.0002526530322042496
PART_001_R158G218B229A255,2989,-0.0001890354,6.237056e-05,6.240019e-05,1.491759e-05,-4.379917e-09,-1.864112e-07,0.0002527451573012529
PART_002_R214G39B40A255,2990,-0.0001890223,6.23801e-05,6.236141e-05,1.553186e-05,2.451406e-08,-2.070555e-07,0.0002528286273509322
PART_002_R214G39B40A255,2991,-0.0001890381,6.238785e-05,6.238673e-05,1.644974e-05,-1.57636e-09,-1.607177e-07,0.000253034752699679
PART_002_R214G39B40A255,2992,-0.0001890215,6.238959e-05,6.237136e-05,1.772141e-05,1.301949e-08,-5.858974e-08,0.0002532688476838572
PART_003_R247G182B210A255,2993,-0.000283528,9.360944e-05,9.349002e-05,1.452556e-05,3.676329e-09,1.260537e-07,0.0003779161924910046
PART_003_R247G182B210A255,2994,-0.0002835533,9.356742e-05,9.361046e-05,1.332279e-05,-3.256375e-08,3.17491e-07,0.0003778479407969558
PART_003_R247G182B210A255,2995,-0.0002835305,9.354983e-05,9.354652e-05,1.24963e-05,1.359576e-08,4.063642e-07,0.0003777000074651388
PART_001_R158G218B229A255,2996,-0.0002835496,9.357187e-05,9.357668e-05,1.198597e-05,3.968676e-09,3.616883e-07,0.000377695379963034
PART_001_R158G218B229A255,2997,-0.0002835311,9.357149e-05,9.352691e-05,1.170394e-05,3.055763e-09,2.072082e-07,0.0003776249854113477
PART_001_R158G218B229A255,2998,-0.0002835486,9.35728e-05,9.357301e-05,1.161314e-05,-3.257587e-16,1.50023e-14,0.00037765754936910353
PART_001_R158G218B229A255,2999,-0.0002835311,9.357149e-05,9.352691e-05,1.170394e-05,-3.055762e-09,-2.072081e-07,0.00037762498541118306
PART_001_R158G218B229A255,3000,-0.0002835496,9.357187e-05,9.357668e-05,1.198597e-05,-3.968676e-09,-3.616883e-07,0.000377695379963034
PART_001_R158G218B229A255,3001,-0.0002835305,9.354983e-05,9.354652e-05,1.24963e-05,-1.359576e-08,-4.063642e-07,0.0003777000074651388
PART_002_R214G39B40A255,3002,-0.0002835533,9.356742e-05,9.361046e-05,1.332279e-05,3.256375e-08,-3.17491e-07,0.0003778479407969558
PART_002_R214G39B40A255,3003,-0.000283528,9.360944e-05,9.349002e-05,1.452556e-05,-3.676329e-09,-1.260537e-07,0.0003779161924910046
PART_003_R247G182B210A255,3004,-0.0003780417,0.0001247726,0.0001247646,9.92971e-06,-3.130225e-08,2.316177e-07,0.0005031045210847461
PART_003_R247G182B210A255,3005,-0.000378074,0.0001247422,0.0001247927,8.855097e-06,3.063755e-08,6.320294e-07,0.0005030765003246465
PART_001_R158G218B229A255,3006,-0.0003780434,0.0001247672,0.00012469,8.264696e-06,2.206298e-08,7.749654e-07,0.0005029775414750007
PART_001_R158G218B229A255,3007,-0.0003780689,0.0001247762,0.0001247628,7.9229e-06,6.656757e-09,6.398658e-07,0.0005030268403376935
PART_001_R158G218B229A255,3008,-0.0003780447,0.0001247675,0.0001246919,7.734116e-06,5.494795e-09,3.584696e-07,0.0005029532153438579
PART_001_R158G218B229A255,3009,-0.0003780676,0.0001247797,0.0001247598,7.676629e-06,1.045069e-16,2.139544e-14,0.0005030131138950961
PART_001_R158G218B229A255,3010,-0.0003780447,0.0001247675,0.0001246919,7.734116e-06,-5.494796e-09,-3.584696e-07,0.0005029532153438579
PART_001_R158G218B229A255,3011,-0.0003780689,0.0001247762,0.0001247628,7.9229e-06,-6.656756e-09,-6.398658e-07,0.0005030268403376934
PART_001_R158G218B229A255,3012,-0.0003780434,0.0001247672,0.00012469,8.264696e-06,-2.206298e-08,-7.749653e-07,0.0005029775414745385
PART_001_R158G218B229A255,3013,-0.000378074,0.0001247422,0.0001247927,8.855097e-06,-3.063755e-08,-6.320294e-07,0.0005030765003246465
PART_002_R214G39B40A255,3014,-0.0003780417,0.0001247726,0.0001247646,9.92971e-06,3.130226e-08,-2.316177e-07,0.0005031045210847479
PART_003_R247G182B210A255,3015,-0.0004725489,0.0001560393,0.000155758,3.650695e-06,4.907706e-08,6.233906e-07,0.0006284803403794053
PART_001_R158G218B229A255,3016,-0.000472589,0.0001559519,0.0001559275,3.134493e-06,2.891117e-08,1.346852e-06,0.0006285564786459591
PART_001_R158G218B229A255,3017,-0.0004725537,0.0001559958,0.0001558379,2.940015e-06,6.344259e-09,1.373011e-06,0.0006284956941615255
PART_001_R158G218B229A255,3018,-0.000472583,0.0001559551,0.0001559476,2.80899e-06,6.75251e-09,1.069391e-06,0.0006285559095058228
PART_001_R158G218B229A255,3019,-0.0004725552,0.0001559815,0.0001558567,2.748059e-06,1.160824e-09,5.780032e-07,0.0006284931305859377
PART_001_R158G218B229A255,3020,-0.0004725814,0.0001559561,0.000155951,2.724254e-06,-4.356799e-17,2.891656e-14,0.000628552661334418
PART_001_R158G218B229A255,3021,-0.0004725552,0.0001559815,0.0001558567,2.748059e-06,-1.160824e-09,-5.780031e-07,0.0006284931305856618
PART_001_R158G218B229A255,3022,-0.000472583,0.0001559551,0.0001559476,2.80899e-06,-6.75251e-09,-1.069391e-06,0.0006285559095058228
PART_001_R158G218B229A255,3023,-0.0004725537,0.0001559958,0.0001558379,2.940015e-06,-6.344259e-09,-1.373011e-06,0.0006284956941615255
PART_001_R158G218B229A255,3024,-0.000472589,0.0001559519,0.0001559275,3.134493e-06,-2.891117e-08,-1.346852e-06,0.0006285564786459591
PART_001_R158G218B229A255,3025,-0.0004725489,0.0001560393,0.000155758,3.650695e-06,-4.907706e-08,-6.233906e-07,0.0006284803403794053
PART_003_R247G182B210A255,3026,0.0004680467,-0.0001545431,-0.0001543458,3.646261e-06,4.647309e-08,-6.230935e-07,0.0006225241504531401
PART_000_R31G119B180A255,3027,0.0004680118,-0.0001544519,-0.0001543474,3.135531e-06,2.979139e-08,-1.347993e-06,0.0006224395310897363
PART_000_R31G119B180A255,3028,0.0004680389,-0.0001544962,-0.0001544165,2.937736e-06,5.481557e-09,-1.371309e-06,0.0006225205807604355
PART_000_R31G119B180A255,3029,0.0004680138,-0.0001544558,-0.0001543723,2.80922e-06,7.129124e-09,-1.070506e-06,0.0006224496340569224
PART_000_R31G119B180A255,3030,0.0004680359,-0.0001544823,-0.0001544316,2.746253e-06,9.207954e-10,-5.771157e-07,0.0006225118273059132
PART_000_R31G119B180A255,3031,0.0004680144,-0.0001544569,-0.0001543769,2.724253e-06,-3.487743e-17,-2.894659e-14,0.0006224491888362568
PART_000_R31G119B180A255,3032,0.0004680359,-0.0001544823,-0.0001544316,2.746253e-06,-9.207953e-10,5.771156e-07,0.0006225118273056351
PART_000_R31G119B180A255,3033,0.0004680138,-0.0001544558,-0.0001543723,2.80922e-06,-7.129125e-09,1.070506e-06,0.0006224496340569224
PART_000_R31G119B180A255,3034,0.0004680389,-0.0001544962,-0.0001544165,2.937736e-06,-5.481556e-09,1.371309e-06,0.0006225205807604355
PART_000_R31G119B180A255,3035,0.0004680118,-0.0001544519,-0.0001543474,3.135531e-06,-2.979139e-08,1.347993e-06,0.0006224395310897363
PART_000_R31G119B180A255,3036,0.0004680467,-0.0001545431,-0.0001543458,3.646261e-06,-4.647309e-08,6.230935e-07,0.0006225241504531401
PART_003_R247G182B210A255,3037,0.0003744366,-0.0001235676,-0.0001236369,9.935657e-06,-3.043574e-08,-2.306038e-07,0.0004983362457865126
PART_003_R247G182B210A255,3038,0.0003744081,-0.0001235407,-0.0001235243,8.857044e-06,3.026179e-08,-6.336357e-07,0.0004981780708193231
PART_000_R31G119B180A255,3039,0.0003744315,-0.000123566,-0.0001235566,8.26791e-06,2.174506e-08,-7.731115e-07,0.0004982004601042952
PART_000_R31G119B180A255,3040,0.0003744096,-0.0001235746,-0.0001234985,7.925696e-06,6.582934e-09,-6.410051e-07,0.0004981365830845021
PART_000_R31G119B180A255,3041,0.0003744288,-0.0001235661,-0.0001235557,7.737304e-06,5.395426e-09,-3.575915e-07,0.0004981703751821757
PART_000_R31G119B180A255,3042,0.00037441,-0.0001235781,-0.0001234964,7.679681e-06,1.151846e-16,-2.142447e-14,0.0004981248852341301
PART_000_R31G119B180A255,3043,0.0003744288,-0.0001235661,-0.0001235557,7.737304e-06,-5.395427e-09,3.575914e-07,0.0004981703751819604
PART_000_R31G119B180A255,3044,0.0003744096,-0.0001235746,-0.0001234985,7.925696e-06,-6.582933e-09,6.410051e-07,0.0004981365830845021
PART_000_R31G119B180A255,3045,0.0003744315,-0.000123566,-0.0001235566,8.26791e-06,-2.174506e-08,7.731115e-07,0.0004982004601042952
PART_000_R31G119B180A255,3046,0.0003744081,-0.0001235407,-0.0001235243,8.857044e-06,-3.026179e-08,6.336357e-07,0.0004981780708193231
PART_002_R214G39B40A255,3047,0.0003744366,-0.0001235676,-0.0001236369,9.935657e-06,3.043574e-08,2.306038e-07,0.0004983362457865126
PART_003_R247G182B210A255,3048,0.0002808301,-9.271399e-05,-9.264617e-05,1.451823e-05,3.324603e-09,-1.259494e-07,0.00037435577014814197
PART_003_R247G182B210A255,3049,0.0002808076,-9.267056e-05,-9.265812e-05,1.331749e-05,-3.251313e-08,-3.183302e-07,0.00037418399735529665
PART_003_R247G182B210A255,3050,0.000280825,-9.26528e-05,-9.269685e-05,1.249211e-05,1.350006e-08,-4.050756e-07,0.0003741266790441024
PART_000_R31G119B180A255,3051,0.0002808085,-9.267507e-05,-9.262773e-05,1.198094e-05,3.826987e-09,-3.625034e-07,0.00037403652445817384
PART_000_R31G119B180A255,3052,0.0002808232,-9.267474e-05,-9.267529e-05,1.16996e-05,3.049649e-09,-2.065458e-07,0.00037404770623584456
PART_000_R31G119B180A255,3053,0.0002808088,-9.267611e-05,-9.262481e-05,1.160804e-05,-3.231905e-16,-1.501766e-14,0.00037400008105806595
PART_000_R31G119B180A255,3054,0.0002808232,-9.267474e-05,-9.267529e-05,1.16996e-05,-3.049648e-09,2.065458e-07,0.00037404770623584456
PART_000_R31G119B180A255,3055,0.0002808085,-9.267507e-05,-9.262773e-05,1.198094e-05,-3.826987e-09,3.625034e-07,0.00037403652445817384
PART_000_R31G119B180A255,3056,0.000280825,-9.26528e-05,-9.269685e-05,1.249211e-05,-1.350006e-08,4.050756e-07,0.0003741266790441024
PART_002_R214G39B40A255,3057,0.0002808076,-9.267056e-05,-9.265812e-05,1.331749e-05,3.251313e-08,3.183302e-07,0.00037418399735529665
PART_002_R214G39B40A255,3058,0.0002808301,-9.271399e-05,-9.264617e-05,1.451823e-05,-3.324603e-09,1.259494e-07,0.00037435577014814197
PART_003_R247G182B210A255,3059,0.0001872184,-6.178579e-05,-6.180858e-05,1.773024e-05,-1.278622e-08,-5.807436e-08,0.00025090208608570644
PART_003_R247G182B210A255,3060,0.0001872036,-6.178538e-05,-6.175164e-05,1.64559e-05,1.593869e-09,-1.614148e-07,0.00025059844476354407
PART_003_R247G182B210A255,3061,0.0001872155,-6.177817e-05,-6.179538e-05,1.553834e-05,-2.438425e-08,-2.06181e-07,0.0002504527550712304
PART_003_R247G182B210A255,3062,0.0001872043,-6.176854e-05,-6.176701e-05,1.492398e-05,4.278896e-09,-1.86887e-07,0.00025031055611751907
PART_000_R31G119B180A255,3063,0.0001872141,-6.178156e-05,-6.178149e-05,1.457802e-05,-3.538382e-09,-1.10175e-07,0.0002502726787399252
PART_000_R31G119B180A255,3064,0.0001872045,-6.177704e-05,-6.175887e-05,1.446557e-05,3.185776e-16,-9.473551e-15,0.0002502299777057365
PART_000_R31G119B180A255,3065,0.0001872141,-6.178156e-05,-6.178149e-05,1.457802e-05,3.538382e-09,1.10175e-07,0.0002502726787399252
PART_000_R31G119B180A255,3066,0.0001872043,-6.176854e-05,-6.176701e-05,1.492398e-05,-4.278895e-09,1.86887e-07,0.000250310556117519
PART_002_R214G39B40A255,3067,0.0001872155,-6.177817e-05,-6.179538e-05,1.553834e-05,2.438425e-08,2.06181e-07,0.0002504527550712304
PART_002_R214G39B40A255,3068,0.0001872036,-6.178538e-05,-6.175164e-05,1.64559e-05,-1.593869e-09,1.614147e-07,0.0002505984447633508
PART_002_R214G39B40A255,3069,0.0001872184,-6.178579e-05,-6.180858e-05,1.773024e-05,1.278622e-08,5.807435e-08,0.0002509020860856995
PART_003_R247G182B210A255,3070,9.361032e-05,-3.090328e-05,-3.088528e-05,1.961999e-05,-1.52654e-09,-2.564173e-08,0.0001290590162152425
PART_003_R247G182B210A255,3071,9.360272e-05,-3.089112e-05,-3.088595e-05,1.832145e-05,-2.482575e-08,-6.641662e-08,0.00012847223149103088
PART_003_R247G182B210A255,3072,9.36086e-05,-3.088767e-05,-3.089681e-05,1.73544e-05,-1.138841e-09,-8.678734e-08,0.00012807813014507327
PART_003_R247G182B210A255,3073,9.360298e-05,-3.089032e-05,-3.087979e-05,1.669535e-05,-1.917514e-08,-7.940331e-08,0.0001278025629394978
PART_003_R247G182B210A255,3074,9.360796e-05,-3.088579e-05,-3.089782e-05,1.631293e-05,6.031952e-10,-4.660324e-08,0.00012766570865282528
PART_000_R31G119B180A255,3075,9.360308e-05,-3.089171e-05,-3.087612e-05,1.61886e-05,-1.96309e-16,-4.584197e-15,0.00012760573817934717
PART_000_R31G119B180A255,3076,9.360796e-05,-3.088579e-05,-3.089782e-05,1.631293e-05,-6.031948e-10,4.660323e-08,0.0001276657086528143
PART_002_R214G39B40A255,3077,9.360298e-05,-3.089032e-05,-3.087979e-05,1.669535e-05,1.917514e-08,7.94033e-08,0.00012780256293947915
PART_002_R214G39B40A255,3078,9.36086e-05,-3.088767e-05,-3.089681e-05,1.73544e-05,1.138841e-09,8.678733e-08,0.00012807813014505297
PART_002_R214G39B40A255,3079,9.360272e-05,-3.089112e-05,-3.088595e-05,1.832145e-05,2.482575e-08,6.641662e-08,0.00012847223149103088
PART_002_R214G39B40A255,3080,9.361032e-05,-3.090328e-05,-3.088528e-05,1.961999e-05,1.52654e-09,2.564173e-08,0.0001290590162152425
PART_003_R247G182B210A255,3081,1.024618e-13,-3.38167e-14,-3.390627e-14,2.025801e-05,-9.88788e-09,-2.030507e-17,3.5087906759891116e-05
PART_003_R247G182B210A255,3082,1.024223e-13,-3.365017e-14,-3.397654e-14,1.894804e-05,-3.660076e-09,-6.99141e-17,3.281896859612241e-05
PART_003_R247G182B210A255,3083,1.024244e-13,-3.378374e-14,-3.378492e-14,1.79691e-05,-2.642322e-08,-9.780351e-17,3.112342781554862e-05
PART_003_R247G182B210A255,3084,1.023886e-13,-3.384099e-14,-3.37362e-14,1.729392e-05,-1.193318e-09,-8.970545e-17,2.9953948173341416e-05
PART_003_R247G182B210A255,3085,1.023878e-13,-3.376292e-14,-3.380883e-14,1.690287e-05,-1.096111e-08,-5.003614e-17,2.9276635789456702e-05
PART_003_R247G182B210A255,3086,1.023458e-13,-3.382884e-14,-3.369884e-14,1.677341e-05,2.519957e-16,-4.838676e-19,2.9052398336183878e-05
PART_002_R214G39B40A255,3087,1.023502e-13,-3.374384e-14,-3.379574e-14,1.690287e-05,1.096111e-08,4.789124e-17,2.9276635789456702e-05
PART_002_R214G39B40A255,3088,1.023237e-13,-3.382537e-14,-3.371503e-14,1.729392e-05,1.193318e-09,8.339548e-17,2.9953948173341416e-05
PART_002_R214G39B40A255,3089,1.023262e-13,-3.376466e-14,-3.374799e-14,1.79691e-05,2.642322e-08,9.471861e-17,3.112342781554862e-05
PART_002_R214G39B40A255,3090,1.022833e-13,-3.359119e-14,-3.393413e-14,1.894804e-05,3.660076e-09,7.287024e-17,3.281896859612241e-05
PART_002_R214G39B40A255,3091,1.022871e-13,-3.37716e-14,-3.384065e-14,2.025801e-05,9.88788e-09,1.74438e-17,3.5087906759891116e-05
PART_003_R247G182B210A255,3092,-9.361032e-05,3.090328e-05,3.088528e-05,1.961999e-05,-1.52654e-09,2.564173e-08,0.0001290590162152425
PART_003_R247G182B210A255,3093,-9.360272e-05,3.089112e-05,3.088595e-05,1.832145e-05,-2.482575e-08,6.641662e-08,0.00012847223149103088
PART_003_R247G182B210A255,3094,-9.36086e-05,3.088767e-05,3.089681e-05,1.73544e-05,-1.138841e-09,8.678734e-08,0.00012807813014507327
PART_003_R247G182B210A255,3095,-9.360298e-05,3.089032e-05,3.087979e-05,1.669535e-05,-1.917514e-08,7.940331e-08,0.0001278025629394978
PART_003_R247G182B210A255,3096,-9.360796e-05,3.088579e-05,3.089782e-05,1.631293e-05,6.031952e-10,4.660324e-08,0.00012766570865282528
PART_001_R158G218B229A255,3097,-9.360308e-05,3.089171e-05,3.087612e-05,1.61886e-05,-1.863146e-16,4.58658e-15,0.00012760573817934717
PART_001_R158G218B229A255,3098,-9.360796e-05,3.088579e-05,3.089782e-05,1.631293e-05,-6.031948e-10,-4.660323e-08,0.0001276657086528143
PART_002_R214G39B40A255,3099,-9.360298e-05,3.089032e-05,3.087979e-05,1.669535e-05,1.917514e-08,-7.94033e-08,0.00012780256293947915
PART_002_R214G39B40A255,3100,-9.36086e-05,3.088767e-05,3.089681e-05,1.73544e-05,1.138841e-09,-8.678733e-08,0.00012807813014505297
PART_002_R214G39B40A255,3101,-9.360272e-05,3.089112e-05,3.088595e-05,1.832145e-05,2.482575e-08,-6.641662e-08,0.00012847223149103088
PART_002_R214G39B40A255,3102,-9.361032e-05,3.090328e-05,3.088528e-05,1.961999e-05,1.526541e-09,-2.564173e-08,0.00012905901621524253
PART_003_R247G182B210A255,3103,-0.0001872184,6.178579e-05,6.180858e-05,1.773024e-05,-1.278622e-08,5.807435e-08,0.0002509020860856995
PART_003_R247G182B210A255,3104,-0.0001872036,6.178538e-05,6.175164e-05,1.64559e-05,1.593869e-09,1.614147e-07,0.0002505984447633508
PART_003_R247G182B210A255,3105,-0.0001872155,6.177817e-05,6.179538e-05,1.553834e-05,-2.438425e-08,2.06181e-07,0.0002504527550712304
PART_003_R247G182B210A255,3106,-0.0001872043,6.176854e-05,6.176701e-05,1.492398e-05,4.278896e-09,1.86887e-07,0.00025031055611751907
PART_001_R158G218B229A255,3107,-0.0001872141,6.178156e-05,6.178149e-05,1.457802e-05,-3.538382e-09,1.10175e-07,0.0002502726787399252
PART_001_R158G218B229A255,3108,-0.0001872045,6.177704e-05,6.175887e-05,1.446557e-05,3.452896e-16,9.466508e-15,0.0002502299777057365
PART_001_R158G218B229A255,3109,-0.0001872141,6.178156e-05,6.178149e-05,1.457802e-05,3.538382e-09,-1.10175e-07,0.0002502726787399252
PART_001_R158G218B229A255,3110,-0.0001872043,6.176854e-05,6.176701e-05,1.492398e-05,-4.278895e-09,-1.86887e-07,0.000250310556117519
PART_002_R214G39B40A255,3111,-0.0001872155,6.177817e-05,6.179538e-05,1.553834e-05,2.438425e-08,-2.06181e-07,0.0002504527550712304
PART_002_R214G39B40A255,3112,-0.0001872036,6.178538e-05,6.175164e-05,1.64559e-05,-1.593869e-09,-1.614147e-07,0.0002505984447633508
PART_002_R214G39B40A255,3113,-0.0001872184,6.178579e-05,6.180858e-05,1.773024e-05,1.278622e-08,-5.807435e-08,0.0002509020860856995
PART_003_R247G182B210A255,3114,-0.0002808301,9.271399e-05,9.264617e-05,1.451823e-05,3.324603e-09,1.259494e-07,0.00037435577014814197
PART_003_R247G182B210A255,3115,-0.0002808076,9.267056e-05,9.265812e-05,1.331749e-05,-3.251313e-08,3.183302e-07,0.00037418399735529665
PART_003_R247G182B210A255,3116,-0.000280825,9.26528e-05,9.269685e-05,1.249211e-05,1.350006e-08,4.050756e-07,0.0003741266790441024
PART_001_R158G218B229A255,3117,-0.0002808085,9.267507e-05,9.262773e-05,1.198094e-05,3.826987e-09,3.625034e-07,0.00037403652445817384
PART_001_R158G218B229A255,3118,-0.0002808232,9.267474e-05,9.267529e-05,1.16996e-05,3.049649e-09,2.065458e-07,0.00037404770623584456
PART_001_R158G218B229A255,3119,-0.0002808088,9.267611e-05,9.262481e-05,1.160804e-05,-3.263457e-16,1.501329e-14,0.00037400008105806595
PART_001_R158G218B229A255,3120,-0.0002808232,9.267474e-05,9.267529e-05,1.16996e-05,-3.049648e-09,-2.065458e-07,0.00037404770623584456
PART_001_R158G218B229A255,3121,-0.0002808085,9.267507e-05,9.262773e-05,1.198094e-05,-3.826987e-09,-3.625034e-07,0.00037403652445817384
PART_001_R158G218B229A255,3122,-0.000280825,9.26528e-05,9.269685e-05,1.249211e-05,-1.350006e-08,-4.050756e-07,0.0003741266790441024
PART_002_R214G39B40A255,3123,-0.0002808076,9.267056e-05,9.265812e-05,1.331749e-05,3.251313e-08,-3.183302e-07,0.00037418399735529665
PART_002_R214G39B40A255,3124,-0.0002808301,9.271399e-05,9.264617e-05,1.451823e-05,-3.324603e-09,-1.259494e-07,0.00037435577014814197
PART_003_R247G182B210A255,3125,-0.0003744366,0.0001235676,0.0001236369,9.935657e-06,-3.043574e-08,2.306038e-07,0.0004983362457865126
PART_003_R247G182B210A255,3126,-0.0003744081,0.0001235407,0.0001235243,8.857044e-06,3.026179e-08,6.336357e-07,0.0004981780708193231
PART_001_R158G218B229A255,3127,-0.0003744315,0.000123566,0.0001235566,8.26791e-06,2.174506e-08,7.731115e-07,0.0004982004601042952
PART_001_R158G218B229A255,3128,-0.0003744096,0.0001235746,0.0001234985,7.925696e-06,6.582934e-09,6.410051e-07,0.0004981365830845021
PART_001_R158G218B229A255,3129,-0.0003744288,0.0001235661,0.0001235557,7.737304e-06,5.395426e-09,3.575915e-07,0.0004981703751821757
PART_001_R158G218B229A255,3130,-0.00037441,0.0001235781,0.0001234964,7.679681e-06,1.179595e-16,2.141121e-14,0.0004981248852341301
PART_001_R158G218B229A255,3131,-0.0003744288,0.0001235661,0.0001235557,7.737304e-06,-5.395427e-09,-3.575914e-07,0.0004981703751819604
PART_001_R158G218B229A255,3132,-0.0003744096,0.0001235746,0.0001234985,7.925696e-06,-6.582933e-09,-6.410051e-07,0.0004981365830845021
PART_001_R158G218B229A255,3133,-0.0003744315,0.000123566,0.0001235566,8.26791e-06,-2.174506e-08,-7.731115e-07,0.0004982004601042952
PART_001_R158G218B229A255,3134,-0.0003744081,0.0001235407,0.0001235243,8.857044e-06,-3.026179e-08,-6.336357e-07,0.0004981780708193231
PART_002_R214G39B40A255,3135,-0.0003744366,0.0001235676,0.0001236369,9.935657e-06,3.043574e-08,-2.306038e-07,0.0004983362457865126
PART_003_R247G182B210A255,3136,-0.0004680467,0.0001545431,0.0001543458,3.646261e-06,4.647309e-08,6.230935e-07,0.0006225241504531401
PART_001_R158G218B229A255,3137,-0.0004680118,0.0001544519,0.0001543474,3.135531e-06,2.979139e-08,1.347993e-06,0.0006224395310897363
PART_001_R158G218B229A255,3138,-0.0004680389,0.0001544962,0.0001544165,2.937736e-06,5.481557e-09,1.371309e-06,0.0006225205807604355
PART_001_R158G218B229A255,3139,-0.0004680138,0.0001544558,0.0001543723,2.80922e-06,7.129124e-09,1.070506e-06,0.0006224496340569224
PART_001_R158G218B229A255,3140,-0.0004680359,0.0001544823,0.0001544316,2.746253e-06,9.207954e-10,5.771157e-07,0.0006225118273059132
PART_001_R158G218B229A255,3141,-0.0004680144,0.0001544569,0.0001543769,2.724253e-06,-4.181802e-17,2.893841e-14,0.0006224491888362568
PART_001_R158G218B229A255,3142,-0.0004680359,0.0001544823,0.0001544316,2.746253e-06,-9.207953e-10,-5.771156e-07,0.0006225118273056351
PART_001_R158G218B229A255,3143,-0.0004680138,0.0001544558,0.0001543723,2.80922e-06,-7.129125e-09,-1.070506e-06,0.0006224496340569224
PART_001_R158G218B229A255,3144,-0.0004680389,0.0001544962,0.0001544165,2.937736e-06,-5.481556e-09,-1.371309e-06,0.0006225205807604355
PART_001_R158G218B229A255,3145,-0.0004680118,0.0001544519,0.0001543474,3.135531e-06,-2.979139e-08,-1.347993e-06,0.0006224395310897363
PART_001_R158G218B229A255,3146,-0.0004680467,0.0001545431,0.0001543458,3.646261e-06,-4.647309e-08,-6.230935e-07,0.0006225241504531401
PART_003_R247G182B210A255,3147,0.0004634681,-0.0001530397,-0.0001527772,3.649592e-06,4.769727e-08,-6.234291e-07,0.0006164099564831073
PART_000_R31G119B180A255,3148,0.0004634951,-0.0001529534,-0.0001529145,3.134489e-06,2.853211e-08,-1.347047e-06,0.0006164573756001204
PART_000_R31G119B180A255,3149,0.0004634717,-0.0001529969,-0.0001528541,2.939456e-06,6.014681e-09,-1.372569e-06,0.0006164228229161833
PART_000_R31G119B180A255,3150,0.0004634912,-0.0001529571,-0.0001529348,2.80895e-06,6.66742e-09,-1.069409e-06,0.0006164591323953184
PART_000_R31G119B180A255,3151,0.0004634726,-0.0001529832,-0.0001528715,2.747649e-06,1.07329e-09,-5.776837e-07,0.0006164191411706641
PART_000_R31G119B180A255,3152,0.00046349,-0.0001529583,-0.000152938,2.724201e-06,-4.021543e-17,-2.89233e-14,0.0006164562084185341
PART_000_R31G119B180A255,3153,0.0004634726,-0.0001529832,-0.0001528715,2.747649e-06,-1.07329e-09,5.776837e-07,0.0006164191411706641
PART_000_R31G119B180A255,3154,0.0004634912,-0.0001529571,-0.0001529348,2.80895e-06,-6.66742e-09,1.069409e-06,0.0006164591323953184
PART_000_R31G119B180A255,3155,0.0004634717,-0.0001529969,-0.0001528541,2.939456e-06,-6.014681e-09,1.372569e-06,0.0006164228229161833
PART_000_R31G119B180A255,3156,0.0004634951,-0.0001529534,-0.0001529145,3.134489e-06,-2.853211e-08,1.347047e-06,0.0006164573756001204
PART_000_R31G119B180A255,3157,0.0004634681,-0.0001530397,-0.0001527772,3.649592e-06,-4.769727e-08,6.234291e-07,0.0006164099564831073
PART_003_R247G182B210A255,3158,0.0003707753,-0.0001223711,-0.0001223774,9.930996e-06,-3.063821e-08,-2.314199e-07,0.0004934496085936598
PART_003_R247G182B210A255,3159,0.0003707972,-0.0001223421,-0.0001223808,8.855841e-06,2.990637e-08,-6.323776e-07,0.0004933983536048753
PART_000_R31G119B180A255,3160,0.0003707769,-0.000122367,-0.0001223031,8.265867e-06,2.149026e-08,-7.744692e-07,0.0004933215713508929
PART_000_R31G119B180A255,3161,0.0003707939,-0.0001223759,-0.0001223518,7.92413e-06,6.429516e-09,-6.399245e-07,0.0004933499477688772
PART_000_R31G119B180A255,3162,0.0003707777,-0.0001223674,-0.0001223042,7.735502e-06,5.333964e-09,-3.581526e-07,0.0004932958805389663
PART_000_R31G119B180A255,3163,0.0003707929,-0.0001223795,-0.0001223487,7.67801e-06,1.216331e-16,-2.140425e-14,0.0004933362776779753
PART_000_R31G119B180A255,3164,0.0003707777,-0.0001223674,-0.0001223042,7.735502e-06,-5.333965e-09,3.581526e-07,0.0004932958805389663
PART_000_R31G119B180A255,3165,0.0003707939,-0.0001223759,-0.0001223518,7.92413e-06,-6.429516e-09,6.399244e-07,0.0004933499477684881
PART_000_R31G119B180A255,3166,0.0003707769,-0.000122367,-0.0001223031,8.265867e-06,-2.149026e-08,7.744692e-07,0.0004933215713508929
PART_000_R31G119B180A255,3167,0.0003707972,-0.0001223421,-0.0001223808,8.855841e-06,-2.990637e-08,6.323776e-07,0.0004933983536048753
PART_002_R214G39B40A255,3168,0.0003707753,-0.0001223711,-0.0001223774,9.930996e-06,3.063821e-08,2.314199e-07,0.0004934496085936598
PART_003_R247G182B210A255,3169,0.00027808,-9.181053e-05,-9.170132e-05,1.452284e-05,3.466054e-09,-1.260924e-07,0.0003706904459851118
PART_003_R247G182B210A255,3170,0.0002780972,-9.176918e-05,-9.180105e-05,1.332081e-05,-3.216837e-08,-3.176487e-07,0.00037060162635261346
PART_003_R247G182B210A255,3171,0.000278082,-9.175207e-05,-9.175582e-05,1.249481e-05,1.318372e-08,-4.059986e-07,0.00037046927278982155
PART_000_R31G119B180A255,3172,0.0002780947,-9.177392e-05,-9.176821e-05,1.198448e-05,3.761062e-09,-3.616996e-07,0.0003704483229120335
PART_000_R31G119B180A255,3173,0.0002780824,-9.177366e-05,-9.173594e-05,1.170266e-05,2.950796e-09,-2.06954e-07,0.0003703924146633696
PART_000_R31G119B180A255,3174,0.0002780939,-9.177498e-05,-9.176452e-05,1.161174e-05,-3.202344e-16,-1.500048e-14,0.00037041006626557007
PART_000_R31G119B180A255,3175,0.0002780824,-9.177366e-05,-9.173594e-05,1.170266e-05,-2.950795e-09,2.06954e-07,0.0003703924146633696
PART_000_R31G119B180A255,3176,0.0002780947,-9.177392e-05,-9.176821e-05,1.198448e-05,-3.761062e-09,3.616996e-07,0.0003704483229120335
PART_000_R31G119B180A255,3177,0.000278082,-9.175207e-05,-9.175582e-05,1.249481e-05,-1.318372e-08,4.059986e-07,0.00037046927278982155
PART_002_R214G39B40A255,3178,0.0002780972,-9.176918e-05,-9.180105e-05,1.332081e-05,3.216837e-08,3.176487e-07,0.00037060162635261346
PART_002_R214G39B40A255,3179,0.00027808,-9.181053e-05,-9.170132e-05,1.452284e-05,-3.466054e-09,1.260924e-07,0.0003706904459851118
PART_003_R247G182B210A255,3180,0.0001853879,-6.11883e-05,-6.117804e-05,1.772337e-05,-1.285228e-08,-5.848554e-08,0.0002484746605382222
PART_003_R247G182B210A255,3181,0.0001853992,-6.1187e-05,-6.118076e-05,1.645161e-05,1.355319e-09,-1.608465e-07,0.0002482242119668552
PART_003_R247G182B210A255,3182,0.0001853887,-6.117962e-05,-6.116773e-05,1.553414e-05,-2.423928e-08,-2.067926e-07,0.00024802633618318604
PART_003_R247G182B210A255,3183,0.0001853974,-6.117031e-05,-6.119414e-05,1.49201e-05,4.170076e-09,-1.863842e-07,0.00024793032148660426
PART_000_R31G119B180A255,3184,0.0001853891,-6.118326e-05,-6.115498e-05,1.457372e-05,-3.545368e-09,-1.104299e-07,0.00024784707586594546
PART_000_R31G119B180A255,3185,0.0001853968,-6.11788e-05,-6.118552e-05,1.446166e-05,3.144678e-16,-9.462224e-15,0.00024784794204999404
PART_000_R31G119B180A255,3186,0.0001853891,-6.118326e-05,-6.115498e-05,1.457372e-05,3.545368e-09,1.104299e-07,0.00024784707586594546
PART_000_R31G119B180A255,3187,0.0001853974,-6.117031e-05,-6.119414e-05,1.49201e-05,-4.170075e-09,1.863842e-07,0.0002479303214866042
PART_002_R214G39B40A255,3188,0.0001853887,-6.117962e-05,-6.116773e-05,1.553414e-05,2.423928e-08,2.067926e-07,0.00024802633618318604
PART_002_R214G39B40A255,3189,0.0001853992,-6.1187e-05,-6.118076e-05,1.645161e-05,-1.355319e-09,1.608465e-07,0.0002482242119668552
PART_002_R214G39B40A255,3190,0.0001853879,-6.11883e-05,-6.117804e-05,1.772337e-05,1.285228e-08,5.848554e-08,0.0002484746605382222
PART_003_R247G182B210A255,3191,9.269325e-05,-3.060183e-05,-3.057004e-05,1.962606e-05,-1.512784e-09,-2.56907e-08,0.00012788004884457094
PART_003_R247G182B210A255,3192,9.269904e-05,-3.059028e-05,-3.06005e-05,1.832682e-05,-2.45589e-08,-6.616584e-08,0.00012731515418233706
PART_003_R247G182B210A255,3193,9.269387e-05,-3.058706e-05,-3.058291e-05,1.735881e-05,-1.301578e-09,-8.711134e-08,0.0001268924100453419
PART_003_R247G182B210A255,3194,9.269819e-05,-3.058961e-05,-3.059348e-05,1.670068e-05,-1.906893e-08,-7.911814e-08,0.00012663773835197234
PART_003_R247G182B210A255,3195,9.269398e-05,-3.058513e-05,-3.05844e-05,1.631797e-05,5.413928e-10,-4.674225e-08,0.000126477207272024
PART_000_R31G119B180A255,3196,9.269791e-05,-3.0591e-05,-3.058957e-05,1.619413e-05,-2.004495e-16,-4.580134e-15,0.0001264386355797246
PART_000_R31G119B180A255,3197,9.269398e-05,-3.058513e-05,-3.05844e-05,1.631797e-05,-5.413923e-10,4.674224e-08,0.00012647720727201292
PART_002_R214G39B40A255,3198,9.269819e-05,-3.058961e-05,-3.059348e-05,1.670068e-05,1.906893e-08,7.911813e-08,0.0001266377383519536
PART_002_R214G39B40A255,3199,9.269387e-05,-3.058706e-05,-3.058291e-05,1.735881e-05,1.301578e-09,8.711133e-08,0.0001268924100453213
PART_002_R214G39B40A255,3200,9.269904e-05,-3.059028e-05,-3.06005e-05,1.832682e-05,2.45589e-08,6.616584e-08,0.00012731515418233706
PART_002_R214G39B40A255,3201,9.269325e-05,-3.060183e-05,-3.057004e-05,1.962606e-05,1.512784e-09,2.56907e-08,0.00012788004884457094
PART_003_R247G182B210A255,3202,1.014485e-13,-3.350098e-14,-3.352555e-14,2.025014e-05,-9.913682e-09,-1.522118e-17,3.5074275543510124e-05
PART_003_R247G182B210A255,3203,1.014496e-13,-3.332057e-14,-3.369647e-14,1.894261e-05,-3.862637e-09,-7.345046e-17,3.2809563630078865e-05
PART_003_R247G182B210A255,3204,1.014136e-13,-3.345414e-14,-3.340975e-14,1.796391e-05,-2.628424e-08,-9.317024e-17,3.111443812843351e-05
PART_003_R247G182B210A255,3205,1.014162e-13,-3.353741e-14,-3.345383e-14,1.728909e-05,-1.233595e-09,-8.932852e-17,2.9945582372857097e-05
PART_003_R247G182B210A255,3206,1.013817e-13,-3.34472e-14,-3.343618e-14,1.689753e-05,-1.090365e-08,-5.599968e-17,2.926738657569975e-05
PART_003_R247G182B210A255,3207,1.013826e-13,-3.354435e-14,-3.342111e-14,1.676853e-05,2.462321e-16,-2.242731e-18,2.9043945928242944e-05
PART_002_R214G39B40A255,3208,1.013459e-13,-3.344026e-14,-3.3414e-14,1.689753e-05,1.090365e-08,4.837236e-17,2.926738657569975e-05
PART_002_R214G39B40A255,3209,1.013379e-13,-3.346802e-14,-3.344037e-14,1.728909e-05,1.233595e-09,8.424336e-17,2.9945582372857097e-05
PART_002_R214G39B40A255,3210,1.013082e-13,-3.342639e-14,-3.33689e-14,1.796391e-05,2.628424e-08,9.352684e-17,3.111443812843351e-05
PART_002_R214G39B40A255,3211,1.013103e-13,-3.327547e-14,-3.364979e-14,1.894261e-05,3.862638e-09,6.402044e-17,3.280956363007922e-05
PART_002_R214G39B40A255,3212,1.01276e-13,-3.345935e-14,-3.346865e-14,2.025014e-05,9.913682e-09,2.170607e-17,3.5074275543510124e-05
PART_003_R247G182B210A255,3213,-9.269325e-05,3.060183e-05,3.057004e-05,1.962606e-05,-1.512784e-09,2.56907e-08,0.00012788004884457094
PART_003_R247G182B210A255,3214,-9.269904e-05,3.059028e-05,3.06005e-05,1.832682e-05,-2.45589e-08,6.616584e-08,0.00012731515418233706
PART_003_R247G182B210A255,3215,-9.269387e-05,3.058706e-05,3.058291e-05,1.735881e-05,-1.301578e-09,8.711134e-08,0.0001268924100453419
PART_003_R247G182B210A255,3216,-9.269819e-05,3.058961e-05,3.059348e-05,1.670068e-05,-1.906893e-08,7.911814e-08,0.00012663773835197234
PART_003_R247G182B210A255,3217,-9.269398e-05,3.058513e-05,3.05844e-05,1.631797e-05,5.413928e-10,4.674225e-08,0.000126477207272024
PART_001_R158G218B229A255,3218,-9.269791e-05,3.0591e-05,3.058957e-05,1.619413e-05,-1.967103e-16,4.573884e-15,0.0001264386355797246
PART_001_R158G218B229A255,3219,-9.269398e-05,3.058513e-05,3.05844e-05,1.631797e-05,-5.413923e-10,-4.674224e-08,0.00012647720727201292
PART_002_R214G39B40A255,3220,-9.269819e-05,3.058961e-05,3.059348e-05,1.670068e-05,1.906893e-08,-7.911813e-08,0.0001266377383519536
PART_002_R214G39B40A255,3221,-9.269387e-05,3.058706e-05,3.058291e-05,1.735881e-05,1.301578e-09,-8.711133e-08,0.0001268924100453213
PART_002_R214G39B40A255,3222,-9.269904e-05,3.059028e-05,3.06005e-05,1.832682e-05,2.45589e-08,-6.616584e-08,0.00012731515418233706
PART_002_R214G39B40A255,3223,-9.269325e-05,3.060183e-05,3.057004e-05,1.962606e-05,1.512784e-09,-2.56907e-08,0.00012788004884457094
PART_003_R247G182B210A255,3224,-0.0001853879,6.118829e-05,6.117804e-05,1.772337e-05,-1.285228e-08,5.848554e-08,0.0002484746555762182
PART_003_R247G182B210A255,3225,-0.0001853992,6.1187e-05,6.118075e-05,1.645161e-05,1.355319e-09,1.608465e-07,0.0002482242070001014
PART_003_R247G182B210A255,3226,-0.0001853887,6.117962e-05,6.116773e-05,1.553414e-05,-2.423928e-08,2.067926e-07,0.00024802633618318604
PART_003_R247G182B210A255,3227,-0.0001853974,6.117031e-05,6.119414e-05,1.49201e-05,4.170076e-09,1.863842e-07,0.00024793032148660426
PART_001_R158G218B229A255,3228,-0.0001853891,6.118326e-05,6.115498e-05,1.457372e-05,-3.545368e-09,1.104299e-07,0.00024784707586594546
PART_001_R158G218B229A255,3229,-0.0001853968,6.11788e-05,6.118552e-05,1.446166e-05,3.141984e-16,9.466557e-15,0.00024784794204999404
PART_001_R158G218B229A255,3230,-0.0001853891,6.118326e-05,6.115498e-05,1.457372e-05,3.545368e-09,-1.104299e-07,0.00024784707586594546
PART_001_R158G218B229A255,3231,-0.0001853974,6.117031e-05,6.119414e-05,1.49201e-05,-4.170075e-09,-1.863842e-07,0.0002479303214866042
PART_002_R214G39B40A255,3232,-0.0001853887,6.117962e-05,6.116773e-05,1.553414e-05,2.423928e-08,-2.067926e-07,0.00024802633618318604
PART_002_R214G39B40A255,3233,-0.0001853992,6.1187e-05,6.118075e-05,1.645161e-05,-1.355319e-09,-1.608465e-07,0.0002482242070001014
PART_002_R214G39B40A255,3234,-0.0001853879,6.118829e-05,6.117804e-05,1.772337e-05,1.285228e-08,-5.848554e-08,0.0002484746555762182
PART_003_R247G182B210A255,3235,-0.00027808,9.181053e-05,9.170132e-05,1.452284e-05,3.466055e-09,1.260924e-07,0.0003706904459851118
PART_003_R247G182B210A255,3236,-0.0002780972,9.176918e-05,9.180105e-05,1.332081e-05,-3.216837e-08,3.176487e-07,0.00037060162635261346
PART_003_R247G182B210A255,3237,-0.000278082,9.175207e-05,9.175582e-05,1.249481e-05,1.318372e-08,4.059986e-07,0.00037046927278982155
PART_001_R158G218B229A255,3238,-0.0002780947,9.177392e-05,9.176821e-05,1.198448e-05,3.761062e-09,3.616996e-07,0.0003704483229120335
PART_001_R158G218B229A255,3239,-0.0002780824,9.177366e-05,9.173594e-05,1.170266e-05,2.950796e-09,2.06954e-07,0.0003703924146633696
PART_001_R158G218B229A255,3240,-0.0002780939,9.177498e-05,9.176452e-05,1.161174e-05,-3.301701e-16,1.499761e-14,0.00037041006626557007
PART_001_R158G218B229A255,3241,-0.0002780824,9.177366e-05,9.173594e-05,1.170266e-05,-2.950795e-09,-2.06954e-07,0.0003703924146633696
PART_001_R158G218B229A255,3242,-0.0002780947,9.177392e-05,9.176821e-05,1.198448e-05,-3.761062e-09,-3.616996e-07,0.0003704483229120335
PART_001_R158G218B229A255,3243,-0.000278082,9.175207e-05,9.175582e-05,1.249481e-05,-1.318372e-08,-4.059986e-07,0.00037046927278982155
PART_002_R214G39B40A255,3244,-0.0002780972,9.176918e-05,9.180105e-05,1.332081e-05,3.216837e-08,-3.176487e-07,0.00037060162635261346
PART_002_R214G39B40A255,3245,-0.00027808,9.181053e-05,9.170132e-05,1.452284e-05,-3.466055e-09,-1.260924e-07,0.0003706904459851118
PART_003_R247G182B210A255,3246,-0.0003707753,0.0001223711,0.0001223774,9.930996e-06,-3.063821e-08,2.314199e-07,0.0004934496085936598
PART_003_R247G182B210A255,3247,-0.0003707972,0.0001223421,0.0001223808,8.855841e-06,2.990637e-08,6.323776e-07,0.0004933983536048753
PART_001_R158G218B229A255,3248,-0.0003707769,0.000122367,0.0001223031,8.265867e-06,2.149026e-08,7.744692e-07,0.0004933215713508929
PART_001_R158G218B229A255,3249,-0.0003707939,0.0001223759,0.0001223518,7.92413e-06,6.429516e-09,6.399245e-07,0.0004933499477688772
PART_001_R158G218B229A255,3250,-0.0003707777,0.0001223674,0.0001223042,7.735502e-06,5.333964e-09,3.581526e-07,0.0004932958805389663
PART_001_R158G218B229A255,3251,-0.0003707929,0.0001223795,0.0001223487,7.67801e-06,1.224776e-16,2.139809e-14,0.0004933362776779753
PART_001_R158G218B229A255,3252,-0.0003707777,0.0001223674,0.0001223042,7.735502e-06,-5.333965e-09,-3.581526e-07,0.0004932958805389663
PART_001_R158G218B229A255,3253,-0.0003707939,0.0001223759,0.0001223518,7.92413e-06,-6.429516e-09,-6.399244e-07,0.0004933499477684881
PART_001_R158G218B229A255,3254,-0.0003707769,0.000122367,0.0001223031,8.265867e-06,-2.149026e-08,-7.744692e-07,0.0004933215713508929
PART_001_R158G218B229A255,3255,-0.0003707972,0.0001223421,0.0001223808,8.855841e-06,-2.990637e-08,-6.323776e-07,0.0004933983536048753
PART_002_R214G39B40A255,3256,-0.0003707753,0.0001223711,0.0001223774,9.930996e-06,3.063821e-08,-2.314199e-07,0.0004934496085936598
PART_003_R247G182B210A255,3257,-0.0004634681,0.0001530397,0.0001527772,3.649592e-06,4.769727e-08,6.234291e-07,0.0006164099564831073
PART_001_R158G218B229A255,3258,-0.0004634951,0.0001529534,0.0001529145,3.134489e-06,2.853211e-08,1.347047e-06,0.0006164573756001204
PART_001_R158G218B229A255,3259,-0.0004634717,0.0001529969,0.0001528541,2.939456e-06,6.014681e-09,1.372569e-06,0.0006164228229161833
PART_001_R158G218B229A255,3260,-0.0004634912,0.0001529571,0.0001529348,2.80895e-06,6.66742e-09,1.069409e-06,0.0006164591323953184
PART_001_R158G218B229A255,3261,-0.0004634726,0.0001529832,0.0001528715,2.747649e-06,1.07329e-09,5.776837e-07,0.0006164191411706641
PART_001_R158G218B229A255,3262,-0.00046349,0.0001529583,0.000152938,2.724201e-06,-4.720853e-17,2.892265e-14,0.0006164562084185341
PART_001_R158G218B229A255,3263,-0.0004634726,0.0001529832,0.0001528715,2.747649e-06,-1.07329e-09,-5.776837e-07,0.0006164191411706641
PART_001_R158G218B229A255,3264,-0.0004634912,0.0001529571,0.0001529348,2.80895e-06,-6.66742e-09,-1.069409e-06,0.0006164591323953184
PART_001_R158G218B229A255,3265,-0.0004634717,0.0001529969,0.0001528541,2.939456e-06,-6.014681e-09,-1.372569e-06,0.0006164228229161833
PART_001_R158G218B229A255,3266,-0.0004634951,0.0001529534,0.0001529145,3.134489e-06,-2.853211e-08,-1.347047e-06,0.0006164573756001204
PART_001_R158G218B229A255,3267,-0.0004634681,0.0001530397,0.0001527772,3.649592e-06,-4.769727e-08,-6.234291e-07,0.0006164099564831073
PART_003_R247G182B210A255,3268,0.0004589513,-0.000151541,-0.0001513362,3.646922e-06,4.588292e-08,-6.23198e-07,0.0006104235685509537
PART_000_R31G119B180A255,3269,0.0004589284,-0.0001514525,-0.0001513617,3.135425e-06,2.89911e-08,-1.347991e-06,0.0006103641332632365
PART_000_R31G119B180A255,3270,0.0004589466,-0.0001514961,-0.0001514069,2.938197e-06,5.437207e-09,-1.371622e-06,0.0006104239425066359
PART_000_R31G119B180A255,3271,0.0004589299,-0.0001514566,-0.0001513853,2.809347e-06,6.875637e-09,-1.070329e-06,0.0006103730647354265
PART_000_R31G119B180A255,3272,0.0004589446,-0.0001514827,-0.000151422,2.746724e-06,9.11703e-10,-5.772163e-07,0.0006104163106842174
PART_000_R31G119B180A255,3273,0.0004589303,-0.0001514579,-0.0001513894,2.724455e-06,-5.369681e-17,-2.894199e-14,0.0006103721944559164
PART_000_R31G119B180A255,3274,0.0004589446,-0.0001514827,-0.000151422,2.746724e-06,-9.117029e-10,5.772162e-07,0.0006104163106839338
PART_000_R31G119B180A255,3275,0.0004589299,-0.0001514566,-0.0001513853,2.809347e-06,-6.875638e-09,1.070329e-06,0.0006103730647354265
PART_000_R31G119B180A255,3276,0.0004589466,-0.0001514961,-0.0001514069,2.938197e-06,-5.437207e-09,1.371622e-06,0.0006104239425066359
PART_000_R31G119B180A255,3277,0.0004589284,-0.0001514525,-0.0001513617,3.135425e-06,-2.89911e-08,1.347991e-06,0.0006103641332632365
PART_000_R31G119B180A255,3278,0.0004589513,-0.000151541,-0.0001513362,3.646922e-06,-4.588293e-08,6.23198e-07,0.000610423568550956
PART_003_R247G182B210A255,3279,0.000367161,-0.0001211691,-0.0001212257,9.934193e-06,-2.99897e-08,-2.30864e-07,0.0004886615970358419
PART_003_R247G182B210A255,3280,0.0003671422,-0.0001211425,-0.0001211352,8.856383e-06,2.955455e-08,-6.335276e-07,0.000488523179675921
PART_000_R31G119B180A255,3281,0.0003671579,-0.0001211674,-0.000121148,8.267228e-06,2.118915e-08,-7.734733e-07,0.0004885273408846423
PART_000_R31G119B180A255,3282,0.0003671434,-0.000121176,-0.0001211093,7.925203e-06,6.33775e-09,-6.408233e-07,0.000488480223318253
PART_000_R31G119B180A255,3283,0.0003671562,-0.0001211678,-0.0001211473,7.736823e-06,5.233408e-09,-3.577039e-07,0.0004884979815547409
PART_000_R31G119B180A255,3284,0.0003671437,-0.0001211796,-0.000121107,7.679245e-06,1.168694e-16,-2.141537e-14,0.0004884681266299573
PART_000_R31G119B180A255,3285,0.0003671562,-0.0001211678,-0.0001211473,7.736823e-06,-5.233408e-09,3.577039e-07,0.0004884979815547409
PART_000_R31G119B180A255,3286,0.0003671434,-0.000121176,-0.0001211093,7.925203e-06,-6.337749e-09,6.408233e-07,0.0004884802233182529
PART_000_R31G119B180A255,3287,0.0003671579,-0.0001211674,-0.000121148,8.267228e-06,-2.118915e-08,7.734733e-07,0.0004885273408846423
PART_000_R31G119B180A255,3288,0.0003671422,-0.0001211425,-0.0001211352,8.856383e-06,-2.955455e-08,6.335276e-07,0.000488523179675921
PART_002_R214G39B40A255,3289,0.000367161,-0.0001211691,-0.0001212257,9.934193e-06,2.99897e-08,2.30864e-07,0.0004886615970358419
PART_003_R247G182B210A255,3290,0.0002753719,-9.091238e-05,-9.083915e-05,1.451926e-05,3.218043e-09,-1.260154e-07,0.00036711010683918824
PART_003_R247G182B210A255,3291,0.0002753571,-9.087024e-05,-9.08661e-05,1.331849e-05,-3.203628e-08,-3.183234e-07,0.0003669514981511843
PART_003_R247G182B210A255,3292,0.0002753689,-9.085305e-05,-9.088971e-05,1.24932e-05,1.30272e-08,-4.053253e-07,0.00036687964949842257
PART_000_R31G119B180A255,3293,0.0002753579,-9.087494e-05,-9.083579e-05,1.198236e-05,3.613397e-09,-3.623675e-07,0.00036680141961938474
PART_000_R31G119B180A255,3294,0.0002753677,-9.087469e-05,-9.086872e-05,1.170103e-05,2.904457e-09,-2.066249e-07,0.0003667999076029367
PART_000_R31G119B180A255,3295,0.0002753581,-9.087604e-05,-9.083272e-05,1.160964e-05,-3.285505e-16,-1.501186e-14,0.0003667641382932715
PART_000_R31G119B180A255,3296,0.0002753677,-9.087469e-05,-9.086872e-05,1.170103e-05,-2.904456e-09,2.066249e-07,0.0003667999076029367
PART_000_R31G119B180A255,3297,0.0002753579,-9.087494e-05,-9.083579e-05,1.198236e-05,-3.613398e-09,3.623675e-07,0.0003668014196193848
PART_000_R31G119B180A255,3298,0.0002753689,-9.085305e-05,-9.088971e-05,1.24932e-05,-1.30272e-08,4.053253e-07,0.00036687964949842257
PART_002_R214G39B40A255,3299,0.0002753571,-9.087024e-05,-9.08661e-05,1.331849e-05,3.203628e-08,3.183234e-07,0.0003669514981511843
PART_002_R214G39B40A255,3300,0.0002753719,-9.091238e-05,-9.083915e-05,1.451926e-05,-3.218043e-09,1.260154e-07,0.00036711010683918824
PART_003_R247G182B210A255,3301,0.0001835806,-6.05867e-05,-6.060299e-05,1.772769e-05,-1.265592e-08,-5.820881e-08,0.00024609850012442786
PART_003_R247G182B210A255,3302,0.0001835708,-6.058622e-05,-6.05574e-05,1.645414e-05,1.32206e-09,-1.613839e-07,0.00024580054708952186
PART_003_R247G182B210A255,3303,0.0001835789,-6.05792e-05,-6.05906e-05,1.553685e-05,-2.412985e-08,-2.063454e-07,0.00024564256946567467
PART_003_R247G182B210A255,3304,0.0001835714,-6.056988e-05,-6.057214e-05,1.492272e-05,4.032935e-09,-1.868032e-07,0.0002455069934159397
PART_000_R31G119B180A255,3305,0.000183578,-6.058272e-05,-6.057708e-05,1.457679e-05,-3.557406e-09,-1.102213e-07,0.0002454599051995047
PART_000_R31G119B180A255,3306,0.0001835715,-6.05783e-05,-6.0564e-05,1.446444e-05,3.183459e-16,-9.466961e-15,0.0002454247211996599
PART_000_R31G119B180A255,3307,0.000183578,-6.058272e-05,-6.057708e-05,1.457679e-05,3.557406e-09,1.102213e-07,0.0002454599051995047
PART_000_R31G119B180A255,3308,0.0001835714,-6.056988e-05,-6.057214e-05,1.492272e-05,-4.032935e-09,1.868032e-07,0.0002455069934159397
PART_002_R214G39B40A255,3309,0.0001835789,-6.05792e-05,-6.05906e-05,1.553685e-05,2.412985e-08,2.063453e-07,0.00024564256946542264
PART_002_R214G39B40A255,3310,0.0001835708,-6.058622e-05,-6.05574e-05,1.645414e-05,-1.32206e-09,1.613839e-07,0.00024580054708952186
PART_002_R214G39B40A255,3311,0.0001835806,-6.05867e-05,-6.060299e-05,1.772769e-05,1.265592e-08,5.820881e-08,0.00024609850012442786
PART_003_R247G182B210A255,3312,9.17908e-05,-3.030265e-05,-3.028282e-05,1.962134e-05,-1.6038e-09,-2.566429e-08,0.00012672561993096965
PART_003_R247G182B210A255,3313,9.17858e-05,-3.029088e-05,-3.028864e-05,1.832297e-05,-2.454731e-08,-6.640912e-08,0.0001261334653458964
PART_003_R247G182B210A255,3314,9.178976e-05,-3.028758e-05,-3.029442e-05,1.735604e-05,-1.37091e-09,-8.687249e-08,0.00012572760642292662
PART_003_R247G182B210A255,3315,9.178602e-05,-3.029019e-05,-3.028244e-05,1.66974e-05,-1.898074e-08,-7.935154e-08,0.00012545152246379985
PART_003_R247G182B210A255,3316,9.178933e-05,-3.028578e-05,-3.029546e-05,1.631507e-05,4.96095e-10,-4.662801e-08,0.00012530788208586993
PART_000_R31G119B180A255,3317,9.178608e-05,-3.029159e-05,-3.027876e-05,1.619087e-05,-2.100524e-16,-4.582889e-15,0.0001252510448451525
PART_000_R31G119B180A255,3318,9.178933e-05,-3.028578e-05,-3.029546e-05,1.631507e-05,-4.960945e-10,4.6628e-08,0.00012530788208585874
PART_002_R214G39B40A255,3319,9.178602e-05,-3.029019e-05,-3.028244e-05,1.66974e-05,1.898074e-08,7.935153e-08,0.00012545152246378087
PART_002_R214G39B40A255,3320,9.178976e-05,-3.028758e-05,-3.029442e-05,1.735604e-05,1.37091e-09,8.687248e-08,0.0001257276064229059
PART_002_R214G39B40A255,3321,9.17858e-05,-3.029088e-05,-3.028864e-05,1.832297e-05,2.454731e-08,6.640911e-08,0.00012613346534588057
PART_002_R214G39B40A255,3322,9.17908e-05,-3.030265e-05,-3.028282e-05,1.962134e-05,1.6038e-09,2.566429e-08,0.00012672561993096965
PART_003_R247G182B210A255,3323,1.004729e-13,-3.318179e-14,-3.323082e-14,2.0255e-05,-9.806367e-09,-2.017463e-17,3.508269321894345e-05
PART_003_R247G182B210A255,3324,1.004395e-13,-3.299618e-14,-3.332471e-14,1.894585e-05,-3.854657e-09,-6.972521e-17,3.2815175471763696e-05
PART_003_R247G182B210A255,3325,1.004335e-13,-3.312454e-14,-3.312357e-14,1.796726e-05,-2.615391e-08,-9.661088e-17,3.1120240163016495e-05
PART_003_R247G182B210A255,3326,1.00399e-13,-3.317659e-14,-3.308902e-14,1.729234e-05,-1.341845e-09,-8.574049e-17,2.9951211551929652e-05
PART_003_R247G182B210A255,3327,1.00403e-13,-3.31124e-14,-3.315063e-14,1.69013e-05,-1.084255e-08,-5.520929e-17,2.9273916337802694e-05
PART_003_R247G182B210A255,3328,1.003619e-13,-3.318526e-14,-3.304901e-14,1.677197e-05,2.344642e-16,-2.619026e-18,2.9049904183020983e-05
PART_002_R214G39B40A255,3329,1.003596e-13,-3.309679e-14,-3.313371e-14,1.69013e-05,1.084255e-08,4.777266e-17,2.9273916337802694e-05
PART_002_R214G39B40A255,3330,1.003346e-13,-3.317138e-14,-3.306085e-14,1.729234e-05,1.341845e-09,8.167769e-17,2.9951211551929652e-05
PART_002_R214G39B40A255,3331,1.003229e-13,-3.306556e-14,-3.309334e-14,1.796726e-05,2.615391e-08,9.606201e-17,3.1120240163016495e-05
PART_002_R214G39B40A255,3332,1.002991e-13,-3.295975e-14,-3.327397e-14,1.894585e-05,3.854657e-09,6.849955e-17,3.2815175471763696e-05
PART_002_R214G39B40A255,3333,1.003026e-13,-3.313322e-14,-3.317572e-14,2.0255e-05,9.806367e-09,1.993407e-17,3.508269321894345e-05
PART_003_R247G182B210A255,3334,-9.17908e-05,3.030265e-05,3.028282e-05,1.962134e-05,-1.6038e-09,2.566429e-08,0.00012672561993096965
PART_003_R247G182B210A255,3335,-9.17858e-05,3.029088e-05,3.028864e-05,1.832297e-05,-2.454731e-08,6.640912e-08,0.0001261334653458964
PART_003_R247G182B210A255,3336,-9.178976e-05,3.028758e-05,3.029442e-05,1.735604e-05,-1.37091e-09,8.687249e-08,0.00012572760642292662
PART_003_R247G182B210A255,3337,-9.178602e-05,3.029019e-05,3.028244e-05,1.66974e-05,-1.898074e-08,7.935154e-08,0.00012545152246379985
PART_003_R247G182B210A255,3338,-9.178933e-05,3.028578e-05,3.029546e-05,1.631507e-05,4.96095e-10,4.662801e-08,0.00012530788208586993
PART_001_R158G218B229A255,3339,-9.178608e-05,3.029159e-05,3.027876e-05,1.619087e-05,-1.923874e-16,4.582693e-15,0.0001252510448451525
PART_001_R158G218B229A255,3340,-9.178933e-05,3.028578e-05,3.029546e-05,1.631507e-05,-4.960945e-10,-4.6628e-08,0.00012530788208585874
PART_002_R214G39B40A255,3341,-9.178602e-05,3.029019e-05,3.028244e-05,1.66974e-05,1.898074e-08,-7.935153e-08,0.00012545152246378087
PART_002_R214G39B40A255,3342,-9.178976e-05,3.028758e-05,3.029442e-05,1.735604e-05,1.37091e-09,-8.687248e-08,0.0001257276064229059
PART_002_R214G39B40A255,3343,-9.17858e-05,3.029088e-05,3.028864e-05,1.832297e-05,2.454731e-08,-6.640911e-08,0.00012613346534588057
PART_002_R214G39B40A255,3344,-9.17908e-05,3.030265e-05,3.028282e-05,1.962134e-05,1.6038e-09,-2.566429e-08,0.00012672561993096965
PART_003_R247G182B210A255,3345,-0.0001835806,6.05867e-05,6.060299e-05,1.772769e-05,-1.265592e-08,5.820881e-08,0.00024609850012442786
PART_003_R247G182B210A255,3346,-0.0001835708,6.058622e-05,6.05574e-05,1.645414e-05,1.32206e-09,1.613839e-07,0.00024580054708952186
PART_003_R247G182B210A255,3347,-0.0001835789,6.05792e-05,6.05906e-05,1.553685e-05,-2.412985e-08,2.063454e-07,0.00024564256946567467
PART_003_R247G182B210A255,3348,-0.0001835714,6.056988e-05,6.057214e-05,1.492272e-05,4.032935e-09,1.868032e-07,0.0002455069934159397
PART_001_R158G218B229A255,3349,-0.000183578,6.058272e-05,6.057708e-05,1.457679e-05,-3.557406e-09,1.102213e-07,0.0002454599051995047
PART_001_R158G218B229A255,3350,-0.0001835715,6.05783e-05,6.0564e-05,1.446444e-05,3.112855e-16,9.46594e-15,0.0002454247211996599
PART_001_R158G218B229A255,3351,-0.000183578,6.058272e-05,6.057708e-05,1.457679e-05,3.557406e-09,-1.102213e-07,0.0002454599051995047
PART_001_R158G218B229A255,3352,-0.0001835714,6.056988e-05,6.057214e-05,1.492272e-05,-4.032935e-09,-1.868032e-07,0.0002455069934159397
PART_002_R214G39B40A255,3353,-0.0001835789,6.05792e-05,6.05906e-05,1.553685e-05,2.412985e-08,-2.063453e-07,0.00024564256946542264
PART_002_R214G39B40A255,3354,-0.0001835708,6.058622e-05,6.05574e-05,1.645414e-05,-1.32206e-09,-1.613839e-07,0.00024580054708952186
PART_002_R214G39B40A255,3355,-0.0001835806,6.05867e-05,6.060299e-05,1.772769e-05,1.265592e-08,-5.82088e-08,0.00024609850012442076
PART_003_R247G182B210A255,3356,-0.0002753719,9.091238e-05,9.083915e-05,1.451926e-05,3.218043e-09,1.260154e-07,0.00036711010683918824
PART_003_R247G182B210A255,3357,-0.0002753571,9.087024e-05,9.08661e-05,1.331849e-05,-3.203628e-08,3.183234e-07,0.0003669514981511843
PART_003_R247G182B210A255,3358,-0.0002753689,9.085305e-05,9.088971e-05,1.24932e-05,1.30272e-08,4.053253e-07,0.00036687964949842257
PART_001_R158G218B229A255,3359,-0.0002753579,9.087494e-05,9.083579e-05,1.198236e-05,3.613397e-09,3.623675e-07,0.00036680141961938474
PART_001_R158G218B229A255,3360,-0.0002753677,9.087469e-05,9.086872e-05,1.170103e-05,2.904457e-09,2.066249e-07,0.0003667999076029367
PART_001_R158G218B229A255,3361,-0.0002753581,9.087604e-05,9.083272e-05,1.160964e-05,-3.022967e-16,1.501113e-14,0.0003667641382932715
PART_001_R158G218B229A255,3362,-0.0002753677,9.087469e-05,9.086872e-05,1.170103e-05,-2.904456e-09,-2.066249e-07,0.0003667999076029367
PART_001_R158G218B229A255,3363,-0.0002753579,9.087494e-05,9.083579e-05,1.198236e-05,-3.613398e-09,-3.623675e-07,0.0003668014196193848
PART_001_R158G218B229A255,3364,-0.0002753689,9.085305e-05,9.088971e-05,1.24932e-05,-1.30272e-08,-4.053252e-07,0.00036687964949809113
PART_002_R214G39B40A255,3365,-0.0002753571,9.087024e-05,9.08661e-05,1.331849e-05,3.203628e-08,-3.183234e-07,0.0003669514981511843
PART_002_R214G39B40A255,3366,-0.0002753719,9.091238e-05,9.083915e-05,1.451926e-05,-3.218044e-09,-1.260154e-07,0.00036711010683918824
PART_003_R247G182B210A255,3367,-0.000367161,0.0001211691,0.0001212257,9.934193e-06,-2.99897e-08,2.30864e-07,0.0004886615970358419
PART_003_R247G182B210A255,3368,-0.0003671422,0.0001211425,0.0001211352,8.856383e-06,2.955455e-08,6.335276e-07,0.000488523179675921
PART_001_R158G218B229A255,3369,-0.0003671579,0.0001211674,0.000121148,8.267228e-06,2.118915e-08,7.734733e-07,0.0004885273408846423
PART_001_R158G218B229A255,3370,-0.0003671434,0.000121176,0.0001211093,7.925203e-06,6.33775e-09,6.408233e-07,0.000488480223318253
PART_001_R158G218B229A255,3371,-0.0003671562,0.0001211678,0.0001211473,7.736823e-06,5.233408e-09,3.577039e-07,0.0004884979815547409
PART_001_R158G218B229A255,3372,-0.0003671437,0.0001211796,0.000121107,7.679245e-06,1.140886e-16,2.141375e-14,0.0004884681266299573
PART_001_R158G218B229A255,3373,-0.0003671562,0.0001211678,0.0001211473,7.736823e-06,-5.233408e-09,-3.577039e-07,0.0004884979815547409
PART_001_R158G218B229A255,3374,-0.0003671434,0.000121176,0.0001211093,7.925203e-06,-6.337749e-09,-6.408233e-07,0.0004884802233182529
PART_001_R158G218B229A255,3375,-0.0003671579,0.0001211674,0.000121148,8.267228e-06,-2.118915e-08,-7.734733e-07,0.0004885273408846423
PART_001_R158G218B229A255,3376,-0.0003671422,0.0001211425,0.0001211352,8.856383e-06,-2.955455e-08,-6.335276e-07,0.000488523179675921
PART_002_R214G39B40A255,3377,-0.000367161,0.0001211691,0.0001212257,9.934193e-06,2.99897e-08,-2.30864e-07,0.0004886615970358419
PART_003_R247G182B210A255,3378,-0.0004589513,0.000151541,0.0001513362,3.646922e-06,4.588292e-08,6.23198e-07,0.0006104235685509537
PART_001_R158G218B229A255,3379,-0.0004589284,0.0001514525,0.0001513617,3.135425e-06,2.89911e-08,1.347991e-06,0.0006103641332632365
PART_001_R158G218B229A255,3380,-0.0004589466,0.0001514961,0.0001514069,2.938197e-06,5.437207e-09,1.371622e-06,0.0006104239425066359
PART_001_R158G218B229A255,3381,-0.0004589299,0.0001514566,0.0001513853,2.809347e-06,6.875637e-09,1.070329e-06,0.0006103730647354265
PART_001_R158G218B229A255,3382,-0.0004589446,0.0001514827,0.000151422,2.746724e-06,9.117029e-10,5.772163e-07,0.0006104163106842174
PART_001_R158G218B229A255,3383,-0.0004589303,0.0001514579,0.0001513894,2.724455e-06,-4.195693e-17,2.894084e-14,0.0006103721944559164
PART_001_R158G218B229A255,3384,-0.0004589446,0.0001514827,0.000151422,2.746724e-06,-9.117029e-10,-5.772162e-07,0.0006104163106839338
PART_001_R158G218B229A255,3385,-0.0004589299,0.0001514566,0.0001513853,2.809347e-06,-6.875638e-09,-1.070329e-06,0.0006103730647354265
PART_001_R158G218B229A255,3386,-0.0004589466,0.0001514961,0.0001514069,2.938197e-06,-5.437207e-09,-1.371622e-06,0.0006104239425066359
PART_001_R158G218B229A255,3387,-0.0004589284,0.0001514525,0.0001513617,3.135425e-06,-2.89911e-08,-1.347991e-06,0.0006103641332632365
PART_001_R158G218B229A255,3388,-0.0004589513,0.000151541,0.0001513362,3.646922e-06,-4.588293e-08,-6.23198e-07,0.000610423568550956
PART_003_R247G182B210A255,3389,0.0004543848,-0.0001500393,-0.0001497914,3.648961e-06,4.649344e-08,-6.234989e-07,0.0006043342079243267
PART_000_R31G119B180A255,3390,0.0004544029,-0.0001499543,-0.0001499067,3.134563e-06,2.808264e-08,-1.347378e-06,0.0006043622962750171
PART_000_R31G119B180A255,3391,0.0004543875,-0.0001499971,-0.0001498659,2.939152e-06,5.760713e-09,-1.372573e-06,0.0006043451286177425
PART_000_R31G119B180A255,3392,0.0004544005,-0.0001499582,-0.0001499272,2.808986e-06,6.554223e-09,-1.069683e-06,0.0006043656245254767
PART_000_R31G119B180A255,3393,0.0004543882,-0.0001499839,-0.0001498825,2.747452e-06,1.004595e-09,-5.776515e-07,0.0006043409705900312
PART_000_R31G119B180A255,3394,0.0004543998,-0.0001499595,-0.0001499306,2.724235e-06,-5.058481e-17,-2.892836e-14,0.0006043632704896417
PART_000_R31G119B180A255,3395,0.0004543882,-0.0001499839,-0.0001498825,2.747452e-06,-1.004595e-09,5.776514e-07,0.0006043409705897444
PART_000_R31G119B180A255,3396,0.0004544005,-0.0001499582,-0.0001499272,2.808986e-06,-6.554223e-09,1.069683e-06,0.0006043656245254767
PART_000_R31G119B180A255,3397,0.0004543875,-0.0001499971,-0.0001498659,2.939152e-06,-5.760713e-09,1.372573e-06,0.0006043451286177425
PART_000_R31G119B180A255,3398,0.0004544029,-0.0001499543,-0.0001499067,3.134563e-06,-2.808264e-08,1.347378e-06,0.0006043622962750171
PART_000_R31G119B180A255,3399,0.0004543848,-0.0001500393,-0.0001497914,3.648961e-06,-4.649344e-08,6.234989e-07,0.0006043342079243267
PART_003_R247G182B210A255,3400,0.0003635079,-0.0001199707,-0.0001199859,9.931678e-06,-3.000105e-08,-2.313772e-07,0.00048379229402071097
PART_003_R247G182B210A255,3401,0.0003635228,-0.0001199428,-0.0001199731,8.856109e-06,2.92236e-08,-6.327696e-07,0.00048372526506597325
PART_000_R31G119B180A255,3402,0.0003635093,-0.0001199674,-0.0001199125,8.266387e-06,2.094876e-08,-7.744414e-07,0.00048366308484643425
PART_000_R31G119B180A255,3403,0.0003635207,-0.0001199761,-0.0001199453,7.924683e-06,6.209319e-09,-6.402048e-07,0.0004836774714224513
PART_000_R31G119B180A255,3404,0.0003635099,-0.0001199679,-0.0001199133,7.73616e-06,5.171079e-09,-3.581197e-07,0.00048363655520456225
PART_000_R31G119B180A255,3405,0.0003635201,-0.0001199797,-0.0001199423,7.67867e-06,1.141123e-16,-2.140872e-14,0.000483663995998448
PART_000_R31G119B180A255,3406,0.0003635099,-0.0001199679,-0.0001199133,7.73616e-06,-5.17108e-09,3.581197e-07,0.0004836365552045623
PART_000_R31G119B180A255,3407,0.0003635207,-0.0001199761,-0.0001199453,7.924683e-06,-6.209318e-09,6.402048e-07,0.00048367747142245127
PART_000_R31G119B180A255,3408,0.0003635093,-0.0001199674,-0.0001199125,8.266387e-06,-2.094876e-08,7.744414e-07,0.00048366308484643425
PART_000_R31G119B180A255,3409,0.0003635228,-0.0001199428,-0.0001199731,8.856109e-06,-2.92236e-08,6.327696e-07,0.00048372526506597325
PART_002_R214G39B40A255,3410,0.0003635079,-0.0001199707,-0.0001199859,9.931678e-06,3.000105e-08,2.313772e-07,0.00048379229402071097
PART_003_R247G182B210A255,3411,0.0002726303,-9.001084e-05,-8.990944e-05,1.45215e-05,3.303524e-09,-1.261626e-07,0.00036346183370659197
PART_003_R247G182B210A255,3412,0.0002726419,-8.997016e-05,-8.999493e-05,1.331986e-05,-3.170646e-08,-3.179092e-07,0.0003633580201366947
PART_003_R247G182B210A255,3413,0.0002726318,-8.995343e-05,-8.996238e-05,1.249414e-05,1.277395e-08,-4.060095e-07,0.00036323559827713253
PART_000_R31G119B180A255,3414,0.0002726404,-8.997498e-05,-8.996316e-05,1.198383e-05,3.544752e-09,-3.61917e-07,0.0003632036031929094
PART_000_R31G119B180A255,3415,0.0002726322,-8.997478e-05,-8.994267e-05,1.170217e-05,2.822959e-09,-2.069359e-07,0.0003631571705268655
PART_000_R31G119B180A255,3416,0.0002726399,-8.99761e-05,-8.995963e-05,1.161118e-05,-3.246914e-16,-1.500844e-14,0.00036316504504800307
PART_000_R31G119B180A255,3417,0.0002726322,-8.997478e-05,-8.994267e-05,1.170217e-05,-2.822958e-09,2.069359e-07,0.00036315717052686543
PART_000_R31G119B180A255,3418,0.0002726404,-8.997498e-05,-8.996316e-05,1.198383e-05,-3.544752e-09,3.619169e-07,0.0003632036031926105
PART_000_R31G119B180A255,3419,0.0002726318,-8.995343e-05,-8.996238e-05,1.249414e-05,-1.277395e-08,4.060095e-07,0.00036323559827713253
PART_002_R214G39B40A255,3420,0.0002726419,-8.997016e-05,-8.999493e-05,1.331986e-05,3.170646e-08,3.179092e-07,0.0003633580201366947
PART_002_R214G39B40A255,3421,0.0002726303,-9.001084e-05,-8.990944e-05,1.45215e-05,-3.303525e-09,1.261626e-07,0.000363461833706592
PART_003_R247G182B210A255,3422,0.000181754,-5.998782e-05,-5.998261e-05,1.772432e-05,-1.266134e-08,-5.847129e-08,0.00024368076121262706
PART_003_R247G182B210A255,3423,0.0001817617,-5.998676e-05,-5.997701e-05,1.64524e-05,1.162878e-09,-1.610459e-07,0.0002434175079336564
PART_003_R247G182B210A255,3424,0.0001817548,-5.997965e-05,-5.99722e-05,1.553514e-05,-2.396854e-08,-2.068049e-07,0.0002432239609976452
PART_003_R247G182B210A255,3425,0.0001817606,-5.997054e-05,-5.999042e-05,1.492125e-05,3.924768e-09,-1.865244e-07,0.00024311887129742005
PART_000_R31G119B180A255,3426,0.0001817551,-5.998327e-05,-5.995955e-05,1.457506e-05,-3.563341e-09,-1.104216e-07,0.00024304123065367148
PART_000_R31G119B180A255,3427,0.0001817602,-5.99789e-05,-5.998203e-05,1.446298e-05,3.188795e-16,-9.462438e-15,0.0002430351466216998
PART_000_R31G119B180A255,3428,0.0001817551,-5.998327e-05,-5.995955e-05,1.457506e-05,3.563341e-09,1.104216e-07,0.00024304123065367148
PART_000_R31G119B180A255,3429,0.0001817606,-5.997054e-05,-5.999042e-05,1.492125e-05,-3.924767e-09,1.865244e-07,0.00024311887129742
PART_002_R214G39B40A255,3430,0.0001817548,-5.997965e-05,-5.99722e-05,1.553514e-05,2.396854e-08,2.068048e-07,0.0002432239609973901
PART_002_R214G39B40A255,3431,0.0001817617,-5.998676e-05,-5.997701e-05,1.64524e-05,-1.162878e-09,1.610459e-07,0.0002434175079336564
PART_002_R214G39B40A255,3432,0.000181754,-5.998782e-05,-5.998261e-05,1.772432e-05,1.266134e-08,5.847128e-08,0.00024368076121261985
PART_003_R247G182B210A255,3433,9.087672e-05,-3.000201e-05,-2.997272e-05,1.962415e-05,-1.572505e-09,-2.571592e-08,0.00012555258447091697
PART_003_R247G182B210A255,3434,9.088064e-05,-2.999066e-05,-2.999841e-05,1.832529e-05,-2.430474e-08,-6.626057e-08,0.00012497308382459948
PART_003_R247G182B210A255,3435,9.087721e-05,-2.998751e-05,-2.998518e-05,1.735769e-05,-1.486911e-09,-8.711519e-08,0.00012454673785980788
PART_003_R247G182B210A255,3436,9.088013e-05,-2.999006e-05,-2.999168e-05,1.669962e-05,-1.886995e-08,-7.919482e-08,0.00012428374974663857
PART_003_R247G182B210A255,3437,9.087732e-05,-2.998569e-05,-2.998656e-05,1.631707e-05,4.389127e-10,-4.673608e-08,0.00012412380598157574
PART_000_R31G119B180A255,3438,9.087995e-05,-2.999145e-05,-2.998788e-05,1.61932e-05,-2.068836e-16,-4.577156e-15,0.00012408111467313186
PART_000_R31G119B180A255,3439,9.087732e-05,-2.998569e-05,-2.998656e-05,1.631707e-05,-4.389122e-10,4.673607e-08,0.00012412380598156444
PART_002_R214G39B40A255,3440,9.088013e-05,-2.999006e-05,-2.999168e-05,1.669962e-05,1.886995e-08,7.919482e-08,0.00012428374974663857
PART_002_R214G39B40A255,3441,9.087721e-05,-2.998751e-05,-2.998518e-05,1.735769e-05,1.486911e-09,8.711518e-08,0.0001245467378597869
PART_002_R214G39B40A255,3442,9.088064e-05,-2.999066e-05,-2.999841e-05,1.832529e-05,2.430474e-08,6.626057e-08,0.00012497308382459948
PART_002_R214G39B40A255,3443,9.087672e-05,-3.000201e-05,-2.997272e-05,1.962415e-05,1.572506e-09,2.571592e-08,0.000125552584470917
PART_003_R247G182B210A255,3444,9.946942e-14,-3.286781e-14,-3.286312e-14,2.02512e-05,-9.804767e-09,-2.500272e-17,3.507611142530437e-05
PART_003_R247G182B210A255,3445,9.945983e-14,-3.267872e-14,-3.302728e-14,1.894357e-05,-3.976871e-09,-7.147179e-17,3.281122643976005e-05
PART_003_R247G182B210A255,3446,9.943207e-14,-3.277413e-14,-3.276502e-14,1.796511e-05,-2.5997e-08,-1.056911e-16,3.111651586325704e-05
PART_003_R247G182B210A255,3447,9.94195e-14,-3.283832e-14,-3.279515e-14,1.729046e-05,-1.395272e-09,-8.862252e-17,2.9947955303745726e-05
PART_003_R247G182B210A255,3448,9.93848e-14,-3.273423e-14,-3.278474e-14,1.689912e-05,-1.078578e-08,-5.444675e-17,2.9270140404896432e-05
PART_003_R247G182B210A255,3449,9.938632e-14,-3.28574e-14,-3.276075e-14,1.67701e-05,2.256389e-16,-7.728117e-18,2.9046665248010832e-05
PART_002_R214G39B40A255,3450,9.936019e-14,-3.27828e-14,-3.276428e-14,1.689912e-05,1.078578e-08,5.662458e-17,2.9270140404896432e-05
PART_002_R214G39B40A255,3451,9.935531e-14,-3.282791e-14,-3.27747e-14,1.729046e-05,1.395272e-09,8.217321e-17,2.9947955303745726e-05
PART_002_R214G39B40A255,3452,9.933173e-14,-3.277587e-14,-3.272555e-14,1.796511e-05,2.5997e-08,9.192256e-17,3.111651586325704e-05
PART_002_R214G39B40A255,3453,9.931877e-14,-3.263535e-14,-3.297901e-14,1.894357e-05,3.976871e-09,7.591787e-17,3.281122643976005e-05
PART_002_R214G39B40A255,3454,9.928207e-14,-3.279148e-14,-3.280516e-14,2.02512e-05,9.804766e-09,2.17535e-17,3.5076111425303535e-05
PART_003_R247G182B210A255,3455,-9.087672e-05,3.000201e-05,2.997272e-05,1.962415e-05,-1.572506e-09,2.571592e-08,0.000125552584470917
PART_003_R247G182B210A255,3456,-9.088064e-05,2.999066e-05,2.999841e-05,1.832529e-05,-2.430474e-08,6.626057e-08,0.00012497308382459948
PART_003_R247G182B210A255,3457,-9.087721e-05,2.998751e-05,2.998518e-05,1.735769e-05,-1.486911e-09,8.711519e-08,0.00012454673785980788
PART_003_R247G182B210A255,3458,-9.088013e-05,2.999006e-05,2.999168e-05,1.669962e-05,-1.886995e-08,7.919482e-08,0.00012428374974663857
PART_003_R247G182B210A255,3459,-9.087732e-05,2.998569e-05,2.998656e-05,1.631707e-05,4.389126e-10,4.673608e-08,0.00012412380598157574
PART_001_R158G218B229A255,3460,-9.087995e-05,2.999145e-05,2.998788e-05,1.61932e-05,-1.954833e-16,4.575578e-15,0.00012408111467313186
PART_001_R158G218B229A255,3461,-9.087732e-05,2.998569e-05,2.998656e-05,1.631707e-05,-4.389122e-10,-4.673607e-08,0.00012412380598156444
PART_002_R214G39B40A255,3462,-9.088013e-05,2.999006e-05,2.999168e-05,1.669962e-05,1.886995e-08,-7.919482e-08,0.00012428374974663857
PART_002_R214G39B40A255,3463,-9.087721e-05,2.998751e-05,2.998518e-05,1.735769e-05,1.486911e-09,-8.711518e-08,0.0001245467378597869
PART_002_R214G39B40A255,3464,-9.088064e-05,2.999066e-05,2.999841e-05,1.832529e-05,2.430474e-08,-6.626057e-08,0.00012497308382459948
PART_002_R214G39B40A255,3465,-9.087672e-05,3.000201e-05,2.997272e-05,1.962415e-05,1.572506e-09,-2.571592e-08,0.000125552584470917
PART_003_R247G182B210A255,3466,-0.000181754,5.998782e-05,5.998261e-05,1.772432e-05,-1.266134e-08,5.847128e-08,0.00024368076121261985
PART_003_R247G182B210A255,3467,-0.0001817617,5.998676e-05,5.997701e-05,1.64524e-05,1.162878e-09,1.610459e-07,0.0002434175079336564
PART_003_R247G182B210A255,3468,-0.0001817548,5.997965e-05,5.99722e-05,1.553514e-05,-2.396854e-08,2.068049e-07,0.0002432239609976452
PART_003_R247G182B210A255,3469,-0.0001817606,5.997054e-05,5.999042e-05,1.492125e-05,3.924768e-09,1.865244e-07,0.00024311887129742005
PART_001_R158G218B229A255,3470,-0.0001817551,5.998327e-05,5.995955e-05,1.457506e-05,-3.563341e-09,1.104216e-07,0.00024304123065367148
PART_001_R158G218B229A255,3471,-0.0001817602,5.99789e-05,5.998203e-05,1.446298e-05,3.208705e-16,9.459888e-15,0.0002430351466216998
PART_001_R158G218B229A255,3472,-0.0001817551,5.998327e-05,5.995955e-05,1.457506e-05,3.563341e-09,-1.104216e-07,0.00024304123065367148
PART_001_R158G218B229A255,3473,-0.0001817606,5.997054e-05,5.999042e-05,1.492125e-05,-3.924767e-09,-1.865244e-07,0.00024311887129742
PART_002_R214G39B40A255,3474,-0.0001817548,5.997965e-05,5.99722e-05,1.553514e-05,2.396854e-08,-2.068048e-07,0.0002432239609973901
PART_002_R214G39B40A255,3475,-0.0001817617,5.998676e-05,5.997701e-05,1.64524e-05,-1.162879e-09,-1.610459e-07,0.0002434175079336564
PART_002_R214G39B40A255,3476,-0.000181754,5.998782e-05,5.998261e-05,1.772432e-05,1.266134e-08,-5.847128e-08,0.00024368076121261985
PART_003_R247G182B210A255,3477,-0.0002726303,9.001084e-05,8.990944e-05,1.45215e-05,3.303525e-09,1.261626e-07,0.000363461833706592
PART_003_R247G182B210A255,3478,-0.0002726419,8.997016e-05,8.999492e-05,1.331986e-05,-3.170646e-08,3.179092e-07,0.0003633580151462779
PART_003_R247G182B210A255,3479,-0.0002726318,8.995343e-05,8.996238e-05,1.249414e-05,1.277395e-08,4.060095e-07,0.00036323559827713253
PART_001_R158G218B229A255,3480,-0.0002726404,8.997498e-05,8.996316e-05,1.198383e-05,3.544752e-09,3.61917e-07,0.0003632036031929094
PART_001_R158G218B229A255,3481,-0.0002726322,8.997478e-05,8.994267e-05,1.170217e-05,2.822959e-09,2.069359e-07,0.0003631571705268655
PART_001_R158G218B229A255,3482,-0.0002726399,8.99761e-05,8.995963e-05,1.161118e-05,-3.086181e-16,1.500589e-14,0.00036316504504800307
PART_001_R158G218B229A255,3483,-0.0002726322,8.997478e-05,8.994267e-05,1.170217e-05,-2.822958e-09,-2.069359e-07,0.00036315717052686543
PART_001_R158G218B229A255,3484,-0.0002726404,8.997498e-05,8.996316e-05,1.198383e-05,-3.544752e-09,-3.619169e-07,0.0003632036031926105
PART_001_R158G218B229A255,3485,-0.0002726318,8.995343e-05,8.996238e-05,1.249414e-05,-1.277395e-08,-4.060095e-07,0.00036323559827713253
PART_002_R214G39B40A255,3486,-0.0002726419,8.997016e-05,8.999492e-05,1.331986e-05,3.170646e-08,-3.179092e-07,0.0003633580151462779
PART_002_R214G39B40A255,3487,-0.0002726303,9.001084e-05,8.990944e-05,1.45215e-05,-3.303525e-09,-1.261626e-07,0.000363461833706592
PART_003_R247G182B210A255,3488,-0.0003635079,0.0001199707,0.0001199859,9.931678e-06,-3.000105e-08,2.313772e-07,0.00048379229402071097
PART_003_R247G182B210A255,3489,-0.0003635228,0.0001199428,0.0001199731,8.856109e-06,2.92236e-08,6.327696e-07,0.00048372526506597325
PART_001_R158G218B229A255,3490,-0.0003635093,0.0001199674,0.0001199125,8.266387e-06,2.094876e-08,7.744414e-07,0.00048366308484643425
PART_001_R158G218B229A255,3491,-0.0003635207,0.0001199761,0.0001199453,7.924683e-06,6.209319e-09,6.402048e-07,0.0004836774714224513
PART_001_R158G218B229A255,3492,-0.0003635099,0.0001199679,0.0001199133,7.73616e-06,5.171079e-09,3.581197e-07,0.00048363655520456225
PART_001_R158G218B229A255,3493,-0.0003635201,0.0001199797,0.0001199423,7.67867e-06,1.158792e-16,2.140252e-14,0.000483663995998448
PART_001_R158G218B229A255,3494,-0.0003635099,0.0001199679,0.0001199133,7.73616e-06,-5.17108e-09,-3.581197e-07,0.0004836365552045623
PART_001_R158G218B229A255,3495,-0.0003635207,0.0001199761,0.0001199453,7.924683e-06,-6.209318e-09,-6.402048e-07,0.00048367747142245127
PART_001_R158G218B229A255,3496,-0.0003635093,0.0001199674,0.0001199125,8.266387e-06,-2.094876e-08,-7.744414e-07,0.00048366308484643425
PART_001_R158G218B229A255,3497,-0.0003635228,0.0001199428,0.0001199731,8.856109e-06,-2.92236e-08,-6.327696e-07,0.00048372526506597325
PART_002_R214G39B40A255,3498,-0.0003635079,0.0001199707,0.0001199859,9.931678e-06,3.000105e-08,-2.313772e-07,0.00048379229402071097
PART_003_R247G182B210A255,3499,-0.0004543848,0.0001500393,0.0001497914,3.648961e-06,4.649344e-08,6.234989e-07,0.0006043342079243267
PART_001_R158G218B229A255,3500,-0.0004544029,0.0001499543,0.0001499067,3.134563e-06,2.808264e-08,1.347378e-06,0.0006043622962750171
PART_001_R158G218B229A255,3501,-0.0004543875,0.0001499971,0.0001498659,2.939152e-06,5.760713e-09,1.372573e-06,0.0006043451286177425
PART_001_R158G218B229A255,3502,-0.0004544005,0.0001499582,0.0001499272,2.808986e-06,6.554223e-09,1.069683e-06,0.0006043656245254767
PART_001_R158G218B229A255,3503,-0.0004543882,0.0001499839,0.0001498825,2.747452e-06,1.004595e-09,5.776515e-07,0.0006043409705900312
PART_001_R158G218B229A255,3504,-0.0004543998,0.0001499595,0.0001499306,2.724235e-06,-3.57431e-17,2.892891e-14,0.0006043632704896417
PART_001_R158G218B229A255,3505,-0.0004543882,0.0001499839,0.0001498825,2.747452e-06,-1.004595e-09,-5.776514e-07,0.0006043409705897444
PART_001_R158G218B229A255,3506,-0.0004544005,0.0001499582,0.0001499272,2.808986e-06,-6.554223e-09,-1.069683e-06,0.0006043656245254767
PART_001_R158G218B229A255,3507,-0.0004543875,0.0001499971,0.0001498659,2.939152e-06,-5.760713e-09,-1.372573e-06,0.0006043451286177425
PART_001_R158G218B229A255,3508,-0.0004544029,0.0001499543,0.0001499067,3.134563e-06,-2.808264e-08,-1.347378e-06,0.0006043622962750171
PART_001_R158G218B229A255,3509,-0.0004543848,0.0001500393,0.0001497914,3.648961e-06,-4.649344e-08,-6.234989e-07,0.0006043342079243267
PART_003_R247G182B210A255,3510,0.0004498587,-0.0001485397,-0.0001483312,3.647324e-06,4.517024e-08,-6.233071e-07,0.0005983285076793244
PART_000_R31G119B180A255,3511,0.0004498437,-0.0001484535,-0.000148372,3.135304e-06,2.828086e-08,-1.348059e-06,0.0005982856588039119
PART_000_R31G119B180A255,3512,0.0004498558,-0.0001484962,-0.0001484014,2.938439e-06,5.370693e-09,-1.371953e-06,0.0005983309713230177
PART_000_R31G119B180A255,3513,0.0004498448,-0.0001484576,-0.0001483947,2.809364e-06,6.666661e-09,-1.070344e-06,0.0005982936128704966
PART_000_R31G119B180A255,3514,0.0004498546,-0.0001484832,-0.0001484165,2.746962e-06,8.977564e-10,-5.773589e-07,0.0005983242061453594
PART_000_R31G119B180A255,3515,0.0004498451,-0.0001484589,-0.0001483986,2.724518e-06,-5.654961e-17,-2.893526e-14,0.0005982924630278131
PART_000_R31G119B180A255,3516,0.0004498546,-0.0001484832,-0.0001484165,2.746962e-06,-8.977563e-10,5.773588e-07,0.0005983242061450699
PART_000_R31G119B180A255,3517,0.0004498448,-0.0001484576,-0.0001483947,2.809364e-06,-6.666662e-09,1.070344e-06,0.0005982936128704966
PART_000_R31G119B180A255,3518,0.0004498558,-0.0001484962,-0.0001484014,2.938439e-06,-5.370692e-09,1.371953e-06,0.0005983309713230177
PART_000_R31G119B180A255,3519,0.0004498437,-0.0001484535,-0.000148372,3.135304e-06,-2.828086e-08,1.348059e-06,0.0005982856588039119
PART_000_R31G119B180A255,3520,0.0004498587,-0.0001485397,-0.0001483312,3.647324e-06,-4.517024e-08,6.23307e-07,0.0005983285076790119
PART_003_R247G182B210A255,3521,0.0003598872,-0.0001187701,-0.0001188182,9.933445e-06,-2.948008e-08,-2.310397e-07,0.0004789906254896732
PART_003_R247G182B210A255,3522,0.0003598747,-0.0001187437,-0.0001187429,8.856116e-06,2.890033e-08,-6.335398e-07,0.0004788650007256932
PART_000_R31G119B180A255,3523,0.0003598853,-0.0001187682,-0.0001187428,8.266919e-06,2.068619e-08,-7.738155e-07,0.0004788568047055478
PART_000_R31G119B180A255,3524,0.0003598757,-0.0001187767,-0.0001187172,7.92501e-06,6.13216e-09,-6.408342e-07,0.0004788207318161319
PART_000_R31G119B180A255,3525,0.0003598843,-0.0001187687,-0.0001187424,7.736638e-06,5.08878e-09,-3.578466e-07,0.0004788277952141809
PART_000_R31G119B180A255,3526,0.0003598759,-0.0001187803,-0.0001187148,7.67909e-06,1.04844e-16,-2.140816e-14,0.00047880822400756055
PART_000_R31G119B180A255,3527,0.0003598843,-0.0001187687,-0.0001187424,7.736638e-06,-5.08878e-09,3.578466e-07,0.0004788277952141809
PART_000_R31G119B180A255,3528,0.0003598757,-0.0001187767,-0.0001187172,7.92501e-06,-6.132159e-09,6.408341e-07,0.0004788207318157304
PART_000_R31G119B180A255,3529,0.0003598853,-0.0001187682,-0.0001187428,8.266919e-06,-2.068619e-08,7.738155e-07,0.0004788568047055478
PART_000_R31G119B180A255,3530,0.0003598747,-0.0001187437,-0.0001187429,8.856116e-06,-2.890033e-08,6.335397e-07,0.0004788650007252963
PART_002_R214G39B40A255,3531,0.0003598872,-0.0001187701,-0.0001188182,9.933445e-06,2.948008e-08,2.310396e-07,0.0004789906254895285
PART_003_R247G182B210A255,3532,0.0002699159,-8.911153e-05,-8.903501e-05,1.451978e-05,3.134664e-09,-1.26087e-07,0.0003598690710880694
PART_003_R247G182B210A255,3533,0.0002699061,-8.907047e-05,-8.907161e-05,1.331891e-05,-3.149642e-08,-3.183837e-07,0.0003597180482196206
PART_003_R247G182B210A255,3534,0.0002699141,-8.905374e-05,-8.908519e-05,1.249365e-05,1.263039e-08,-4.055843e-07,0.0003596358832588276
PART_000_R31G119B180A255,3535,0.0002699067,-8.907521e-05,-8.904166e-05,1.1983e-05,3.438743e-09,-3.623895e-07,0.0003595652094831953
PART_000_R31G119B180A255,3536,0.0002699133,-8.9075e-05,-8.906484e-05,1.170167e-05,2.781886e-09,-2.067368e-07,0.00035955509703644085
PART_000_R31G119B180A255,3537,0.0002699069,-8.907633e-05,-8.903858e-05,1.161038e-05,-3.281804e-16,-1.501297e-14,0.00035952720620364195
PART_000_R31G119B180A255,3538,0.0002699133,-8.9075e-05,-8.906484e-05,1.170167e-05,-2.781886e-09,2.067368e-07,0.00035955509703644085
PART_000_R31G119B180A255,3539,0.0002699067,-8.907521e-05,-8.904166e-05,1.1983e-05,-3.438743e-09,3.623894e-07,0.0003595652094828929
PART_000_R31G119B180A255,3540,0.0002699141,-8.905374e-05,-8.908519e-05,1.249365e-05,-1.263039e-08,4.055843e-07,0.0003596358832588276
PART_002_R214G39B40A255,3541,0.0002699061,-8.907047e-05,-8.907161e-05,1.331891e-05,3.149642e-08,3.183837e-07,0.0003597180482196206
PART_002_R214G39B40A255,3542,0.0002699159,-8.911153e-05,-8.903501e-05,1.451977e-05,-3.134664e-09,1.26087e-07,0.00035986906987764796
PART_003_R247G182B210A255,3543,0.0001799437,-5.938722e-05,-5.939934e-05,1.772645e-05,-1.247838e-08,-5.830456e-08,0.00024129832543947285
PART_003_R247G182B210A255,3544,0.0001799372,-5.938668e-05,-5.936151e-05,1.645332e-05,1.143181e-09,-1.614155e-07,0.0002410023024280109
PART_003_R247G182B210A255,3545,0.0001799427,-5.937981e-05,-5.938759e-05,1.553617e-05,-2.380724e-08,-2.065247e-07,0.00024083474245812655
PART_003_R247G182B210A255,3546,0.0001799377,-5.937074e-05,-5.937579e-05,1.492219e-05,3.824227e-09,-1.868281e-07,0.00024070284171491906
PART_000_R31G119B180A255,3547,0.0001799421,-5.938335e-05,-5.93745e-05,1.457627e-05,-3.559801e-09,-1.102964e-07,0.00024064910666992992
PART_000_R31G119B180A255,3548,0.0001799378,-5.937903e-05,-5.936777e-05,1.446399e-05,3.014794e-16,-9.474167e-15,0.00024061893433537394
PART_000_R31G119B180A255,3549,0.0001799421,-5.938335e-05,-5.93745e-05,1.457627e-05,3.559801e-09,1.102964e-07,0.00024064910666992992
PART_000_R31G119B180A255,3550,0.0001799377,-5.937074e-05,-5.937579e-05,1.492219e-05,-3.824226e-09,1.868281e-07,0.000240702841714919
PART_002_R214G39B40A255,3551,0.0001799427,-5.937981e-05,-5.938759e-05,1.553617e-05,2.380724e-08,2.065247e-07,0.00024083474245812655
PART_002_R214G39B40A255,3552,0.0001799372,-5.938668e-05,-5.936151e-05,1.645332e-05,-1.143181e-09,1.614155e-07,0.0002410023024280109
PART_002_R214G39B40A255,3553,0.0001799437,-5.938722e-05,-5.939934e-05,1.772645e-05,1.247838e-08,5.830456e-08,0.00024129832543947285
PART_003_R247G182B210A255,3554,8.997204e-05,-2.970234e-05,-2.968135e-05,1.962198e-05,-1.632645e-09,-2.569044e-08,0.00012439659958810053
PART_003_R247G182B210A255,3555,8.996873e-05,-2.969088e-05,-2.969051e-05,1.832364e-05,-2.419789e-08,-6.643129e-08,0.00012379685107443008
PART_003_R247G182B210A255,3556,8.997142e-05,-2.968768e-05,-2.969293e-05,1.735672e-05,-1.526609e-09,-8.696661e-08,0.00012338038067167756
PART_003_R247G182B210A255,3557,8.996893e-05,-2.969026e-05,-2.968435e-05,1.669833e-05,-1.874928e-08,-7.93609e-08,0.00012310214142736042
PART_003_R247G182B210A255,3558,8.997115e-05,-2.968594e-05,-2.969402e-05,1.631604e-05,4.043722e-10,-4.666793e-08,0.0001229529670234278
PART_000_R31G119B180A255,3559,8.996898e-05,-2.969164e-05,-2.968072e-05,1.619193e-05,-1.786025e-16,-4.57896e-15,0.00012289789744106733
PART_000_R31G119B180A255,3560,8.997115e-05,-2.968594e-05,-2.969402e-05,1.631604e-05,-4.043718e-10,4.666792e-08,0.0001229529670234164
PART_002_R214G39B40A255,3561,8.996893e-05,-2.969026e-05,-2.968435e-05,1.669833e-05,1.874928e-08,7.936089e-08,0.0001231021414273411
PART_002_R214G39B40A255,3562,8.997142e-05,-2.968768e-05,-2.969293e-05,1.735672e-05,1.526609e-09,8.696661e-08,0.00012338038067167756
PART_002_R214G39B40A255,3563,8.996873e-05,-2.969088e-05,-2.969051e-05,1.832364e-05,2.419789e-08,6.643128e-08,0.00012379685107441398
PART_002_R214G39B40A255,3564,8.997204e-05,-2.970234e-05,-2.968135e-05,1.962198e-05,1.632645e-09,2.569043e-08,0.00012439659958809432
PART_003_R247G182B210A255,3565,9.848399e-14,-3.252086e-14,-3.257634e-14,2.025355e-05,-9.684472e-09,-1.499248e-17,3.508018164397804e-05
PART_003_R247G182B210A255,3566,9.845445e-14,-3.234392e-14,-3.267347e-14,1.894482e-05,-3.95338e-09,-7.258988e-17,3.281339149470594e-05
PART_003_R247G182B210A255,3567,9.844621e-14,-3.245321e-14,-3.246905e-14,1.796641e-05,-2.581703e-08,-1.01666e-16,3.11187670774633e-05
PART_003_R247G182B210A255,3568,9.842431e-14,-3.25226e-14,-3.243689e-14,1.729166e-05,-1.459937e-09,-9.598366e-17,2.9950033773955047e-05
PART_003_R247G182B210A255,3569,9.841612e-14,-3.247576e-14,-3.247888e-14,1.690064e-05,-1.071102e-08,-5.326757e-17,2.927277303923645e-05
PART_003_R247G182B210A255,3570,9.83953e-14,-3.255382e-14,-3.239964e-14,1.677139e-05,2.418191e-16,3.317405e-18,2.904889959355259e-05
PART_002_R214G39B40A255,3571,9.838641e-14,-3.24879e-14,-3.247145e-14,1.690064e-05,1.071102e-08,5.142422e-17,2.927277303923645e-05
PART_002_R214G39B40A255,3572,9.834988e-14,-3.249311e-14,-3.241588e-14,1.729166e-05,1.459937e-09,8.035717e-17,2.9950033773955047e-05
PART_002_R214G39B40A255,3573,9.834348e-14,-3.245147e-14,-3.24268e-14,1.796641e-05,2.581703e-08,1.025139e-16,3.11187670774633e-05
PART_002_R214G39B40A255,3574,9.831827e-14,-3.23179e-14,-3.261354e-14,1.894482e-05,3.95338e-09,6.435079e-17,3.281339149470594e-05
PART_002_R214G39B40A255,3575,9.831735e-14,-3.245494e-14,-3.253456e-14,2.025355e-05,9.684472e-09,1.491117e-17,3.508018164397804e-05
PART_003_R247G182B210A255,3576,-8.997204e-05,2.970234e-05,2.968135e-05,1.962198e-05,-1.632646e-09,2.569044e-08,0.00012439659958810056
PART_003_R247G182B210A255,3577,-8.996873e-05,2.969087e-05,2.969051e-05,1.832364e-05,-2.419789e-08,6.643129e-08,0.0001237968462415134
PART_003_R247G182B210A255,3578,-8.997142e-05,2.968768e-05,2.969293e-05,1.735672e-05,-1.526609e-09,8.696661e-08,0.00012338038067167756
PART_003_R247G182B210A255,3579,-8.996893e-05,2.969026e-05,2.968435e-05,1.669833e-05,-1.874928e-08,7.93609e-08,0.00012310214142736042
PART_003_R247G182B210A255,3580,-8.997115e-05,2.968594e-05,2.969402e-05,1.631604e-05,4.043722e-10,4.666793e-08,0.0001229529670234278
PART_001_R158G218B229A255,3581,-8.996898e-05,2.969164e-05,2.968072e-05,1.619193e-05,-1.842009e-16,4.572096e-15,0.00012289789744106733
PART_001_R158G218B229A255,3582,-8.997115e-05,2.968594e-05,2.969402e-05,1.631604e-05,-4.043718e-10,-4.666792e-08,0.0001229529670234164
PART_002_R214G39B40A255,3583,-8.996893e-05,2.969026e-05,2.968435e-05,1.669833e-05,1.874928e-08,-7.936089e-08,0.0001231021414273411
PART_002_R214G39B40A255,3584,-8.997142e-05,2.968768e-05,2.969293e-05,1.735672e-05,1.526609e-09,-8.696661e-08,0.00012338038067167756
PART_002_R214G39B40A255,3585,-8.996873e-05,2.969087e-05,2.969051e-05,1.832364e-05,2.419789e-08,-6.643128e-08,0.0001237968462414973
PART_002_R214G39B40A255,3586,-8.997204e-05,2.970234e-05,2.968135e-05,1.962198e-05,1.632646e-09,-2.569043e-08,0.00012439659958809438
PART_003_R247G182B210A255,3587,-0.0001799437,5.938722e-05,5.939934e-05,1.772645e-05,-1.247838e-08,5.830456e-08,0.00024129832543947285
PART_003_R247G182B210A255,3588,-0.0001799372,5.938668e-05,5.936151e-05,1.645332e-05,1.143181e-09,1.614155e-07,0.0002410023024280109
PART_003_R247G182B210A255,3589,-0.0001799427,5.937981e-05,5.938759e-05,1.553617e-05,-2.380724e-08,2.065247e-07,0.00024083474245812655
PART_003_R247G182B210A255,3590,-0.0001799377,5.937074e-05,5.937579e-05,1.492219e-05,3.824227e-09,1.868281e-07,0.00024070284171491906
PART_001_R158G218B229A255,3591,-0.0001799421,5.938335e-05,5.93745e-05,1.457627e-05,-3.559801e-09,1.102964e-07,0.00024064910666992992
PART_001_R158G218B229A255,3592,-0.0001799378,5.937903e-05,5.936777e-05,1.446399e-05,3.212135e-16,9.469262e-15,0.00024061893433537394
PART_001_R158G218B229A255,3593,-0.0001799421,5.938335e-05,5.93745e-05,1.457627e-05,3.559801e-09,-1.102964e-07,0.00024064910666992992
PART_001_R158G218B229A255,3594,-0.0001799377,5.937074e-05,5.937579e-05,1.492219e-05,-3.824226e-09,-1.868281e-07,0.000240702841714919
PART_002_R214G39B40A255,3595,-0.0001799427,5.937981e-05,5.938759e-05,1.553617e-05,2.380724e-08,-2.065247e-07,0.00024083474245812655
PART_002_R214G39B40A255,3596,-0.0001799372,5.938668e-05,5.936151e-05,1.645332e-05,-1.143181e-09,-1.614155e-07,0.0002410023024280109
PART_002_R214G39B40A255,3597,-0.0001799437,5.938722e-05,5.939934e-05,1.772645e-05,1.247838e-08,-5.830456e-08,0.00024129832543947285
PART_003_R247G182B210A255,3598,-0.0002699159,8.911153e-05,8.903501e-05,1.451978e-05,3.134664e-09,1.26087e-07,0.0003598690710880694
PART_003_R247G182B210A255,3599,-0.0002699061,8.907047e-05,8.907161e-05,1.331891e-05,-3.149642e-08,3.183837e-07,0.0003597180482196206
PART_003_R247G182B210A255,3600,-0.0002699141,8.905374e-05,8.908519e-05,1.249365e-05,1.263039e-08,4.055843e-07,0.0003596358832588276
PART_001_R158G218B229A255,3601,-0.0002699067,8.907521e-05,8.904166e-05,1.1983e-05,3.438743e-09,3.623895e-07,0.0003595652094831953
PART_001_R158G218B229A255,3602,-0.0002699133,8.9075e-05,8.906484e-05,1.170167e-05,2.781886e-09,2.067368e-07,0.00035955509703644085
PART_001_R158G218B229A255,3603,-0.0002699069,8.907633e-05,8.903858e-05,1.161038e-05,-3.194568e-16,1.500784e-14,0.00035952720620364195
PART_001_R158G218B229A255,3604,-0.0002699133,8.9075e-05,8.906484e-05,1.170167e-05,-2.781886e-09,-2.067368e-07,0.00035955509703644085
PART_001_R158G218B229A255,3605,-0.0002699067,8.907521e-05,8.904166e-05,1.1983e-05,-3.438743e-09,-3.623894e-07,0.0003595652094828929
PART_001_R158G218B229A255,3606,-0.0002699141,8.905374e-05,8.908519e-05,1.249365e-05,-1.263039e-08,-4.055843e-07,0.0003596358832588276
PART_002_R214G39B40A255,3607,-0.0002699061,8.907047e-05,8.907161e-05,1.331891e-05,3.149642e-08,-3.183837e-07,0.0003597180482196206
PART_002_R214G39B40A255,3608,-0.0002699159,8.911153e-05,8.903501e-05,1.451977e-05,-3.134665e-09,-1.26087e-07,0.00035986906987764796
PART_003_R247G182B210A255,3609,-0.0003598872,0.0001187701,0.0001188182,9.933445e-06,-2.948008e-08,2.310397e-07,0.0004789906254896732
PART_003_R247G182B210A255,3610,-0.0003598747,0.0001187437,0.0001187429,8.856116e-06,2.890033e-08,6.335398e-07,0.0004788650007256932
PART_001_R158G218B229A255,3611,-0.0003598853,0.0001187682,0.0001187428,8.266919e-06,2.068619e-08,7.738155e-07,0.0004788568047055478
PART_001_R158G218B229A255,3612,-0.0003598757,0.0001187767,0.0001187172,7.92501e-06,6.13216e-09,6.408342e-07,0.0004788207318161319
PART_001_R158G218B229A255,3613,-0.0003598843,0.0001187687,0.0001187424,7.736638e-06,5.08878e-09,3.578466e-07,0.0004788277952141809
PART_001_R158G218B229A255,3614,-0.0003598759,0.0001187803,0.0001187148,7.67909e-06,1.173479e-16,2.141537e-14,0.00047880822400756055
PART_001_R158G218B229A255,3615,-0.0003598843,0.0001187687,0.0001187424,7.736638e-06,-5.08878e-09,-3.578466e-07,0.0004788277952141809
PART_001_R158G218B229A255,3616,-0.0003598757,0.0001187767,0.0001187172,7.92501e-06,-6.132159e-09,-6.408341e-07,0.0004788207318157304
PART_001_R158G218B229A255,3617,-0.0003598853,0.0001187682,0.0001187428,8.266919e-06,-2.068619e-08,-7.738155e-07,0.0004788568047055478
PART_001_R158G218B229A255,3618,-0.0003598747,0.0001187437,0.0001187429,8.856116e-06,-2.890033e-08,-6.335397e-07,0.0004788650007252963
PART_002_R214G39B40A255,3619,-0.0003598872,0.0001187701,0.0001188182,9.933445e-06,2.948008e-08,-2.310396e-07,0.0004789906254895285
PART_003_R247G182B210A255,3620,-0.0004498587,0.0001485397,0.0001483312,3.647324e-06,4.517024e-08,6.233071e-07,0.0005983285076793244
PART_001_R158G218B229A255,3621,-0.0004498437,0.0001484535,0.000148372,3.135304e-06,2.828086e-08,1.348059e-06,0.0005982856588039119
PART_001_R158G218B229A255,3622,-0.0004498558,0.0001484962,0.0001484014,2.938439e-06,5.370693e-09,1.371953e-06,0.0005983309713230177
PART_001_R158G218B229A255,3623,-0.0004498448,0.0001484576,0.0001483947,2.809364e-06,6.666661e-09,1.070344e-06,0.0005982936128704966
PART_001_R158G218B229A255,3624,-0.0004498546,0.0001484832,0.0001484165,2.746962e-06,8.977564e-10,5.773589e-07,0.0005983242061453594
PART_001_R158G218B229A255,3625,-0.0004498451,0.0001484589,0.0001483986,2.724518e-06,-4.620057e-17,2.894867e-14,0.0005982924630278131
PART_001_R158G218B229A255,3626,-0.0004498546,0.0001484832,0.0001484165,2.746962e-06,-8.977563e-10,-5.773588e-07,0.0005983242061450699
PART_001_R158G218B229A255,3627,-0.0004498448,0.0001484576,0.0001483947,2.809364e-06,-6.666662e-09,-1.070344e-06,0.0005982936128704966
PART_001_R158G218B229A255,3628,-0.0004498558,0.0001484962,0.0001484014,2.938439e-06,-5.370692e-09,-1.371953e-06,0.0005983309713230177
PART_001_R158G218B229A255,3629,-0.0004498437,0.0001484535,0.000148372,3.135304e-06,-2.828086e-08,-1.348059e-06,0.0005982856588039119
PART_001_R158G218B229A255,3630,-0.0004498587,0.0001485397,0.0001483312,3.647324e-06,-4.517024e-08,-6.23307e-07,0.0005983285076790119
PART_003_R247G182B210A255,3631,0.0004453,-0.0001470387,-0.000146802,3.648597e-06,4.539739e-08,-6.235333e-07,0.0005922550922690264
PART_000_R31G119B180A255,3632,0.0004453121,-0.000146955,-0.0001469023,3.134653e-06,2.759535e-08,-1.347623e-06,0.0005922702396200417
PART_000_R31G119B180A255,3633,0.0004453019,-0.0001469971,-0.0001468745,2.938985e-06,5.564212e-09,-1.372613e-06,0.0005922643580066889
PART_000_R31G119B180A255,3634,0.0004453107,-0.000146959,-0.0001469229,2.809037e-06,6.43742e-09,-1.069912e-06,0.0005922745345117553
PART_000_R31G119B180A255,3635,0.0004453025,-0.0001469843,-0.0001468906,2.747349e-06,9.558657e-10,-5.776624e-07,0.000592259917455706
PART_000_R31G119B180A255,3636,0.0004453102,-0.0001469603,-0.0001469263,2.724281e-06,-6.072887e-17,-2.892921e-14,0.0005922722973853756
PART_000_R31G119B180A255,3637,0.0004453025,-0.0001469843,-0.0001468906,2.747349e-06,-9.558656e-10,5.776623e-07,0.0005922599174554133
PART_000_R31G119B180A255,3638,0.0004453107,-0.000146959,-0.0001469229,2.809037e-06,-6.437421e-09,1.069912e-06,0.0005922745345117553
PART_000_R31G119B180A255,3639,0.0004453019,-0.0001469971,-0.0001468745,2.938985e-06,-5.564212e-09,1.372613e-06,0.0005922643580066889
PART_000_R31G119B180A255,3640,0.0004453121,-0.000146955,-0.0001469023,3.134653e-06,-2.759535e-08,1.347623e-06,0.0005922702396200417
PART_000_R31G119B180A255,3641,0.0004453,-0.0001470387,-0.000146802,3.648597e-06,-4.539739e-08,6.235333e-07,0.0005922550922690264
PART_003_R247G182B210A255,3642,0.0003562399,-0.0001175709,-0.0001175917,9.932058e-06,-2.937384e-08,-2.313596e-07,0.00047413355754737194
PART_003_R247G182B210A255,3643,0.0003562499,-0.0001175438,-0.0001175684,8.856187e-06,2.859059e-08,-6.330368e-07,0.00047405551035025725
PART_000_R31G119B180A255,3644,0.000356241,-0.000117568,-0.0001175194,8.266606e-06,2.046449e-08,-7.744648e-07,0.0004740029057858222
PART_000_R31G119B180A255,3645,0.0003562486,-0.0001175765,-0.0001175415,7.924905e-06,6.032668e-09,-6.404293e-07,0.0004740076852251778
PART_000_R31G119B180A255,3646,0.0003562415,-0.0001175685,-0.0001175199,7.736441e-06,5.033249e-09,-3.581303e-07,0.0004739755623467686
PART_000_R31G119B180A255,3647,0.0003562482,-0.0001175801,-0.0001175387,7.678951e-06,9.62204e-17,-2.140846e-14,0.00047399424254795675
PART_000_R31G119B180A255,3648,0.0003562415,-0.0001175685,-0.0001175199,7.736441e-06,-5.03325e-09,3.581302e-07,0.00047397556234654196
PART_000_R31G119B180A255,3649,0.0003562486,-0.0001175765,-0.0001175415,7.924905e-06,-6.032667e-09,6.404293e-07,0.0004740076852251778
PART_000_R31G119B180A255,3650,0.000356241,-0.000117568,-0.0001175194,8.266606e-06,-2.046449e-08,7.744648e-07,0.0004740029057858222
PART_000_R31G119B180A255,3651,0.0003562499,-0.0001175438,-0.0001175684,8.856187e-06,-2.85906e-08,6.330368e-07,0.00047405551035025904
PART_002_R214G39B40A255,3652,0.0003562399,-0.0001175709,-0.0001175917,9.932058e-06,2.937384e-08,2.313596e-07,0.00047413355754737194
PART_003_R247G182B210A255,3653,0.0002671796,-8.821084e-05,-8.811542e-05,1.452087e-05,3.184913e-09,-1.262025e-07,0.00035623177483332384
PART_003_R247G182B210A255,3654,0.0002671875,-8.817085e-05,-8.819098e-05,1.331943e-05,-3.11623e-08,-3.180957e-07,0.00035611688923440504
PART_003_R247G182B210A255,3655,0.0002671808,-8.815446e-05,-8.816699e-05,1.249386e-05,1.243354e-08,-4.060502e-07,0.0003560005396263447
PART_000_R31G119B180A255,3656,0.0002671866,-8.817565e-05,-8.816017e-05,1.198355e-05,3.389457e-09,-3.620948e-07,0.0003559607249982337
PART_000_R31G119B180A255,3657,0.0002671811,-8.817547e-05,-8.814757e-05,1.170198e-05,2.723484e-09,-2.06951e-07,0.00035592037829890324
PART_000_R31G119B180A255,3658,0.0002671863,-8.817677e-05,-8.815681e-05,1.161095e-05,-3.097523e-16,-1.501231e-14,0.0003559217067713864
PART_000_R31G119B180A255,3659,0.0002671811,-8.817547e-05,-8.814757e-05,1.170198e-05,-2.723483e-09,2.069509e-07,0.0003559203782987288
PART_000_R31G119B180A255,3660,0.0002671866,-8.817565e-05,-8.816017e-05,1.198355e-05,-3.389458e-09,3.620948e-07,0.00035596072499823376
PART_000_R31G119B180A255,3661,0.0002671808,-8.815446e-05,-8.816699e-05,1.249386e-05,-1.243354e-08,4.060502e-07,0.0003560005396263447
PART_002_R214G39B40A255,3662,0.0002671875,-8.817085e-05,-8.819098e-05,1.331943e-05,3.11623e-08,3.180957e-07,0.00035611688923440504
PART_002_R214G39B40A255,3663,0.0002671796,-8.821084e-05,-8.811542e-05,1.452087e-05,-3.184913e-09,1.262025e-07,0.00035623177483332384
PART_003_R247G182B210A255,3664,0.0001781199,-5.878776e-05,-5.878575e-05,1.77248e-05,-1.243595e-08,-5.84682e-08,0.0002388875876034351
PART_003_R247G182B210A255,3665,0.0001781251,-5.878683e-05,-5.877474e-05,1.645272e-05,1.050838e-09,-1.611875e-07,0.0002386138143339521
PART_003_R247G182B210A255,3666,0.0001781205,-5.877992e-05,-5.877536e-05,1.553556e-05,-2.360764e-08,-2.068383e-07,0.00023842172644875431
PART_003_R247G182B210A255,3667,0.0001781244,-5.877101e-05,-5.878811e-05,1.492174e-05,3.746922e-09,-1.866441e-07,0.00023830981097523109
PART_000_R31G119B180A255,3668,0.0001781207,-5.878349e-05,-5.876289e-05,1.457565e-05,-3.547663e-09,-1.104357e-07,0.00023823538944132302
PART_000_R31G119B180A255,3669,0.0001781242,-5.877922e-05,-5.877995e-05,1.446355e-05,3.170084e-16,-9.472491e-15,0.00023822465486077088
PART_000_R31G119B180A255,3670,0.0001781207,-5.878349e-05,-5.876289e-05,1.457565e-05,3.547663e-09,1.104356e-07,0.00023823538944118394
PART_000_R31G119B180A255,3671,0.0001781244,-5.877101e-05,-5.878811e-05,1.492174e-05,-3.746921e-09,1.866441e-07,0.00023830981097523103
PART_002_R214G39B40A255,3672,0.0001781205,-5.877992e-05,-5.877536e-05,1.553556e-05,2.360764e-08,2.068383e-07,0.00023842172644875431
PART_002_R214G39B40A255,3673,0.0001781251,-5.878683e-05,-5.877474e-05,1.645272e-05,-1.050838e-09,1.611875e-07,0.0002386138143339521
PART_002_R214G39B40A255,3674,0.0001781199,-5.878776e-05,-5.878575e-05,1.77248e-05,1.243595e-08,5.84682e-08,0.0002388875876034351
PART_003_R247G182B210A255,3675,8.905984e-05,-2.940207e-05,-2.937467e-05,1.962327e-05,-1.592039e-09,-2.573104e-08,0.00012322824021147028
PART_003_R247G182B210A255,3676,8.906249e-05,-2.93909e-05,-2.939707e-05,1.832459e-05,-2.394505e-08,-6.632949e-08,0.00012263491840777482
PART_003_R247G182B210A255,3677,8.906022e-05,-2.938782e-05,-2.938678e-05,1.735721e-05,-1.582483e-09,-8.713168e-08,0.00012220333872368477
PART_003_R247G182B210A255,3678,8.906218e-05,-2.939034e-05,-2.939058e-05,1.669916e-05,-1.860203e-08,-7.925935e-08,0.0001219329063106832
PART_003_R247G182B210A255,3679,8.906031e-05,-2.938607e-05,-2.938811e-05,1.631671e-05,3.70062e-10,-4.674258e-08,0.00012177232115949295
PART_000_R31G119B180A255,3680,8.906208e-05,-2.939172e-05,-2.938689e-05,1.619281e-05,-1.963375e-16,-4.586282e-15,0.00012172654563817705
PART_000_R31G119B180A255,3681,8.906031e-05,-2.938607e-05,-2.938811e-05,1.631671e-05,-3.700615e-10,4.674257e-08,0.00012177232115948143
PART_002_R214G39B40A255,3682,8.906218e-05,-2.939034e-05,-2.939058e-05,1.669916e-05,1.860203e-08,7.925934e-08,0.0001219329063106637
PART_002_R214G39B40A255,3683,8.906022e-05,-2.938782e-05,-2.938678e-05,1.735721e-05,1.582483e-09,8.713168e-08,0.00012220333872368477
PART_002_R214G39B40A255,3684,8.906249e-05,-2.93909e-05,-2.939707e-05,1.832459e-05,2.394505e-08,6.632949e-08,0.00012263491840777482
PART_002_R214G39B40A255,3685,8.905984e-05,-2.940207e-05,-2.937467e-05,1.962327e-05,1.592039e-09,2.573104e-08,0.00012322824021147028
PART_003_R247G182B210A255,3686,9.748094e-14,-3.21982e-14,-3.22206e-14,2.025174e-05,-9.650704e-09,-1.64731e-17,3.507704660445436e-05
PART_003_R247G182B210A255,3687,9.747688e-14,-3.201085e-14,-3.238453e-14,1.894398e-05,-4.002346e-09,-7.434154e-17,3.281193658986803e-05
PART_003_R247G182B210A255,3688,9.743926e-14,-3.213922e-14,-3.210344e-14,1.796562e-05,-2.561263e-08,-9.834476e-17,3.111739825200119e-05
PART_003_R247G182B210A255,3689,9.742559e-14,-3.215657e-14,-3.21412e-14,1.729105e-05,-1.483484e-09,-7.922469e-17,2.9948977226437543e-05
PART_003_R247G182B210A255,3690,9.740548e-14,-3.212187e-14,-3.212097e-14,1.689983e-05,-1.063296e-08,-4.932739e-17,2.9271369992984867e-05
PART_003_R247G182B210A255,3691,9.739399e-14,-3.2193e-14,-3.209846e-14,1.677079e-05,2.367802e-16,2.566086e-18,2.9047860363068053e-05
PART_002_R214G39B40A255,3692,9.736195e-14,-3.207677e-14,-3.211892e-14,1.689983e-05,1.063296e-08,4.523029e-17,2.9271369992984867e-05
PART_002_R214G39B40A255,3693,9.735816e-14,-3.215657e-14,-3.211516e-14,1.729105e-05,1.483485e-09,9.032929e-17,2.9948977226437688e-05
PART_002_R214G39B40A255,3694,9.733517e-14,-3.212014e-14,-3.206689e-14,1.796562e-05,2.561263e-08,9.415534e-17,3.111739825200119e-05
PART_002_R214G39B40A255,3695,9.733008e-14,-3.196055e-14,-3.232741e-14,1.894398e-05,4.002346e-09,7.136253e-17,3.281193658986803e-05
PART_002_R214G39B40A255,3696,9.729175e-14,-3.21132e-14,-3.21567e-14,2.025174e-05,9.650704e-09,2.501627e-17,3.507704660445436e-05
PART_003_R247G182B210A255,3697,-8.905984e-05,2.940207e-05,2.937467e-05,1.962327e-05,-1.592039e-09,2.573104e-08,0.00012322824021147028
PART_003_R247G182B210A255,3698,-8.906249e-05,2.93909e-05,2.939707e-05,1.832459e-05,-2.394505e-08,6.632949e-08,0.00012263491840777482
PART_003_R247G182B210A255,3699,-8.906021e-05,2.938782e-05,2.938678e-05,1.735721e-05,-1.582483e-09,8.713168e-08,0.00012220332903102655
PART_003_R247G182B210A255,3700,-8.906218e-05,2.939034e-05,2.939058e-05,1.669916e-05,-1.860203e-08,7.925935e-08,0.0001219329063106832
PART_003_R247G182B210A255,3701,-8.906031e-05,2.938607e-05,2.938811e-05,1.631671e-05,3.70062e-10,4.674258e-08,0.00012177232115949295
PART_001_R158G218B229A255,3702,-8.906208e-05,2.939172e-05,2.938689e-05,1.619281e-05,-1.945995e-16,4.584986e-15,0.00012172654563817705
PART_001_R158G218B229A255,3703,-8.906031e-05,2.938607e-05,2.938811e-05,1.631671e-05,-3.700615e-10,-4.674257e-08,0.00012177232115948143
PART_002_R214G39B40A255,3704,-8.906218e-05,2.939034e-05,2.939058e-05,1.669916e-05,1.860203e-08,-7.925934e-08,0.0001219329063106637
PART_002_R214G39B40A255,3705,-8.906021e-05,2.938782e-05,2.938678e-05,1.735721e-05,1.582483e-09,-8.713168e-08,0.00012220332903102655
PART_002_R214G39B40A255,3706,-8.906249e-05,2.93909e-05,2.939707e-05,1.832459e-05,2.394505e-08,-6.632949e-08,0.00012263491840777482
PART_002_R214G39B40A255,3707,-8.905984e-05,2.940207e-05,2.937467e-05,1.962327e-05,1.592039e-09,-2.573104e-08,0.00012322824021147028
PART_003_R247G182B210A255,3708,-0.0001781199,5.878776e-05,5.878575e-05,1.77248e-05,-1.243595e-08,5.84682e-08,0.0002388875876034351
PART_003_R247G182B210A255,3709,-0.0001781251,5.878683e-05,5.877474e-05,1.645272e-05,1.050838e-09,1.611875e-07,0.0002386138143339521
PART_003_R247G182B210A255,3710,-0.0001781205,5.877992e-05,5.877536e-05,1.553556e-05,-2.360764e-08,2.068383e-07,0.00023842172644875431
PART_003_R247G182B210A255,3711,-0.0001781244,5.877101e-05,5.878811e-05,1.492174e-05,3.746922e-09,1.866441e-07,0.00023830981097523109
PART_001_R158G218B229A255,3712,-0.0001781207,5.878349e-05,5.876289e-05,1.457565e-05,-3.547663e-09,1.104357e-07,0.00023823538944132302
PART_001_R158G218B229A255,3713,-0.0001781242,5.877922e-05,5.877995e-05,1.446355e-05,2.981556e-16,9.464981e-15,0.00023822465486077088
PART_001_R158G218B229A255,3714,-0.0001781207,5.878349e-05,5.876289e-05,1.457565e-05,3.547663e-09,-1.104356e-07,0.00023823538944118394
PART_001_R158G218B229A255,3715,-0.0001781244,5.877101e-05,5.878811e-05,1.492174e-05,-3.746921e-09,-1.866441e-07,0.00023830981097523103
PART_002_R214G39B40A255,3716,-0.0001781205,5.877992e-05,5.877536e-05,1.553556e-05,2.360764e-08,-2.068383e-07,0.00023842172644875431
PART_002_R214G39B40A255,3717,-0.0001781251,5.878683e-05,5.877474e-05,1.645272e-05,-1.050838e-09,-1.611875e-07,0.0002386138143339521
PART_002_R214G39B40A255,3718,-0.0001781199,5.878776e-05,5.878575e-05,1.77248e-05,1.243595e-08,-5.84682e-08,0.0002388875876034351
PART_003_R247G182B210A255,3719,-0.0002671796,8.821084e-05,8.811542e-05,1.452087e-05,3.184913e-09,1.262025e-07,0.00035623177483332384
PART_003_R247G182B210A255,3720,-0.0002671875,8.817085e-05,8.819098e-05,1.331943e-05,-3.11623e-08,3.180957e-07,0.00035611688923440504
PART_003_R247G182B210A255,3721,-0.0002671808,8.815446e-05,8.816699e-05,1.249386e-05,1.243354e-08,4.060502e-07,0.0003560005396263447
PART_001_R158G218B229A255,3722,-0.0002671866,8.817565e-05,8.816017e-05,1.198355e-05,3.389457e-09,3.620948e-07,0.0003559607249982337
PART_001_R158G218B229A255,3723,-0.0002671811,8.817547e-05,8.814757e-05,1.170198e-05,2.723484e-09,2.06951e-07,0.00035592037829890324
PART_001_R158G218B229A255,3724,-0.0002671863,8.817677e-05,8.815681e-05,1.161095e-05,-3.047421e-16,1.501628e-14,0.0003559217067713864
PART_001_R158G218B229A255,3725,-0.0002671811,8.817547e-05,8.814757e-05,1.170198e-05,-2.723483e-09,-2.069509e-07,0.0003559203782987288
PART_001_R158G218B229A255,3726,-0.0002671866,8.817565e-05,8.816017e-05,1.198355e-05,-3.389458e-09,-3.620948e-07,0.00035596072499823376
PART_001_R158G218B229A255,3727,-0.0002671808,8.815446e-05,8.816699e-05,1.249386e-05,-1.243354e-08,-4.060502e-07,0.0003560005396263447
PART_002_R214G39B40A255,3728,-0.0002671875,8.817085e-05,8.819098e-05,1.331943e-05,3.11623e-08,-3.180957e-07,0.00035611688923440504
PART_002_R214G39B40A255,3729,-0.0002671796,8.821084e-05,8.811542e-05,1.452087e-05,-3.184913e-09,-1.262025e-07,0.00035623177483332384
PART_003_R247G182B210A255,3730,-0.0003562399,0.0001175709,0.0001175917,9.932058e-06,-2.937384e-08,2.313596e-07,0.00047413355754737194
PART_003_R247G182B210A255,3731,-0.0003562499,0.0001175438,0.0001175684,8.856187e-06,2.859059e-08,6.330368e-07,0.00047405551035025725
PART_001_R158G218B229A255,3732,-0.000356241,0.000117568,0.0001175194,8.266606e-06,2.046449e-08,7.744648e-07,0.0004740029057858222
PART_001_R158G218B229A255,3733,-0.0003562486,0.0001175765,0.0001175415,7.924905e-06,6.032668e-09,6.404293e-07,0.0004740076852251778
PART_001_R158G218B229A255,3734,-0.0003562415,0.0001175685,0.0001175199,7.736441e-06,5.033249e-09,3.581303e-07,0.0004739755623467686
PART_001_R158G218B229A255,3735,-0.0003562482,0.0001175801,0.0001175387,7.678951e-06,1.100973e-16,2.140242e-14,0.00047399424254795675
PART_001_R158G218B229A255,3736,-0.0003562415,0.0001175685,0.0001175199,7.736441e-06,-5.03325e-09,-3.581302e-07,0.00047397556234654196
PART_001_R158G218B229A255,3737,-0.0003562486,0.0001175765,0.0001175415,7.924905e-06,-6.032667e-09,-6.404293e-07,0.0004740076852251778
PART_001_R158G218B229A255,3738,-0.000356241,0.000117568,0.0001175194,8.266606e-06,-2.046449e-08,-7.744648e-07,0.0004740029057858222
PART_001_R158G218B229A255,3739,-0.0003562499,0.0001175438,0.0001175684,8.856187e-06,-2.85906e-08,-6.330368e-07,0.00047405551035025904
PART_002_R214G39B40A255,3740,-0.0003562399,0.0001175709,0.0001175917,9.932058e-06,2.937384e-08,-2.313596e-07,0.00047413355754737194
PART_003_R247G182B210A255,3741,-0.0004453,0.0001470387,0.000146802,3.648597e-06,4.539739e-08,6.235333e-07,0.0005922550922690264
PART_001_R158G218B229A255,3742,-0.0004453121,0.000146955,0.0001469023,3.134653e-06,2.759535e-08,1.347623e-06,0.0005922702396200417
PART_001_R158G218B229A255,3743,-0.0004453019,0.0001469971,0.0001468745,2.938985e-06,5.564212e-09,1.372613e-06,0.0005922643580066889
PART_001_R158G218B229A255,3744,-0.0004453107,0.000146959,0.0001469229,2.809037e-06,6.43742e-09,1.069912e-06,0.0005922745345117553
PART_001_R158G218B229A255,3745,-0.0004453025,0.0001469843,0.0001468906,2.747349e-06,9.558657e-10,5.776624e-07,0.000592259917455706
PART_001_R158G218B229A255,3746,-0.0004453102,0.0001469603,0.0001469263,2.724281e-06,-5.201121e-17,2.892735e-14,0.0005922722973853756
PART_001_R158G218B229A255,3747,-0.0004453025,0.0001469843,0.0001468906,2.747349e-06,-9.558656e-10,-5.776623e-07,0.0005922599174554133
PART_001_R158G218B229A255,3748,-0.0004453107,0.000146959,0.0001469229,2.809037e-06,-6.437421e-09,-1.069912e-06,0.0005922745345117553
PART_001_R158G218B229A255,3749,-0.0004453019,0.0001469971,0.0001468745,2.938985e-06,-5.564212e-09,-1.372613e-06,0.0005922643580066889
PART_001_R158G218B229A255,3750,-0.0004453121,0.000146955,0.0001469023,3.134653e-06,-2.759535e-08,-1.347623e-06,0.0005922702396200417
PART_001_R158G218B229A255,3751,-0.0004453,0.0001470387,0.000146802,3.648597e-06,-4.539739e-08,-6.235333e-07,0.0005922550922690264
PART_003_R247G182B210A255,3752,0.0004407679,-0.0001455387,-0.0001453291,3.647574e-06,4.438242e-08,-6.233815e-07,0.0005862368713954264
PART_000_R31G119B180A255,3753,0.0004407579,-0.0001454545,-0.0001453796,3.135201e-06,2.762711e-08,-1.348086e-06,0.000586204758568457
PART_000_R31G119B180A255,3754,0.0004407661,-0.0001454964,-0.0001453986,2.938568e-06,5.293906e-09,-1.372178e-06,0.0005862405191094601
PART_000_R31G119B180A255,3755,0.0004407588,-0.0001454586,-0.0001454016,2.80934e-06,6.489836e-09,-1.07036e-06,0.0005862120292450586
PART_000_R31G119B180A255,3756,0.0004407654,-0.0001454837,-0.0001454136,2.747079e-06,8.844398e-10,-5.774619e-07,0.0005862342158396176
PART_000_R31G119B180A255,3757,0.000440759,-0.0001454599,-0.0001454054,2.724521e-06,-3.369328e-17,-2.893687e-14,0.000586210646270987
PART_000_R31G119B180A255,3758,0.0004407654,-0.0001454837,-0.0001454136,2.747079e-06,-8.844398e-10,5.774618e-07,0.000586234215839322
PART_000_R31G119B180A255,3759,0.0004407588,-0.0001454586,-0.0001454016,2.80934e-06,-6.489837e-09,1.07036e-06,0.0005862120292450588
PART_000_R31G119B180A255,3760,0.0004407661,-0.0001454964,-0.0001453986,2.938568e-06,-5.293906e-09,1.372178e-06,0.0005862405191094601
PART_000_R31G119B180A255,3761,0.0004407579,-0.0001454545,-0.0001453796,3.135201e-06,-2.762711e-08,1.348086e-06,0.000586204758568457
PART_000_R31G119B180A255,3762,0.0004407679,-0.0001455387,-0.0001453291,3.647574e-06,-4.438242e-08,6.233815e-07,0.0005862368713954264
PART_003_R247G182B210A255,3763,0.0003526145,-0.0001163708,-0.0001164133,9.933065e-06,-2.893174e-08,-2.311419e-07,0.00046932217657952535
PART_003_R247G182B210A255,3764,0.0003526063,-0.0001163448,-0.0001163483,8.85603e-06,2.82847e-08,-6.335394e-07,0.0004692049337453513
PART_000_R31G119B180A255,3765,0.0003526134,-0.0001163688,-0.0001163398,8.266787e-06,2.022859e-08,-7.74039e-07,0.0004691881522509474
PART_000_R31G119B180A255,3766,0.000352607,-0.0001163772,-0.000116323,7.924942e-06,5.967361e-09,-6.408489e-07,0.00046915925881252325
PART_000_R31G119B180A255,3767,0.0003526127,-0.0001163694,-0.0001163397,7.736569e-06,4.965314e-09,-3.579463e-07,0.00046915906703849316
PART_000_R31G119B180A255,3768,0.0003526072,-0.0001163808,-0.0001163206,7.679038e-06,9.972288e-17,-2.142063e-14,0.00046914647772764573
PART_000_R31G119B180A255,3769,0.0003526127,-0.0001163694,-0.0001163397,7.736569e-06,-4.965315e-09,3.579463e-07,0.0004691590670384932
PART_000_R31G119B180A255,3770,0.000352607,-0.0001163772,-0.000116323,7.924942e-06,-5.967361e-09,6.408489e-07,0.00046915925881252325
PART_000_R31G119B180A255,3771,0.0003526134,-0.0001163688,-0.0001163398,8.266787e-06,-2.022859e-08,7.740389e-07,0.00046918815225045253
PART_000_R31G119B180A255,3772,0.0003526063,-0.0001163448,-0.0001163483,8.85603e-06,-2.82847e-08,6.335394e-07,0.0004692049337453513
PART_002_R214G39B40A255,3773,0.0003526145,-0.0001163708,-0.0001164133,9.933065e-06,2.893174e-08,2.311419e-07,0.00046932217657952535
PART_003_R247G182B210A255,3774,0.0002644611,-8.731105e-05,-8.72328e-05,1.452004e-05,3.067697e-09,-1.261342e-07,0.0003526310648687858
PART_003_R247G182B210A255,3775,0.0002644546,-8.727095e-05,-8.727544e-05,1.331909e-05,-3.090302e-08,-3.184129e-07,0.0003524839617504334
PART_003_R247G182B210A255,3776,0.00026446,-8.725461e-05,-8.728235e-05,1.249381e-05,1.230521e-08,-4.057554e-07,0.00035239424576995844
PART_000_R31G119B180A255,3777,0.0002644551,-8.727566e-05,-8.724595e-05,1.198327e-05,3.316568e-09,-3.624105e-07,0.000352328353711096
PART_000_R31G119B180A255,3778,0.0002644595,-8.727547e-05,-8.726258e-05,1.170193e-05,2.691093e-09,-2.068158e-07,0.00035231220424577364
PART_000_R31G119B180A255,3779,0.0002644552,-8.727677e-05,-8.72429e-05,1.161069e-05,-3.048539e-16,-1.501524e-14,0.0003522894989525833
PART_000_R31G119B180A255,3780,0.0002644595,-8.727547e-05,-8.726258e-05,1.170193e-05,-2.691093e-09,2.068158e-07,0.00035231220424577364
PART_000_R31G119B180A255,3781,0.0002644551,-8.727566e-05,-8.724595e-05,1.198327e-05,-3.316568e-09,3.624105e-07,0.000352328353711096
PART_000_R31G119B180A255,3782,0.00026446,-8.725461e-05,-8.728235e-05,1.249381e-05,-1.230521e-08,4.057554e-07,0.00035239424576995844
PART_002_R214G39B40A255,3783,0.0002644546,-8.727095e-05,-8.727544e-05,1.331909e-05,3.090302e-08,3.184129e-07,0.0003524839617504334
PART_002_R214G39B40A255,3784,0.0002644611,-8.731105e-05,-8.72328e-05,1.452004e-05,-3.067697e-09,1.261342e-07,0.0003526310648687858
PART_003_R247G182B210A255,3785,0.0001763073,-5.818759e-05,-5.819698e-05,1.772587e-05,-1.226434e-08,-5.836077e-08,0.00023650092072178603
PART_003_R247G182B210A255,3786,0.000176303,-5.818699e-05,-5.816448e-05,1.645298e-05,1.04437e-09,-1.614307e-07,0.00023620427045832878
PART_003_R247G182B210A255,3787,0.0001763067,-5.818026e-05,-5.818573e-05,1.553589e-05,-2.340508e-08,-2.066438e-07,0.00023602889328699475
PART_003_R247G182B210A255,3788,0.0001763034,-5.81714e-05,-5.817838e-05,1.492198e-05,3.678541e-09,-1.868489e-07,0.0002358986429748058
PART_000_R31G119B180A255,3789,0.0001763064,-5.818377e-05,-5.817301e-05,1.457606e-05,-3.527328e-09,-1.103502e-07,0.00023584006863205866
PART_000_R31G119B180A255,3790,0.0001763035,-5.817954e-05,-5.81705e-05,1.446382e-05,3.021506e-16,-9.467233e-15,0.00023581302480918818
PART_000_R31G119B180A255,3791,0.0001763064,-5.818377e-05,-5.817301e-05,1.457606e-05,3.527328e-09,1.103502e-07,0.00023584006863205866
PART_000_R31G119B180A255,3792,0.0001763034,-5.81714e-05,-5.817838e-05,1.492198e-05,-3.67854e-09,1.868488e-07,0.0002358986429745681
PART_002_R214G39B40A255,3793,0.0001763067,-5.818026e-05,-5.818573e-05,1.553589e-05,2.340508e-08,2.066438e-07,0.00023602889328699475
PART_002_R214G39B40A255,3794,0.000176303,-5.818699e-05,-5.816448e-05,1.645298e-05,-1.04437e-09,1.614307e-07,0.00023620427045832878
PART_002_R214G39B40A255,3795,0.0001763073,-5.818759e-05,-5.819698e-05,1.772587e-05,1.226434e-08,5.836077e-08,0.00023650092072178603
PART_003_R247G182B210A255,3796,8.815375e-05,-2.910219e-05,-2.908052e-05,1.96223e-05,-1.625285e-09,-2.570776e-08,0.00012207178609782905
PART_003_R247G182B210A255,3797,8.815155e-05,-2.909099e-05,-2.90918e-05,1.832393e-05,-2.377453e-08,-6.644287e-08,0.00012146284338985956
PART_003_R247G182B210A255,3798,8.815336e-05,-2.908789e-05,-2.909201e-05,1.735699e-05,-1.590248e-09,-8.702927e-08,0.0001210364068697323
PART_003_R247G182B210A255,3799,8.815171e-05,-2.909041e-05,-2.908572e-05,1.669872e-05,-1.844773e-08,-7.937004e-08,0.00012075481989232924
PART_003_R247G182B210A255,3800,8.81532e-05,-2.908618e-05,-2.909314e-05,1.631644e-05,3.512419e-10,-4.669647e-08,0.00012060088491459191
PART_000_R31G119B180A255,3801,8.815175e-05,-2.909177e-05,-2.908216e-05,1.619239e-05,-1.855987e-16,-4.581716e-15,0.0001205466583769604
PART_000_R31G119B180A255,3802,8.81532e-05,-2.908618e-05,-2.909314e-05,1.631644e-05,-3.512415e-10,4.669646e-08,0.0001206008849145803
PART_002_R214G39B40A255,3803,8.815171e-05,-2.909041e-05,-2.908572e-05,1.669872e-05,1.844773e-08,7.937003e-08,0.00012075481989230952
PART_002_R214G39B40A255,3804,8.815336e-05,-2.908789e-05,-2.909201e-05,1.735699e-05,1.590248e-09,8.702926e-08,0.00012103640686971072
PART_002_R214G39B40A255,3805,8.815155e-05,-2.909099e-05,-2.90918e-05,1.832393e-05,2.377453e-08,6.644286e-08,0.00012146284338984315
PART_002_R214G39B40A255,3806,8.815375e-05,-2.910219e-05,-2.908052e-05,1.96223e-05,1.625285e-09,2.570776e-08,0.00012207178609782905
PART_003_R247G182B210A255,3807,9.64883e-14,-3.184258e-14,-3.19252e-14,2.025288e-05,-9.526447e-09,-3.562959e-17,3.507902104025677e-05
PART_003_R247G182B210A255,3808,9.645691e-14,-3.168299e-14,-3.201366e-14,1.894438e-05,-3.961607e-09,-6.414157e-17,3.281262939534395e-05
PART_003_R247G182B210A255,3809,9.647166e-14,-3.185646e-14,-3.180928e-14,1.796605e-05,-2.538942e-08,-1.07004e-16,3.111814248433611e-05
PART_003_R247G182B210A255,3810,9.644428e-14,-3.190677e-14,-3.177488e-14,1.729138e-05,-1.508572e-09,-8.621101e-17,2.9949548806961495e-05
PART_003_R247G182B210A255,3811,9.643843e-14,-3.18235e-14,-3.183413e-14,1.690036e-05,-1.054063e-08,-4.813932e-17,2.927228787955329e-05
PART_003_R247G182B210A255,3812,9.640476e-14,-3.18981e-14,-3.173677e-14,1.677116e-05,2.2284e-16,-3.746956e-18,2.904850122186685e-05
PART_002_R214G39B40A255,3813,9.639891e-14,-3.180095e-14,-3.182493e-14,1.690036e-05,1.054062e-08,5.133486e-17,2.9272287879542487e-05
PART_002_R214G39B40A255,3814,9.637652e-14,-3.189463e-14,-3.175465e-14,1.729138e-05,1.508573e-09,8.114491e-17,2.994954880696164e-05
PART_002_R214G39B40A255,3815,9.636877e-14,-3.18235e-14,-3.177065e-14,1.796605e-05,2.538942e-08,1.044874e-16,3.111814248433611e-05
PART_002_R214G39B40A255,3816,9.633646e-14,-3.166738e-14,-3.196883e-14,1.894438e-05,3.961607e-09,6.326828e-17,3.281262939534395e-05
PART_002_R214G39B40A255,3817,9.63364e-14,-3.184779e-14,-3.185162e-14,2.025288e-05,9.526447e-09,1.651037e-17,3.507902104025677e-05
PART_003_R247G182B210A255,3818,-8.815375e-05,2.910219e-05,2.908052e-05,1.96223e-05,-1.625285e-09,2.570776e-08,0.00012207178609782905
PART_003_R247G182B210A255,3819,-8.815155e-05,2.909099e-05,2.90918e-05,1.832393e-05,-2.377453e-08,6.644287e-08,0.00012146284338985956
PART_003_R247G182B210A255,3820,-8.815336e-05,2.908789e-05,2.909201e-05,1.735699e-05,-1.590248e-09,8.702927e-08,0.0001210364068697323
PART_003_R247G182B210A255,3821,-8.815171e-05,2.909041e-05,2.908572e-05,1.669872e-05,-1.844773e-08,7.937004e-08,0.00012075481989232924
PART_003_R247G182B210A255,3822,-8.81532e-05,2.908618e-05,2.909313e-05,1.631644e-05,3.512419e-10,4.669647e-08,0.00012060088005337997
PART_001_R158G218B229A255,3823,-8.815175e-05,2.909177e-05,2.908216e-05,1.619239e-05,-2.142468e-16,4.580382e-15,0.0001205466583769604
PART_001_R158G218B229A255,3824,-8.81532e-05,2.908618e-05,2.909313e-05,1.631644e-05,-3.512415e-10,-4.669646e-08,0.00012060088005336836
PART_002_R214G39B40A255,3825,-8.815171e-05,2.909041e-05,2.908572e-05,1.669872e-05,1.844773e-08,-7.937003e-08,0.00012075481989230952
PART_002_R214G39B40A255,3826,-8.815336e-05,2.908789e-05,2.909201e-05,1.735699e-05,1.590248e-09,-8.702926e-08,0.00012103640686971072
PART_002_R214G39B40A255,3827,-8.815155e-05,2.909099e-05,2.90918e-05,1.832393e-05,2.377453e-08,-6.644286e-08,0.00012146284338984315
PART_002_R214G39B40A255,3828,-8.815375e-05,2.910219e-05,2.908052e-05,1.96223e-05,1.625285e-09,-2.570776e-08,0.00012207178609782905
PART_003_R247G182B210A255,3829,-0.0001763073,5.818759e-05,5.819698e-05,1.772587e-05,-1.226434e-08,5.836077e-08,0.00023650092072178603
PART_003_R247G182B210A255,3830,-0.000176303,5.818699e-05,5.816448e-05,1.645298e-05,1.04437e-09,1.614307e-07,0.00023620427045832878
PART_003_R247G182B210A255,3831,-0.0001763067,5.818026e-05,5.818573e-05,1.553589e-05,-2.340508e-08,2.066438e-07,0.00023602889328699475
PART_003_R247G182B210A255,3832,-0.0001763034,5.81714e-05,5.817838e-05,1.492198e-05,3.67854e-09,1.868489e-07,0.00023589864297480573
PART_001_R158G218B229A255,3833,-0.0001763064,5.818377e-05,5.817301e-05,1.457606e-05,-3.527328e-09,1.103502e-07,0.00023584006863205866
PART_001_R158G218B229A255,3834,-0.0001763035,5.817954e-05,5.81705e-05,1.446382e-05,3.000809e-16,9.47171e-15,0.00023581302480918818
PART_001_R158G218B229A255,3835,-0.0001763064,5.818377e-05,5.817301e-05,1.457606e-05,3.527328e-09,-1.103502e-07,0.00023584006863205866
PART_001_R158G218B229A255,3836,-0.0001763034,5.81714e-05,5.817838e-05,1.492198e-05,-3.67854e-09,-1.868488e-07,0.0002358986429745681
PART_002_R214G39B40A255,3837,-0.0001763067,5.818026e-05,5.818573e-05,1.553589e-05,2.340508e-08,-2.066438e-07,0.00023602889328699475
PART_002_R214G39B40A255,3838,-0.000176303,5.818699e-05,5.816448e-05,1.645298e-05,-1.04437e-09,-1.614307e-07,0.00023620427045832878
PART_002_R214G39B40A255,3839,-0.0001763073,5.818759e-05,5.819698e-05,1.772587e-05,1.226434e-08,-5.836077e-08,0.00023650092072178603
PART_003_R247G182B210A255,3840,-0.0002644611,8.731105e-05,8.72328e-05,1.452004e-05,3.067697e-09,1.261342e-07,0.0003526310648687858
PART_003_R247G182B210A255,3841,-0.0002644546,8.727095e-05,8.727544e-05,1.331909e-05,-3.090302e-08,3.184129e-07,0.0003524839617504334
PART_003_R247G182B210A255,3842,-0.00026446,8.725461e-05,8.728235e-05,1.249381e-05,1.230521e-08,4.057554e-07,0.00035239424576995844
PART_001_R158G218B229A255,3843,-0.0002644551,8.727566e-05,8.724595e-05,1.198327e-05,3.316568e-09,3.624105e-07,0.000352328353711096
PART_001_R158G218B229A255,3844,-0.0002644595,8.727547e-05,8.726258e-05,1.170193e-05,2.691093e-09,2.068158e-07,0.00035231220424577364
PART_001_R158G218B229A255,3845,-0.0002644552,8.727677e-05,8.72429e-05,1.161069e-05,-3.230016e-16,1.500935e-14,0.0003522894989525833
PART_001_R158G218B229A255,3846,-0.0002644595,8.727547e-05,8.726258e-05,1.170193e-05,-2.691093e-09,-2.068158e-07,0.00035231220424577364
PART_001_R158G218B229A255,3847,-0.0002644551,8.727566e-05,8.724595e-05,1.198327e-05,-3.316568e-09,-3.624105e-07,0.000352328353711096
PART_001_R158G218B229A255,3848,-0.00026446,8.725461e-05,8.728235e-05,1.249381e-05,-1.230521e-08,-4.057554e-07,0.00035239424576995844
PART_002_R214G39B40A255,3849,-0.0002644546,8.727095e-05,8.727544e-05,1.331909e-05,3.090302e-08,-3.184129e-07,0.0003524839617504334
PART_002_R214G39B40A255,3850,-0.0002644611,8.731105e-05,8.72328e-05,1.452004e-05,-3.067697e-09,-1.261342e-07,0.0003526310648687858
PART_003_R247G182B210A255,3851,-0.0003526145,0.0001163708,0.0001164133,9.933065e-06,-2.893174e-08,2.311419e-07,0.00046932217657952535
PART_003_R247G182B210A255,3852,-0.0003526063,0.0001163448,0.0001163483,8.85603e-06,2.82847e-08,6.335394e-07,0.0004692049337453513
PART_001_R158G218B229A255,3853,-0.0003526134,0.0001163688,0.0001163398,8.266787e-06,2.022859e-08,7.74039e-07,0.0004691881522509474
PART_001_R158G218B229A255,3854,-0.000352607,0.0001163772,0.000116323,7.924942e-06,5.967361e-09,6.408489e-07,0.00046915925881252325
PART_001_R158G218B229A255,3855,-0.0003526127,0.0001163694,0.0001163397,7.736569e-06,4.965314e-09,3.579463e-07,0.00046915906703849316
PART_001_R158G218B229A255,3856,-0.0003526072,0.0001163808,0.0001163206,7.679038e-06,1.213764e-16,2.141458e-14,0.00046914647772764573
PART_001_R158G218B229A255,3857,-0.0003526127,0.0001163694,0.0001163397,7.736569e-06,-4.965315e-09,-3.579463e-07,0.0004691590670384932
PART_001_R158G218B229A255,3858,-0.000352607,0.0001163772,0.000116323,7.924942e-06,-5.967361e-09,-6.408489e-07,0.00046915925881252325
PART_001_R158G218B229A255,3859,-0.0003526134,0.0001163688,0.0001163398,8.266787e-06,-2.022859e-08,-7.740389e-07,0.00046918815225045253
PART_001_R158G218B229A255,3860,-0.0003526063,0.0001163448,0.0001163483,8.85603e-06,-2.82847e-08,-6.335394e-07,0.0004692049337453513
PART_002_R214G39B40A255,3861,-0.0003526145,0.0001163708,0.0001164133,9.933065e-06,2.893174e-08,-2.311419e-07,0.00046932217657952535
PART_003_R247G182B210A255,3862,-0.0004407679,0.0001455387,0.0001453291,3.647574e-06,4.438242e-08,6.233815e-07,0.0005862368713954264
PART_001_R158G218B229A255,3863,-0.0004407579,0.0001454545,0.0001453796,3.135201e-06,2.762711e-08,1.348086e-06,0.000586204758568457
PART_001_R158G218B229A255,3864,-0.0004407661,0.0001454964,0.0001453986,2.938568e-06,5.293906e-09,1.372178e-06,0.0005862405191094601
PART_001_R158G218B229A255,3865,-0.0004407588,0.0001454586,0.0001454016,2.80934e-06,6.489836e-09,1.07036e-06,0.0005862120292450586
PART_001_R158G218B229A255,3866,-0.0004407654,0.0001454837,0.0001454136,2.747079e-06,8.844399e-10,5.774619e-07,0.0005862342158396176
PART_001_R158G218B229A255,3867,-0.000440759,0.0001454599,0.0001454054,2.724521e-06,-4.953279e-17,2.893155e-14,0.000586210646270987
PART_001_R158G218B229A255,3868,-0.0004407654,0.0001454837,0.0001454136,2.747079e-06,-8.844397e-10,-5.774618e-07,0.000586234215839322
PART_001_R158G218B229A255,3869,-0.0004407588,0.0001454586,0.0001454016,2.80934e-06,-6.489837e-09,-1.07036e-06,0.0005862120292450588
PART_001_R158G218B229A255,3870,-0.0004407661,0.0001454964,0.0001453986,2.938568e-06,-5.293906e-09,-1.372178e-06,0.0005862405191094601
PART_001_R158G218B229A255,3871,-0.0004407579,0.0001454545,0.0001453796,3.135201e-06,-2.762711e-08,-1.348086e-06,0.000586204758568457
PART_001_R158G218B229A255,3872,-0.0004407679,0.0001455387,0.0001453291,3.647574e-06,-4.438242e-08,-6.233815e-07,0.0005862368713954264
PART_003_R247G182B210A255,3873,0.0004362142,-0.000144038,-0.0001438104,3.648382e-06,4.436703e-08,-6.235396e-07,0.0005801738587610891
PART_000_R31G119B180A255,3874,0.0004362223,-0.0001439558,-0.0001439002,3.134733e-06,2.708333e-08,-1.347772e-06,0.000580180406623807
PART_000_R31G119B180A255,3875,0.0004362156,-0.000143997,-0.0001438811,2.938892e-06,5.403201e-09,-1.372619e-06,0.0005801818607868866
PART_000_R31G119B180A255,3876,0.0004362214,-0.0001439598,-0.0001439207,2.809084e-06,6.319181e-09,-1.070057e-06,0.0005801850130103612
PART_000_R31G119B180A255,3877,0.000436216,-0.0001439845,-0.0001438967,2.747293e-06,9.202425e-10,-5.776651e-07,0.000580176981838402
PART_000_R31G119B180A255,3878,0.0004362211,-0.0001439611,-0.0001439241,2.724321e-06,-2.659514e-17,-2.892835e-14,0.0005801828897849136
PART_000_R31G119B180A255,3879,0.000436216,-0.0001439845,-0.0001438967,2.747293e-06,-9.202424e-10,5.776651e-07,0.000580176981838402
PART_000_R31G119B180A255,3880,0.0004362214,-0.0001439598,-0.0001439207,2.809084e-06,-6.319182e-09,1.070057e-06,0.0005801850130103612
PART_000_R31G119B180A255,3881,0.0004362156,-0.000143997,-0.0001438811,2.938892e-06,-5.4032e-09,1.372619e-06,0.0005801818607868866
PART_000_R31G119B180A255,3882,0.0004362223,-0.0001439558,-0.0001439002,3.134733e-06,-2.708333e-08,1.347772e-06,0.000580180406623807
PART_000_R31G119B180A255,3883,0.0004362142,-0.000144038,-0.0001438104,3.648382e-06,-4.436703e-08,6.235396e-07,0.0005801738587610891
PART_003_R247G182B210A255,3884,0.0003489712,-0.0001151713,-0.0001151955,9.932277e-06,-2.875371e-08,-2.313428e-07,0.0004644734723947161
PART_003_R247G182B210A255,3885,0.0003489779,-0.000115145,-0.0001151655,8.856193e-06,2.798646e-08,-6.331941e-07,0.00046438785821929107
PART_000_R31G119B180A255,3886,0.000348972,-0.0001151686,-0.0001151244,8.266692e-06,2.00173e-08,-7.744643e-07,0.00046434125240417894
PART_000_R31G119B180A255,3887,0.0003489771,-0.000115177,-0.0001151394,7.924981e-06,5.886276e-09,-6.40569e-07,0.000464339557681485
PART_000_R31G119B180A255,3888,0.0003489724,-0.0001151692,-0.0001151249,7.736548e-06,4.914104e-09,-3.581335e-07,0.0004643132700196018
PART_000_R31G119B180A255,3889,0.0003489769,-0.0001151805,-0.0001151368,7.679055e-06,1.20094e-16,-2.140982e-14,0.00046432608570179325
PART_000_R31G119B180A255,3890,0.0003489724,-0.0001151692,-0.0001151249,7.736548e-06,-4.914104e-09,3.581335e-07,0.0004643132700196018
PART_000_R31G119B180A255,3891,0.0003489771,-0.000115177,-0.0001151394,7.924981e-06,-5.886276e-09,6.405689e-07,0.00046433955768107116
PART_000_R31G119B180A255,3892,0.000348972,-0.0001151686,-0.0001151244,8.266692e-06,-2.00173e-08,7.744643e-07,0.00046434125240417894
PART_000_R31G119B180A255,3893,0.0003489779,-0.000115145,-0.0001151655,8.856193e-06,-2.798646e-08,6.331941e-07,0.00046438785821929107
PART_002_R214G39B40A255,3894,0.0003489712,-0.0001151713,-0.0001151955,9.932276e-06,2.875371e-08,2.313428e-07,0.0004644734723305642
PART_003_R247G182B210A255,3895,0.0002617283,-8.64107e-05,-8.631995e-05,1.452058e-05,3.092813e-09,-1.262168e-07,0.0003490010995593853
PART_003_R247G182B210A255,3896,0.0002617335,-8.637144e-05,-8.638847e-05,1.331926e-05,-3.056757e-08,-3.182056e-07,0.0003488774747643306
PART_003_R247G182B210A255,3897,0.0002617291,-8.635538e-05,-8.637025e-05,1.249377e-05,1.21423e-08,-4.060627e-07,0.0003487646189390474
PART_000_R31G119B180A255,3898,0.000261733,-8.637616e-05,-8.635851e-05,1.198343e-05,3.280047e-09,-3.622052e-07,0.0003487191489645294
PART_000_R31G119B180A255,3899,0.0002617293,-8.637599e-05,-8.635117e-05,1.170193e-05,2.647734e-09,-2.069576e-07,0.00034868264594222273
PART_000_R31G119B180A255,3900,0.0002617328,-8.637728e-05,-8.635528e-05,1.161086e-05,-3.060017e-16,-1.500197e-14,0.00034867951770883415
PART_000_R31G119B180A255,3901,0.0002617293,-8.637599e-05,-8.635117e-05,1.170193e-05,-2.647733e-09,2.069575e-07,0.00034868264594204465
PART_000_R31G119B180A255,3902,0.000261733,-8.637616e-05,-8.635851e-05,1.198343e-05,-3.280047e-09,3.622051e-07,0.0003487191489642178
PART_000_R31G119B180A255,3903,0.0002617291,-8.635538e-05,-8.637025e-05,1.249377e-05,-1.21423e-08,4.060627e-07,0.0003487646189390474
PART_002_R214G39B40A255,3904,0.0002617335,-8.637144e-05,-8.638847e-05,1.331926e-05,3.056757e-08,3.182056e-07,0.0003488774747643306
PART_002_R214G39B40A255,3905,0.0002617283,-8.64107e-05,-8.631995e-05,1.452058e-05,-3.092813e-09,1.262168e-07,0.0003490010995593853
PART_003_R247G182B210A255,3906,0.0001744856,-5.758788e-05,-5.758792e-05,1.772506e-05,-1.219048e-08,-5.846274e-08,0.00023409539371324956
PART_003_R247G182B210A255,3907,0.0001744891,-5.758704e-05,-5.757344e-05,1.645284e-05,9.9168e-10,-1.612707e-07,0.00023381262704699833
PART_003_R247G182B210A255,3908,0.000174486,-5.758029e-05,-5.757761e-05,1.553573e-05,-2.318082e-08,-2.068503e-07,0.000233620092708181
PART_003_R247G182B210A255,3909,0.0001744886,-5.757157e-05,-5.758668e-05,1.492192e-05,3.623239e-09,-1.867188e-07,0.0002335027299165543
PART_000_R31G119B180A255,3910,0.0001744862,-5.758381e-05,-5.756535e-05,1.457589e-05,-3.502214e-09,-1.104426e-07,0.00023343010133049162
PART_000_R31G119B180A255,3911,0.0001744885,-5.757962e-05,-5.757874e-05,1.446378e-05,2.870247e-16,-9.469884e-15,0.00023341596110126745
PART_000_R31G119B180A255,3912,0.0001744862,-5.758381e-05,-5.756535e-05,1.457589e-05,3.502213e-09,1.104425e-07,0.00023343010133034965
PART_000_R31G119B180A255,3913,0.0001744886,-5.757157e-05,-5.758668e-05,1.492192e-05,-3.623238e-09,1.867187e-07,0.00023350272991631436
PART_002_R214G39B40A255,3914,0.000174486,-5.758029e-05,-5.757761e-05,1.553573e-05,2.318082e-08,2.068503e-07,0.000233620092708181
PART_002_R214G39B40A255,3915,0.0001744891,-5.758704e-05,-5.757344e-05,1.645284e-05,-9.916801e-10,1.612707e-07,0.00023381262704699833
PART_002_R214G39B40A255,3916,0.0001744856,-5.758788e-05,-5.758792e-05,1.772506e-05,1.219048e-08,5.846273e-08,0.00023409539371324208
PART_003_R247G182B210A255,3917,8.724274e-05,-2.880207e-05,-2.877614e-05,1.962288e-05,-1.58458e-09,-2.573677e-08,0.0001209072529318964
PART_003_R247G182B210A255,3918,8.724452e-05,-2.87911e-05,-2.879621e-05,1.832429e-05,-2.351525e-08,-6.637006e-08,0.00012030050607866344
PART_003_R247G182B210A255,3919,8.724301e-05,-2.878808e-05,-2.878793e-05,1.735703e-05,-1.608267e-09,-8.713758e-08,0.0001198624991389839
PART_003_R247G182B210A255,3920,8.724433e-05,-2.879056e-05,-2.878994e-05,1.669897e-05,-1.827528e-08,-7.929942e-08,0.00011958515969968437
PART_003_R247G182B210A255,3921,8.724309e-05,-2.878638e-05,-2.878921e-05,1.631657e-05,3.331136e-10,-4.674575e-08,0.00011942304721205586
PART_000_R31G119B180A255,3922,8.724427e-05,-2.879192e-05,-2.878634e-05,1.619265e-05,-1.897297e-16,-4.571847e-15,0.000119374853637522
PART_000_R31G119B180A255,3923,8.724309e-05,-2.878638e-05,-2.878921e-05,1.631657e-05,-3.331132e-10,4.674574e-08,0.00011942304721204411
PART_002_R214G39B40A255,3924,8.724433e-05,-2.879056e-05,-2.878994e-05,1.669897e-05,1.827528e-08,7.929941e-08,0.00011958515969966448
PART_002_R214G39B40A255,3925,8.724301e-05,-2.878808e-05,-2.878793e-05,1.735703e-05,1.608267e-09,8.713757e-08,0.00011986249913896208
PART_002_R214G39B40A255,3926,8.724452e-05,-2.87911e-05,-2.879621e-05,1.832429e-05,2.351525e-08,6.637006e-08,0.00012030050607866344
PART_002_R214G39B40A255,3927,8.724274e-05,-2.880207e-05,-2.877614e-05,1.962288e-05,1.58458e-09,2.573677e-08,0.0001209072529318964
PART_003_R247G182B210A255,3928,9.548617e-14,-3.151472e-14,-3.155844e-14,2.025202e-05,-9.469369e-09,-1.537026e-17,3.5077531430362196e-05
PART_003_R247G182B210A255,3929,9.548194e-14,-3.136207e-14,-3.170887e-14,1.894414e-05,-3.966393e-09,-7.141674e-17,3.28122137048938e-05
PART_003_R247G182B210A255,3930,9.543749e-14,-3.146788e-14,-3.145222e-14,1.796582e-05,-2.515336e-08,-8.783478e-17,3.1117743537919935e-05
PART_003_R247G182B210A255,3931,9.544389e-14,-3.15338e-14,-3.148663e-14,1.729127e-05,-1.509362e-09,-8.974272e-17,2.9949358281492792e-05
PART_003_R247G182B210A255,3932,9.540676e-14,-3.144533e-14,-3.147016e-14,1.690012e-05,-1.044679e-08,-5.031842e-17,2.9271872086517863e-05
PART_003_R247G182B210A255,3933,9.54041e-14,-3.153033e-14,-3.144493e-14,1.677106e-05,2.147711e-16,-1.094377e-17,2.9048328016786097e-05
PART_002_R214G39B40A255,3934,9.53783e-14,-3.143319e-14,-3.146502e-14,1.690012e-05,1.044679e-08,5.13861e-17,2.9271872086517863e-05
PART_002_R214G39B40A255,3935,9.537103e-14,-3.15234e-14,-3.145704e-14,1.729127e-05,1.509362e-09,8.373344e-17,2.9949358281492792e-05
PART_002_R214G39B40A255,3936,9.533298e-14,-3.145227e-14,-3.140841e-14,1.796582e-05,2.515336e-08,9.302963e-17,3.1117743537919935e-05
PART_002_R214G39B40A255,3937,9.532842e-14,-3.130655e-14,-3.167285e-14,1.894414e-05,3.966393e-09,6.85148e-17,3.28122137048938e-05
PART_002_R214G39B40A255,3938,9.530647e-14,-3.147829e-14,-3.148502e-14,2.025202e-05,9.469369e-09,3.237191e-17,3.5077531430362196e-05
PART_003_R247G182B210A255,3939,-8.724274e-05,2.880207e-05,2.877614e-05,1.962288e-05,-1.58458e-09,2.573677e-08,0.0001209072529318964
PART_003_R247G182B210A255,3940,-8.724452e-05,2.87911e-05,2.879621e-05,1.832429e-05,-2.351525e-08,6.637006e-08,0.00012030050607866344
PART_003_R247G182B210A255,3941,-8.724301e-05,2.878808e-05,2.878793e-05,1.735703e-05,-1.608267e-09,8.713758e-08,0.0001198624991389839
PART_003_R247G182B210A255,3942,-8.724433e-05,2.879056e-05,2.878994e-05,1.669897e-05,-1.827528e-08,7.929942e-08,0.00011958515969968437
PART_003_R247G182B210A255,3943,-8.724309e-05,2.878638e-05,2.878921e-05,1.631657e-05,3.331136e-10,4.674575e-08,0.00011942304721205586
PART_001_R158G218B229A255,3944,-8.724427e-05,2.879192e-05,2.878634e-05,1.619265e-05,-2.015752e-16,4.577143e-15,0.000119374853637522
PART_001_R158G218B229A255,3945,-8.724309e-05,2.878638e-05,2.878921e-05,1.631657e-05,-3.331132e-10,-4.674574e-08,0.00011942304721204411
PART_002_R214G39B40A255,3946,-8.724433e-05,2.879056e-05,2.878994e-05,1.669897e-05,1.827528e-08,-7.929941e-08,0.00011958515969966448
PART_002_R214G39B40A255,3947,-8.724301e-05,2.878808e-05,2.878793e-05,1.735703e-05,1.608267e-09,-8.713757e-08,0.00011986249913896208
PART_002_R214G39B40A255,3948,-8.724452e-05,2.87911e-05,2.879621e-05,1.832429e-05,2.351525e-08,-6.637006e-08,0.00012030050607866344
PART_002_R214G39B40A255,3949,-8.724274e-05,2.880207e-05,2.877614e-05,1.962288e-05,1.58458e-09,-2.573677e-08,0.0001209072529318964
PART_003_R247G182B210A255,3950,-0.0001744856,5.758788e-05,5.758792e-05,1.772506e-05,-1.219048e-08,5.846274e-08,0.00023409539371324956
PART_003_R247G182B210A255,3951,-0.0001744891,5.758703e-05,5.757344e-05,1.645284e-05,9.916801e-10,1.612707e-07,0.0002338126220838418
PART_003_R247G182B210A255,3952,-0.000174486,5.758029e-05,5.757761e-05,1.553573e-05,-2.318082e-08,2.068503e-07,0.000233620092708181
PART_003_R247G182B210A255,3953,-0.0001744886,5.757157e-05,5.758668e-05,1.492192e-05,3.623239e-09,1.867188e-07,0.0002335027299165543
PART_001_R158G218B229A255,3954,-0.0001744862,5.758381e-05,5.756535e-05,1.457589e-05,-3.502214e-09,1.104426e-07,0.00023343010133049162
PART_001_R158G218B229A255,3955,-0.0001744885,5.757962e-05,5.757874e-05,1.446378e-05,3.332473e-16,9.467247e-15,0.00023341596110126745
PART_001_R158G218B229A255,3956,-0.0001744862,5.758381e-05,5.756535e-05,1.457589e-05,3.502213e-09,-1.104425e-07,0.00023343010133034965
PART_001_R158G218B229A255,3957,-0.0001744886,5.757157e-05,5.758668e-05,1.492192e-05,-3.623238e-09,-1.867187e-07,0.00023350272991631436
PART_002_R214G39B40A255,3958,-0.000174486,5.758029e-05,5.757761e-05,1.553573e-05,2.318082e-08,-2.068503e-07,0.000233620092708181
PART_002_R214G39B40A255,3959,-0.0001744891,5.758703e-05,5.757344e-05,1.645284e-05,-9.916801e-10,-1.612707e-07,0.0002338126220838418
PART_002_R214G39B40A255,3960,-0.0001744856,5.758788e-05,5.758792e-05,1.772506e-05,1.219048e-08,-5.846273e-08,0.00023409539371324208
PART_003_R247G182B210A255,3961,-0.0002617283,8.64107e-05,8.631995e-05,1.452058e-05,3.092814e-09,1.262168e-07,0.00034900109955938535
PART_003_R247G182B210A255,3962,-0.0002617335,8.637144e-05,8.638847e-05,1.331926e-05,-3.056757e-08,3.182056e-07,0.0003488774747643306
PART_003_R247G182B210A255,3963,-0.0002617291,8.635538e-05,8.637025e-05,1.249377e-05,1.21423e-08,4.060627e-07,0.0003487646189390474
PART_001_R158G218B229A255,3964,-0.000261733,8.637616e-05,8.635851e-05,1.198343e-05,3.280047e-09,3.622052e-07,0.0003487191489645294
PART_001_R158G218B229A255,3965,-0.0002617293,8.637599e-05,8.635117e-05,1.170193e-05,2.647734e-09,2.069576e-07,0.00034868264594222273
PART_001_R158G218B229A255,3966,-0.0002617328,8.637728e-05,8.635528e-05,1.161086e-05,-3.054121e-16,1.500562e-14,0.00034867951770883415
PART_001_R158G218B229A255,3967,-0.0002617293,8.637599e-05,8.635117e-05,1.170193e-05,-2.647733e-09,-2.069575e-07,0.00034868264594204465
PART_001_R158G218B229A255,3968,-0.000261733,8.637616e-05,8.635851e-05,1.198343e-05,-3.280047e-09,-3.622051e-07,0.0003487191489642178
PART_001_R158G218B229A255,3969,-0.0002617291,8.635538e-05,8.637025e-05,1.249377e-05,-1.21423e-08,-4.060627e-07,0.0003487646189390474
PART_002_R214G39B40A255,3970,-0.0002617335,8.637144e-05,8.638847e-05,1.331926e-05,3.056757e-08,-3.182056e-07,0.0003488774747643306
PART_002_R214G39B40A255,3971,-0.0002617283,8.64107e-05,8.631995e-05,1.452058e-05,-3.092814e-09,-1.262168e-07,0.00034900109955938535
PART_003_R247G182B210A255,3972,-0.0003489712,0.0001151713,0.0001151955,9.932277e-06,-2.875371e-08,2.313428e-07,0.0004644734723947161
PART_003_R247G182B210A255,3973,-0.0003489779,0.000115145,0.0001151655,8.856193e-06,2.798646e-08,6.331941e-07,0.00046438785821929107
PART_001_R158G218B229A255,3974,-0.000348972,0.0001151686,0.0001151244,8.266692e-06,2.00173e-08,7.744643e-07,0.00046434125240417894
PART_001_R158G218B229A255,3975,-0.0003489771,0.000115177,0.0001151394,7.924981e-06,5.886276e-09,6.40569e-07,0.000464339557681485
PART_001_R158G218B229A255,3976,-0.0003489724,0.0001151692,0.0001151249,7.736548e-06,4.914104e-09,3.581335e-07,0.0004643132700196018
PART_001_R158G218B229A255,3977,-0.0003489769,0.0001151805,0.0001151368,7.679055e-06,1.151558e-16,2.14125e-14,0.00046432608570179325
PART_001_R158G218B229A255,3978,-0.0003489724,0.0001151692,0.0001151249,7.736548e-06,-4.914104e-09,-3.581335e-07,0.0004643132700196018
PART_001_R158G218B229A255,3979,-0.0003489771,0.000115177,0.0001151394,7.924981e-06,-5.886276e-09,-6.405689e-07,0.00046433955768107116
PART_001_R158G218B229A255,3980,-0.000348972,0.0001151686,0.0001151244,8.266692e-06,-2.00173e-08,-7.744643e-07,0.00046434125240417894
PART_001_R158G218B229A255,3981,-0.0003489779,0.000115145,0.0001151655,8.856193e-06,-2.798646e-08,-6.331941e-07,0.00046438785821929107
PART_002_R214G39B40A255,3982,-0.0003489712,0.0001151713,0.0001151955,9.932276e-06,2.875371e-08,-2.313428e-07,0.0004644734723305642
PART_003_R247G182B210A255,3983,-0.0004362142,0.000144038,0.0001438104,3.648382e-06,4.436703e-08,6.235396e-07,0.0005801738587610891
PART_001_R158G218B229A255,3984,-0.0004362223,0.0001439558,0.0001439002,3.134733e-06,2.708333e-08,1.347772e-06,0.000580180406623807
PART_001_R158G218B229A255,3985,-0.0004362156,0.000143997,0.0001438811,2.938892e-06,5.403201e-09,1.372619e-06,0.0005801818607868866
PART_001_R158G218B229A255,3986,-0.0004362214,0.0001439598,0.0001439207,2.809084e-06,6.319181e-09,1.070057e-06,0.0005801850130103612
PART_001_R158G218B229A255,3987,-0.000436216,0.0001439845,0.0001438967,2.747293e-06,9.202425e-10,5.776651e-07,0.000580176981838402
PART_001_R158G218B229A255,3988,-0.0004362211,0.0001439611,0.0001439241,2.724321e-06,-4.540435e-17,2.892961e-14,0.0005801828897849136
PART_001_R158G218B229A255,3989,-0.000436216,0.0001439845,0.0001438967,2.747293e-06,-9.202424e-10,-5.776651e-07,0.000580176981838402
PART_001_R158G218B229A255,3990,-0.0004362214,0.0001439598,0.0001439207,2.809084e-06,-6.319182e-09,-1.070057e-06,0.0005801850130103612
PART_001_R158G218B229A255,3991,-0.0004362156,0.000143997,0.0001438811,2.938892e-06,-5.4032e-09,-1.372619e-06,0.0005801818607868866
PART_001_R158G218B229A255,3992,-0.0004362223,0.0001439558,0.0001439002,3.134733e-06,-2.708333e-08,-1.347772e-06,0.000580180406623807
PART_001_R158G218B229A255,3993,-0.0004362142,0.000144038,0.0001438104,3.648382e-06,-4.436703e-08,-6.235396e-07,0.0005801738587610891
PART_003_R247G182B210A255,3994,0.0004316781,-0.0001425378,-0.0001423291,3.647732e-06,4.354741e-08,-6.234265e-07,0.0005741473626407552
PART_000_R31G119B180A255,3995,0.0004316715,-0.0001424556,-0.0001423855,3.135122e-06,2.700713e-08,-1.34808e-06,0.0005741224840361063
PART_000_R31G119B180A255,3996,0.000431677,-0.0001424965,-0.0001423975,2.93864e-06,5.208875e-09,-1.372311e-06,0.0005741514881420566
PART_000_R31G119B180A255,3997,0.0004316722,-0.0001424596,-0.0001424068,2.809307e-06,6.332106e-09,-1.070354e-06,0.0005741290152142142
PART_000_R31G119B180A255,3998,0.0004316765,-0.0001424841,-0.0001424124,2.747137e-06,8.711507e-10,-5.775245e-07,0.0005741453416246111
PART_000_R31G119B180A255,3999,0.0004316723,-0.0001424609,-0.0001424105,2.724502e-06,-4.758123e-17,-2.89358e-14,0.0005741273955339216
PART_000_R31G119B180A255,4000,0.0004316765,-0.0001424841,-0.0001424124,2.747137e-06,-8.711506e-10,5.775244e-07,0.0005741453416243093
PART_000_R31G119B180A255,4001,0.0004316722,-0.0001424596,-0.0001424068,2.809307e-06,-6.332107e-09,1.070354e-06,0.0005741290152142142
PART_000_R31G119B180A255,4002,0.000431677,-0.0001424965,-0.0001423975,2.93864e-06,-5.208875e-09,1.372311e-06,0.0005741514881420566
PART_000_R31G119B180A255,4003,0.0004316715,-0.0001424556,-0.0001423855,3.135122e-06,-2.700712e-08,1.34808e-06,0.0005741224840361049
PART_000_R31G119B180A255,4004,0.0004316781,-0.0001425378,-0.0001423291,3.647732e-06,-4.354741e-08,6.234265e-07,0.0005741473626407552
PART_003_R247G182B210A255,4005,0.0003453427,-0.0001139714,-0.0001140099,9.932869e-06,-2.83618e-08,-2.311984e-07,0.0004596556058234242
PART_003_R247G182B210A255,4006,0.0003453372,-0.0001139459,-0.0001139522,8.856018e-06,2.768901e-08,-6.335201e-07,0.00045954363555213574
PART_000_R31G119B180A255,4007,0.000345342,-0.0001139694,-0.0001139383,8.266735e-06,1.979571e-08,-7.741685e-07,0.0004595209401773985
PART_000_R31G119B180A255,4008,0.0003453377,-0.0001139776,-0.0001139273,7.924925e-06,5.826408e-09,-6.408438e-07,0.00045949656063731966
PART_000_R31G119B180A255,4009,0.0003453416,-0.00011397,-0.0001139383,7.736548e-06,4.854426e-09,-3.580056e-07,0.00045949160364616476
PART_000_R31G119B180A255,4010,0.0003453379,-0.0001139811,-0.0001139249,7.679027e-06,1.178672e-16,-2.141537e-14,0.00045948344427045485
PART_000_R31G119B180A255,4011,0.0003453416,-0.00011397,-0.0001139383,7.736548e-06,-4.854427e-09,3.580056e-07,0.00045949160364616476
PART_000_R31G119B180A255,4012,0.0003453377,-0.0001139776,-0.0001139273,7.924925e-06,-5.826407e-09,6.408438e-07,0.0004594965606373196
PART_000_R31G119B180A255,4013,0.000345342,-0.0001139694,-0.0001139383,8.266735e-06,-1.979571e-08,7.741685e-07,0.0004595209401773985
PART_000_R31G119B180A255,4014,0.0003453372,-0.0001139459,-0.0001139522,8.856018e-06,-2.768901e-08,6.335201e-07,0.00045954363555213574
PART_002_R214G39B40A255,4015,0.0003453427,-0.0001139714,-0.0001140099,9.932869e-06,2.83618e-08,2.311984e-07,0.0004596556058234242
PART_003_R247G182B210A255,4016,0.0002590071,-8.551072e-05,-8.543184e-05,1.452017e-05,3.007558e-09,-1.261613e-07,0.000345395299246543
PART_003_R247G182B210A255,4017,0.0002590028,-8.547154e-05,-8.547813e-05,1.331916e-05,-3.02812e-08,-3.184141e-07,0.0003452496893996453
PART_003_R247G182B210A255,4018,0.0002590064,-8.545556e-05,-8.548062e-05,1.249386e-05,1.202099e-08,-4.05854e-07,0.00034515425382107367
PART_000_R31G119B180A255,4019,0.0002590032,-8.547617e-05,-8.544915e-05,1.198337e-05,3.226217e-09,-3.624119e-07,0.0003450911861829447
PART_000_R31G119B180A255,4020,0.0002590061,-8.547599e-05,-8.546136e-05,1.170201e-05,2.620105e-09,-2.068625e-07,0.0003450707322895194
PART_000_R31G119B180A255,4021,0.0002590033,-8.547727e-05,-8.544614e-05,1.161081e-05,-2.889543e-16,-1.501089e-14,0.00034505155139924525
PART_000_R31G119B180A255,4022,0.0002590061,-8.547599e-05,-8.546136e-05,1.170201e-05,-2.620105e-09,2.068625e-07,0.0003450707322895194
PART_000_R31G119B180A255,4023,0.0002590032,-8.547617e-05,-8.544915e-05,1.198337e-05,-3.226217e-09,3.624118e-07,0.00034509118618262965
PART_000_R31G119B180A255,4024,0.0002590064,-8.545556e-05,-8.548062e-05,1.249386e-05,-1.202099e-08,4.05854e-07,0.00034515425382107367
PART_002_R214G39B40A255,4025,0.0002590028,-8.547154e-05,-8.547813e-05,1.331916e-05,3.02812e-08,3.184141e-07,0.0003452496893996453
PART_002_R214G39B40A255,4026,0.0002590071,-8.551072e-05,-8.543184e-05,1.452017e-05,-3.007559e-09,1.261613e-07,0.000345395299246543
PART_003_R247G182B210A255,4027,0.0001726714,-5.698789e-05,-5.699547e-05,1.772561e-05,-1.202999e-08,-5.839147e-08,0.000231706134512335
PART_003_R247G182B210A255,4028,0.0001726685,-5.698726e-05,-5.696668e-05,1.645286e-05,9.901461e-10,-1.614287e-07,0.00023140702278956168
PART_003_R247G182B210A255,4029,0.000172671,-5.698066e-05,-5.698461e-05,1.553578e-05,-2.295581e-08,-2.067122e-07,0.00023122500563682298
PART_003_R247G182B210A255,4030,0.0001726688,-5.6972e-05,-5.698023e-05,1.49219e-05,3.572765e-09,-1.868533e-07,0.00023109496125131766
PART_000_R31G119B180A255,4031,0.0001726708,-5.698412e-05,-5.697223e-05,1.457598e-05,-3.472139e-09,-1.10382e-07,0.00023103260807121127
PART_000_R31G119B180A255,4032,0.0001726689,-5.697998e-05,-5.697249e-05,1.446377e-05,2.814127e-16,-9.472357e-15,0.00023100755398705472
PART_000_R31G119B180A255,4033,0.0001726708,-5.698412e-05,-5.697223e-05,1.457598e-05,3.472139e-09,1.103819e-07,0.00023103260807106794
PART_000_R31G119B180A255,4034,0.0001726688,-5.6972e-05,-5.698023e-05,1.49219e-05,-3.572765e-09,1.868533e-07,0.00023109496125131766
PART_002_R214G39B40A255,4035,0.000172671,-5.698066e-05,-5.698461e-05,1.553578e-05,2.295581e-08,2.067122e-07,0.00023122500563682298
PART_002_R214G39B40A255,4036,0.0001726685,-5.698726e-05,-5.696668e-05,1.645286e-05,-9.901462e-10,1.614287e-07,0.00023140702278956168
PART_002_R214G39B40A255,4037,0.0001726714,-5.698789e-05,-5.699547e-05,1.772561e-05,1.202999e-08,5.839147e-08,0.000231706134512335
PART_003_R247G182B210A255,4038,8.633573e-05,-2.85021e-05,-2.848013e-05,1.962246e-05,-1.599639e-09,-2.571764e-08,0.00011975111480018487
PART_003_R247G182B210A255,4039,8.633426e-05,-2.849116e-05,-2.849271e-05,1.832406e-05,-2.330943e-08,-6.644407e-08,0.00011913179029571659
PART_003_R247G182B210A255,4040,8.633548e-05,-2.848813e-05,-2.849146e-05,1.735707e-05,-1.598544e-09,-8.70652e-08,0.00011869570410427743
PART_003_R247G182B210A255,4041,8.633438e-05,-2.84906e-05,-2.848672e-05,1.669887e-05,-1.810118e-08,-7.937154e-08,0.00011840991169004957
PART_003_R247G182B210A255,4042,8.633539e-05,-2.848646e-05,-2.84926e-05,1.631659e-05,3.237706e-10,-4.67133e-08,0.00011825168986393841
PART_000_R31G119B180A255,4043,8.633442e-05,-2.849194e-05,-2.848323e-05,1.619256e-05,-2.099762e-16,-4.591185e-15,0.00011819767293470249
PART_000_R31G119B180A255,4044,8.633539e-05,-2.848646e-05,-2.84926e-05,1.631659e-05,-3.237702e-10,4.671329e-08,0.00011825168986392655
PART_002_R214G39B40A255,4045,8.633438e-05,-2.84906e-05,-2.848672e-05,1.669887e-05,1.810118e-08,7.937153e-08,0.00011840991169002947
PART_002_R214G39B40A255,4046,8.633548e-05,-2.848813e-05,-2.849146e-05,1.735707e-05,1.598544e-09,8.706519e-08,0.00011869570410425542
PART_002_R214G39B40A255,4047,8.633426e-05,-2.849116e-05,-2.849271e-05,1.832406e-05,2.330943e-08,6.644407e-08,0.00011913179029571659
PART_002_R214G39B40A255,4048,8.633573e-05,-2.85021e-05,-2.848013e-05,1.962246e-05,1.599639e-09,2.571763e-08,0.00011975111480017844
PART_003_R247G182B210A255,4049,9.451581e-14,-3.119206e-14,-3.128843e-14,2.025258e-05,-9.347794e-09,-1.274446e-17,3.5078501280883677e-05
PART_003_R247G182B210A255,4050,9.448529e-14,-3.105155e-14,-3.134492e-14,1.894421e-05,-3.918173e-09,-7.25416e-17,3.281233493106729e-05
PART_003_R247G182B210A255,4051,9.449223e-14,-3.118512e-14,-3.115169e-14,1.79659e-05,-2.490647e-08,-1.007436e-16,3.1117881506084944e-05
PART_003_R247G182B210A255,4052,9.445282e-14,-3.124584e-14,-3.113535e-14,1.729128e-05,-1.511803e-09,-8.317864e-17,2.994937560237016e-05
PART_003_R247G182B210A255,4053,9.444989e-14,-3.118165e-14,-3.117263e-14,1.690025e-05,-1.034407e-08,-5.474469e-17,2.9272097143642655e-05
PART_003_R247G182B210A255,4054,9.441476e-14,-3.128053e-14,-3.108443e-14,1.677108e-05,2.141384e-16,3.286488e-18,2.904836265780225e-05
PART_002_R214G39B40A255,4055,9.441037e-14,-3.117472e-14,-3.117227e-14,1.690025e-05,1.034407e-08,5.231445e-17,2.9272097143642655e-05
PART_002_R214G39B40A255,4056,9.437991e-14,-3.124064e-14,-3.109129e-14,1.729128e-05,1.511803e-09,8.730369e-17,2.994937560237016e-05
PART_002_R214G39B40A255,4057,9.438126e-14,-3.116951e-14,-3.112585e-14,1.79659e-05,2.490647e-08,9.237826e-17,3.1117881506084944e-05
PART_002_R214G39B40A255,4058,9.435671e-14,-3.104114e-14,-3.129747e-14,1.894421e-05,3.918174e-09,7.109825e-17,3.281233493106765e-05
PART_002_R214G39B40A255,4059,9.434044e-14,-3.117298e-14,-3.119268e-14,2.025258e-05,9.347794e-09,1.026604e-17,3.5078501280883677e-05
PART_003_R247G182B210A255,4060,-8.633573e-05,2.85021e-05,2.848013e-05,1.962246e-05,-1.599639e-09,2.571764e-08,0.00011975111480018487
PART_003_R247G182B210A255,4061,-8.633426e-05,2.849116e-05,2.849271e-05,1.832406e-05,-2.330943e-08,6.644407e-08,0.00011913179029571659
PART_003_R247G182B210A255,4062,-8.633548e-05,2.848813e-05,2.849146e-05,1.735707e-05,-1.598544e-09,8.70652e-08,0.00011869570410427743
PART_003_R247G182B210A255,4063,-8.633438e-05,2.84906e-05,2.848672e-05,1.669887e-05,-1.810118e-08,7.937154e-08,0.00011840991169004957
PART_003_R247G182B210A255,4064,-8.633539e-05,2.848646e-05,2.84926e-05,1.631659e-05,3.237706e-10,4.67133e-08,0.00011825168986393841
PART_001_R158G218B229A255,4065,-8.633442e-05,2.849194e-05,2.848323e-05,1.619256e-05,-1.787824e-16,4.575803e-15,0.00011819767293470249
PART_001_R158G218B229A255,4066,-8.633539e-05,2.848646e-05,2.84926e-05,1.631659e-05,-3.237702e-10,-4.671329e-08,0.00011825168986392655
PART_002_R214G39B40A255,4067,-8.633438e-05,2.84906e-05,2.848672e-05,1.669887e-05,1.810118e-08,-7.937153e-08,0.00011840991169002947
PART_002_R214G39B40A255,4068,-8.633548e-05,2.848813e-05,2.849146e-05,1.735707e-05,1.598544e-09,-8.706519e-08,0.00011869570410425542
PART_002_R214G39B40A255,4069,-8.633426e-05,2.849116e-05,2.849271e-05,1.832406e-05,2.330943e-08,-6.644406e-08,0.00011913179029569986
PART_002_R214G39B40A255,4070,-8.633573e-05,2.85021e-05,2.848013e-05,1.962246e-05,1.599639e-09,-2.571763e-08,0.00011975111480017844
PART_003_R247G182B210A255,4071,-0.0001726714,5.698789e-05,5.699547e-05,1.772561e-05,-1.202999e-08,5.839147e-08,0.000231706134512335
PART_003_R247G182B210A255,4072,-0.0001726685,5.698726e-05,5.696668e-05,1.645286e-05,9.901462e-10,1.614287e-07,0.00023140702278956168
PART_003_R247G182B210A255,4073,-0.000172671,5.698066e-05,5.698461e-05,1.553578e-05,-2.295581e-08,2.067122e-07,0.00023122500563682298
PART_003_R247G182B210A255,4074,-0.0001726688,5.6972e-05,5.698023e-05,1.49219e-05,3.572765e-09,1.868533e-07,0.00023109496125131766
PART_001_R158G218B229A255,4075,-0.0001726708,5.698412e-05,5.697223e-05,1.457598e-05,-3.472139e-09,1.10382e-07,0.00023103260807121127
PART_001_R158G218B229A255,4076,-0.0001726689,5.697998e-05,5.697249e-05,1.446377e-05,3.072892e-16,9.466583e-15,0.00023100755398705472
PART_001_R158G218B229A255,4077,-0.0001726708,5.698412e-05,5.697223e-05,1.457598e-05,3.472139e-09,-1.103819e-07,0.00023103260807106794
PART_001_R158G218B229A255,4078,-0.0001726688,5.6972e-05,5.698023e-05,1.49219e-05,-3.572765e-09,-1.868533e-07,0.00023109496125131766
PART_002_R214G39B40A255,4079,-0.000172671,5.698066e-05,5.698461e-05,1.553578e-05,2.295581e-08,-2.067122e-07,0.00023122500563682298
PART_002_R214G39B40A255,4080,-0.0001726685,5.698726e-05,5.696668e-05,1.645286e-05,-9.901462e-10,-1.614287e-07,0.00023140702278956168
PART_002_R214G39B40A255,4081,-0.0001726714,5.698789e-05,5.699547e-05,1.772561e-05,1.202999e-08,-5.839147e-08,0.000231706134512335
PART_003_R247G182B210A255,4082,-0.0002590071,8.551072e-05,8.543184e-05,1.452017e-05,3.007559e-09,1.261613e-07,0.000345395299246543
PART_003_R247G182B210A255,4083,-0.0002590028,8.547154e-05,8.547813e-05,1.331916e-05,-3.02812e-08,3.184141e-07,0.0003452496893996453
PART_003_R247G182B210A255,4084,-0.0002590064,8.545556e-05,8.548062e-05,1.249386e-05,1.202099e-08,4.05854e-07,0.00034515425382107367
PART_001_R158G218B229A255,4085,-0.0002590032,8.547617e-05,8.544915e-05,1.198337e-05,3.226217e-09,3.624119e-07,0.0003450911861829447
PART_001_R158G218B229A255,4086,-0.0002590061,8.547599e-05,8.546136e-05,1.170201e-05,2.620105e-09,2.068625e-07,0.0003450707322895194
PART_001_R158G218B229A255,4087,-0.0002590033,8.547727e-05,8.544614e-05,1.161081e-05,-2.648503e-16,1.50008e-14,0.00034505155139924525
PART_001_R158G218B229A255,4088,-0.0002590061,8.547599e-05,8.546136e-05,1.170201e-05,-2.620105e-09,-2.068625e-07,0.0003450707322895194
PART_001_R158G218B229A255,4089,-0.0002590032,8.547617e-05,8.544915e-05,1.198337e-05,-3.226217e-09,-3.624118e-07,0.00034509118618262965
PART_001_R158G218B229A255,4090,-0.0002590064,8.545556e-05,8.548062e-05,1.249386e-05,-1.202099e-08,-4.05854e-07,0.00034515425382107367
PART_002_R214G39B40A255,4091,-0.0002590028,8.547154e-05,8.547813e-05,1.331916e-05,3.02812e-08,-3.184141e-07,0.0003452496893996453
PART_002_R214G39B40A255,4092,-0.0002590071,8.551072e-05,8.543184e-05,1.452017e-05,-3.007559e-09,-1.261613e-07,0.000345395299246543
PART_003_R247G182B210A255,4093,-0.0003453427,0.0001139714,0.0001140099,9.932869e-06,-2.83618e-08,2.311984e-07,0.0004596556058234242
PART_003_R247G182B210A255,4094,-0.0003453372,0.0001139459,0.0001139522,8.856018e-06,2.768901e-08,6.335201e-07,0.00045954363555213574
PART_001_R158G218B229A255,4095,-0.000345342,0.0001139694,0.0001139383,8.266735e-06,1.979571e-08,7.741685e-07,0.0004595209401773985
PART_001_R158G218B229A255,4096,-0.0003453377,0.0001139776,0.0001139273,7.924925e-06,5.826408e-09,6.408438e-07,0.00045949656063731966
PART_001_R158G218B229A255,4097,-0.0003453416,0.00011397,0.0001139383,7.736548e-06,4.854426e-09,3.580056e-07,0.00045949160364616476
PART_001_R158G218B229A255,4098,-0.0003453379,0.0001139811,0.0001139249,7.679027e-06,1.450849e-16,2.140768e-14,0.00045948344427045485
PART_001_R158G218B229A255,4099,-0.0003453416,0.00011397,0.0001139383,7.736548e-06,-4.854427e-09,-3.580056e-07,0.00045949160364616476
PART_001_R158G218B229A255,4100,-0.0003453377,0.0001139776,0.0001139273,7.924925e-06,-5.826407e-09,-6.408438e-07,0.0004594965606373196
PART_001_R158G218B229A255,4101,-0.000345342,0.0001139694,0.0001139383,8.266735e-06,-1.979571e-08,-7.741685e-07,0.0004595209401773985
PART_001_R158G218B229A255,4102,-0.0003453372,0.0001139459,0.0001139522,8.856018e-06,-2.768901e-08,-6.335201e-07,0.00045954363555213574
PART_001_R158G218B229A255,4103,-0.0003453427,0.0001139714,0.0001140099,9.932869e-06,2.83618e-08,-2.311984e-07,0.0004596556058234242
PART_003_R247G182B210A255,4104,-0.0004316781,0.0001425378,0.0001423291,3.647732e-06,4.354741e-08,6.234265e-07,0.0005741473626407552
PART_001_R158G218B229A255,4105,-0.0004316715,0.0001424556,0.0001423855,3.135122e-06,2.700713e-08,1.34808e-06,0.0005741224840361063
PART_001_R158G218B229A255,4106,-0.000431677,0.0001424965,0.0001423975,2.93864e-06,5.208875e-09,1.372311e-06,0.0005741514881420566
PART_001_R158G218B229A255,4107,-0.0004316722,0.0001424596,0.0001424068,2.809307e-06,6.332106e-09,1.070354e-06,0.0005741290152142142
PART_001_R158G218B229A255,4108,-0.0004316765,0.0001424841,0.0001424124,2.747137e-06,8.711506e-10,5.775245e-07,0.0005741453416246111
PART_001_R158G218B229A255,4109,-0.0004316723,0.0001424609,0.0001424105,2.724502e-06,-2.608523e-17,2.893888e-14,0.0005741273955339216
PART_001_R158G218B229A255,4110,-0.0004316765,0.0001424841,0.0001424124,2.747137e-06,-8.711506e-10,-5.775244e-07,0.0005741453416243093
PART_001_R158G218B229A255,4111,-0.0004316722,0.0001424596,0.0001424068,2.809307e-06,-6.332107e-09,-1.070354e-06,0.0005741290152142142
PART_001_R158G218B229A255,4112,-0.000431677,0.0001424965,0.0001423975,2.93864e-06,-5.208875e-09,-1.372311e-06,0.0005741514881420566
PART_001_R158G218B229A255,4113,-0.0004316715,0.0001424556,0.0001423855,3.135122e-06,-2.700712e-08,-1.34808e-06,0.0005741224840361049
PART_001_R158G218B229A255,4114,-0.0004316781,0.0001425378,0.0001423291,3.647732e-06,-4.354741e-08,-6.234265e-07,0.0005741473626407552
PART_003_R247G182B210A255,4115,0.0004271278,-0.0001410372,-0.0001408173,3.648253e-06,4.337699e-08,-6.235332e-07,0.0005680912579621432
PART_000_R31G119B180A255,4116,0.0004271331,-0.0001409566,-0.0001408995,3.134797e-06,2.655399e-08,-1.347857e-06,0.0005680918990023921
PART_000_R31G119B180A255,4117,0.0004271287,-0.000140997,-0.0001408862,2.938838e-06,5.262604e-09,-1.372602e-06,0.0005680980878754803
PART_000_R31G119B180A255,4118,0.0004271326,-0.0001409605,-0.0001409198,2.80912e-06,6.198455e-09,-1.070142e-06,0.0005680966112620425
PART_000_R31G119B180A255,4119,0.000427129,-0.0001409847,-0.0001409014,2.74726e-06,8.920541e-10,-5.776585e-07,0.0005680928643965773
PART_000_R31G119B180A255,4120,0.0004271324,-0.0001409618,-0.0001409232,2.724352e-06,-4.904829e-17,-2.894357e-14,0.0005680944986610412
PART_000_R31G119B180A255,4121,0.000427129,-0.0001409847,-0.0001409014,2.74726e-06,-8.920539e-10,5.776584e-07,0.0005680928643962722
PART_000_R31G119B180A255,4122,0.0004271326,-0.0001409605,-0.0001409198,2.80912e-06,-6.198455e-09,1.070142e-06,0.0005680966112620425
PART_000_R31G119B180A255,4123,0.0004271287,-0.000140997,-0.0001408862,2.938838e-06,-5.262603e-09,1.372602e-06,0.0005680980878754803
PART_000_R31G119B180A255,4124,0.0004271331,-0.0001409566,-0.0001408995,3.134797e-06,-2.655399e-08,1.347857e-06,0.0005680918990023921
PART_000_R31G119B180A255,4125,0.0004271278,-0.0001410372,-0.0001408173,3.648253e-06,-4.337699e-08,6.235332e-07,0.0005680912579621432
PART_003_R247G182B210A255,4126,0.0003417021,-0.0001127719,-0.0001127981,9.932404e-06,-2.813969e-08,-2.313263e-07,0.00045481275866008345
PART_003_R247G182B210A255,4127,0.0003417065,-0.0001127461,-0.0001127638,8.856177e-06,2.739576e-08,-6.332824e-07,0.0004547215750056439
PART_000_R31G119B180A255,4128,0.0003417026,-0.0001127694,-0.0001127283,8.266721e-06,1.958852e-08,-7.744457e-07,0.00045467893963965675
PART_000_R31G119B180A255,4129,0.0003417061,-0.0001127776,-0.0001127385,7.924998e-06,5.755074e-09,-6.406487e-07,0.0004546727536958456
PART_000_R31G119B180A255,4130,0.0003417029,-0.0001127699,-0.0001127287,7.73658e-06,4.804845e-09,-3.581279e-07,0.0004546501426418419
PART_000_R31G119B180A255,4131,0.0003417059,-0.000112781,-0.000112736,7.679084e-06,1.116932e-16,-2.140297e-14,0.0004546589902106272
PART_000_R31G119B180A255,4132,0.0003417029,-0.0001127699,-0.0001127287,7.73658e-06,-4.804846e-09,3.581279e-07,0.0004546501426418419
PART_000_R31G119B180A255,4133,0.0003417061,-0.0001127776,-0.0001127385,7.924998e-06,-5.755074e-09,6.406487e-07,0.0004546727536958456
PART_000_R31G119B180A255,4134,0.0003417026,-0.0001127694,-0.0001127283,8.266721e-06,-1.958852e-08,7.744457e-07,0.00045467893963965675
PART_000_R31G119B180A255,4135,0.0003417065,-0.0001127461,-0.0001127638,8.856177e-06,-2.739576e-08,6.332824e-07,0.0004547215750056439
PART_002_R214G39B40A255,4136,0.0003417021,-0.0001127719,-0.0001127981,9.932404e-06,2.813969e-08,2.313263e-07,0.00045481275866008345
PART_003_R247G182B210A255,4137,0.0002562765,-8.461051e-05,-8.452351e-05,1.452045e-05,3.014523e-09,-1.262182e-07,0.0003417702184375369
PART_003_R247G182B210A255,4138,0.00025628,-8.457201e-05,-8.458691e-05,1.331919e-05,-2.994799e-08,-3.182663e-07,0.0003416396942331597
PART_003_R247G182B210A255,4139,0.000256277,-8.455627e-05,-8.45726e-05,1.249374e-05,1.187578e-08,-4.06055e-07,0.000341528417112713
PART_000_R31G119B180A255,4140,0.0002562797,-8.457663e-05,-8.455771e-05,1.198339e-05,3.194923e-09,-3.622675e-07,0.00034147882468579994
PART_000_R31G119B180A255,4141,0.0002562772,-8.457647e-05,-8.455387e-05,1.170192e-05,2.584739e-09,-2.069552e-07,0.0003414446585857702
PART_000_R31G119B180A255,4142,0.0002562796,-8.457773e-05,-8.45546e-05,1.161083e-05,-2.864792e-16,-1.500412e-14,0.0003414385303968338
PART_000_R31G119B180A255,4143,0.0002562772,-8.457647e-05,-8.455387e-05,1.170192e-05,-2.584738e-09,2.069552e-07,0.00034144465858577017
PART_000_R31G119B180A255,4144,0.0002562797,-8.457663e-05,-8.455771e-05,1.198339e-05,-3.194923e-09,3.622674e-07,0.0003414788246854817
PART_000_R31G119B180A255,4145,0.000256277,-8.455627e-05,-8.45726e-05,1.249374e-05,-1.187578e-08,4.06055e-07,0.000341528417112713
PART_002_R214G39B40A255,4146,0.00025628,-8.457201e-05,-8.458691e-05,1.331919e-05,2.994799e-08,3.182663e-07,0.0003416396942331597
PART_002_R214G39B40A255,4147,0.0002562765,-8.461051e-05,-8.452351e-05,1.452045e-05,-3.014523e-09,1.262182e-07,0.0003417702184375369
PART_003_R247G182B210A255,4148,0.000170851,-5.638808e-05,-5.638944e-05,1.772519e-05,-1.193659e-08,-5.845576e-08,0.00022930430935010198
PART_003_R247G182B210A255,4149,0.0001708533,-5.63873e-05,-5.637279e-05,1.645288e-05,9.580868e-10,-1.613165e-07,0.00022901345613406782
PART_003_R247G182B210A255,4150,0.0001708513,-5.638071e-05,-5.637924e-05,1.553578e-05,-2.271979e-08,-2.068469e-07,0.00022881928158671023
PART_003_R247G182B210A255,4151,0.0001708531,-5.637216e-05,-5.638584e-05,1.492198e-05,3.528617e-09,-1.867607e-07,0.00022869746073832698
PART_000_R31G119B180A255,4152,0.0001708514,-5.638415e-05,-5.636721e-05,1.457597e-05,-3.440295e-09,-1.104423e-07,0.00022862536918042051
PART_000_R31G119B180A255,4153,0.000170853,-5.638005e-05,-5.63781e-05,1.446385e-05,2.886189e-16,-9.46978e-15,0.0002286088904266958
PART_000_R31G119B180A255,4154,0.0001708514,-5.638415e-05,-5.636721e-05,1.457597e-05,3.440295e-09,1.104423e-07,0.00022862536918042051
PART_000_R31G119B180A255,4155,0.0001708531,-5.637216e-05,-5.638584e-05,1.492198e-05,-3.528616e-09,1.867607e-07,0.00022869746073832692
PART_002_R214G39B40A255,4156,0.0001708513,-5.638071e-05,-5.637924e-05,1.553578e-05,2.271979e-08,2.068469e-07,0.00022881928158671023
PART_002_R214G39B40A255,4157,0.0001708533,-5.63873e-05,-5.637279e-05,1.645288e-05,-9.580869e-10,1.613165e-07,0.00022901345613406782
PART_002_R214G39B40A255,4158,0.000170851,-5.638808e-05,-5.638944e-05,1.772519e-05,1.193659e-08,5.845576e-08,0.00022930430935010198
PART_003_R247G182B210A255,4159,8.542548e-05,-2.820204e-05,-2.817727e-05,1.962272e-05,-1.563152e-09,-2.573759e-08,0.00011858985950084033
PART_003_R247G182B210A255,4160,8.542667e-05,-2.819129e-05,-2.819568e-05,1.832417e-05,-2.304994e-08,-6.639228e-08,0.0001179698269598991
PART_003_R247G182B210A255,4161,8.542567e-05,-2.818832e-05,-2.818877e-05,1.735697e-05,-1.597379e-09,-8.713563e-08,0.00011752449046249768
PART_003_R247G182B210A255,4162,8.542656e-05,-2.819076e-05,-2.818958e-05,1.66989e-05,-1.791634e-08,-7.932188e-08,0.00011724052609671648
PART_003_R247G182B210A255,4163,8.542573e-05,-2.818667e-05,-2.819001e-05,1.631653e-05,3.141045e-10,-4.674539e-08,0.00011707626112814136
PART_000_R31G119B180A255,4164,8.542652e-05,-2.819208e-05,-2.818608e-05,1.61926e-05,-2.166695e-16,-4.584433e-15,0.00011702608886329578
PART_000_R31G119B180A255,4165,8.542573e-05,-2.818667e-05,-2.819001e-05,1.631653e-05,-3.141041e-10,4.674538e-08,0.00011707626112812938
PART_002_R214G39B40A255,4166,8.542656e-05,-2.819076e-05,-2.818958e-05,1.66989e-05,1.791634e-08,7.932188e-08,0.00011724052609671648
PART_002_R214G39B40A255,4167,8.542567e-05,-2.818832e-05,-2.818877e-05,1.735697e-05,1.597379e-09,8.713563e-08,0.00011752449046249768
PART_002_R214G39B40A255,4168,8.542667e-05,-2.819129e-05,-2.819568e-05,1.832417e-05,2.304994e-08,6.639228e-08,0.0001179698269598991
PART_002_R214G39B40A255,4169,8.542548e-05,-2.820204e-05,-2.817727e-05,1.962272e-05,1.563152e-09,2.573759e-08,0.00011858985950084033
PART_003_R247G182B210A255,4170,9.349791e-14,-3.087114e-14,-3.090917e-14,2.025216e-05,-9.275699e-09,-2.543301e-17,3.507777376220697e-05
PART_003_R247G182B210A255,4171,9.349113e-14,-3.068032e-14,-3.106108e-14,1.89442e-05,-3.900004e-09,-6.900947e-17,3.2812317604065914e-05
PART_003_R247G182B210A255,4172,9.344565e-14,-3.078093e-14,-3.07897e-14,1.796589e-05,-2.465459e-08,-9.548264e-17,3.111786358384399e-05
PART_003_R247G182B210A255,4173,9.344939e-14,-3.080695e-14,-3.084346e-14,1.729134e-05,-1.501109e-09,-9.157654e-17,2.9949479523804498e-05
PART_003_R247G182B210A255,4174,9.341361e-14,-3.075838e-14,-3.081174e-14,1.690022e-05,-1.024181e-08,-5.998317e-17,2.9272045074254998e-05
PART_003_R247G182B210A255,4175,9.340451e-14,-3.083818e-14,-3.078909e-14,1.677115e-05,2.168475e-16,-1.319582e-17,2.9048483901358776e-05
PART_002_R214G39B40A255,4176,9.337339e-14,-3.073583e-14,-3.080875e-14,1.690022e-05,1.024181e-08,5.155424e-17,2.9272045074254998e-05
PART_002_R214G39B40A255,4177,9.337209e-14,-3.082257e-14,-3.079568e-14,1.729134e-05,1.501109e-09,8.312781e-17,2.9949479523804498e-05
PART_002_R214G39B40A255,4178,9.334715e-14,-3.075491e-14,-3.076501e-14,1.796589e-05,2.465459e-08,1.019667e-16,3.111786358384399e-05
PART_002_R214G39B40A255,4179,9.334813e-14,-3.064389e-14,-3.100701e-14,1.89442e-05,3.900004e-09,7.180298e-17,3.2812317604065914e-05
PART_002_R214G39B40A255,4180,9.331457e-14,-3.082083e-14,-3.08255e-14,2.025216e-05,9.275699e-09,1.579547e-17,3.507777376220697e-05
PART_003_R247G182B210A255,4181,-8.542548e-05,2.820204e-05,2.817727e-05,1.962272e-05,-1.563153e-09,2.573759e-08,0.00011858985950084037
PART_003_R247G182B210A255,4182,-8.542667e-05,2.819129e-05,2.819568e-05,1.832417e-05,-2.304994e-08,6.639228e-08,0.0001179698269598991
PART_003_R247G182B210A255,4183,-8.542567e-05,2.818832e-05,2.818877e-05,1.735697e-05,-1.597379e-09,8.713563e-08,0.00011752449046249768
PART_003_R247G182B210A255,4184,-8.542656e-05,2.819076e-05,2.818958e-05,1.66989e-05,-1.791634e-08,7.932188e-08,0.00011724052609671648
PART_003_R247G182B210A255,4185,-8.542573e-05,2.818667e-05,2.819001e-05,1.631653e-05,3.141045e-10,4.674539e-08,0.00011707626112814136
PART_001_R158G218B229A255,4186,-8.542652e-05,2.819208e-05,2.818608e-05,1.61926e-05,-1.809021e-16,4.578992e-15,0.00011702608886329578
PART_001_R158G218B229A255,4187,-8.542573e-05,2.818667e-05,2.819001e-05,1.631653e-05,-3.141041e-10,-4.674538e-08,0.00011707626112812938
PART_002_R214G39B40A255,4188,-8.542656e-05,2.819076e-05,2.818958e-05,1.66989e-05,1.791634e-08,-7.932188e-08,0.00011724052609671648
PART_002_R214G39B40A255,4189,-8.542567e-05,2.818832e-05,2.818877e-05,1.735697e-05,1.597379e-09,-8.713563e-08,0.00011752449046249768
PART_002_R214G39B40A255,4190,-8.542667e-05,2.819129e-05,2.819568e-05,1.832417e-05,2.304994e-08,-6.639228e-08,0.0001179698269598991
PART_002_R214G39B40A255,4191,-8.542548e-05,2.820204e-05,2.817727e-05,1.962272e-05,1.563153e-09,-2.573759e-08,0.00011858985950084037
PART_003_R247G182B210A255,4192,-0.000170851,5.638808e-05,5.638944e-05,1.772519e-05,-1.193659e-08,5.845576e-08,0.00022930430935010198
PART_003_R247G182B210A255,4193,-0.0001708533,5.63873e-05,5.637279e-05,1.645288e-05,9.580869e-10,1.613165e-07,0.00022901345613406782
PART_003_R247G182B210A255,4194,-0.0001708513,5.638071e-05,5.637924e-05,1.553578e-05,-2.271979e-08,2.068469e-07,0.00022881928158671023
PART_003_R247G182B210A255,4195,-0.0001708531,5.637216e-05,5.638584e-05,1.492198e-05,3.528617e-09,1.867607e-07,0.00022869746073832698
PART_001_R158G218B229A255,4196,-0.0001708514,5.638415e-05,5.636721e-05,1.457597e-05,-3.440295e-09,1.104423e-07,0.00022862536918042051
PART_001_R158G218B229A255,4197,-0.000170853,5.638005e-05,5.63781e-05,1.446385e-05,3.083878e-16,9.455093e-15,0.0002286088904266958
PART_001_R158G218B229A255,4198,-0.0001708514,5.638415e-05,5.636721e-05,1.457597e-05,3.440295e-09,-1.104423e-07,0.00022862536918042051
PART_001_R158G218B229A255,4199,-0.0001708531,5.637216e-05,5.638584e-05,1.492198e-05,-3.528616e-09,-1.867607e-07,0.00022869746073832692
PART_002_R214G39B40A255,4200,-0.0001708513,5.638071e-05,5.637924e-05,1.553578e-05,2.271979e-08,-2.068469e-07,0.00022881928158671023
PART_002_R214G39B40A255,4201,-0.0001708533,5.63873e-05,5.637279e-05,1.645288e-05,-9.58087e-10,-1.613165e-07,0.00022901345613406782
PART_002_R214G39B40A255,4202,-0.000170851,5.638808e-05,5.638944e-05,1.772519e-05,1.193659e-08,-5.845576e-08,0.00022930430935010198
PART_003_R247G182B210A255,4203,-0.0002562765,8.461051e-05,8.452351e-05,1.452045e-05,3.014524e-09,1.262182e-07,0.0003417702184375369
PART_003_R247G182B210A255,4204,-0.00025628,8.457201e-05,8.458691e-05,1.331919e-05,-2.994799e-08,3.182663e-07,0.0003416396942331597
PART_003_R247G182B210A255,4205,-0.000256277,8.455627e-05,8.45726e-05,1.249374e-05,1.187578e-08,4.06055e-07,0.000341528417112713
PART_001_R158G218B229A255,4206,-0.0002562797,8.457663e-05,8.455771e-05,1.198339e-05,3.194923e-09,3.622675e-07,0.00034147882468579994
PART_001_R158G218B229A255,4207,-0.0002562772,8.457647e-05,8.455387e-05,1.170192e-05,2.584739e-09,2.069552e-07,0.0003414446585857702
PART_001_R158G218B229A255,4208,-0.0002562796,8.457773e-05,8.45546e-05,1.161083e-05,-2.775405e-16,1.500913e-14,0.0003414385303968338
PART_001_R158G218B229A255,4209,-0.0002562772,8.457647e-05,8.455387e-05,1.170192e-05,-2.584738e-09,-2.069552e-07,0.00034144465858577017
PART_001_R158G218B229A255,4210,-0.0002562797,8.457663e-05,8.455771e-05,1.198339e-05,-3.194923e-09,-3.622674e-07,0.0003414788246854817
PART_001_R158G218B229A255,4211,-0.000256277,8.455627e-05,8.45726e-05,1.249374e-05,-1.187578e-08,-4.06055e-07,0.000341528417112713
PART_002_R214G39B40A255,4212,-0.00025628,8.457201e-05,8.458691e-05,1.331919e-05,2.994799e-08,-3.182663e-07,0.0003416396942331597
PART_002_R214G39B40A255,4213,-0.0002562765,8.461051e-05,8.452351e-05,1.452045e-05,-3.014524e-09,-1.262182e-07,0.0003417702184375369
PART_003_R247G182B210A255,4214,-0.0003417021,0.0001127719,0.0001127981,9.932404e-06,-2.813969e-08,2.313263e-07,0.00045481275866008345
PART_003_R247G182B210A255,4215,-0.0003417065,0.0001127461,0.0001127638,8.856177e-06,2.739576e-08,6.332824e-07,0.0004547215750056439
PART_001_R158G218B229A255,4216,-0.0003417026,0.0001127694,0.0001127283,8.266721e-06,1.958852e-08,7.744457e-07,0.00045467893963965675
PART_001_R158G218B229A255,4217,-0.0003417061,0.0001127776,0.0001127385,7.924998e-06,5.755074e-09,6.406487e-07,0.0004546727536958456
PART_001_R158G218B229A255,4218,-0.0003417029,0.0001127699,0.0001127287,7.73658e-06,4.804846e-09,3.581279e-07,0.0004546501426418419
PART_001_R158G218B229A255,4219,-0.0003417059,0.000112781,0.000112736,7.679084e-06,1.175749e-16,2.14014e-14,0.0004546589902106272
PART_001_R158G218B229A255,4220,-0.0003417029,0.0001127699,0.0001127287,7.73658e-06,-4.804846e-09,-3.581279e-07,0.0004546501426418419
PART_001_R158G218B229A255,4221,-0.0003417061,0.0001127776,0.0001127385,7.924998e-06,-5.755074e-09,-6.406487e-07,0.0004546727536958456
PART_001_R158G218B229A255,4222,-0.0003417026,0.0001127694,0.0001127283,8.266721e-06,-1.958852e-08,-7.744457e-07,0.00045467893963965675
PART_001_R158G218B229A255,4223,-0.0003417065,0.0001127461,0.0001127638,8.856177e-06,-2.739576e-08,-6.332824e-07,0.0004547215750056439
PART_002_R214G39B40A255,4224,-0.0003417021,0.0001127719,0.0001127981,9.932404e-06,2.813969e-08,-2.313263e-07,0.00045481275866008345
PART_003_R247G182B210A255,4225,-0.0004271278,0.0001410372,0.0001408173,3.648253e-06,4.337699e-08,6.235332e-07,0.0005680912579621432
PART_001_R158G218B229A255,4226,-0.0004271331,0.0001409566,0.0001408995,3.134797e-06,2.655399e-08,1.347857e-06,0.0005680918990023921
PART_001_R158G218B229A255,4227,-0.0004271287,0.000140997,0.0001408862,2.938838e-06,5.262604e-09,1.372602e-06,0.0005680980878754803
PART_001_R158G218B229A255,4228,-0.0004271326,0.0001409605,0.0001409198,2.80912e-06,6.198455e-09,1.070142e-06,0.0005680966112620425
PART_001_R158G218B229A255,4229,-0.000427129,0.0001409847,0.0001409014,2.74726e-06,8.92054e-10,5.776585e-07,0.0005680928643965773
PART_001_R158G218B229A255,4230,-0.0004271324,0.0001409618,0.0001409232,2.724352e-06,-2.890585e-17,2.894627e-14,0.0005680944986610412
PART_001_R158G218B229A255,4231,-0.000427129,0.0001409847,0.0001409014,2.74726e-06,-8.92054e-10,-5.776584e-07,0.0005680928643962722
PART_001_R158G218B229A255,4232,-0.0004271326,0.0001409605,0.0001409198,2.80912e-06,-6.198455e-09,-1.070142e-06,0.0005680966112620425
PART_001_R158G218B229A255,4233,-0.0004271287,0.000140997,0.0001408862,2.938838e-06,-5.262603e-09,-1.372602e-06,0.0005680980878754803
PART_001_R158G218B229A255,4234,-0.0004271331,0.0001409566,0.0001408995,3.134797e-06,-2.655399e-08,-1.347857e-06,0.0005680918990023921
PART_001_R158G218B229A255,4235,-0.0004271278,0.0001410372,0.0001408173,3.648253e-06,-4.337699e-08,-6.235332e-07,0.0005680912579621432
PART_003_R247G182B210A255,4236,0.0004225891,-0.0001395369,-0.0001393303,3.647832e-06,4.268238e-08,-6.234529e-07,0.0005620592841585067
PART_000_R31G119B180A255,4237,0.0004225847,-0.0001394566,-0.0001393901,3.135065e-06,2.64072e-08,-1.34806e-06,0.0005620391368654537
PART_000_R31G119B180A255,4238,0.0004225883,-0.0001394967,-0.0001393975,2.938681e-06,5.116722e-09,-1.372387e-06,0.0005620634805682317
PART_000_R31G119B180A255,4239,0.0004225851,-0.0001394605,-0.0001394108,2.809277e-06,6.184975e-09,-1.070337e-06,0.0005620448722064463
PART_000_R31G119B180A255,4240,0.000422588,-0.0001394845,-0.0001394122,2.747166e-06,8.570278e-10,-5.775604e-07,0.0005620573850908243
PART_000_R31G119B180A255,4241,0.0004225852,-0.0001394618,-0.0001394144,2.724481e-06,-6.117611e-17,-2.892976e-14,0.0005620431120635837
PART_000_R31G119B180A255,4242,0.000422588,-0.0001394845,-0.0001394122,2.747166e-06,-8.570277e-10,5.775604e-07,0.0005620573850908243
PART_000_R31G119B180A255,4243,0.0004225851,-0.0001394605,-0.0001394108,2.809277e-06,-6.184976e-09,1.070337e-06,0.0005620448722064463
PART_000_R31G119B180A255,4244,0.0004225883,-0.0001394967,-0.0001393975,2.938681e-06,-5.116722e-09,1.372387e-06,0.0005620634805682317
PART_000_R31G119B180A255,4245,0.0004225847,-0.0001394566,-0.0001393901,3.135065e-06,-2.64072e-08,1.34806e-06,0.0005620391368654537
PART_000_R31G119B180A255,4246,0.0004225891,-0.0001395369,-0.0001393303,3.647832e-06,-4.268238e-08,6.234529e-07,0.0005620592841585067
PART_003_R247G182B210A255,4247,0.0003380714,-0.0001115721,-0.0001116077,9.932764e-06,-2.778012e-08,-2.312296e-07,0.00044999047521790723
PART_003_R247G182B210A255,4248,0.0003380677,-0.000111547,-0.0001115551,8.856031e-06,2.710191e-08,-6.334946e-07,0.000449881667114536
PART_000_R31G119B180A255,4249,0.0003380709,-0.00011157,-0.0001115378,8.266718e-06,1.937377e-08,-7.742411e-07,0.00044985472866917406
PART_000_R31G119B180A255,4250,0.0003380681,-0.0001115781,-0.0001115306,7.924928e-06,5.696721e-09,-6.408283e-07,0.0004498332966418712
PART_000_R31G119B180A255,4251,0.0003380706,-0.0001115705,-0.0001115378,7.736545e-06,4.749364e-09,-3.58039e-07,0.0004498248143928779
PART_000_R31G119B180A255,4252,0.0003380682,-0.0001115815,-0.0001115283,7.67903e-06,1.106911e-16,-2.142543e-14,0.00044981978244794065
PART_000_R31G119B180A255,4253,0.0003380706,-0.0001115705,-0.0001115378,7.736545e-06,-4.749364e-09,3.58039e-07,0.0004498248143928779
PART_000_R31G119B180A255,4254,0.0003380681,-0.0001115781,-0.0001115306,7.924928e-06,-5.69672e-09,6.408282e-07,0.0004498332966414438
PART_000_R31G119B180A255,4255,0.0003380709,-0.00011157,-0.0001115378,8.266718e-06,-1.937377e-08,7.742411e-07,0.00044985472866917406
PART_000_R31G119B180A255,4256,0.0003380677,-0.000111547,-0.0001115551,8.856031e-06,-2.710191e-08,6.334946e-07,0.000449881667114536
PART_002_R214G39B40A255,4257,0.0003380714,-0.0001115721,-0.0001116077,9.932764e-06,2.778012e-08,2.312296e-07,0.00044999047521790723
PART_003_R247G182B210A255,4258,0.0002535536,-8.371046e-05,-8.363172e-05,1.452025e-05,2.948857e-09,-1.261764e-07,0.00033816128838664146
PART_003_R247G182B210A255,4259,0.0002535507,-8.367215e-05,-8.368006e-05,1.331919e-05,-2.964742e-08,-3.184033e-07,0.00033801542465262626
PART_003_R247G182B210A255,4260,0.0002535531,-8.365652e-05,-8.367962e-05,1.249386e-05,1.175592e-08,-4.059086e-07,0.0003379155252566162
PART_000_R31G119B180A255,4261,0.0002535509,-8.36767e-05,-8.365161e-05,1.19834e-05,3.15078e-09,-3.624025e-07,0.0003378538048534637
PART_000_R31G119B180A255,4262,0.0002535529,-8.367652e-05,-8.366084e-05,1.170202e-05,2.558782e-09,-2.068886e-07,0.00033783033381662897
PART_000_R31G119B180A255,4263,0.000253551,-8.367778e-05,-8.364865e-05,1.161085e-05,-2.741668e-16,-1.5004e-14,0.00033781335519433126
PART_000_R31G119B180A255,4264,0.0002535529,-8.367652e-05,-8.366084e-05,1.170202e-05,-2.558782e-09,2.068885e-07,0.00033783033381644525
PART_000_R31G119B180A255,4265,0.0002535509,-8.36767e-05,-8.365161e-05,1.19834e-05,-3.15078e-09,3.624024e-07,0.0003378538048531419
PART_000_R31G119B180A255,4266,0.0002535531,-8.365652e-05,-8.367962e-05,1.249386e-05,-1.175592e-08,4.059085e-07,0.0003379155252562558
PART_002_R214G39B40A255,4267,0.0002535507,-8.367215e-05,-8.368006e-05,1.331919e-05,2.964742e-08,3.184032e-07,0.00033801542465234367
PART_002_R214G39B40A255,4268,0.0002535536,-8.371046e-05,-8.363172e-05,1.452025e-05,-2.948857e-09,1.261764e-07,0.00033816128838664146
PART_003_R247G182B210A255,4269,0.0001690357,-5.578817e-05,-5.579452e-05,1.772549e-05,-1.178573e-08,-5.840805e-08,0.00022691361755545965
PART_003_R247G182B210A255,4270,0.0001690338,-5.578752e-05,-5.576837e-05,1.645282e-05,9.564969e-10,-1.614194e-07,0.0002266108668935734
PART_003_R247G182B210A255,4271,0.0001690355,-5.578104e-05,-5.578399e-05,1.553574e-05,-2.248455e-08,-2.067497e-07,0.00022642293894411454
PART_003_R247G182B210A255,4272,0.000169034,-5.577257e-05,-5.578158e-05,1.492189e-05,3.486324e-09,-1.868487e-07,0.00022629209593096807
PART_000_R31G119B180A255,4273,0.0001690353,-5.578444e-05,-5.577192e-05,1.457595e-05,-3.405768e-09,-1.103995e-07,0.00022622668379620312
PART_000_R31G119B180A255,4274,0.0001690341,-5.578038e-05,-5.5774e-05,1.446376e-05,2.947624e-16,-9.468175e-15,0.0002262028231521552
PART_000_R31G119B180A255,4275,0.0001690353,-5.578444e-05,-5.577192e-05,1.457595e-05,3.405767e-09,1.103995e-07,0.00022622668379620306
PART_000_R31G119B180A255,4276,0.000169034,-5.577257e-05,-5.578158e-05,1.492189e-05,-3.486324e-09,1.868487e-07,0.00022629209593096807
PART_002_R214G39B40A255,4277,0.0001690355,-5.578104e-05,-5.578399e-05,1.553574e-05,2.248455e-08,2.067497e-07,0.00022642293894411454
PART_002_R214G39B40A255,4278,0.0001690338,-5.578752e-05,-5.576837e-05,1.645282e-05,-9.56497e-10,1.614194e-07,0.00022661086689357342
PART_002_R214G39B40A255,4279,0.0001690357,-5.578817e-05,-5.579452e-05,1.772549e-05,1.178573e-08,5.840804e-08,0.00022691361755545193
PART_003_R247G182B210A255,4280,8.451787e-05,-2.790204e-05,-2.788002e-05,1.962254e-05,-1.566716e-09,-2.572307e-08,0.00011743464302929476
PART_003_R247G182B210A255,4281,8.451689e-05,-2.789134e-05,-2.789336e-05,1.832411e-05,-2.282592e-08,-6.644058e-08,0.00011680398567015631
PART_003_R247G182B210A255,4282,8.451771e-05,-2.788838e-05,-2.789117e-05,1.735709e-05,-1.580535e-09,-8.708488e-08,0.00011635837386493009
PART_003_R247G182B210A255,4283,8.451698e-05,-2.78908e-05,-2.788747e-05,1.669891e-05,-1.773271e-08,-7.936874e-08,0.00011606771870253967
PART_003_R247G182B210A255,4284,8.451765e-05,-2.788675e-05,-2.789231e-05,1.631662e-05,3.090822e-10,-4.67226e-08,0.00011590546558597419
PART_000_R31G119B180A255,4285,8.4517e-05,-2.789211e-05,-2.788405e-05,1.619262e-05,-1.766e-16,-4.583559e-15,0.00011585121875026737
PART_000_R31G119B180A255,4286,8.451765e-05,-2.788675e-05,-2.789231e-05,1.631662e-05,-3.090818e-10,4.672259e-08,0.00011590546558596209
PART_002_R214G39B40A255,4287,8.451698e-05,-2.78908e-05,-2.788747e-05,1.669891e-05,1.77327e-08,7.936873e-08,0.00011606771870251459
PART_002_R214G39B40A255,4288,8.451771e-05,-2.788838e-05,-2.789117e-05,1.735709e-05,1.580534e-09,8.708488e-08,0.00011635837386493005
PART_002_R214G39B40A255,4289,8.451689e-05,-2.789134e-05,-2.789336e-05,1.832411e-05,2.282592e-08,6.644058e-08,0.00011680398567015631
PART_002_R214G39B40A255,4290,8.451787e-05,-2.790204e-05,-2.788002e-05,1.962254e-05,1.566716e-09,2.572306e-08,0.00011743464302928818
PART_003_R247G182B210A255,4291,9.253226e-14,-3.05693e-14,-3.060823e-14,2.025245e-05,-9.159198e-09,-1.927339e-17,3.5078275965050276e-05
PART_003_R247G182B210A255,4292,9.249524e-14,-3.042358e-14,-3.068297e-14,1.894416e-05,-3.850627e-09,-7.140064e-17,3.281224830453995e-05
PART_003_R247G182B210A255,4293,9.250511e-14,-3.051032e-14,-3.052184e-14,1.796586e-05,-2.43972e-08,-9.692598e-17,3.111781101377318e-05
PART_003_R247G182B210A255,4294,9.245973e-14,-3.060052e-14,-3.046299e-14,1.729125e-05,-1.492789e-09,-8.576463e-17,2.9949323637984834e-05
PART_003_R247G182B210A255,4295,9.246288e-14,-3.052766e-14,-3.053594e-14,1.690021e-05,-1.013442e-08,-4.880202e-17,2.9272027641618988e-05
PART_003_R247G182B210A255,4296,9.244618e-14,-3.065256e-14,-3.04253e-14,1.677106e-05,2.282062e-16,-5.17823e-18,2.9048328016786097e-05
PART_002_R214G39B40A255,4297,9.243875e-14,-3.054501e-14,-3.050344e-14,1.690021e-05,1.013442e-08,5.274305e-17,2.9272027641618988e-05
PART_002_R214G39B40A255,4298,9.240189e-14,-3.059011e-14,-3.04503e-14,1.729125e-05,1.492789e-09,8.210375e-17,2.9949323637984834e-05
PART_002_R214G39B40A255,4299,9.239945e-14,-3.057624e-14,-3.045769e-14,1.796586e-05,2.43972e-08,9.625005e-17,3.111781101377318e-05
PART_002_R214G39B40A255,4300,9.235044e-14,-3.038889e-14,-3.063108e-14,1.894416e-05,3.850627e-09,6.912128e-17,3.281224830453995e-05
PART_002_R214G39B40A255,4301,9.236307e-14,-3.05346e-14,-3.05674e-14,2.025245e-05,9.159198e-09,1.91853e-17,3.5078275965050276e-05
PART_003_R247G182B210A255,4302,-8.451787e-05,2.790204e-05,2.788002e-05,1.962254e-05,-1.566716e-09,2.572307e-08,0.00011743464302929476
PART_003_R247G182B210A255,4303,-8.451689e-05,2.789134e-05,2.789336e-05,1.832411e-05,-2.282592e-08,6.644058e-08,0.00011680398567015631
PART_003_R247G182B210A255,4304,-8.451771e-05,2.788838e-05,2.789117e-05,1.735709e-05,-1.580535e-09,8.708488e-08,0.00011635837386493009
PART_003_R247G182B210A255,4305,-8.451698e-05,2.78908e-05,2.788747e-05,1.669891e-05,-1.773271e-08,7.936874e-08,0.00011606771870253967
PART_003_R247G182B210A255,4306,-8.451765e-05,2.788675e-05,2.789231e-05,1.631662e-05,3.090821e-10,4.67226e-08,0.00011590546558597419
PART_001_R158G218B229A255,4307,-8.4517e-05,2.789211e-05,2.788405e-05,1.619262e-05,-1.680467e-16,4.582095e-15,0.00011585121875026737
PART_001_R158G218B229A255,4308,-8.451765e-05,2.788675e-05,2.789231e-05,1.631662e-05,-3.090817e-10,-4.672259e-08,0.00011590546558596209
PART_002_R214G39B40A255,4309,-8.451698e-05,2.78908e-05,2.788747e-05,1.669891e-05,1.773271e-08,-7.936873e-08,0.00011606771870251917
PART_002_R214G39B40A255,4310,-8.451771e-05,2.788838e-05,2.789117e-05,1.735709e-05,1.580534e-09,-8.708487e-08,0.00011635837386490759
PART_002_R214G39B40A255,4311,-8.451689e-05,2.789134e-05,2.789336e-05,1.832411e-05,2.282592e-08,-6.644058e-08,0.00011680398567015631
PART_002_R214G39B40A255,4312,-8.451787e-05,2.790204e-05,2.788002e-05,1.962254e-05,1.566716e-09,-2.572306e-08,0.00011743464302928818
PART_003_R247G182B210A255,4313,-0.0001690357,5.578817e-05,5.579452e-05,1.772549e-05,-1.178573e-08,5.840804e-08,0.00022691361755545193
PART_003_R247G182B210A255,4314,-0.0001690338,5.578752e-05,5.576837e-05,1.645282e-05,9.56497e-10,1.614194e-07,0.00022661086689357342
PART_003_R247G182B210A255,4315,-0.0001690355,5.578104e-05,5.578399e-05,1.553574e-05,-2.248455e-08,2.067497e-07,0.00022642293894411454
PART_003_R247G182B210A255,4316,-0.000169034,5.577257e-05,5.578158e-05,1.492189e-05,3.486324e-09,1.868487e-07,0.00022629209593096807
PART_001_R158G218B229A255,4317,-0.0001690353,5.578444e-05,5.577192e-05,1.457595e-05,-3.405768e-09,1.103995e-07,0.00022622668379620312
PART_001_R158G218B229A255,4318,-0.0001690341,5.578038e-05,5.5774e-05,1.446376e-05,3.0466e-16,9.458843e-15,0.0002262028231521552
PART_001_R158G218B229A255,4319,-0.0001690353,5.578444e-05,5.577192e-05,1.457595e-05,3.405767e-09,-1.103995e-07,0.00022622668379620306
PART_001_R158G218B229A255,4320,-0.000169034,5.577257e-05,5.578158e-05,1.492189e-05,-3.486324e-09,-1.868487e-07,0.00022629209593096807
PART_002_R214G39B40A255,4321,-0.0001690355,5.578104e-05,5.578399e-05,1.553574e-05,2.248455e-08,-2.067497e-07,0.00022642293894411454
PART_002_R214G39B40A255,4322,-0.0001690338,5.578752e-05,5.576837e-05,1.645282e-05,-9.564971e-10,-1.614194e-07,0.00022661086689357342
PART_002_R214G39B40A255,4323,-0.0001690357,5.578817e-05,5.579452e-05,1.772549e-05,1.178573e-08,-5.840804e-08,0.00022691361755545193
PART_003_R247G182B210A255,4324,-0.0002535536,8.371046e-05,8.363172e-05,1.452025e-05,2.948857e-09,1.261764e-07,0.00033816128838664146
PART_003_R247G182B210A255,4325,-0.0002535507,8.367215e-05,8.368006e-05,1.331919e-05,-2.964742e-08,3.184033e-07,0.00033801542465262626
PART_003_R247G182B210A255,4326,-0.0002535531,8.365652e-05,8.367962e-05,1.249386e-05,1.175592e-08,4.059086e-07,0.0003379155252566162
PART_001_R158G218B229A255,4327,-0.0002535509,8.36767e-05,8.365161e-05,1.19834e-05,3.15078e-09,3.624025e-07,0.0003378538048534637
PART_001_R158G218B229A255,4328,-0.0002535529,8.367652e-05,8.366084e-05,1.170202e-05,2.558782e-09,2.068886e-07,0.00033783033381662897
PART_001_R158G218B229A255,4329,-0.000253551,8.367778e-05,8.364865e-05,1.161085e-05,-2.981971e-16,1.499912e-14,0.00033781335519433126
PART_001_R158G218B229A255,4330,-0.0002535529,8.367652e-05,8.366084e-05,1.170202e-05,-2.558782e-09,-2.068885e-07,0.00033783033381644525
PART_001_R158G218B229A255,4331,-0.0002535509,8.36767e-05,8.365161e-05,1.19834e-05,-3.15078e-09,-3.624024e-07,0.0003378538048531419
PART_001_R158G218B229A255,4332,-0.0002535531,8.365652e-05,8.367962e-05,1.249386e-05,-1.175592e-08,-4.059085e-07,0.0003379155252562558
PART_002_R214G39B40A255,4333,-0.0002535507,8.367215e-05,8.368006e-05,1.331919e-05,2.964742e-08,-3.184032e-07,0.00033801542465234367
PART_002_R214G39B40A255,4334,-0.0002535536,8.371046e-05,8.363172e-05,1.452025e-05,-2.948857e-09,-1.261764e-07,0.00033816128838664146
PART_003_R247G182B210A255,4335,-0.0003380714,0.0001115721,0.0001116077,9.932764e-06,-2.778012e-08,2.312296e-07,0.00044999047521790723
PART_003_R247G182B210A255,4336,-0.0003380677,0.000111547,0.0001115551,8.856031e-06,2.710191e-08,6.334946e-07,0.000449881667114536
PART_001_R158G218B229A255,4337,-0.0003380709,0.00011157,0.0001115378,8.266718e-06,1.937377e-08,7.742411e-07,0.00044985472866917406
PART_001_R158G218B229A255,4338,-0.0003380681,0.0001115781,0.0001115306,7.924928e-06,5.696721e-09,6.408283e-07,0.0004498332966418712
PART_001_R158G218B229A255,4339,-0.0003380706,0.0001115705,0.0001115378,7.736545e-06,4.749364e-09,3.58039e-07,0.0004498248143928779
PART_001_R158G218B229A255,4340,-0.0003380682,0.0001115815,0.0001115283,7.67903e-06,8.723254e-17,2.14134e-14,0.00044981978244794065
PART_001_R158G218B229A255,4341,-0.0003380706,0.0001115705,0.0001115378,7.736545e-06,-4.749364e-09,-3.58039e-07,0.0004498248143928779
PART_001_R158G218B229A255,4342,-0.0003380681,0.0001115781,0.0001115306,7.924928e-06,-5.69672e-09,-6.408282e-07,0.0004498332966414438
PART_001_R158G218B229A255,4343,-0.0003380709,0.00011157,0.0001115378,8.266718e-06,-1.937377e-08,-7.742411e-07,0.00044985472866917406
PART_001_R158G218B229A255,4344,-0.0003380677,0.000111547,0.0001115551,8.856031e-06,-2.710191e-08,-6.334946e-07,0.000449881667114536
PART_002_R214G39B40A255,4345,-0.0003380714,0.0001115721,0.0001116077,9.932764e-06,2.778012e-08,-2.312296e-07,0.00044999047521790723
PART_003_R247G182B210A255,4346,-0.0004225891,0.0001395369,0.0001393303,3.647832e-06,4.268238e-08,6.234529e-07,0.0005620592841585067
PART_001_R158G218B229A255,4347,-0.0004225847,0.0001394566,0.0001393901,3.135065e-06,2.64072e-08,1.34806e-06,0.0005620391368654537
PART_001_R158G218B229A255,4348,-0.0004225883,0.0001394967,0.0001393975,2.938681e-06,5.116722e-09,1.372387e-06,0.0005620634805682317
PART_001_R158G218B229A255,4349,-0.0004225851,0.0001394605,0.0001394108,2.809277e-06,6.184975e-09,1.070337e-06,0.0005620448722064463
PART_001_R158G218B229A255,4350,-0.000422588,0.0001394845,0.0001394122,2.747166e-06,8.570278e-10,5.775604e-07,0.0005620573850908243
PART_001_R158G218B229A255,4351,-0.0004225852,0.0001394618,0.0001394144,2.724481e-06,-4.535353e-17,2.895048e-14,0.0005620431120635837
PART_001_R158G218B229A255,4352,-0.000422588,0.0001394845,0.0001394122,2.747166e-06,-8.570277e-10,-5.775604e-07,0.0005620573850908243
PART_001_R158G218B229A255,4353,-0.0004225851,0.0001394605,0.0001394108,2.809277e-06,-6.184976e-09,-1.070337e-06,0.0005620448722064463
PART_001_R158G218B229A255,4354,-0.0004225883,0.0001394967,0.0001393975,2.938681e-06,-5.116722e-09,-1.372387e-06,0.0005620634805682317
PART_001_R158G218B229A255,4355,-0.0004225847,0.0001394566,0.0001393901,3.135065e-06,-2.64072e-08,-1.34806e-06,0.0005620391368654537
PART_001_R158G218B229A255,4356,-0.0004225891,0.0001395369,0.0001393303,3.647832e-06,-4.268238e-08,-6.234529e-07,0.0005620592841585067
PART_003_R247G182B210A255,4357,0.0004180408,-0.0001380364,-0.0001378231,3.648172e-06,4.241201e-08,-6.235236e-07,0.0005560075411432563
PART_000_R31G119B180A255,4358,0.0004180444,-0.0001379574,-0.0001378998,3.134843e-06,2.601252e-08,-1.347905e-06,0.0005560044186091012
PART_000_R31G119B180A255,4359,0.0004180414,-0.000137997,-0.0001378904,2.938806e-06,5.133613e-09,-1.372578e-06,0.0005560134905530235
PART_000_R31G119B180A255,4360,0.000418044,-0.0001379612,-0.0001379198,2.809147e-06,6.074839e-09,-1.070191e-06,0.0005560088807594383
PART_000_R31G119B180A255,4361,0.0004180416,-0.000137985,-0.0001379052,2.747241e-06,8.678857e-10,-5.776485e-07,0.0005560079661190877
PART_000_R31G119B180A255,4362,0.0004180439,-0.0001379625,-0.0001379232,2.724375e-06,-1.424709e-17,-2.893649e-14,0.0005560067751307998
PART_000_R31G119B180A255,4363,0.0004180416,-0.000137985,-0.0001379052,2.747241e-06,-8.678857e-10,5.776484e-07,0.0005560079661187761
PART_000_R31G119B180A255,4364,0.000418044,-0.0001379612,-0.0001379198,2.809147e-06,-6.07484e-09,1.07019e-06,0.000556008880753664
PART_000_R31G119B180A255,4365,0.0004180414,-0.000137997,-0.0001378904,2.938806e-06,-5.133612e-09,1.372578e-06,0.0005560134905530234
PART_000_R31G119B180A255,4366,0.0004180444,-0.0001379574,-0.0001378998,3.134843e-06,-2.601251e-08,1.347905e-06,0.0005560044186090998
PART_000_R31G119B180A255,4367,0.0004180408,-0.0001380364,-0.0001378231,3.648172e-06,-4.241201e-08,6.235236e-07,0.0005560075411432563
PART_003_R247G182B210A255,4368,0.0003344326,-0.0001103724,-0.0001103998,9.932479e-06,-2.753057e-08,-2.313123e-07,0.000445151436749286
PART_003_R247G182B210A255,4369,0.0003344356,-0.0001103473,-0.000110363,8.856157e-06,2.681045e-08,-6.333322e-07,0.00044505652619221674
PART_000_R31G119B180A255,4370,0.0003344329,-0.0001103701,-0.0001103313,8.266729e-06,1.916755e-08,-7.744223e-07,0.0004450160319303109
PART_000_R31G119B180A255,4371,0.0003344352,-0.0001103781,-0.0001103383,7.924995e-06,5.630182e-09,-6.406935e-07,0.00044500653710751234
PART_000_R31G119B180A255,4372,0.0003344331,-0.0001103706,-0.0001103317,7.736585e-06,4.700001e-09,-3.58119e-07,0.00044498649332230436
PART_000_R31G119B180A255,4373,0.0003344351,-0.0001103815,-0.0001103359,7.679086e-06,1.408362e-16,-2.141564e-14,0.0004449926192234498
PART_000_R31G119B180A255,4374,0.0003344331,-0.0001103706,-0.0001103317,7.736585e-06,-4.700002e-09,3.581189e-07,0.0004449864933220629
PART_000_R31G119B180A255,4375,0.0003344352,-0.0001103781,-0.0001103383,7.924995e-06,-5.630181e-09,6.406935e-07,0.0004450065371075123
PART_000_R31G119B180A255,4376,0.0003344329,-0.0001103701,-0.0001103313,8.266729e-06,-1.916755e-08,7.744223e-07,0.0004450160319303109
PART_000_R31G119B180A255,4377,0.0003344356,-0.0001103473,-0.000110363,8.856157e-06,-2.681046e-08,6.333322e-07,0.00044505652619221853
PART_002_R214G39B40A255,4378,0.0003344326,-0.0001103724,-0.0001103998,9.932479e-06,2.753057e-08,2.313123e-07,0.000445151436749286
PART_003_R247G182B210A255,4379,0.0002508244,-8.28103e-05,-8.27264e-05,1.45204e-05,2.943035e-09,-1.262149e-07,0.00033453953727031625
PART_003_R247G182B210A255,4380,0.0002508267,-8.277258e-05,-8.278599e-05,1.331918e-05,-2.931768e-08,-3.182998e-07,0.0003344031422597216
PART_003_R247G182B210A255,4381,0.0002508248,-8.275716e-05,-8.277434e-05,1.249375e-05,1.161945e-08,-4.060403e-07,0.00033429243432818646
PART_000_R31G119B180A255,4382,0.0002508265,-8.27771e-05,-8.27575e-05,1.198338e-05,3.120612e-09,-3.62302e-07,0.0003342394675867371
PART_000_R31G119B180A255,4383,0.0002508249,-8.277694e-05,-8.275597e-05,1.170193e-05,2.5273e-09,-2.069493e-07,0.0003342067121721472
PART_000_R31G119B180A255,4384,0.0002508264,-8.277817e-05,-8.275447e-05,1.161082e-05,-2.801307e-16,-1.50022e-14,0.00033419834930993163
PART_000_R31G119B180A255,4385,0.0002508249,-8.277694e-05,-8.275597e-05,1.170193e-05,-2.527299e-09,2.069493e-07,0.0003342067121721472
PART_000_R31G119B180A255,4386,0.0002508265,-8.27771e-05,-8.27575e-05,1.198338e-05,-3.120613e-09,3.623019e-07,0.00033423946758641193
PART_000_R31G119B180A255,4387,0.0002508248,-8.275716e-05,-8.277434e-05,1.249375e-05,-1.161945e-08,4.060403e-07,0.00033429243432818646
PART_002_R214G39B40A255,4388,0.0002508267,-8.277258e-05,-8.278599e-05,1.331918e-05,2.931768e-08,3.182998e-07,0.0003344031422597216
PART_002_R214G39B40A255,4389,0.0002508244,-8.28103e-05,-8.27264e-05,1.45204e-05,-2.943035e-09,1.262149e-07,0.00033453953727031625
PART_003_R247G182B210A255,4390,0.0001672162,-5.518832e-05,-5.519051e-05,1.772527e-05,-1.168026e-08,-5.844925e-08,0.0002245146405806844
PART_003_R247G182B210A255,4391,0.0001672178,-5.518757e-05,-5.517256e-05,1.645289e-05,9.346419e-10,-1.613418e-07,0.00022421637181468162
PART_003_R247G182B210A255,4392,0.0001672164,-5.518113e-05,-5.518046e-05,1.553579e-05,-2.224394e-08,-2.068378e-07,0.00022401947345483637
PART_003_R247G182B210A255,4393,0.0001672176,-5.517277e-05,-5.51854e-05,1.492198e-05,3.446856e-09,-1.867838e-07,0.00022389369526673675
PART_000_R31G119B180A255,4394,0.0001672165,-5.51845e-05,-5.516866e-05,1.457599e-05,-3.370966e-09,-1.104389e-07,0.00022382157469253948
PART_000_R31G119B180A255,4395,0.0001672176,-5.518049e-05,-5.517783e-05,1.446386e-05,2.974407e-16,-9.467917e-15,0.00022380332571725358
PART_000_R31G119B180A255,4396,0.0001672165,-5.51845e-05,-5.516866e-05,1.457599e-05,3.370965e-09,1.104389e-07,0.00022382157469253946
PART_000_R31G119B180A255,4397,0.0001672176,-5.517277e-05,-5.51854e-05,1.492198e-05,-3.446856e-09,1.867838e-07,0.00022389369526673675
PART_002_R214G39B40A255,4398,0.0001672164,-5.518113e-05,-5.518046e-05,1.553579e-05,2.224394e-08,2.068377e-07,0.00022401947345455938
PART_002_R214G39B40A255,4399,0.0001672178,-5.518757e-05,-5.517256e-05,1.645289e-05,-9.34642e-10,1.613418e-07,0.00022421637181468162
PART_002_R214G39B40A255,4400,0.0001672162,-5.518832e-05,-5.519051e-05,1.772527e-05,1.168026e-08,5.844925e-08,0.0002245146405806844
PART_003_R247G182B210A255,4401,8.360812e-05,-2.7602e-05,-2.757818e-05,1.962265e-05,-1.535303e-09,-2.573657e-08,0.0001162763497277089
PART_003_R247G182B210A255,4402,8.360892e-05,-2.759147e-05,-2.759537e-05,1.832413e-05,-2.256908e-08,-6.64044e-08,0.00011564296956744468
PART_003_R247G182B210A255,4403,8.360824e-05,-2.758856e-05,-2.75894e-05,1.735697e-05,-1.570669e-09,-8.713082e-08,0.00011518957305998094
PART_003_R247G182B210A255,4404,8.360884e-05,-2.759094e-05,-2.758943e-05,1.669888e-05,-1.754295e-08,-7.933419e-08,0.00011489908941079687
PART_003_R247G182B210A255,4405,8.360829e-05,-2.758694e-05,-2.75906e-05,1.631653e-05,3.032157e-10,-4.674352e-08,0.00011473221069760141
PART_000_R31G119B180A255,4406,8.360882e-05,-2.759225e-05,-2.758601e-05,1.619258e-05,-1.329672e-16,-4.575891e-15,0.00011468035165003158
PART_000_R31G119B180A255,4407,8.360829e-05,-2.758694e-05,-2.75906e-05,1.631653e-05,-3.032153e-10,4.674351e-08,0.00011473221069758919
PART_002_R214G39B40A255,4408,8.360884e-05,-2.759094e-05,-2.758943e-05,1.669888e-05,1.754295e-08,7.933418e-08,0.00011489908941077615
PART_002_R214G39B40A255,4409,8.360824e-05,-2.758856e-05,-2.75894e-05,1.735697e-05,1.570669e-09,8.713082e-08,0.00011518957305998094
PART_002_R214G39B40A255,4410,8.360892e-05,-2.759147e-05,-2.759537e-05,1.832413e-05,2.256908e-08,6.640439e-08,0.00011564296956742746
PART_002_R214G39B40A255,4411,8.360812e-05,-2.7602e-05,-2.757818e-05,1.962265e-05,1.535303e-09,2.573657e-08,0.0001162763497277089
PART_003_R247G182B210A255,4412,9.150119e-14,-3.020501e-14,-3.022989e-14,2.025224e-05,-9.077668e-09,-3.136224e-17,3.5077912170837206e-05
PART_003_R247G182B210A255,4413,9.150563e-14,-3.004194e-14,-3.040175e-14,1.894421e-05,-3.821251e-09,-7.454483e-17,3.28123348967759e-05
PART_003_R247G182B210A255,4414,9.146416e-14,-3.012868e-14,-3.013651e-14,1.796591e-05,-2.413859e-08,-9.735712e-17,3.111789701118765e-05
PART_003_R247G182B210A255,4415,9.145701e-14,-3.017031e-14,-3.01902e-14,1.729135e-05,-1.477515e-09,-9.490919e-17,2.9949496840792694e-05
PART_003_R247G182B210A255,4416,9.141857e-14,-3.006623e-14,-3.015851e-14,1.690025e-05,-1.002831e-08,-4.675092e-17,2.927209681400539e-05
PART_003_R247G182B210A255,4417,9.141402e-14,-3.014256e-14,-3.013971e-14,1.677116e-05,2.338609e-16,2.582709e-18,2.904850122186685e-05
PART_002_R214G39B40A255,4418,9.138193e-14,-3.004194e-14,-3.014655e-14,1.690025e-05,1.002831e-08,4.748975e-17,2.927209681400539e-05
PART_002_R214G39B40A255,4419,9.138805e-14,-3.009051e-14,-3.016009e-14,1.729135e-05,1.477516e-09,8.854967e-17,2.9949496840792843e-05
PART_002_R214G39B40A255,4420,9.135146e-14,-3.006623e-14,-3.007982e-14,1.796591e-05,2.413859e-08,1.052269e-16,3.111789701118765e-05
PART_002_R214G39B40A255,4421,9.137547e-14,-3.002806e-14,-3.035333e-14,1.894421e-05,3.821251e-09,6.731879e-17,3.28123348967759e-05
PART_002_R214G39B40A255,4422,9.131877e-14,-3.013562e-14,-3.018341e-14,2.025224e-05,9.077668e-09,2.361358e-17,3.5077912170837206e-05
PART_003_R247G182B210A255,4423,-8.360812e-05,2.7602e-05,2.757818e-05,1.962265e-05,-1.535303e-09,2.573657e-08,0.0001162763497277089
PART_003_R247G182B210A255,4424,-8.360892e-05,2.759147e-05,2.759537e-05,1.832413e-05,-2.256908e-08,6.64044e-08,0.00011564296956744468
PART_003_R247G182B210A255,4425,-8.360824e-05,2.758856e-05,2.75894e-05,1.735697e-05,-1.570669e-09,8.713082e-08,0.00011518957305998094
PART_003_R247G182B210A255,4426,-8.360884e-05,2.759094e-05,2.758943e-05,1.669888e-05,-1.754295e-08,7.933419e-08,0.00011489908941079687
PART_003_R247G182B210A255,4427,-8.360829e-05,2.758694e-05,2.75906e-05,1.631653e-05,3.032157e-10,4.674352e-08,0.00011473221069760141
PART_001_R158G218B229A255,4428,-8.360882e-05,2.759225e-05,2.758601e-05,1.619258e-05,-1.813184e-16,4.572784e-15,0.00011468035165003158
PART_001_R158G218B229A255,4429,-8.360829e-05,2.758694e-05,2.75906e-05,1.631653e-05,-3.032153e-10,-4.674351e-08,0.00011473221069758919
PART_002_R214G39B40A255,4430,-8.360884e-05,2.759094e-05,2.758943e-05,1.669888e-05,1.754295e-08,-7.933418e-08,0.00011489908941077615
PART_002_R214G39B40A255,4431,-8.360824e-05,2.758856e-05,2.75894e-05,1.735697e-05,1.570669e-09,-8.713082e-08,0.00011518957305998094
PART_002_R214G39B40A255,4432,-8.360892e-05,2.759147e-05,2.759537e-05,1.832413e-05,2.256908e-08,-6.640439e-08,0.00011564296956742746
PART_002_R214G39B40A255,4433,-8.360812e-05,2.7602e-05,2.757818e-05,1.962265e-05,1.535303e-09,-2.573657e-08,0.0001162763497277089
PART_003_R247G182B210A255,4434,-0.0001672162,5.518832e-05,5.519051e-05,1.772527e-05,-1.168026e-08,5.844925e-08,0.0002245146405806844
PART_003_R247G182B210A255,4435,-0.0001672178,5.518757e-05,5.517256e-05,1.645289e-05,9.34642e-10,1.613418e-07,0.00022421637181468162
PART_003_R247G182B210A255,4436,-0.0001672164,5.518113e-05,5.518046e-05,1.553579e-05,-2.224394e-08,2.068378e-07,0.00022401947345483637
PART_003_R247G182B210A255,4437,-0.0001672176,5.517277e-05,5.51854e-05,1.492198e-05,3.446856e-09,1.867838e-07,0.00022389369526673675
PART_001_R158G218B229A255,4438,-0.0001672165,5.51845e-05,5.516866e-05,1.457599e-05,-3.370966e-09,1.104389e-07,0.00022382157469253948
PART_001_R158G218B229A255,4439,-0.0001672176,5.518049e-05,5.517783e-05,1.446386e-05,3.008144e-16,9.462978e-15,0.00022380332571725358
PART_001_R158G218B229A255,4440,-0.0001672165,5.51845e-05,5.516866e-05,1.457599e-05,3.370965e-09,-1.104389e-07,0.00022382157469253946
PART_001_R158G218B229A255,4441,-0.0001672176,5.517277e-05,5.51854e-05,1.492198e-05,-3.446856e-09,-1.867838e-07,0.00022389369526673675
PART_002_R214G39B40A255,4442,-0.0001672164,5.518113e-05,5.518046e-05,1.553579e-05,2.224394e-08,-2.068377e-07,0.00022401947345455938
PART_002_R214G39B40A255,4443,-0.0001672178,5.518757e-05,5.517256e-05,1.645289e-05,-9.346421e-10,-1.613418e-07,0.00022421637181468162
PART_002_R214G39B40A255,4444,-0.0001672162,5.518832e-05,5.519051e-05,1.772527e-05,1.168026e-08,-5.844925e-08,0.0002245146405806844
PART_003_R247G182B210A255,4445,-0.0002508244,8.28103e-05,8.27264e-05,1.45204e-05,2.943035e-09,1.262149e-07,0.00033453953727031625
PART_003_R247G182B210A255,4446,-0.0002508267,8.277258e-05,8.278599e-05,1.331918e-05,-2.931768e-08,3.182998e-07,0.0003344031422597216
PART_003_R247G182B210A255,4447,-0.0002508248,8.275716e-05,8.277434e-05,1.249375e-05,1.161945e-08,4.060403e-07,0.00033429243432818646
PART_001_R158G218B229A255,4448,-0.0002508265,8.27771e-05,8.27575e-05,1.198338e-05,3.120612e-09,3.62302e-07,0.0003342394675867371
PART_001_R158G218B229A255,4449,-0.0002508249,8.277694e-05,8.275597e-05,1.170193e-05,2.5273e-09,2.069493e-07,0.0003342067121721472
PART_001_R158G218B229A255,4450,-0.0002508264,8.277817e-05,8.275447e-05,1.161082e-05,-2.819214e-16,1.501894e-14,0.00033419834930993163
PART_001_R158G218B229A255,4451,-0.0002508249,8.277694e-05,8.275597e-05,1.170193e-05,-2.527299e-09,-2.069493e-07,0.0003342067121721472
PART_001_R158G218B229A255,4452,-0.0002508265,8.27771e-05,8.27575e-05,1.198338e-05,-3.120613e-09,-3.623019e-07,0.00033423946758641193
PART_001_R158G218B229A255,4453,-0.0002508248,8.275716e-05,8.277434e-05,1.249375e-05,-1.161945e-08,-4.060403e-07,0.00033429243432818646
PART_002_R214G39B40A255,4454,-0.0002508267,8.277258e-05,8.278599e-05,1.331918e-05,2.931768e-08,-3.182998e-07,0.0003344031422597216
PART_002_R214G39B40A255,4455,-0.0002508244,8.28103e-05,8.27264e-05,1.45204e-05,-2.943035e-09,-1.262149e-07,0.00033453953727031625
PART_003_R247G182B210A255,4456,-0.0003344326,0.0001103724,0.0001103998,9.932479e-06,-2.753057e-08,2.313123e-07,0.000445151436749286
PART_003_R247G182B210A255,4457,-0.0003344356,0.0001103473,0.000110363,8.856157e-06,2.681045e-08,6.333322e-07,0.00044505652619221674
PART_001_R158G218B229A255,4458,-0.0003344329,0.0001103701,0.0001103313,8.266729e-06,1.916755e-08,7.744223e-07,0.0004450160319303109
PART_001_R158G218B229A255,4459,-0.0003344352,0.0001103781,0.0001103383,7.924995e-06,5.630182e-09,6.406935e-07,0.00044500653710751234
PART_001_R158G218B229A255,4460,-0.0003344331,0.0001103706,0.0001103317,7.736585e-06,4.700001e-09,3.58119e-07,0.00044498649332230436
PART_001_R158G218B229A255,4461,-0.0003344351,0.0001103815,0.0001103359,7.679086e-06,8.774075e-17,2.140918e-14,0.0004449926192234498
PART_001_R158G218B229A255,4462,-0.0003344331,0.0001103706,0.0001103317,7.736585e-06,-4.700002e-09,-3.581189e-07,0.0004449864933220629
PART_001_R158G218B229A255,4463,-0.0003344352,0.0001103781,0.0001103383,7.924995e-06,-5.630181e-09,-6.406935e-07,0.0004450065371075123
PART_001_R158G218B229A255,4464,-0.0003344329,0.0001103701,0.0001103313,8.266729e-06,-1.916755e-08,-7.744223e-07,0.0004450160319303109
PART_001_R158G218B229A255,4465,-0.0003344356,0.0001103473,0.000110363,8.856157e-06,-2.681046e-08,-6.333322e-07,0.00044505652619221853
PART_002_R214G39B40A255,4466,-0.0003344326,0.0001103724,0.0001103998,9.932479e-06,2.753058e-08,-2.313123e-07,0.00044515143674928785
PART_003_R247G182B210A255,4467,-0.0004180408,0.0001380364,0.0001378231,3.648172e-06,4.241201e-08,6.235236e-07,0.0005560075411432563
PART_001_R158G218B229A255,4468,-0.0004180444,0.0001379574,0.0001378998,3.134843e-06,2.601252e-08,1.347905e-06,0.0005560044186091012
PART_001_R158G218B229A255,4469,-0.0004180414,0.000137997,0.0001378904,2.938806e-06,5.133613e-09,1.372578e-06,0.0005560134905530235
PART_001_R158G218B229A255,4470,-0.000418044,0.0001379612,0.0001379198,2.809147e-06,6.074839e-09,1.070191e-06,0.0005560088807594383
PART_001_R158G218B229A255,4471,-0.0004180416,0.000137985,0.0001379052,2.747241e-06,8.678857e-10,5.776485e-07,0.0005560079661190877
PART_001_R158G218B229A255,4472,-0.0004180439,0.0001379625,0.0001379232,2.724375e-06,-6.129808e-17,2.894575e-14,0.0005560067751307998
PART_001_R158G218B229A255,4473,-0.0004180416,0.000137985,0.0001379052,2.747241e-06,-8.678856e-10,-5.776484e-07,0.0005560079661187761
PART_001_R158G218B229A255,4474,-0.000418044,0.0001379612,0.0001379198,2.809147e-06,-6.07484e-09,-1.07019e-06,0.000556008880753664
PART_001_R158G218B229A255,4475,-0.0004180414,0.000137997,0.0001378904,2.938806e-06,-5.133612e-09,-1.372578e-06,0.0005560134905530234
PART_001_R158G218B229A255,4476,-0.0004180444,0.0001379574,0.0001378998,3.134843e-06,-2.601251e-08,-1.347905e-06,0.0005560044186090998
PART_001_R158G218B229A255,4477,-0.0004180408,0.0001380364,0.0001378231,3.648172e-06,-4.241201e-08,-6.235236e-07,0.0005560075411432563
PART_003_R247G182B210A255,4478,0.0004135004,-0.0001365361,-0.0001363324,3.647897e-06,4.179809e-08,-6.234685e-07,0.0005499720385879725
PART_000_R31G119B180A255,4479,0.0004134975,-0.0001364576,-0.000136394,3.135025e-06,2.581939e-08,-1.348039e-06,0.0005499550687912796
PART_000_R31G119B180A255,4480,0.0004134999,-0.0001364968,-0.0001363983,2.938705e-06,5.018891e-09,-1.372431e-06,0.0005499761483696708
PART_000_R31G119B180A255,4481,0.0004134977,-0.0001364614,-0.0001364142,2.809255e-06,6.043688e-09,-1.070319e-06,0.0005499601516746089
PART_000_R31G119B180A255,4482,0.0004134997,-0.0001364849,-0.0001364127,2.747182e-06,8.417992e-10,-5.775811e-07,0.0005499699977186124
PART_000_R31G119B180A255,4483,0.0004134978,-0.0001364627,-0.0001364176,2.724464e-06,-3.013066e-17,-2.894393e-14,0.0005499581970368038
PART_000_R31G119B180A255,4484,0.0004134997,-0.0001364849,-0.0001364127,2.747182e-06,-8.417991e-10,5.77581e-07,0.0005499699977182973
PART_000_R31G119B180A255,4485,0.0004134977,-0.0001364614,-0.0001364142,2.809255e-06,-6.043688e-09,1.070319e-06,0.0005499601516746089
PART_000_R31G119B180A255,4486,0.0004134999,-0.0001364968,-0.0001363983,2.938705e-06,-5.018891e-09,1.372431e-06,0.0005499761483696708
PART_000_R31G119B180A255,4487,0.0004134975,-0.0001364576,-0.000136394,3.135025e-06,-2.581939e-08,1.348039e-06,0.0005499550687912796
PART_000_R31G119B180A255,4488,0.0004135004,-0.0001365361,-0.0001363324,3.647897e-06,-4.179809e-08,6.234685e-07,0.0005499720385879725
PART_003_R247G182B210A255,4489,0.0003308004,-0.0001091727,-0.0001092062,9.932705e-06,-2.719197e-08,-2.312474e-07,0.00044032625117616006
PART_003_R247G182B210A255,4490,0.0003307979,-0.0001091481,-0.0001091574,8.856049e-06,2.6518e-08,-6.334713e-07,0.00044021934223661496
PART_000_R31G119B180A255,4491,0.0003308001,-0.0001091706,-0.0001091379,8.266715e-06,1.895593e-08,-7.742824e-07,0.0004401893299868255
PART_000_R31G119B180A255,4492,0.0003307982,-0.0001091785,-0.0001091333,7.924936e-06,5.571679e-09,-6.408113e-07,0.0004401695780962148
PART_000_R31G119B180A255,4493,0.0003307999,-0.0001091711,-0.000109138,7.736549e-06,4.646558e-09,-3.580579e-07,0.00044015891010968863
PART_000_R31G119B180A255,4494,0.0003307983,-0.0001091818,-0.000109131,7.679037e-06,9.002181e-17,-2.141291e-14,0.00044015570292262724
PART_000_R31G119B180A255,4495,0.0003307999,-0.0001091711,-0.000109138,7.736549e-06,-4.646558e-09,3.580579e-07,0.00044015891010968863
PART_000_R31G119B180A255,4496,0.0003307982,-0.0001091785,-0.0001091333,7.924936e-06,-5.571678e-09,6.408112e-07,0.00044016957809577803
PART_000_R31G119B180A255,4497,0.0003308001,-0.0001091706,-0.0001091379,8.266715e-06,-1.895593e-08,7.742824e-07,0.0004401893299868255
PART_000_R31G119B180A255,4498,0.0003307979,-0.0001091481,-0.0001091574,8.856049e-06,-2.6518e-08,6.334712e-07,0.00044021934223618323
PART_002_R214G39B40A255,4499,0.0003308004,-0.0001091727,-0.0001092062,9.932705e-06,2.719197e-08,2.312474e-07,0.00044032625117616006
PART_003_R247G182B210A255,4500,0.0002481003,-8.191022e-05,-8.183215e-05,1.452028e-05,2.889495e-09,-1.26185e-07,0.00033092861597502313
PART_003_R247G182B210A255,4501,0.0002480984,-8.187277e-05,-8.188147e-05,1.331919e-05,-2.900963e-08,-3.183902e-07,0.0003307814277804007
PART_003_R247G182B210A255,4502,0.0002481,-8.185748e-05,-8.187912e-05,1.249385e-05,1.149873e-08,-4.059391e-07,0.0003306778840138781
PART_000_R31G119B180A255,4503,0.0002480986,-8.187722e-05,-8.185357e-05,1.198341e-05,3.081182e-09,-3.623906e-07,0.0003306167551272291
PART_000_R31G119B180A255,4504,0.0002480999,-8.187706e-05,-8.186079e-05,1.170202e-05,2.501531e-09,-2.069031e-07,0.00033059093443727074
PART_000_R31G119B180A255,4505,0.0002480986,-8.187828e-05,-8.185066e-05,1.161085e-05,-2.843786e-16,-1.501258e-14,0.00033057535245256973
PART_000_R31G119B180A255,4506,0.0002480999,-8.187706e-05,-8.186079e-05,1.170202e-05,-2.501531e-09,2.069031e-07,0.00033059093443727074
PART_000_R31G119B180A255,4507,0.0002480986,-8.187722e-05,-8.185357e-05,1.198341e-05,-3.081183e-09,3.623905e-07,0.0003306167551269003
PART_000_R31G119B180A255,4508,0.0002481,-8.185748e-05,-8.187912e-05,1.249385e-05,-1.149873e-08,4.059391e-07,0.0003306778840138781
PART_002_R214G39B40A255,4509,0.0002480984,-8.187277e-05,-8.188147e-05,1.331919e-05,2.900963e-08,3.183901e-07,0.00033078142778011194
PART_002_R214G39B40A255,4510,0.0002481003,-8.191022e-05,-8.183215e-05,1.452028e-05,-2.889496e-09,1.26185e-07,0.00033092861597502313
PART_003_R247G182B210A255,4511,0.0001654002,-5.458843e-05,-5.459394e-05,1.772543e-05,-1.153688e-08,-5.841725e-08,0.00022212337279103948
PART_003_R247G182B210A255,4512,0.0001653989,-5.458777e-05,-5.456971e-05,1.645282e-05,9.312351e-10,-1.614092e-07,0.00022181597409528608
PART_003_R247G182B210A255,4513,0.0001654001,-5.458143e-05,-5.458371e-05,1.553574e-05,-2.200456e-08,-2.067705e-07,0.00022162261272485597
PART_003_R247G182B210A255,4514,0.0001653991,-5.457315e-05,-5.45826e-05,1.492189e-05,3.407814e-09,-1.868415e-07,0.00022149032205656696
PART_000_R31G119B180A255,4515,0.0001654,-5.458476e-05,-5.457192e-05,1.457595e-05,-3.334737e-09,-1.104092e-07,0.00022142240571348704
PART_000_R31G119B180A255,4516,0.0001653991,-5.458079e-05,-5.457517e-05,1.446377e-05,3.193661e-16,-9.467388e-15,0.0002213990010746512
PART_000_R31G119B180A255,4517,0.0001654,-5.458476e-05,-5.457192e-05,1.457595e-05,3.334737e-09,1.104092e-07,0.00022142240571348704
PART_000_R31G119B180A255,4518,0.0001653991,-5.457315e-05,-5.45826e-05,1.492189e-05,-3.407814e-09,1.868415e-07,0.00022149032205656696
PART_002_R214G39B40A255,4519,0.0001654001,-5.458143e-05,-5.458371e-05,1.553574e-05,2.200456e-08,2.067705e-07,0.00022162261272485597
PART_002_R214G39B40A255,4520,0.0001653989,-5.458777e-05,-5.456971e-05,1.645282e-05,-9.312352e-10,1.614092e-07,0.00022181597409528608
PART_002_R214G39B40A255,4521,0.0001654002,-5.458843e-05,-5.459394e-05,1.772543e-05,1.153688e-08,5.841725e-08,0.00022212337279103948
PART_003_R247G182B210A255,4522,8.270011e-05,-2.730199e-05,-2.72801e-05,1.962257e-05,-1.531656e-09,-2.572612e-08,0.000115122509920369
PART_003_R247G182B210A255,4523,8.269946e-05,-2.729153e-05,-2.729384e-05,1.832412e-05,-2.233581e-08,-6.643611e-08,0.00011447972233090742
PART_003_R247G182B210A255,4524,8.270001e-05,-2.728864e-05,-2.729104e-05,1.735708e-05,-1.551771e-09,-8.709577e-08,0.00011402453485967455
PART_003_R247G182B210A255,4525,8.269952e-05,-2.7291e-05,-2.728806e-05,1.669892e-05,-1.735523e-08,-7.93648e-08,0.00011372850440329752
PART_003_R247G182B210A255,4526,8.269997e-05,-2.728704e-05,-2.729217e-05,1.631662e-05,2.997844e-10,-4.672773e-08,0.00011356235927367557
PART_000_R31G119B180A255,4527,8.269954e-05,-2.729229e-05,-2.72847e-05,1.619263e-05,-1.971234e-16,-4.584382e-15,0.00011350758426342267
PART_000_R31G119B180A255,4528,8.269997e-05,-2.728704e-05,-2.729217e-05,1.631662e-05,-2.99784e-10,4.672772e-08,0.00011356235927366322
PART_002_R214G39B40A255,4529,8.269952e-05,-2.7291e-05,-2.728806e-05,1.669892e-05,1.735523e-08,7.936479e-08,0.0001137285044032766
PART_002_R214G39B40A255,4530,8.270001e-05,-2.728864e-05,-2.729104e-05,1.735708e-05,1.55177e-09,8.709576e-08,0.00011402453485965158
PART_002_R214G39B40A255,4531,8.269946e-05,-2.729153e-05,-2.729384e-05,1.832412e-05,2.233581e-08,6.64361e-08,0.00011447972233089001
PART_002_R214G39B40A255,4532,8.270011e-05,-2.730199e-05,-2.72801e-05,1.962257e-05,1.531656e-09,2.572612e-08,0.000115122509920369
PART_003_R247G182B210A255,4533,9.057365e-14,-2.990663e-14,-2.996117e-14,2.025239e-05,-8.966177e-09,-2.231762e-17,3.507817189240753e-05
PART_003_R247G182B210A255,4534,9.052915e-14,-2.980255e-14,-3.002241e-14,1.894415e-05,-3.773206e-09,-5.927282e-17,3.2812230957049394e-05
PART_003_R247G182B210A255,4535,9.05363e-14,-2.995174e-14,-2.98579e-14,1.796585e-05,-2.387727e-08,-1.076011e-16,3.111779248339393e-05
PART_003_R247G182B210A255,4536,9.051072e-14,-3.002806e-14,-2.980865e-14,1.729125e-05,-1.464621e-09,-8.593488e-17,2.994932363381257e-05
PART_003_R247G182B210A255,4537,9.051256e-14,-2.996561e-14,-2.988485e-14,1.69002e-05,-9.919241e-09,-4.941061e-17,2.9272010099991874e-05
PART_003_R247G182B210A255,4538,9.046572e-14,-3.003153e-14,-2.975105e-14,1.677107e-05,2.30937e-16,-3.618631e-18,2.9048345337294172e-05
PART_002_R214G39B40A255,4539,9.047174e-14,-2.988929e-14,-2.988608e-14,1.69002e-05,9.919241e-09,5.85719e-17,2.9272010099991874e-05
PART_002_R214G39B40A255,4540,9.042588e-14,-3.001072e-14,-2.976243e-14,1.729125e-05,1.464622e-09,9.010821e-17,2.994932363381272e-05
PART_002_R214G39B40A255,4541,9.042566e-14,-2.989275e-14,-2.982331e-14,1.796585e-05,2.387727e-08,9.827869e-17,3.111779248339393e-05
PART_002_R214G39B40A255,4542,9.035947e-14,-2.976785e-14,-2.996521e-14,1.894415e-05,3.773207e-09,6.836064e-17,3.281223095704974e-05
PART_002_R214G39B40A255,4543,9.037855e-14,-2.99101e-14,-2.989816e-14,2.025239e-05,8.966177e-09,1.457913e-17,3.507817189240753e-05
PART_003_R247G182B210A255,4544,-8.270011e-05,2.730199e-05,2.72801e-05,1.962257e-05,-1.531657e-09,2.572612e-08,0.00011512250992036905
PART_003_R247G182B210A255,4545,-8.269946e-05,2.729153e-05,2.729384e-05,1.832412e-05,-2.233581e-08,6.643611e-08,0.00011447972233090742
PART_003_R247G182B210A255,4546,-8.270001e-05,2.728864e-05,2.729104e-05,1.735708e-05,-1.55177e-09,8.709577e-08,0.0001140245348596745
PART_003_R247G182B210A255,4547,-8.269952e-05,2.7291e-05,2.728806e-05,1.669892e-05,-1.735523e-08,7.93648e-08,0.00011372850440329752
PART_003_R247G182B210A255,4548,-8.269997e-05,2.728704e-05,2.729217e-05,1.631662e-05,2.997844e-10,4.672773e-08,0.00011356235927367557
PART_001_R158G218B229A255,4549,-8.269954e-05,2.729229e-05,2.72847e-05,1.619263e-05,-1.721899e-16,4.585114e-15,0.00011350758426342267
PART_001_R158G218B229A255,4550,-8.269997e-05,2.728704e-05,2.729217e-05,1.631662e-05,-2.99784e-10,-4.672772e-08,0.00011356235927366322
PART_002_R214G39B40A255,4551,-8.269952e-05,2.7291e-05,2.728806e-05,1.669892e-05,1.735523e-08,-7.936479e-08,0.0001137285044032766
PART_002_R214G39B40A255,4552,-8.270001e-05,2.728864e-05,2.729104e-05,1.735708e-05,1.55177e-09,-8.709576e-08,0.00011402453485965158
PART_002_R214G39B40A255,4553,-8.269946e-05,2.729153e-05,2.729384e-05,1.832412e-05,2.233581e-08,-6.64361e-08,0.00011447972233089001
PART_002_R214G39B40A255,4554,-8.270011e-05,2.730199e-05,2.72801e-05,1.962257e-05,1.531657e-09,-2.572612e-08,0.00011512250992036905
PART_003_R247G182B210A255,4555,-0.0001654002,5.458843e-05,5.459394e-05,1.772543e-05,-1.153688e-08,5.841725e-08,0.00022212337279103948
PART_003_R247G182B210A255,4556,-0.0001653989,5.458777e-05,5.456971e-05,1.645282e-05,9.312352e-10,1.614092e-07,0.00022181597409528608
PART_003_R247G182B210A255,4557,-0.0001654001,5.458143e-05,5.458371e-05,1.553574e-05,-2.200456e-08,2.067705e-07,0.00022162261272485597
PART_003_R247G182B210A255,4558,-0.0001653991,5.457315e-05,5.45826e-05,1.492189e-05,3.407814e-09,1.868415e-07,0.00022149032205656696
PART_001_R158G218B229A255,4559,-0.0001654,5.458476e-05,5.457192e-05,1.457595e-05,-3.334737e-09,1.104092e-07,0.00022142240571348704
PART_001_R158G218B229A255,4560,-0.0001653991,5.458079e-05,5.457517e-05,1.446377e-05,2.735959e-16,9.465866e-15,0.0002213990010746512
PART_001_R158G218B229A255,4561,-0.0001654,5.458476e-05,5.457192e-05,1.457595e-05,3.334737e-09,-1.104092e-07,0.00022142240571348704
PART_001_R158G218B229A255,4562,-0.0001653991,5.457315e-05,5.45826e-05,1.492189e-05,-3.407814e-09,-1.868415e-07,0.00022149032205656696
PART_002_R214G39B40A255,4563,-0.0001654001,5.458143e-05,5.458371e-05,1.553574e-05,2.200456e-08,-2.067705e-07,0.00022162261272485597
PART_002_R214G39B40A255,4564,-0.0001653989,5.458777e-05,5.456971e-05,1.645282e-05,-9.312353e-10,-1.614092e-07,0.0002218159740952861
PART_002_R214G39B40A255,4565,-0.0001654002,5.458843e-05,5.459394e-05,1.772543e-05,1.153688e-08,-5.841725e-08,0.00022212337279103948
PART_003_R247G182B210A255,4566,-0.0002481003,8.191022e-05,8.183215e-05,1.452028e-05,2.889496e-09,1.26185e-07,0.00033092861597502313
PART_003_R247G182B210A255,4567,-0.0002480984,8.187277e-05,8.188147e-05,1.331919e-05,-2.900963e-08,3.183902e-07,0.0003307814277804007
PART_003_R247G182B210A255,4568,-0.0002481,8.185748e-05,8.187912e-05,1.249385e-05,1.149873e-08,4.059391e-07,0.0003306778840138781
PART_001_R158G218B229A255,4569,-0.0002480986,8.187722e-05,8.185357e-05,1.198341e-05,3.081182e-09,3.623906e-07,0.0003306167551272291
PART_001_R158G218B229A255,4570,-0.0002480999,8.187706e-05,8.186079e-05,1.170202e-05,2.501531e-09,2.069031e-07,0.00033059093443727074
PART_001_R158G218B229A255,4571,-0.0002480986,8.187828e-05,8.185066e-05,1.161085e-05,-2.517255e-16,1.501164e-14,0.00033057535245256973
PART_001_R158G218B229A255,4572,-0.0002480999,8.187706e-05,8.186079e-05,1.170202e-05,-2.501531e-09,-2.069031e-07,0.00033059093443727074
PART_001_R158G218B229A255,4573,-0.0002480986,8.187722e-05,8.185357e-05,1.198341e-05,-3.081183e-09,-3.623905e-07,0.0003306167551269003
PART_001_R158G218B229A255,4574,-0.0002481,8.185748e-05,8.187912e-05,1.249385e-05,-1.149873e-08,-4.059391e-07,0.0003306778840138781
PART_002_R214G39B40A255,4575,-0.0002480984,8.187277e-05,8.188147e-05,1.331919e-05,2.900963e-08,-3.183901e-07,0.00033078142778011194
PART_002_R214G39B40A255,4576,-0.0002481003,8.191022e-05,8.183215e-05,1.452028e-05,-2.889496e-09,-1.26185e-07,0.00033092861597502313
PART_003_R247G182B210A255,4577,-0.0003308004,0.0001091727,0.0001092062,9.932705e-06,-2.719197e-08,2.312474e-07,0.00044032625117616006
PART_003_R247G182B210A255,4578,-0.0003307979,0.0001091481,0.0001091574,8.856049e-06,2.6518e-08,6.334713e-07,0.00044021934223661496
PART_001_R158G218B229A255,4579,-0.0003308001,0.0001091706,0.0001091379,8.266715e-06,1.895593e-08,7.742824e-07,0.0004401893299868255
PART_001_R158G218B229A255,4580,-0.0003307982,0.0001091785,0.0001091333,7.924936e-06,5.571679e-09,6.408113e-07,0.0004401695780962148
PART_001_R158G218B229A255,4581,-0.0003307999,0.0001091711,0.000109138,7.736549e-06,4.646558e-09,3.580579e-07,0.00044015891010968863
PART_001_R158G218B229A255,4582,-0.0003307983,0.0001091818,0.000109131,7.679037e-06,1.036751e-16,2.141231e-14,0.00044015570292262724
PART_001_R158G218B229A255,4583,-0.0003307999,0.0001091711,0.000109138,7.736549e-06,-4.646558e-09,-3.580579e-07,0.00044015891010968863
PART_001_R158G218B229A255,4584,-0.0003307982,0.0001091785,0.0001091333,7.924936e-06,-5.571678e-09,-6.408112e-07,0.00044016957809577803
PART_001_R158G218B229A255,4585,-0.0003308001,0.0001091706,0.0001091379,8.266715e-06,-1.895593e-08,-7.742824e-07,0.0004401893299868255
PART_001_R158G218B229A255,4586,-0.0003307979,0.0001091481,0.0001091574,8.856049e-06,-2.6518e-08,-6.334712e-07,0.00044021934223618323
PART_002_R214G39B40A255,4587,-0.0003308004,0.0001091727,0.0001092062,9.932705e-06,2.719197e-08,-2.312474e-07,0.00044032625117616006
PART_003_R247G182B210A255,4588,-0.0004135004,0.0001365361,0.0001363324,3.647897e-06,4.179809e-08,6.234685e-07,0.0005499720385879725
PART_001_R158G218B229A255,4589,-0.0004134975,0.0001364576,0.000136394,3.135025e-06,2.581939e-08,1.348039e-06,0.0005499550687912796
PART_001_R158G218B229A255,4590,-0.0004134999,0.0001364968,0.0001363983,2.938705e-06,5.018891e-09,1.372431e-06,0.0005499761483696708
PART_001_R158G218B229A255,4591,-0.0004134977,0.0001364614,0.0001364142,2.809255e-06,6.043688e-09,1.070319e-06,0.0005499601516746089
PART_001_R158G218B229A255,4592,-0.0004134997,0.0001364849,0.0001364127,2.747182e-06,8.417992e-10,5.775811e-07,0.0005499699977186124
PART_001_R158G218B229A255,4593,-0.0004134978,0.0001364627,0.0001364176,2.724464e-06,-6.966338e-17,2.89433e-14,0.0005499581970368038
PART_001_R158G218B229A255,4594,-0.0004134997,0.0001364849,0.0001364127,2.747182e-06,-8.417991e-10,-5.77581e-07,0.0005499699977182973
PART_001_R158G218B229A255,4595,-0.0004134977,0.0001364614,0.0001364142,2.809255e-06,-6.043688e-09,-1.070319e-06,0.0005499601516746089
PART_001_R158G218B229A255,4596,-0.0004134999,0.0001364968,0.0001363983,2.938705e-06,-5.018891e-09,-1.372431e-06,0.0005499761483696708
PART_001_R158G218B229A255,4597,-0.0004134975,0.0001364576,0.000136394,3.135025e-06,-2.581939e-08,-1.348039e-06,0.0005499550687912796
PART_001_R158G218B229A255,4598,-0.0004135004,0.0001365361,0.0001363324,3.647897e-06,-4.179809e-08,-6.234685e-07,0.0005499720385879725
PART_003_R247G182B210A255,4599,0.0004089536,-0.0001350356,-0.0001348282,3.64812e-06,4.146281e-08,-6.235149e-07,0.0005439233100170543
PART_000_R31G119B180A255,4600,0.000408956,-0.0001349583,-0.0001349008,3.134876e-06,2.54627e-08,-1.347934e-06,0.0005439176675236322
PART_000_R31G119B180A255,4601,0.000408954,-0.000134997,-0.0001348939,2.938787e-06,5.011366e-09,-1.372557e-06,0.0005439284703921098
PART_000_R31G119B180A255,4602,0.0004089557,-0.000134962,-0.0001349204,2.809166e-06,5.948656e-09,-1.070219e-06,0.0005439218230413816
PART_000_R31G119B180A255,4603,0.0004089541,-0.0001349853,-0.0001349084,2.747229e-06,8.45906e-10,-5.77639e-07,0.0005439226881186654
PART_000_R31G119B180A255,4604,0.0004089557,-0.0001349633,-0.0001349238,2.724391e-06,-4.923972e-17,-2.893782e-14,0.0005439197203997229
PART_000_R31G119B180A255,4605,0.0004089541,-0.0001349853,-0.0001349084,2.747229e-06,-8.459059e-10,5.776389e-07,0.0005439226881183468
PART_000_R31G119B180A255,4606,0.0004089557,-0.000134962,-0.0001349204,2.809166e-06,-5.948657e-09,1.070219e-06,0.0005439218230413816
PART_000_R31G119B180A255,4607,0.000408954,-0.000134997,-0.0001348939,2.938787e-06,-5.011365e-09,1.372557e-06,0.0005439284703921097
PART_000_R31G119B180A255,4608,0.000408956,-0.0001349583,-0.0001349008,3.134876e-06,-2.54627e-08,1.347934e-06,0.0005439176675236322
PART_000_R31G119B180A255,4609,0.0004089536,-0.0001350356,-0.0001348282,3.64812e-06,-4.146281e-08,6.235149e-07,0.0005439233100170543
PART_003_R247G182B210A255,4610,0.0003271628,-0.000107973,-0.0001080009,9.932524e-06,-2.692509e-08,-2.313017e-07,0.00043548987736136
PART_003_R247G182B210A255,4611,0.0003271648,-0.0001079485,-0.0001079628,8.856139e-06,2.622701e-08,-6.333613e-07,0.0004353921281542756
PART_000_R31G119B180A255,4612,0.0003271631,-0.0001079707,-0.0001079338,8.266729e-06,1.874952e-08,-7.744015e-07,0.0004353529434833207
PART_000_R31G119B180A255,4613,0.0003271646,-0.0001079786,-0.0001079387,7.924986e-06,5.507474e-09,-6.407193e-07,0.00043534112113207454
PART_000_R31G119B180A255,4614,0.0003271632,-0.0001079713,-0.0001079341,7.736582e-06,4.596902e-09,-3.581104e-07,0.00043532263479675447
PART_000_R31G119B180A255,4615,0.0003271645,-0.0001079819,-0.0001079364,7.67908e-06,1.054302e-16,-2.140603e-14,0.0004353268853987188
PART_000_R31G119B180A255,4616,0.0003271632,-0.0001079713,-0.0001079341,7.736582e-06,-4.596902e-09,3.581104e-07,0.00043532263479675447
PART_000_R31G119B180A255,4617,0.0003271646,-0.0001079786,-0.0001079387,7.924986e-06,-5.507473e-09,6.407193e-07,0.0004353411211320745
PART_000_R31G119B180A255,4618,0.0003271631,-0.0001079707,-0.0001079338,8.266729e-06,-1.874952e-08,7.744015e-07,0.0004353529434833207
PART_000_R31G119B180A255,4619,0.0003271648,-0.0001079485,-0.0001079628,8.856139e-06,-2.622701e-08,6.333613e-07,0.0004353921281542756
PART_002_R214G39B40A255,4620,0.0003271628,-0.000107973,-0.0001080009,9.932524e-06,2.692509e-08,2.313017e-07,0.00043548987736136
PART_003_R247G182B210A255,4621,0.0002453721,-8.101008e-05,-8.092885e-05,1.452037e-05,2.8749e-09,-1.262108e-07,0.0003273093234884821
PART_003_R247G182B210A255,4622,0.0002453736,-8.097316e-05,-8.09855e-05,1.331917e-05,-2.868311e-08,-3.18319e-07,0.0003271677587284205
PART_003_R247G182B210A255,4623,0.0002453723,-8.095807e-05,-8.097567e-05,1.249376e-05,1.136658e-08,-4.06026e-07,0.00032705661770457596
PART_000_R31G119B180A255,4624,0.0002453735,-8.097757e-05,-8.095768e-05,1.198338e-05,3.050556e-09,-3.623216e-07,0.00032700111346965023
PART_000_R31G119B180A255,4625,0.0002453724,-8.097741e-05,-8.095768e-05,1.170194e-05,2.47189e-09,-2.069431e-07,0.0003269689506490167
PART_000_R31G119B180A255,4626,0.0002453735,-8.097862e-05,-8.095473e-05,1.161082e-05,-2.827616e-16,-1.501983e-14,0.0003269592385455669
PART_000_R31G119B180A255,4627,0.0002453724,-8.097741e-05,-8.095768e-05,1.170194e-05,-2.47189e-09,2.069431e-07,0.0003269689506490167
PART_000_R31G119B180A255,4628,0.0002453735,-8.097757e-05,-8.095768e-05,1.198338e-05,-3.050556e-09,3.623215e-07,0.00032700111346931787
PART_000_R31G119B180A255,4629,0.0002453723,-8.095807e-05,-8.097567e-05,1.249376e-05,-1.136658e-08,4.06026e-07,0.00032705661770457596
PART_002_R214G39B40A255,4630,0.0002453736,-8.097316e-05,-8.09855e-05,1.331917e-05,2.868311e-08,3.18319e-07,0.0003271677587284205
PART_002_R214G39B40A255,4631,0.0002453721,-8.101008e-05,-8.092885e-05,1.452037e-05,-2.874901e-09,1.262108e-07,0.00032730932348848217
PART_003_R247G182B210A255,4632,0.0001635814,-5.398857e-05,-5.399129e-05,1.772531e-05,-1.142385e-08,-5.844409e-08,0.00021972677152762703
PART_003_R247G182B210A255,4633,0.0001635824,-5.398785e-05,-5.397262e-05,1.645288e-05,9.144427e-10,-1.613562e-07,0.00021942121641484343
PART_003_R247G182B210A255,4634,0.0001635815,-5.398156e-05,-5.39814e-05,1.553579e-05,-2.176253e-08,-2.068284e-07,0.0002192210353366122
PART_003_R247G182B210A255,4635,0.0001635823,-5.397337e-05,-5.398521e-05,1.492197e-05,3.370003e-09,-1.867967e-07,0.00021909163796823044
PART_000_R31G119B180A255,4636,0.0001635816,-5.398485e-05,-5.396985e-05,1.457599e-05,-3.298777e-09,-1.104351e-07,0.00021901897627299907
PART_000_R31G119B180A255,4637,0.0001635823,-5.398093e-05,-5.397782e-05,1.446385e-05,2.709735e-16,-9.462834e-15,0.00021899929521924767
PART_000_R31G119B180A255,4638,0.0001635816,-5.398485e-05,-5.396985e-05,1.457599e-05,3.298776e-09,1.104351e-07,0.00021901897627299902
PART_000_R31G119B180A255,4639,0.0001635823,-5.397337e-05,-5.398521e-05,1.492197e-05,-3.370003e-09,1.867967e-07,0.00021909163796823044
PART_002_R214G39B40A255,4640,0.0001635815,-5.398156e-05,-5.39814e-05,1.553579e-05,2.176253e-08,2.068284e-07,0.0002192210353366122
PART_002_R214G39B40A255,4641,0.0001635824,-5.398785e-05,-5.397262e-05,1.645288e-05,-9.144428e-10,1.613562e-07,0.00021942121641484343
PART_002_R214G39B40A255,4642,0.0001635814,-5.398857e-05,-5.399129e-05,1.772531e-05,1.142385e-08,5.844408e-08,0.00021972677152761906
PART_003_R247G182B210A255,4643,8.179068e-05,-2.700196e-05,-2.697895e-05,1.962263e-05,-1.504642e-09,-2.57352e-08,0.00011396701517117748
PART_003_R247G182B210A255,4644,8.179122e-05,-2.699165e-05,-2.69952e-05,1.832412e-05,-2.208209e-08,-6.641125e-08,0.00011332005035636711
PART_003_R247G182B210A255,4645,8.179077e-05,-2.69888e-05,-2.698989e-05,1.735698e-05,-1.538172e-09,-8.712595e-08,0.0001128580101913768
PART_003_R247G182B210A255,4646,8.179117e-05,-2.699113e-05,-2.698941e-05,1.669888e-05,-1.716396e-08,-7.934108e-08,0.0001125610023022232
PART_003_R247G182B210A255,4647,8.17908e-05,-2.698722e-05,-2.699106e-05,1.631654e-05,2.954602e-10,-4.674145e-08,0.00011239114887182592
PART_000_R31G119B180A255,4648,8.179115e-05,-2.699241e-05,-2.698606e-05,1.619258e-05,-1.423423e-16,-4.577081e-15,0.00011233775470499355
PART_000_R31G119B180A255,4649,8.17908e-05,-2.698722e-05,-2.699106e-05,1.631654e-05,-2.954598e-10,4.674144e-08,0.00011239114887181344
PART_002_R214G39B40A255,4650,8.179117e-05,-2.699113e-05,-2.698941e-05,1.669888e-05,1.716396e-08,7.934108e-08,0.0001125610023022232
PART_002_R214G39B40A255,4651,8.179077e-05,-2.69888e-05,-2.698989e-05,1.735698e-05,1.538172e-09,8.712594e-08,0.00011285801019135364
PART_002_R214G39B40A255,4652,8.179122e-05,-2.699165e-05,-2.69952e-05,1.832412e-05,2.208209e-08,6.641124e-08,0.00011332005035634952
PART_002_R214G39B40A255,4653,8.179068e-05,-2.700196e-05,-2.697895e-05,1.962263e-05,1.504642e-09,2.57352e-08,0.00011396701517117748
PART_003_R247G182B210A255,4654,8.948988e-14,-2.94556e-14,-2.957818e-14,2.025227e-05,-8.878676e-09,-2.370252e-17,3.507796397956077e-05
PART_003_R247G182B210A255,4655,8.951065e-14,-2.934805e-14,-2.974748e-14,1.894421e-05,-3.738397e-09,-8.09035e-17,3.2812334868142754e-05
PART_003_R247G182B210A255,4656,8.946251e-14,-2.94105e-14,-2.947604e-14,1.79659e-05,-2.361613e-08,-9.220631e-17,3.1117878488013745e-05
PART_003_R247G182B210A255,4657,8.94598e-14,-2.943826e-14,-2.953916e-14,1.729134e-05,-1.447956e-09,-9.838372e-17,2.9949479515953692e-05
PART_003_R247G182B210A255,4658,8.940635e-14,-2.935846e-14,-2.949033e-14,1.690025e-05,-9.811508e-09,-5.538558e-17,2.9272096593591785e-05
PART_003_R247G182B210A255,4659,8.941567e-14,-2.942438e-14,-2.949286e-14,1.677116e-05,2.162567e-16,-1.419733e-18,2.904850122186685e-05
PART_002_R214G39B40A255,4660,8.936325e-14,-2.935846e-14,-2.947366e-14,1.690025e-05,9.811508e-09,5.290864e-17,2.9272096593591785e-05
PART_002_R214G39B40A255,4661,8.937843e-14,-2.938969e-14,-2.952034e-14,1.729134e-05,1.447957e-09,9.465424e-17,2.9949479515953838e-05
PART_002_R214G39B40A255,4662,8.933642e-14,-2.937234e-14,-2.942653e-14,1.79659e-05,2.361613e-08,9.702424e-17,3.1117878488013745e-05
PART_002_R214G39B40A255,4663,8.936227e-14,-2.930295e-14,-2.970375e-14,1.894421e-05,3.738397e-09,7.007249e-17,3.2812334868142754e-05
PART_002_R214G39B40A255,4664,8.932731e-14,-2.947989e-14,-2.950658e-14,2.025227e-05,8.878676e-09,2.691193e-17,3.507796397956077e-05
PART_003_R247G182B210A255,4665,-8.179068e-05,2.700196e-05,2.697895e-05,1.962263e-05,-1.504643e-09,2.57352e-08,0.00011396701517117752
PART_003_R247G182B210A255,4666,-8.179122e-05,2.699165e-05,2.69952e-05,1.832412e-05,-2.208209e-08,6.641125e-08,0.00011332005035636711
PART_003_R247G182B210A255,4667,-8.179077e-05,2.69888e-05,2.698989e-05,1.735698e-05,-1.538172e-09,8.712594e-08,0.00011285801019135364
PART_003_R247G182B210A255,4668,-8.179117e-05,2.699113e-05,2.698941e-05,1.669888e-05,-1.716396e-08,7.934108e-08,0.0001125610023022232
PART_003_R247G182B210A255,4669,-8.17908e-05,2.698722e-05,2.699106e-05,1.631654e-05,2.954602e-10,4.674145e-08,0.00011239114887182592
PART_001_R158G218B229A255,4670,-8.179115e-05,2.699241e-05,2.698606e-05,1.619258e-05,-1.66932e-16,4.584244e-15,0.00011233775470499355
PART_001_R158G218B229A255,4671,-8.17908e-05,2.698722e-05,2.699106e-05,1.631654e-05,-2.954598e-10,-4.674144e-08,0.00011239114887181344
PART_002_R214G39B40A255,4672,-8.179117e-05,2.699113e-05,2.698941e-05,1.669888e-05,1.716396e-08,-7.934108e-08,0.0001125610023022232
PART_002_R214G39B40A255,4673,-8.179077e-05,2.69888e-05,2.698989e-05,1.735698e-05,1.538172e-09,-8.712594e-08,0.00011285801019135364
PART_002_R214G39B40A255,4674,-8.179122e-05,2.699165e-05,2.69952e-05,1.832412e-05,2.208209e-08,-6.641124e-08,0.00011332005035634952
PART_002_R214G39B40A255,4675,-8.179068e-05,2.700196e-05,2.697895e-05,1.962263e-05,1.504643e-09,-2.57352e-08,0.00011396701517117752
PART_003_R247G182B210A255,4676,-0.0001635814,5.398857e-05,5.399129e-05,1.772531e-05,-1.142385e-08,5.844409e-08,0.00021972677152762703
PART_003_R247G182B210A255,4677,-0.0001635824,5.398785e-05,5.397262e-05,1.645288e-05,9.144428e-10,1.613562e-07,0.00021942121641484343
PART_003_R247G182B210A255,4678,-0.0001635815,5.398156e-05,5.39814e-05,1.553579e-05,-2.176253e-08,2.068284e-07,0.0002192210353366122
PART_003_R247G182B210A255,4679,-0.0001635823,5.397337e-05,5.398521e-05,1.492197e-05,3.370003e-09,1.867967e-07,0.00021909163796823044
PART_001_R158G218B229A255,4680,-0.0001635816,5.398485e-05,5.396985e-05,1.457599e-05,-3.298777e-09,1.104351e-07,0.00021901897627299907
PART_001_R158G218B229A255,4681,-0.0001635823,5.398093e-05,5.397782e-05,1.446385e-05,2.791677e-16,9.469969e-15,0.00021899929521924767
PART_001_R158G218B229A255,4682,-0.0001635816,5.398485e-05,5.396985e-05,1.457599e-05,3.298776e-09,-1.104351e-07,0.00021901897627299902
PART_001_R158G218B229A255,4683,-0.0001635823,5.397337e-05,5.398521e-05,1.492197e-05,-3.370003e-09,-1.867967e-07,0.00021909163796823044
PART_002_R214G39B40A255,4684,-0.0001635815,5.398156e-05,5.39814e-05,1.553579e-05,2.176253e-08,-2.068284e-07,0.0002192210353366122
PART_002_R214G39B40A255,4685,-0.0001635824,5.398785e-05,5.397262e-05,1.645288e-05,-9.144429e-10,-1.613562e-07,0.00021942121641484343
PART_002_R214G39B40A255,4686,-0.0001635814,5.398857e-05,5.399129e-05,1.772531e-05,1.142385e-08,-5.844408e-08,0.00021972677152761906
PART_003_R247G182B210A255,4687,-0.0002453721,8.101008e-05,8.092885e-05,1.452037e-05,2.874901e-09,1.262108e-07,0.00032730932348848217
PART_003_R247G182B210A255,4688,-0.0002453736,8.097316e-05,8.09855e-05,1.331917e-05,-2.868311e-08,3.18319e-07,0.0003271677587284205
PART_003_R247G182B210A255,4689,-0.0002453723,8.095807e-05,8.097567e-05,1.249376e-05,1.136658e-08,4.06026e-07,0.00032705661770457596
PART_001_R158G218B229A255,4690,-0.0002453735,8.097757e-05,8.095768e-05,1.198338e-05,3.050556e-09,3.623216e-07,0.00032700111346965023
PART_001_R158G218B229A255,4691,-0.0002453724,8.097741e-05,8.095768e-05,1.170194e-05,2.47189e-09,2.069431e-07,0.0003269689506490167
PART_001_R158G218B229A255,4692,-0.0002453735,8.097862e-05,8.095473e-05,1.161082e-05,-2.888543e-16,1.499487e-14,0.0003269592385455669
PART_001_R158G218B229A255,4693,-0.0002453724,8.097741e-05,8.095768e-05,1.170194e-05,-2.47189e-09,-2.069431e-07,0.0003269689506490167
PART_001_R158G218B229A255,4694,-0.0002453735,8.097757e-05,8.095768e-05,1.198338e-05,-3.050556e-09,-3.623215e-07,0.00032700111346931787
PART_001_R158G218B229A255,4695,-0.0002453723,8.095807e-05,8.097567e-05,1.249376e-05,-1.136658e-08,-4.06026e-07,0.00032705661770457596
PART_002_R214G39B40A255,4696,-0.0002453736,8.097316e-05,8.09855e-05,1.331917e-05,2.868311e-08,-3.18319e-07,0.0003271677587284205
PART_002_R214G39B40A255,4697,-0.0002453721,8.101008e-05,8.092885e-05,1.452037e-05,-2.874901e-09,-1.262108e-07,0.00032730932348848217
PART_003_R247G182B210A255,4698,-0.0003271628,0.000107973,0.0001080009,9.932524e-06,-2.692509e-08,2.313017e-07,0.00043548987736136
PART_003_R247G182B210A255,4699,-0.0003271648,0.0001079485,0.0001079628,8.856139e-06,2.622701e-08,6.333613e-07,0.0004353921281542756
PART_001_R158G218B229A255,4700,-0.0003271631,0.0001079707,0.0001079338,8.266729e-06,1.874952e-08,7.744015e-07,0.0004353529434833207
PART_001_R158G218B229A255,4701,-0.0003271646,0.0001079786,0.0001079387,7.924986e-06,5.507474e-09,6.407193e-07,0.00043534112113207454
PART_001_R158G218B229A255,4702,-0.0003271632,0.0001079713,0.0001079341,7.736582e-06,4.596902e-09,3.581104e-07,0.00043532263479675447
PART_001_R158G218B229A255,4703,-0.0003271645,0.0001079819,0.0001079364,7.67908e-06,1.091521e-16,2.141686e-14,0.0004353268853987188
PART_001_R158G218B229A255,4704,-0.0003271632,0.0001079713,0.0001079341,7.736582e-06,-4.596902e-09,-3.581104e-07,0.00043532263479675447
PART_001_R158G218B229A255,4705,-0.0003271646,0.0001079786,0.0001079387,7.924986e-06,-5.507473e-09,-6.407193e-07,0.0004353411211320745
PART_001_R158G218B229A255,4706,-0.0003271631,0.0001079707,0.0001079338,8.266729e-06,-1.874952e-08,-7.744015e-07,0.0004353529434833207
PART_001_R158G218B229A255,4707,-0.0003271648,0.0001079485,0.0001079628,8.856139e-06,-2.622701e-08,-6.333613e-07,0.0004353921281542756
PART_002_R214G39B40A255,4708,-0.0003271628,0.000107973,0.0001080009,9.932524e-06,2.692509e-08,-2.313017e-07,0.00043548987736136
PART_003_R247G182B210A255,4709,-0.0004089536,0.0001350356,0.0001348282,3.64812e-06,4.146281e-08,6.235149e-07,0.0005439233100170543
PART_001_R158G218B229A255,4710,-0.000408956,0.0001349583,0.0001349008,3.134876e-06,2.54627e-08,1.347934e-06,0.0005439176675236322
PART_001_R158G218B229A255,4711,-0.000408954,0.000134997,0.0001348939,2.938787e-06,5.011366e-09,1.372557e-06,0.0005439284703921098
PART_001_R158G218B229A255,4712,-0.0004089557,0.000134962,0.0001349204,2.809166e-06,5.948656e-09,1.070219e-06,0.0005439218230413816
PART_001_R158G218B229A255,4713,-0.0004089541,0.0001349853,0.0001349084,2.747229e-06,8.45906e-10,5.77639e-07,0.0005439226881186654
PART_001_R158G218B229A255,4714,-0.0004089557,0.0001349633,0.0001349238,2.724391e-06,-4.748806e-17,2.894316e-14,0.0005439197203997229
PART_001_R158G218B229A255,4715,-0.0004089541,0.0001349853,0.0001349084,2.747229e-06,-8.45906e-10,-5.776389e-07,0.0005439226881183468
PART_001_R158G218B229A255,4716,-0.0004089557,0.000134962,0.0001349204,2.809166e-06,-5.948657e-09,-1.070219e-06,0.0005439218230413816
PART_001_R158G218B229A255,4717,-0.000408954,0.000134997,0.0001348939,2.938787e-06,-5.011365e-09,-1.372557e-06,0.0005439284703921097
PART_001_R158G218B229A255,4718,-0.000408956,0.0001349583,0.0001349008,3.134876e-06,-2.54627e-08,-1.347934e-06,0.0005439176675236322
PART_001_R158G218B229A255,4719,-0.0004089536,0.0001350356,0.0001348282,3.64812e-06,-4.146281e-08,-6.235149e-07,0.0005439233100170543
PART_003_R247G182B210A255,4720,0.000404412,-0.0001335353,-0.000133335,3.647938e-06,4.090138e-08,-6.23478e-07,0.0005378853784974673
PART_000_R31G119B180A255,4721,0.00040441,-0.0001334586,-0.0001333973,3.134998e-06,2.523907e-08,-1.348022e-06,0.0005378704317182898
PART_000_R31G119B180A255,4722,0.0004044116,-0.0001334969,-0.0001333996,2.93872e-06,4.916869e-09,-1.372457e-06,0.0005378891935662795
PART_000_R31G119B180A255,4723,0.0004044102,-0.0001334623,-0.000133417,2.809239e-06,5.905714e-09,-1.070303e-06,0.0005378750551062348
PART_000_R31G119B180A255,4724,0.0004044115,-0.0001334853,-0.0001334137,2.747191e-06,8.255693e-10,-5.775932e-07,0.0005378829809399533
PART_000_R31G119B180A255,4725,0.0004044103,-0.0001334635,-0.0001334204,2.72445e-06,-2.397696e-17,-2.893422e-14,0.0005378729516406989
PART_000_R31G119B180A255,4726,0.0004044115,-0.0001334853,-0.0001334137,2.747191e-06,-8.255692e-10,5.775932e-07,0.0005378829809399533
PART_000_R31G119B180A255,4727,0.0004044102,-0.0001334623,-0.000133417,2.809239e-06,-5.905714e-09,1.070303e-06,0.0005378750551062348
PART_000_R31G119B180A255,4728,0.0004044116,-0.0001334969,-0.0001333996,2.93872e-06,-4.916868e-09,1.372457e-06,0.0005378891935662795
PART_000_R31G119B180A255,4729,0.00040441,-0.0001334586,-0.0001333973,3.134998e-06,-2.523907e-08,1.348022e-06,0.0005378704317182898
PART_000_R31G119B180A255,4730,0.000404412,-0.0001335353,-0.000133335,3.647938e-06,-4.090138e-08,6.23478e-07,0.0005378853784974673
PART_003_R247G182B210A255,4731,0.0003235296,-0.0001067733,-0.0001068051,9.93267e-06,-2.660011e-08,-2.31258e-07,0.00043066275292314517
PART_003_R247G182B210A255,4732,0.000323528,-0.0001067492,-0.0001067592,8.856064e-06,2.593508e-08,-6.33453e-07,0.0004305569266967506
PART_000_R31G119B180A255,4733,0.0003235294,-0.0001067712,-0.0001067384,8.266716e-06,1.853934e-08,-7.743068e-07,0.00043052445812169244
PART_000_R31G119B180A255,4734,0.0003235282,-0.0001067789,-0.0001067356,7.924944e-06,5.448353e-09,-6.407969e-07,0.0004305057677327149
PART_000_R31G119B180A255,4735,0.0003235293,-0.0001067717,-0.0001067386,7.736554e-06,4.544461e-09,-3.580689e-07,0.0004304935031320015
PART_000_R31G119B180A255,4736,0.0003235282,-0.0001067822,-0.0001067333,7.679043e-06,8.763572e-17,-2.142369e-14,0.00043049146758675433
PART_000_R31G119B180A255,4737,0.0003235293,-0.0001067717,-0.0001067386,7.736554e-06,-4.544461e-09,3.580689e-07,0.0004304935031320015
PART_000_R31G119B180A255,4738,0.0003235282,-0.0001067789,-0.0001067356,7.924944e-06,-5.448352e-09,6.407969e-07,0.00043050576773271483
PART_000_R31G119B180A255,4739,0.0003235294,-0.0001067712,-0.0001067384,8.266716e-06,-1.853934e-08,7.743067e-07,0.0004305244581211529
PART_000_R31G119B180A255,4740,0.000323528,-0.0001067492,-0.0001067592,8.856064e-06,-2.593508e-08,6.33453e-07,0.0004305569266967506
PART_002_R214G39B40A255,4741,0.0003235296,-0.0001067733,-0.0001068051,9.93267e-06,2.660011e-08,2.31258e-07,0.00043066275292314517
PART_003_R247G182B210A255,4742,0.0002426472,-8.011e-05,-8.003295e-05,1.45203e-05,2.828995e-09,-1.261901e-07,0.0003236972548205903
PART_003_R247G182B210A255,4743,0.000242646,-8.007338e-05,-8.008253e-05,1.331919e-05,-2.837097e-08,-3.183789e-07,0.0003235479256161441
PART_003_R247G182B210A255,4744,0.000242647,-8.005844e-05,-8.007895e-05,1.249383e-05,1.124445e-08,-4.05957e-07,0.00032344118825778094
PART_000_R31G119B180A255,4745,0.0002426461,-8.007774e-05,-8.005521e-05,1.19834e-05,3.013454e-09,-3.623801e-07,0.0003233799716367182
PART_000_R31G119B180A255,4746,0.000242647,-8.007758e-05,-8.006105e-05,1.170201e-05,2.445807e-09,-2.069115e-07,0.0003233523770459754
PART_000_R31G119B180A255,4747,0.0002426461,-8.007878e-05,-8.005235e-05,1.161085e-05,-3.170385e-16,-1.499878e-14,0.0003233376791593402
PART_000_R31G119B180A255,4748,0.000242647,-8.007758e-05,-8.006105e-05,1.170201e-05,-2.445806e-09,2.069115e-07,0.0003233523770459754
PART_000_R31G119B180A255,4749,0.0002426461,-8.007774e-05,-8.005521e-05,1.19834e-05,-3.013454e-09,3.623801e-07,0.0003233799716367182
PART_000_R31G119B180A255,4750,0.000242647,-8.005844e-05,-8.007895e-05,1.249383e-05,-1.124445e-08,4.059569e-07,0.00032344118825740445
PART_002_R214G39B40A255,4751,0.000242646,-8.007338e-05,-8.008253e-05,1.331919e-05,2.837097e-08,3.183789e-07,0.0003235479256161441
PART_002_R214G39B40A255,4752,0.0002426472,-8.011e-05,-8.003295e-05,1.45203e-05,-2.828995e-09,1.261901e-07,0.0003236972548205903
PART_003_R247G182B210A255,4753,0.0001617648,-5.338868e-05,-5.339361e-05,1.772541e-05,-1.128589e-08,-5.842263e-08,0.00021733536708920854
PART_003_R247G182B210A255,4754,0.000161764,-5.338803e-05,-5.337081e-05,1.645282e-05,9.090683e-10,-1.614007e-07,0.0002170227071128434
PART_003_R247G182B210A255,4755,0.0001617647,-5.338183e-05,-5.338364e-05,1.553574e-05,-2.152163e-08,-2.067825e-07,0.00021682395187830997
PART_003_R247G182B210A255,4756,0.0001617641,-5.337372e-05,-5.33834e-05,1.49219e-05,3.332095e-09,-1.868348e-07,0.00021668977427654137
PART_000_R31G119B180A255,4757,0.0001617647,-5.338508e-05,-5.337213e-05,1.457595e-05,-3.262028e-09,-1.104147e-07,0.0002166196052379558
PART_000_R31G119B180A255,4758,0.0001617641,-5.33812e-05,-5.337612e-05,1.446378e-05,2.714012e-16,-9.464951e-15,0.00021659642193590735
PART_000_R31G119B180A255,4759,0.0001617647,-5.338508e-05,-5.337213e-05,1.457595e-05,3.262028e-09,1.104147e-07,0.0002166196052379558
PART_000_R31G119B180A255,4760,0.0001617641,-5.337372e-05,-5.33834e-05,1.49219e-05,-3.332095e-09,1.868348e-07,0.00021668977427654137
PART_002_R214G39B40A255,4761,0.0001617647,-5.338183e-05,-5.338364e-05,1.553574e-05,2.152163e-08,2.067825e-07,0.00021682395187830997
PART_002_R214G39B40A255,4762,0.000161764,-5.338803e-05,-5.337081e-05,1.645282e-05,-9.090684e-10,1.614007e-07,0.0002170227071128434
PART_002_R214G39B40A255,4763,0.0001617648,-5.338868e-05,-5.339361e-05,1.772541e-05,1.128589e-08,5.842263e-08,0.00021733536708920854
PART_003_R247G182B210A255,4764,8.088242e-05,-2.670194e-05,-2.66803e-05,1.962259e-05,-1.49641e-09,-2.572793e-08,0.00011281492351089892
PART_003_R247G182B210A255,4765,8.088198e-05,-2.669172e-05,-2.669419e-05,1.832413e-05,-2.184396e-08,-6.643221e-08,0.0001121592730753545
PART_003_R247G182B210A255,4766,8.088235e-05,-2.668889e-05,-2.669102e-05,1.735707e-05,-1.519162e-09,-8.710204e-08,0.00011169434726336905
PART_003_R247G182B210A255,4767,8.088202e-05,-2.669121e-05,-2.668853e-05,1.669892e-05,-1.697461e-08,-7.936123e-08,0.00011139251801662774
PART_003_R247G182B210A255,4768,8.088233e-05,-2.668733e-05,-2.669214e-05,1.631661e-05,2.924596e-10,-4.673067e-08,0.00011122252929562317
PART_000_R31G119B180A255,4769,8.088203e-05,-2.669246e-05,-2.668524e-05,1.619263e-05,-1.281225e-16,-4.580137e-15,0.00011116698278725297
PART_000_R31G119B180A255,4770,8.088233e-05,-2.668733e-05,-2.669214e-05,1.631661e-05,-2.924592e-10,4.673066e-08,0.00011122252929561057
PART_002_R214G39B40A255,4771,8.088202e-05,-2.669121e-05,-2.668853e-05,1.669892e-05,1.697461e-08,7.936122e-08,0.00011139251801660636
PART_002_R214G39B40A255,4772,8.088235e-05,-2.668889e-05,-2.669102e-05,1.735707e-05,1.519162e-09,8.710204e-08,0.00011169434726336905
PART_002_R214G39B40A255,4773,8.088198e-05,-2.669172e-05,-2.669419e-05,1.832413e-05,2.184396e-08,6.643221e-08,0.0001121592730753545
PART_002_R214G39B40A255,4774,8.088242e-05,-2.670194e-05,-2.66803e-05,1.962259e-05,1.49641e-09,2.572793e-08,0.00011281492351089892
PART_003_R247G182B210A255,4775,8.858187e-14,-2.921274e-14,-2.935525e-14,2.025236e-05,-8.771211e-09,-2.16095e-17,3.507811978301043e-05
PART_003_R247G182B210A255,4776,8.851979e-14,-2.915723e-14,-2.932267e-14,1.894415e-05,-3.692152e-09,-6.292523e-17,3.281223092938758e-05
PART_003_R247G182B210A255,4777,8.855931e-14,-2.928213e-14,-2.921799e-14,1.796585e-05,-2.335363e-08,-9.239435e-17,3.111779129121478e-05
PART_003_R247G182B210A255,4778,8.852473e-14,-2.935152e-14,-2.915446e-14,1.729126e-05,-1.433252e-09,-8.815157e-17,2.994934094976772e-05
PART_003_R247G182B210A255,4779,8.854121e-14,-2.937928e-14,-2.922367e-14,1.690021e-05,-9.702024e-09,-5.645983e-17,2.927202720209362e-05
PART_003_R247G182B210A255,4780,8.850044e-14,-2.946601e-14,-2.909975e-14,1.677108e-05,2.251262e-16,1.451814e-18,2.904836265780225e-05
PART_002_R214G39B40A255,4781,8.852749e-14,-2.938969e-14,-2.921675e-14,1.690021e-05,9.702024e-09,4.303605e-17,2.927202720209362e-05
PART_002_R214G39B40A255,4782,8.845404e-14,-2.938622e-14,-2.911271e-14,1.729126e-05,1.433252e-09,8.153793e-17,2.994934094976772e-05
PART_002_R214G39B40A255,4783,8.844894e-14,-2.926132e-14,-2.919031e-14,1.796585e-05,2.335363e-08,9.014633e-17,3.111779129121478e-05
PART_002_R214G39B40A255,4784,8.839701e-14,-2.917458e-14,-2.928245e-14,1.894415e-05,3.692152e-09,7.267627e-17,3.281223092938758e-05
PART_002_R214G39B40A255,4785,8.839977e-14,-2.921621e-14,-2.925615e-14,2.025236e-05,8.771211e-09,2.490616e-17,3.507811978301043e-05
PART_003_R247G182B210A255,4786,-8.088242e-05,2.670194e-05,2.66803e-05,1.962259e-05,-1.49641e-09,2.572793e-08,0.00011281492351089892
PART_003_R247G182B210A255,4787,-8.088198e-05,2.669172e-05,2.669419e-05,1.832413e-05,-2.184396e-08,6.643221e-08,0.0001121592730753545
PART_003_R247G182B210A255,4788,-8.088235e-05,2.668889e-05,2.669102e-05,1.735707e-05,-1.519162e-09,8.710204e-08,0.00011169434726336905
PART_003_R247G182B210A255,4789,-8.088202e-05,2.669121e-05,2.668853e-05,1.669892e-05,-1.697461e-08,7.936123e-08,0.00011139251801662774
PART_003_R247G182B210A255,4790,-8.088232e-05,2.668733e-05,2.669214e-05,1.631661e-05,2.924596e-10,4.673067e-08,0.00011122251962383586
PART_001_R158G218B229A255,4791,-8.088203e-05,2.669246e-05,2.668524e-05,1.619263e-05,-1.602925e-16,4.566003e-15,0.00011116698278725297
PART_001_R158G218B229A255,4792,-8.088232e-05,2.668733e-05,2.669214e-05,1.631661e-05,-2.924592e-10,-4.673066e-08,0.00011122251962382326
PART_002_R214G39B40A255,4793,-8.088202e-05,2.669121e-05,2.668853e-05,1.669892e-05,1.697461e-08,-7.936122e-08,0.00011139251801660636
PART_002_R214G39B40A255,4794,-8.088235e-05,2.668889e-05,2.669102e-05,1.735707e-05,1.519162e-09,-8.710204e-08,0.00011169434726336905
PART_002_R214G39B40A255,4795,-8.088198e-05,2.669172e-05,2.669419e-05,1.832413e-05,2.184396e-08,-6.643221e-08,0.0001121592730753545
PART_002_R214G39B40A255,4796,-8.088242e-05,2.670194e-05,2.66803e-05,1.962259e-05,1.49641e-09,-2.572793e-08,0.00011281492351089892
PART_003_R247G182B210A255,4797,-0.0001617648,5.338868e-05,5.339361e-05,1.772541e-05,-1.128589e-08,5.842263e-08,0.00021733536708920854
PART_003_R247G182B210A255,4798,-0.000161764,5.338803e-05,5.337081e-05,1.645282e-05,9.090684e-10,1.614007e-07,0.0002170227071128434
PART_003_R247G182B210A255,4799,-0.0001617647,5.338183e-05,5.338364e-05,1.553574e-05,-2.152163e-08,2.067825e-07,0.00021682395187830997
PART_003_R247G182B210A255,4800,-0.0001617641,5.337372e-05,5.33834e-05,1.49219e-05,3.332095e-09,1.868348e-07,0.00021668977427654137
PART_001_R158G218B229A255,4801,-0.0001617647,5.338508e-05,5.337213e-05,1.457595e-05,-3.262029e-09,1.104147e-07,0.00021661960523795584
PART_001_R158G218B229A255,4802,-0.0001617641,5.33812e-05,5.337612e-05,1.446378e-05,3.213643e-16,9.460049e-15,0.00021659642193590735
PART_001_R158G218B229A255,4803,-0.0001617647,5.338508e-05,5.337213e-05,1.457595e-05,3.262028e-09,-1.104147e-07,0.0002166196052379558
PART_001_R158G218B229A255,4804,-0.0001617641,5.337372e-05,5.33834e-05,1.49219e-05,-3.332095e-09,-1.868348e-07,0.00021668977427654137
PART_002_R214G39B40A255,4805,-0.0001617647,5.338183e-05,5.338364e-05,1.553574e-05,2.152163e-08,-2.067825e-07,0.00021682395187830997
PART_002_R214G39B40A255,4806,-0.000161764,5.338803e-05,5.337081e-05,1.645282e-05,-9.090685e-10,-1.614007e-07,0.0002170227071128434
PART_002_R214G39B40A255,4807,-0.0001617648,5.338868e-05,5.339361e-05,1.772541e-05,1.128589e-08,-5.842262e-08,0.0002173353670892005
PART_003_R247G182B210A255,4808,-0.0002426472,8.011e-05,8.003295e-05,1.45203e-05,2.828995e-09,1.261901e-07,0.0003236972548205903
PART_003_R247G182B210A255,4809,-0.000242646,8.007338e-05,8.008253e-05,1.331919e-05,-2.837097e-08,3.183789e-07,0.0003235479256161441
PART_003_R247G182B210A255,4810,-0.000242647,8.005844e-05,8.007895e-05,1.249383e-05,1.124445e-08,4.05957e-07,0.00032344118825778094
PART_001_R158G218B229A255,4811,-0.0002426461,8.007774e-05,8.005521e-05,1.19834e-05,3.013454e-09,3.623801e-07,0.0003233799716367182
PART_001_R158G218B229A255,4812,-0.000242647,8.007758e-05,8.006105e-05,1.170201e-05,2.445807e-09,2.069115e-07,0.0003233523770459754
PART_001_R158G218B229A255,4813,-0.0002426461,8.007878e-05,8.005235e-05,1.161085e-05,-2.512799e-16,1.501741e-14,0.0003233376791593402
PART_001_R158G218B229A255,4814,-0.000242647,8.007758e-05,8.006105e-05,1.170201e-05,-2.445806e-09,-2.069115e-07,0.0003233523770459754
PART_001_R158G218B229A255,4815,-0.0002426461,8.007774e-05,8.005521e-05,1.19834e-05,-3.013454e-09,-3.623801e-07,0.0003233799716367182
PART_001_R158G218B229A255,4816,-0.000242647,8.005844e-05,8.007895e-05,1.249383e-05,-1.124445e-08,-4.059569e-07,0.00032344118825740445
PART_002_R214G39B40A255,4817,-0.000242646,8.007338e-05,8.008253e-05,1.331919e-05,2.837097e-08,-3.183789e-07,0.0003235479256161441
PART_002_R214G39B40A255,4818,-0.0002426472,8.011e-05,8.003295e-05,1.45203e-05,-2.828995e-09,-1.261901e-07,0.0003236972548205903
PART_003_R247G182B210A255,4819,-0.0003235296,0.0001067733,0.0001068051,9.93267e-06,-2.660011e-08,2.31258e-07,0.00043066275292314517
PART_003_R247G182B210A255,4820,-0.000323528,0.0001067492,0.0001067592,8.856064e-06,2.593508e-08,6.33453e-07,0.0004305569266967506
PART_001_R158G218B229A255,4821,-0.0003235294,0.0001067712,0.0001067384,8.266716e-06,1.853934e-08,7.743068e-07,0.00043052445812169244
PART_001_R158G218B229A255,4822,-0.0003235282,0.0001067789,0.0001067356,7.924944e-06,5.448353e-09,6.407969e-07,0.0004305057677327149
PART_001_R158G218B229A255,4823,-0.0003235293,0.0001067717,0.0001067386,7.736554e-06,4.544461e-09,3.580689e-07,0.0004304935031320015
PART_001_R158G218B229A255,4824,-0.0003235282,0.0001067822,0.0001067333,7.679043e-06,1.023301e-16,2.139635e-14,0.00043049146758675433
PART_001_R158G218B229A255,4825,-0.0003235293,0.0001067717,0.0001067386,7.736554e-06,-4.544461e-09,-3.580689e-07,0.0004304935031320015
PART_001_R158G218B229A255,4826,-0.0003235282,0.0001067789,0.0001067356,7.924944e-06,-5.448352e-09,-6.407969e-07,0.00043050576773271483
PART_001_R158G218B229A255,4827,-0.0003235294,0.0001067712,0.0001067384,8.266716e-06,-1.853934e-08,-7.743067e-07,0.0004305244581211529
PART_001_R158G218B229A255,4828,-0.000323528,0.0001067492,0.0001067592,8.856064e-06,-2.593508e-08,-6.33453e-07,0.0004305569266967506
PART_002_R214G39B40A255,4829,-0.0003235296,0.0001067733,0.0001068051,9.93267e-06,2.660011e-08,-2.31258e-07,0.00043066275292314517
PART_003_R247G182B210A255,4830,-0.000404412,0.0001335353,0.000133335,3.647938e-06,4.090138e-08,6.23478e-07,0.0005378853784974673
PART_001_R158G218B229A255,4831,-0.00040441,0.0001334586,0.0001333973,3.134998e-06,2.523907e-08,1.348022e-06,0.0005378704317182898
PART_001_R158G218B229A255,4832,-0.0004044116,0.0001334969,0.0001333996,2.93872e-06,4.916869e-09,1.372457e-06,0.0005378891935662795
PART_001_R158G218B229A255,4833,-0.0004044102,0.0001334623,0.000133417,2.809239e-06,5.905714e-09,1.070303e-06,0.0005378750551062348
PART_001_R158G218B229A255,4834,-0.0004044115,0.0001334853,0.0001334137,2.747191e-06,8.255693e-10,5.775932e-07,0.0005378829809399533
PART_001_R158G218B229A255,4835,-0.0004044103,0.0001334635,0.0001334204,2.72445e-06,-3.915325e-17,2.894546e-14,0.0005378729516406989
PART_001_R158G218B229A255,4836,-0.0004044115,0.0001334853,0.0001334137,2.747191e-06,-8.255692e-10,-5.775932e-07,0.0005378829809399533
PART_001_R158G218B229A255,4837,-0.0004044102,0.0001334623,0.000133417,2.809239e-06,-5.905714e-09,-1.070303e-06,0.0005378750551062348
PART_001_R158G218B229A255,4838,-0.0004044116,0.0001334969,0.0001333996,2.93872e-06,-4.916868e-09,-1.372457e-06,0.0005378891935662795
PART_001_R158G218B229A255,4839,-0.00040441,0.0001334586,0.0001333973,3.134998e-06,-2.523907e-08,-1.348022e-06,0.0005378704317182898
PART_001_R158G218B229A255,4840,-0.000404412,0.0001335353,0.000133335,3.647938e-06,-4.090138e-08,-6.23478e-07,0.0005378853784974673
PART_003_R247G182B210A255,4841,0.0003998661,-0.0001320349,-0.0001318329,3.648087e-06,4.052368e-08,-6.235083e-07,0.0005318386667341753
PART_000_R31G119B180A255,4842,0.0003998677,-0.0001319592,-0.0001319022,3.134899e-06,2.490724e-08,-1.347951e-06,0.0005318312478891567
PART_000_R31G119B180A255,4843,0.0003998664,-0.000131997,-0.0001318971,2.938774e-06,4.893176e-09,-1.37254e-06,0.0005318431290651064
PART_000_R31G119B180A255,4844,0.0003998675,-0.0001319628,-0.0001319214,2.80918e-06,5.820486e-09,-1.070236e-06,0.0005318350897894651
PART_000_R31G119B180A255,4845,0.0003998665,-0.0001319856,-0.0001319112,2.747222e-06,8.251642e-10,-5.776314e-07,0.0005318371317196904
PART_000_R31G119B180A255,4846,0.0003998675,-0.000131964,-0.0001319247,2.724402e-06,-2.961312e-17,-2.893536e-14,0.0005318327858054285
PART_000_R31G119B180A255,4847,0.0003998665,-0.0001319856,-0.0001319112,2.747222e-06,-8.251642e-10,5.776314e-07,0.0005318371317196904
PART_000_R31G119B180A255,4848,0.0003998675,-0.0001319628,-0.0001319214,2.80918e-06,-5.820487e-09,1.070236e-06,0.0005318350897894652
PART_000_R31G119B180A255,4849,0.0003998664,-0.000131997,-0.0001318971,2.938774e-06,-4.893176e-09,1.37254e-06,0.0005318431290651064
PART_000_R31G119B180A255,4850,0.0003998677,-0.0001319592,-0.0001319022,3.134899e-06,-2.490724e-08,1.347951e-06,0.0005318312478891567
PART_000_R31G119B180A255,4851,0.0003998661,-0.0001320349,-0.0001318329,3.648087e-06,-4.052368e-08,6.235083e-07,0.0005318386667341753
PART_003_R247G182B210A255,4852,0.0003198928,-0.0001055736,-0.0001056016,9.932553e-06,-2.632214e-08,-2.31294e-07,0.0004258282526662151
PART_003_R247G182B210A255,4853,0.0003198942,-0.0001055497,-0.0001055629,8.856126e-06,2.564411e-08,-6.33379e-07,0.0004257283482032265
PART_000_R31G119B180A255,4854,0.000319893,-0.0001055714,-0.0001055359,8.266727e-06,1.833246e-08,-7.743856e-07,0.00042568963963749145
PART_000_R31G119B180A255,4855,0.000319894,-0.0001055791,-0.0001055394,7.924979e-06,5.385335e-09,-6.407348e-07,0.0004256760701570369
PART_000_R31G119B180A255,4856,0.0003198931,-0.000105572,-0.0001055362,7.736577e-06,4.494424e-09,-3.581036e-07,0.00042565863035449585
PART_000_R31G119B180A255,4857,0.000319894,-0.0001055823,-0.0001055371,7.679073e-06,4.639877e-17,-2.140153e-14,0.0004256615520133196
PART_000_R31G119B180A255,4858,0.0003198931,-0.000105572,-0.0001055362,7.736577e-06,-4.494425e-09,3.581036e-07,0.0004256586303544959
PART_000_R31G119B180A255,4859,0.000319894,-0.0001055791,-0.0001055394,7.924979e-06,-5.385334e-09,6.407347e-07,0.0004256760701565853
PART_000_R31G119B180A255,4860,0.000319893,-0.0001055714,-0.0001055359,8.266727e-06,-1.833246e-08,7.743855e-07,0.0004256896396369457
PART_000_R31G119B180A255,4861,0.0003198942,-0.0001055497,-0.0001055629,8.856126e-06,-2.564411e-08,6.33379e-07,0.0004257283482032265
PART_002_R214G39B40A255,4862,0.0003198928,-0.0001055736,-0.0001056016,9.932553e-06,2.632214e-08,2.31294e-07,0.0004258282526662151
PART_003_R247G182B210A255,4863,0.0002399196,-7.920986e-05,-7.913099e-05,1.452036e-05,2.808513e-09,-1.262074e-07,0.0003200797074043179
PART_003_R247G182B210A255,4864,0.0002399207,-7.917374e-05,-7.918529e-05,1.331918e-05,-2.804695e-08,-3.183306e-07,0.00031993351706834685
PART_003_R247G182B210A255,4865,0.0002399198,-7.915898e-05,-7.917673e-05,1.249377e-05,1.111455e-08,-4.060146e-07,0.0003198213713783063
PART_000_R31G119B180A255,4866,0.0002399206,-7.917805e-05,-7.915812e-05,1.198338e-05,2.982003e-09,-3.623332e-07,0.00031976364281188476
PART_000_R31G119B180A255,4867,0.0002399198,-7.91779e-05,-7.915912e-05,1.170195e-05,2.417065e-09,-2.06938e-07,0.00031973158310075346
PART_000_R31G119B180A255,4868,0.0002399205,-7.917908e-05,-7.915525e-05,1.161083e-05,-2.717578e-16,-1.501255e-14,0.0003197207727078749
PART_000_R31G119B180A255,4869,0.0002399198,-7.91779e-05,-7.915912e-05,1.170195e-05,-2.417064e-09,2.06938e-07,0.00031973158310075346
PART_000_R31G119B180A255,4870,0.0002399206,-7.917805e-05,-7.915812e-05,1.198338e-05,-2.982003e-09,3.623332e-07,0.00031976364281188476
PART_000_R31G119B180A255,4871,0.0002399198,-7.915898e-05,-7.917673e-05,1.249377e-05,-1.111455e-08,4.060146e-07,0.0003198213713783063
PART_002_R214G39B40A255,4872,0.0002399207,-7.917374e-05,-7.918529e-05,1.331918e-05,2.804695e-08,3.183306e-07,0.00031993351706834685
PART_002_R214G39B40A255,4873,0.0002399196,-7.920986e-05,-7.913099e-05,1.452036e-05,-2.808513e-09,1.262074e-07,0.0003200797074043179
PART_003_R247G182B210A255,4874,0.0001599464,-5.278882e-05,-5.279186e-05,1.772533e-05,-1.116805e-08,-5.844033e-08,0.000214940673544069
PART_003_R247G182B210A255,4875,0.0001599471,-5.278813e-05,-5.277287e-05,1.645287e-05,8.949085e-10,-1.613649e-07,0.00021462805242655685
PART_003_R247G182B210A255,4876,0.0001599465,-5.278198e-05,-5.278216e-05,1.553578e-05,-2.127933e-08,-2.068209e-07,0.0002144240088189242
PART_003_R247G182B210A255,4877,0.000159947,-5.277397e-05,-5.27852e-05,1.492196e-05,3.294746e-09,-1.868044e-07,0.00021429115579344222
PART_000_R31G119B180A255,4878,0.0001599465,-5.27852e-05,-5.277085e-05,1.457599e-05,-3.225653e-09,-1.104319e-07,0.00021421750339593152
PART_000_R31G119B180A255,4879,0.000159947,-5.278136e-05,-5.277798e-05,1.446384e-05,2.86691e-16,-9.461742e-15,0.00021419674166638016
PART_000_R31G119B180A255,4880,0.0001599465,-5.27852e-05,-5.277085e-05,1.457599e-05,3.225653e-09,1.104318e-07,0.00021421750339577688
PART_000_R31G119B180A255,4881,0.000159947,-5.277397e-05,-5.27852e-05,1.492196e-05,-3.294746e-09,1.868043e-07,0.0002142911557931807
PART_002_R214G39B40A255,4882,0.0001599465,-5.278198e-05,-5.278216e-05,1.553578e-05,2.127933e-08,2.068209e-07,0.0002144240088189242
PART_002_R214G39B40A255,4883,0.0001599471,-5.278813e-05,-5.277287e-05,1.645287e-05,-8.949086e-10,1.613649e-07,0.00021462805242655685
PART_002_R214G39B40A255,4884,0.0001599464,-5.278882e-05,-5.279186e-05,1.772533e-05,1.116805e-08,5.844033e-08,0.000214940673544069
PART_003_R247G182B210A255,4885,7.99732e-05,-2.640192e-05,-2.637961e-05,1.962262e-05,-1.47272e-09,-2.573401e-08,0.00011166215591703853
PART_003_R247G182B210A255,4886,7.997356e-05,-2.639183e-05,-2.639513e-05,1.832412e-05,-2.159285e-08,-6.641533e-08,0.00011100127008099497
PART_003_R247G182B210A255,4887,7.997326e-05,-2.638904e-05,-2.639029e-05,1.735699e-05,-1.503958e-09,-8.712201e-08,0.00011053004070761645
PART_003_R247G182B210A255,4888,7.997353e-05,-2.639133e-05,-2.638947e-05,1.669888e-05,-1.678311e-08,-7.934514e-08,0.00011022641752036972
PART_003_R247G182B210A255,4889,7.997328e-05,-2.63875e-05,-2.639142e-05,1.631655e-05,2.887219e-10,-4.673973e-08,0.00011005329816773807
PART_000_R31G119B180A255,4890,7.997352e-05,-2.639257e-05,-2.638621e-05,1.619259e-05,-1.934593e-16,-4.573161e-15,0.0001099984934748181
PART_000_R31G119B180A255,4891,7.997328e-05,-2.63875e-05,-2.639142e-05,1.631655e-05,-2.887215e-10,4.673972e-08,0.00011005329816772533
PART_002_R214G39B40A255,4892,7.997353e-05,-2.639133e-05,-2.638947e-05,1.669888e-05,1.678311e-08,7.934513e-08,0.00011022641752034813
PART_002_R214G39B40A255,4893,7.997326e-05,-2.638904e-05,-2.639029e-05,1.735699e-05,1.503958e-09,8.7122e-08,0.0001105300407075928
PART_002_R214G39B40A255,4894,7.997356e-05,-2.639183e-05,-2.639513e-05,1.832412e-05,2.159285e-08,6.641533e-08,0.00011100127008099497
PART_002_R214G39B40A255,4895,7.99732e-05,-2.640192e-05,-2.637961e-05,1.962262e-05,1.47272e-09,2.573401e-08,0.00011166215591703853
PART_003_R247G182B210A255,4896,8.7493e-14,-2.881376e-14,-2.890282e-14,2.025229e-05,-8.67987e-09,-2.009416e-17,3.5077998471302915e-05
PART_003_R247G182B210A255,4897,8.75387e-14,-2.871314e-14,-2.910326e-14,1.89442e-05,-3.654598e-09,-6.126674e-17,3.281231751931368e-05
PART_003_R247G182B210A255,4898,8.743673e-14,-2.865416e-14,-2.880401e-14,1.79659e-05,-2.309165e-08,-1.093968e-16,3.111787730715094e-05
PART_003_R247G182B210A255,4899,8.744025e-14,-2.871314e-14,-2.890356e-14,1.729133e-05,-1.416393e-09,-9.016962e-17,2.994946219091768e-05
PART_003_R247G182B210A255,4900,8.739976e-14,-2.864375e-14,-2.881645e-14,1.690025e-05,-9.593637e-09,-5.44459e-17,2.927209637694425e-05
PART_003_R247G182B210A255,4901,8.740496e-14,-2.869233e-14,-2.885893e-14,1.677115e-05,2.192778e-16,1.411475e-18,2.9048483901358776e-05
PART_002_R214G39B40A255,4902,8.733379e-14,-2.855008e-14,-2.880756e-14,1.690025e-05,9.593637e-09,4.63399e-17,2.927209637694425e-05
PART_002_R214G39B40A255,4903,8.73732e-14,-2.870273e-14,-2.886405e-14,1.729133e-05,1.416393e-09,8.28737e-17,2.994946219091768e-05
PART_002_R214G39B40A255,4904,8.734213e-14,-2.87062e-14,-2.877822e-14,1.79659e-05,2.309165e-08,1.003285e-16,3.111787730715094e-05
PART_002_R214G39B40A255,4905,8.736897e-14,-2.862641e-14,-2.905017e-14,1.89442e-05,3.654599e-09,7.568409e-17,3.281231751931402e-05
PART_002_R214G39B40A255,4906,8.73172e-14,-2.879641e-14,-2.881236e-14,2.025229e-05,8.67987e-09,1.096399e-17,3.5077998471302915e-05
PART_003_R247G182B210A255,4907,-7.99732e-05,2.640192e-05,2.637961e-05,1.962262e-05,-1.47272e-09,2.573401e-08,0.00011166215591703853
PART_003_R247G182B210A255,4908,-7.997356e-05,2.639183e-05,2.639513e-05,1.832412e-05,-2.159285e-08,6.641533e-08,0.00011100127008099497
PART_003_R247G182B210A255,4909,-7.997326e-05,2.638904e-05,2.639029e-05,1.735699e-05,-1.503958e-09,8.712201e-08,0.00011053004070761645
PART_003_R247G182B210A255,4910,-7.997353e-05,2.639133e-05,2.638947e-05,1.669888e-05,-1.678311e-08,7.934514e-08,0.00011022641752036972
PART_003_R247G182B210A255,4911,-7.997328e-05,2.63875e-05,2.639142e-05,1.631655e-05,2.887218e-10,4.673973e-08,0.00011005329816773807
PART_001_R158G218B229A255,4912,-7.997352e-05,2.639257e-05,2.638621e-05,1.619259e-05,-1.473105e-16,4.568587e-15,0.0001099984934748181
PART_001_R158G218B229A255,4913,-7.997328e-05,2.63875e-05,2.639142e-05,1.631655e-05,-2.887215e-10,-4.673972e-08,0.00011005329816772533
PART_002_R214G39B40A255,4914,-7.997353e-05,2.639133e-05,2.638947e-05,1.669888e-05,1.678311e-08,-7.934513e-08,0.00011022641752034813
PART_002_R214G39B40A255,4915,-7.997326e-05,2.638904e-05,2.639029e-05,1.735699e-05,1.503958e-09,-8.7122e-08,0.0001105300407075928
PART_002_R214G39B40A255,4916,-7.997356e-05,2.639183e-05,2.639513e-05,1.832412e-05,2.159285e-08,-6.641533e-08,0.00011100127008099497
PART_002_R214G39B40A255,4917,-7.99732e-05,2.640192e-05,2.637961e-05,1.962262e-05,1.47272e-09,-2.573401e-08,0.00011166215591703853
PART_003_R247G182B210A255,4918,-0.0001599464,5.278882e-05,5.279186e-05,1.772533e-05,-1.116805e-08,5.844033e-08,0.000214940673544069
PART_003_R247G182B210A255,4919,-0.0001599471,5.278813e-05,5.277287e-05,1.645287e-05,8.949086e-10,1.613649e-07,0.00021462805242655685
PART_003_R247G182B210A255,4920,-0.0001599465,5.278198e-05,5.278216e-05,1.553578e-05,-2.127933e-08,2.068209e-07,0.0002144240088189242
PART_003_R247G182B210A255,4921,-0.000159947,5.277397e-05,5.27852e-05,1.492196e-05,3.294746e-09,1.868044e-07,0.00021429115579344222
PART_001_R158G218B229A255,4922,-0.0001599465,5.27852e-05,5.277085e-05,1.457599e-05,-3.225653e-09,1.104319e-07,0.00021421750339593152
PART_001_R158G218B229A255,4923,-0.000159947,5.278136e-05,5.277798e-05,1.446384e-05,2.725074e-16,9.463374e-15,0.00021419674166638016
PART_001_R158G218B229A255,4924,-0.0001599465,5.27852e-05,5.277085e-05,1.457599e-05,3.225653e-09,-1.104318e-07,0.00021421750339577688
PART_001_R158G218B229A255,4925,-0.000159947,5.277397e-05,5.27852e-05,1.492196e-05,-3.294746e-09,-1.868043e-07,0.0002142911557931807
PART_002_R214G39B40A255,4926,-0.0001599465,5.278198e-05,5.278216e-05,1.553578e-05,2.127933e-08,-2.068209e-07,0.0002144240088189242
PART_002_R214G39B40A255,4927,-0.0001599471,5.278813e-05,5.277287e-05,1.645287e-05,-8.949087e-10,-1.613649e-07,0.00021462805242655685
PART_002_R214G39B40A255,4928,-0.0001599464,5.278882e-05,5.279186e-05,1.772533e-05,1.116805e-08,-5.844033e-08,0.000214940673544069
PART_003_R247G182B210A255,4929,-0.0002399196,7.920986e-05,7.913099e-05,1.452036e-05,2.808513e-09,1.262074e-07,0.0003200797074043179
PART_003_R247G182B210A255,4930,-0.0002399207,7.917374e-05,7.918529e-05,1.331918e-05,-2.804695e-08,3.183306e-07,0.00031993351706834685
PART_003_R247G182B210A255,4931,-0.0002399198,7.915898e-05,7.917673e-05,1.249377e-05,1.111455e-08,4.060146e-07,0.0003198213713783063
PART_001_R158G218B229A255,4932,-0.0002399206,7.917805e-05,7.915812e-05,1.198338e-05,2.982003e-09,3.623332e-07,0.00031976364281188476
PART_001_R158G218B229A255,4933,-0.0002399198,7.91779e-05,7.915912e-05,1.170195e-05,2.417065e-09,2.06938e-07,0.00031973158310075346
PART_001_R158G218B229A255,4934,-0.0002399205,7.917908e-05,7.915525e-05,1.161083e-05,-2.521278e-16,1.500711e-14,0.0003197207727078749
PART_001_R158G218B229A255,4935,-0.0002399198,7.91779e-05,7.915912e-05,1.170195e-05,-2.417064e-09,-2.06938e-07,0.00031973158310075346
PART_001_R158G218B229A255,4936,-0.0002399206,7.917805e-05,7.915812e-05,1.198338e-05,-2.982003e-09,-3.623332e-07,0.00031976364281188476
PART_001_R158G218B229A255,4937,-0.0002399198,7.915898e-05,7.917673e-05,1.249377e-05,-1.111455e-08,-4.060146e-07,0.0003198213713783063
PART_002_R214G39B40A255,4938,-0.0002399207,7.917374e-05,7.918529e-05,1.331918e-05,2.804695e-08,-3.183306e-07,0.00031993351706834685
PART_002_R214G39B40A255,4939,-0.0002399196,7.920986e-05,7.913099e-05,1.452036e-05,-2.808513e-09,-1.262074e-07,0.0003200797074043179
PART_003_R247G182B210A255,4940,-0.0003198928,0.0001055736,0.0001056016,9.932553e-06,-2.632214e-08,2.31294e-07,0.0004258282526662151
PART_003_R247G182B210A255,4941,-0.0003198942,0.0001055497,0.0001055629,8.856126e-06,2.564411e-08,6.33379e-07,0.0004257283482032265
PART_001_R158G218B229A255,4942,-0.000319893,0.0001055714,0.0001055359,8.266727e-06,1.833246e-08,7.743856e-07,0.00042568963963749145
PART_001_R158G218B229A255,4943,-0.000319894,0.0001055791,0.0001055394,7.924979e-06,5.385335e-09,6.407348e-07,0.0004256760701570369
PART_001_R158G218B229A255,4944,-0.0003198931,0.000105572,0.0001055362,7.736577e-06,4.494424e-09,3.581036e-07,0.00042565863035449585
PART_001_R158G218B229A255,4945,-0.000319894,0.0001055823,0.0001055371,7.679073e-06,9.316515e-17,2.140458e-14,0.0004256615520133196
PART_001_R158G218B229A255,4946,-0.0003198931,0.000105572,0.0001055362,7.736577e-06,-4.494425e-09,-3.581036e-07,0.0004256586303544959
PART_001_R158G218B229A255,4947,-0.000319894,0.0001055791,0.0001055394,7.924979e-06,-5.385334e-09,-6.407347e-07,0.0004256760701565853
PART_001_R158G218B229A255,4948,-0.000319893,0.0001055714,0.0001055359,8.266727e-06,-1.833246e-08,-7.743855e-07,0.0004256896396369457
PART_001_R158G218B229A255,4949,-0.0003198942,0.0001055497,0.0001055629,8.856126e-06,-2.564411e-08,-6.33379e-07,0.0004257283482032265
PART_002_R214G39B40A255,4950,-0.0003198928,0.0001055736,0.0001056016,9.932553e-06,2.632214e-08,-2.31294e-07,0.0004258282526662151
PART_003_R247G182B210A255,4951,-0.0003998661,0.0001320349,0.0001318329,3.648087e-06,4.052368e-08,6.235083e-07,0.0005318386667341753
PART_001_R158G218B229A255,4952,-0.0003998677,0.0001319592,0.0001319022,3.134899e-06,2.490724e-08,1.347951e-06,0.0005318312478891567
PART_001_R158G218B229A255,4953,-0.0003998664,0.000131997,0.0001318971,2.938774e-06,4.893176e-09,1.37254e-06,0.0005318431290651064
PART_001_R158G218B229A255,4954,-0.0003998675,0.0001319628,0.0001319214,2.80918e-06,5.820486e-09,1.070236e-06,0.0005318350897894651
PART_001_R158G218B229A255,4955,-0.0003998665,0.0001319856,0.0001319112,2.747222e-06,8.251642e-10,5.776314e-07,0.0005318371317196904
PART_001_R158G218B229A255,4956,-0.0003998675,0.000131964,0.0001319247,2.724402e-06,-4.29361e-17,2.893852e-14,0.0005318327858054285
PART_001_R158G218B229A255,4957,-0.0003998665,0.0001319856,0.0001319112,2.747222e-06,-8.251641e-10,-5.776314e-07,0.0005318371317196904
PART_001_R158G218B229A255,4958,-0.0003998675,0.0001319628,0.0001319214,2.80918e-06,-5.820487e-09,-1.070236e-06,0.0005318350897894652
PART_001_R158G218B229A255,4959,-0.0003998664,0.000131997,0.0001318971,2.938774e-06,-4.893176e-09,-1.37254e-06,0.0005318431290651064
PART_001_R158G218B229A255,4960,-0.0003998677,0.0001319592,0.0001319022,3.134899e-06,-2.490724e-08,-1.347951e-06,0.0005318312478891567
PART_001_R158G218B229A255,4961,-0.0003998661,0.0001320349,0.0001318329,3.648087e-06,-4.052368e-08,-6.235083e-07,0.0005318386667341753
PART_003_R247G182B210A255,4962,0.0003953237,-0.0001305345,-0.000130338,3.647966e-06,3.999661e-08,-6.234839e-07,0.0005257990566240192
PART_000_R31G119B180A255,4963,0.0003953224,-0.0001304595,-0.0001304002,3.13498e-06,2.46635e-08,-1.34801e-06,0.000525785477675046
PART_000_R31G119B180A255,4964,0.0003953235,-0.000130497,-0.0001304012,2.93873e-06,4.811908e-09,-1.372473e-06,0.0005258026182056336
PART_000_R31G119B180A255,4965,0.0003953226,-0.0001304632,-0.0001304195,2.809228e-06,5.769707e-09,-1.070291e-06,0.0005257897341200954
PART_000_R31G119B180A255,4966,0.0003953234,-0.0001304857,-0.0001304151,2.747197e-06,8.085666e-10,-5.776007e-07,0.0005257962862634613
PART_000_R31G119B180A255,4967,0.0003953226,-0.0001304644,-0.0001304228,2.724441e-06,-5.884677e-17,-2.892831e-14,0.0005257873772701732
PART_000_R31G119B180A255,4968,0.0003953234,-0.0001304857,-0.0001304151,2.747197e-06,-8.085665e-10,5.776007e-07,0.0005257962862634613
PART_000_R31G119B180A255,4969,0.0003953226,-0.0001304632,-0.0001304195,2.809228e-06,-5.769707e-09,1.070291e-06,0.0005257897341200954
PART_000_R31G119B180A255,4970,0.0003953235,-0.000130497,-0.0001304012,2.93873e-06,-4.811908e-09,1.372473e-06,0.0005258026182056336
PART_000_R31G119B180A255,4971,0.0003953224,-0.0001304595,-0.0001304002,3.13498e-06,-2.46635e-08,1.348009e-06,0.0005257854776673545
PART_000_R31G119B180A255,4972,0.0003953237,-0.0001305345,-0.000130338,3.647966e-06,-3.999661e-08,6.234839e-07,0.0005257990566240192
PART_003_R247G182B210A255,4973,0.000316259,-0.0001043739,-0.0001044044,9.932648e-06,-2.600604e-08,-2.312647e-07,0.00042100000209502667
PART_003_R247G182B210A255,4974,0.0003162579,-0.0001043503,-0.0001043607,8.856076e-06,2.535238e-08,-6.334399e-07,0.00042089443837330944
PART_000_R31G119B180A255,4975,0.0003162589,-0.0001043718,-0.0001043393,8.266718e-06,1.8123e-08,-7.743218e-07,0.00042086022849462004
PART_000_R31G119B180A255,4976,0.000316258,-0.0001043794,-0.0001043376,7.92495e-06,5.3256e-09,-6.407862e-07,0.0004208418797911347
PART_000_R31G119B180A255,4977,0.0003162588,-0.0001043723,-0.0001043394,7.736558e-06,4.442507e-09,-3.580757e-07,0.00042082850700650074
PART_000_R31G119B180A255,4978,0.0003162581,-0.0001043826,-0.0001043354,7.679049e-06,1.254761e-16,-2.139196e-14,0.00042082733972963687
PART_000_R31G119B180A255,4979,0.0003162588,-0.0001043723,-0.0001043394,7.736558e-06,-4.442508e-09,3.580756e-07,0.0004208285070062455
PART_000_R31G119B180A255,4980,0.000316258,-0.0001043794,-0.0001043376,7.92495e-06,-5.3256e-09,6.407861e-07,0.00042084187979067795
PART_000_R31G119B180A255,4981,0.0003162589,-0.0001043718,-0.0001043393,8.266718e-06,-1.8123e-08,7.743218e-07,0.00042086022849462004
PART_000_R31G119B180A255,4982,0.0003162579,-0.0001043503,-0.0001043607,8.856076e-06,-2.535238e-08,6.334399e-07,0.00042089443837330944
PART_002_R214G39B40A255,4983,0.000316259,-0.0001043739,-0.0001044044,9.932648e-06,2.600604e-08,2.312647e-07,0.00042100000209502667
PART_003_R247G182B210A255,4984,0.0002371943,-7.830977e-05,-7.823399e-05,1.452031e-05,2.767485e-09,-1.261933e-07,0.0003164671879286395
PART_003_R247G182B210A255,4985,0.0002371934,-7.827399e-05,-7.828336e-05,1.331919e-05,-2.773242e-08,-3.183705e-07,0.000316314936454175
PART_003_R247G182B210A255,4986,0.0002371941,-7.825939e-05,-7.827901e-05,1.249382e-05,1.099115e-08,-4.059679e-07,0.0003162054321835714
PART_000_R31G119B180A255,4987,0.0002371935,-7.827825e-05,-7.825663e-05,1.19834e-05,2.946126e-09,-3.623721e-07,0.0003161436455309318
PART_000_R31G119B180A255,4988,0.0002371941,-7.82781e-05,-7.826152e-05,1.1702e-05,2.390595e-09,-2.069167e-07,0.0003161145640291941
PART_000_R31G119B180A255,4989,0.0002371935,-7.827927e-05,-7.825383e-05,1.161085e-05,-2.878946e-16,-1.499772e-14,0.0003161004257266434
PART_000_R31G119B180A255,4990,0.0002371941,-7.82781e-05,-7.826152e-05,1.1702e-05,-2.390594e-09,2.069166e-07,0.0003161145640289977
PART_000_R31G119B180A255,4991,0.0002371935,-7.827825e-05,-7.825663e-05,1.19834e-05,-2.946127e-09,3.623721e-07,0.00031614364553093183
PART_000_R31G119B180A255,4992,0.0002371941,-7.825939e-05,-7.827901e-05,1.249382e-05,-1.099115e-08,4.059679e-07,0.0003162054321835714
PART_002_R214G39B40A255,4993,0.0002371934,-7.827399e-05,-7.828336e-05,1.331919e-05,2.773242e-08,3.183705e-07,0.000316314936454175
PART_002_R214G39B40A255,4994,0.0002371943,-7.830977e-05,-7.823399e-05,1.452031e-05,-2.767485e-09,1.261933e-07,0.0003164671879286395
PART_003_R247G182B210A255,4995,0.0001581295,-5.218894e-05,-5.219344e-05,1.772539e-05,-1.103383e-08,-5.842594e-08,0.00021254969210805153
PART_003_R247G182B210A255,4996,0.000158129,-5.218829e-05,-5.217176e-05,1.645283e-05,8.879626e-10,-1.613944e-07,0.00021223112682457887
PART_003_R247G182B210A255,4997,0.0001581295,-5.218222e-05,-5.218373e-05,1.553575e-05,-2.103791e-08,-2.067898e-07,0.00021202722782786253
PART_003_R247G182B210A255,4998,0.000158129,-5.21743e-05,-5.218405e-05,1.492191e-05,3.257178e-09,-1.868297e-07,0.00021189059319637064
PART_000_R31G119B180A255,4999,0.0001581294,-5.21854e-05,-5.217249e-05,1.457596e-05,-3.188813e-09,-1.10418e-07,0.000211818347973717
PART_000_R31G119B180A255,5000,0.000158129,-5.218161e-05,-5.217693e-05,1.446379e-05,2.94305e-16,-9.464893e-15,0.00021179511824003875
PART_000_R31G119B180A255,5001,0.0001581294,-5.21854e-05,-5.217249e-05,1.457596e-05,3.188812e-09,1.10418e-07,0.00021181834797371694
PART_000_R31G119B180A255,5002,0.000158129,-5.21743e-05,-5.218405e-05,1.492191e-05,-3.257178e-09,1.868297e-07,0.00021189059319637064
PART_002_R214G39B40A255,5003,0.0001581295,-5.218222e-05,-5.218373e-05,1.553575e-05,2.103791e-08,2.067898e-07,0.00021202722782786253
PART_002_R214G39B40A255,5004,0.000158129,-5.218829e-05,-5.217176e-05,1.645283e-05,-8.879627e-10,1.613944e-07,0.00021223112682457887
PART_002_R214G39B40A255,5005,0.0001581295,-5.218894e-05,-5.219344e-05,1.772539e-05,1.103383e-08,5.842593e-08,0.0002125496921080433
PART_003_R247G182B210A255,5006,7.906476e-05,-2.61019e-05,-2.608059e-05,1.96226e-05,-1.46153e-09,-2.572906e-08,0.00011051211251618031
PART_003_R247G182B210A255,5007,7.906447e-05,-2.609191e-05,-2.609447e-05,1.832413e-05,-2.135201e-08,-6.642927e-08,0.00010984293008032074
PART_003_R247G182B210A255,5008,7.906472e-05,-2.608915e-05,-2.609108e-05,1.735705e-05,-1.485373e-09,-8.710586e-08,0.0001093680193186744
PART_003_R247G182B210A255,5009,7.90645e-05,-2.609141e-05,-2.608893e-05,1.669891e-05,-1.65931e-08,-7.935848e-08,0.00010906000702495827
PART_003_R247G182B210A255,5010,7.90647e-05,-2.608762e-05,-2.609218e-05,1.63166e-05,2.857488e-10,-4.673243e-08,0.00010888613674586952
PART_000_R31G119B180A255,5011,7.906451e-05,-2.609264e-05,-2.608571e-05,1.619262e-05,-1.53298e-16,-4.584143e-15,0.00010882968497836928
PART_000_R31G119B180A255,5012,7.90647e-05,-2.608762e-05,-2.609218e-05,1.63166e-05,-2.857484e-10,4.673242e-08,0.00010888613674585665
PART_002_R214G39B40A255,5013,7.90645e-05,-2.609141e-05,-2.608893e-05,1.669891e-05,1.65931e-08,7.935848e-08,0.00010906000702495827
PART_002_R214G39B40A255,5014,7.906472e-05,-2.608915e-05,-2.609108e-05,1.735705e-05,1.485373e-09,8.710585e-08,0.00010936801931865051
PART_002_R214G39B40A255,5015,7.906447e-05,-2.609191e-05,-2.609447e-05,1.832413e-05,2.135201e-08,6.642927e-08,0.00010984293008032074
PART_002_R214G39B40A255,5016,7.906476e-05,-2.61019e-05,-2.608059e-05,1.96226e-05,1.46153e-09,2.572906e-08,0.00011051211251618031
PART_003_R247G182B210A255,5017,8.660531e-14,-2.861253e-14,-2.867614e-14,2.025235e-05,-8.575336e-09,-2.637745e-17,3.507810231721013e-05
PART_003_R247G182B210A255,5018,8.651413e-14,-2.849804e-14,-2.865846e-14,1.894416e-05,-3.609876e-09,-6.629388e-17,3.281224822243082e-05
PART_003_R247G182B210A255,5019,8.659295e-14,-2.862641e-14,-2.861071e-14,1.796586e-05,-2.282893e-08,-1.081763e-16,3.111780744363161e-05
PART_003_R247G182B210A255,5020,8.655381e-14,-2.882763e-14,-2.843649e-14,1.729128e-05,-1.400987e-09,-8.098482e-17,2.9949375586203693e-05
PART_003_R247G182B210A255,5021,8.658211e-14,-2.878253e-14,-2.861015e-14,1.690021e-05,-9.484168e-09,-5.181099e-17,2.9272026987904814e-05
PART_003_R247G182B210A255,5022,8.652779e-14,-2.888662e-14,-2.841739e-14,1.677109e-05,2.220529e-16,-7.749504e-18,2.9048379978310322e-05
PART_002_R214G39B40A255,5023,8.655956e-14,-2.881376e-14,-2.858601e-14,1.690021e-05,9.484168e-09,5.410719e-17,2.9272026987904814e-05
PART_002_R214G39B40A255,5024,8.648399e-14,-2.881029e-14,-2.844017e-14,1.729128e-05,1.400987e-09,7.96482e-17,2.9949375586203693e-05
PART_002_R214G39B40A255,5025,8.650047e-14,-2.871314e-14,-2.854356e-14,1.796586e-05,2.282893e-08,1.036133e-16,3.111780744363161e-05
PART_002_R214G39B40A255,5026,8.641883e-14,-2.851192e-14,-2.862659e-14,1.894416e-05,3.609876e-09,6.164536e-17,3.281224822243082e-05
PART_002_R214G39B40A255,5027,8.644398e-14,-2.866457e-14,-2.860803e-14,2.025235e-05,8.575336e-09,2.363561e-17,3.507810231721013e-05
PART_003_R247G182B210A255,5028,-7.906476e-05,2.61019e-05,2.608059e-05,1.96226e-05,-1.46153e-09,2.572906e-08,0.00011051211251618031
PART_003_R247G182B210A255,5029,-7.906447e-05,2.609191e-05,2.609447e-05,1.832413e-05,-2.135201e-08,6.642927e-08,0.00010984293008032074
PART_003_R247G182B210A255,5030,-7.906472e-05,2.608915e-05,2.609108e-05,1.735705e-05,-1.485373e-09,8.710586e-08,0.0001093680193186744
PART_003_R247G182B210A255,5031,-7.90645e-05,2.609141e-05,2.608893e-05,1.669891e-05,-1.65931e-08,7.935848e-08,0.00010906000702495827
PART_003_R247G182B210A255,5032,-7.90647e-05,2.608762e-05,2.609218e-05,1.63166e-05,2.857488e-10,4.673243e-08,0.00010888613674586952
PART_001_R158G218B229A255,5033,-7.906451e-05,2.609264e-05,2.608571e-05,1.619262e-05,-1.625338e-16,4.594172e-15,0.00010882968497836928
PART_001_R158G218B229A255,5034,-7.90647e-05,2.608762e-05,2.609218e-05,1.63166e-05,-2.857484e-10,-4.673242e-08,0.00010888613674585665
PART_002_R214G39B40A255,5035,-7.90645e-05,2.609141e-05,2.608893e-05,1.669891e-05,1.65931e-08,-7.935848e-08,0.00010906000702495827
PART_002_R214G39B40A255,5036,-7.906472e-05,2.608915e-05,2.609108e-05,1.735705e-05,1.485372e-09,-8.710585e-08,0.00010936801931865047
PART_002_R214G39B40A255,5037,-7.906447e-05,2.609191e-05,2.609447e-05,1.832413e-05,2.135201e-08,-6.642927e-08,0.00010984293008032074
PART_002_R214G39B40A255,5038,-7.906476e-05,2.61019e-05,2.608059e-05,1.96226e-05,1.46153e-09,-2.572906e-08,0.00011051211251618031
PART_003_R247G182B210A255,5039,-0.0001581295,5.218894e-05,5.219344e-05,1.772539e-05,-1.103383e-08,5.842594e-08,0.00021254969210805153
PART_003_R247G182B210A255,5040,-0.000158129,5.218829e-05,5.217176e-05,1.645283e-05,8.879627e-10,1.613944e-07,0.00021223112682457887
PART_003_R247G182B210A255,5041,-0.0001581295,5.218222e-05,5.218373e-05,1.553575e-05,-2.103791e-08,2.067898e-07,0.00021202722782786253
PART_003_R247G182B210A255,5042,-0.000158129,5.21743e-05,5.218405e-05,1.492191e-05,3.257178e-09,1.868297e-07,0.00021189059319637064
PART_001_R158G218B229A255,5043,-0.0001581294,5.21854e-05,5.217249e-05,1.457596e-05,-3.188813e-09,1.10418e-07,0.000211818347973717
PART_001_R158G218B229A255,5044,-0.000158129,5.218161e-05,5.217693e-05,1.446379e-05,2.483484e-16,9.467911e-15,0.00021179511824003875
PART_001_R158G218B229A255,5045,-0.0001581294,5.21854e-05,5.217249e-05,1.457596e-05,3.188813e-09,-1.10418e-07,0.000211818347973717
PART_001_R158G218B229A255,5046,-0.000158129,5.21743e-05,5.218405e-05,1.492191e-05,-3.257178e-09,-1.868297e-07,0.00021189059319637064
PART_002_R214G39B40A255,5047,-0.0001581295,5.218222e-05,5.218373e-05,1.553575e-05,2.103791e-08,-2.067898e-07,0.00021202722782786253
PART_002_R214G39B40A255,5048,-0.000158129,5.218829e-05,5.217176e-05,1.645283e-05,-8.879628e-10,-1.613944e-07,0.00021223112682457887
PART_002_R214G39B40A255,5049,-0.0001581295,5.218894e-05,5.219344e-05,1.772539e-05,1.103383e-08,-5.842593e-08,0.0002125496921080433
PART_003_R247G182B210A255,5050,-0.0002371943,7.830977e-05,7.823399e-05,1.452031e-05,2.767485e-09,1.261933e-07,0.0003164671879286395
PART_003_R247G182B210A255,5051,-0.0002371934,7.827399e-05,7.828336e-05,1.331919e-05,-2.773242e-08,3.183705e-07,0.000316314936454175
PART_003_R247G182B210A255,5052,-0.0002371941,7.825939e-05,7.827901e-05,1.249382e-05,1.099115e-08,4.059679e-07,0.0003162054321835714
PART_001_R158G218B229A255,5053,-0.0002371935,7.827825e-05,7.825663e-05,1.19834e-05,2.946126e-09,3.623721e-07,0.0003161436455309318
PART_001_R158G218B229A255,5054,-0.0002371941,7.82781e-05,7.826152e-05,1.1702e-05,2.390595e-09,2.069167e-07,0.0003161145640291941
PART_001_R158G218B229A255,5055,-0.0002371935,7.827927e-05,7.825383e-05,1.161085e-05,-2.706084e-16,1.499027e-14,0.0003161004257266434
PART_001_R158G218B229A255,5056,-0.0002371941,7.82781e-05,7.826152e-05,1.1702e-05,-2.390594e-09,-2.069166e-07,0.0003161145640289977
PART_001_R158G218B229A255,5057,-0.0002371935,7.827825e-05,7.825663e-05,1.19834e-05,-2.946127e-09,-3.623721e-07,0.00031614364553093183
PART_001_R158G218B229A255,5058,-0.0002371941,7.825939e-05,7.827901e-05,1.249382e-05,-1.099115e-08,-4.059679e-07,0.0003162054321835714
PART_002_R214G39B40A255,5059,-0.0002371934,7.827399e-05,7.828336e-05,1.331919e-05,2.773242e-08,-3.183705e-07,0.000316314936454175
PART_002_R214G39B40A255,5060,-0.0002371943,7.830977e-05,7.823399e-05,1.452031e-05,-2.767485e-09,-1.261933e-07,0.0003164671879286395
PART_003_R247G182B210A255,5061,-0.000316259,0.0001043739,0.0001044044,9.932648e-06,-2.600604e-08,2.312647e-07,0.00042100000209502667
PART_003_R247G182B210A255,5062,-0.0003162579,0.0001043503,0.0001043607,8.856076e-06,2.535238e-08,6.334399e-07,0.00042089443837330944
PART_001_R158G218B229A255,5063,-0.0003162589,0.0001043718,0.0001043393,8.266718e-06,1.8123e-08,7.743218e-07,0.00042086022849462004
PART_001_R158G218B229A255,5064,-0.000316258,0.0001043794,0.0001043376,7.92495e-06,5.3256e-09,6.407862e-07,0.0004208418797911347
PART_001_R158G218B229A255,5065,-0.0003162588,0.0001043723,0.0001043394,7.736558e-06,4.442507e-09,3.580757e-07,0.00042082850700650074
PART_001_R158G218B229A255,5066,-0.0003162581,0.0001043826,0.0001043354,7.679049e-06,8.903417e-17,2.141928e-14,0.00042082733972963687
PART_001_R158G218B229A255,5067,-0.0003162588,0.0001043723,0.0001043394,7.736558e-06,-4.442508e-09,-3.580756e-07,0.0004208285070062455
PART_001_R158G218B229A255,5068,-0.000316258,0.0001043794,0.0001043376,7.92495e-06,-5.3256e-09,-6.407861e-07,0.00042084187979067795
PART_001_R158G218B229A255,5069,-0.0003162589,0.0001043718,0.0001043393,8.266718e-06,-1.8123e-08,-7.743218e-07,0.00042086022849462004
PART_001_R158G218B229A255,5070,-0.0003162579,0.0001043503,0.0001043607,8.856076e-06,-2.535238e-08,-6.334399e-07,0.00042089443837330944
PART_002_R214G39B40A255,5071,-0.000316259,0.0001043739,0.0001044044,9.932648e-06,2.600604e-08,-2.312647e-07,0.00042100000209502667
PART_003_R247G182B210A255,5072,-0.0003953237,0.0001305345,0.000130338,3.647966e-06,3.999661e-08,6.234839e-07,0.0005257990566240192
PART_001_R158G218B229A255,5073,-0.0003953224,0.0001304595,0.0001304002,3.13498e-06,2.46635e-08,1.34801e-06,0.000525785477675046
PART_001_R158G218B229A255,5074,-0.0003953235,0.000130497,0.0001304012,2.93873e-06,4.811908e-09,1.372473e-06,0.0005258026182056336
PART_001_R158G218B229A255,5075,-0.0003953226,0.0001304632,0.0001304195,2.809228e-06,5.769707e-09,1.070291e-06,0.0005257897341200954
PART_001_R158G218B229A255,5076,-0.0003953234,0.0001304857,0.0001304151,2.747197e-06,8.085665e-10,5.776007e-07,0.0005257962862634613
PART_001_R158G218B229A255,5077,-0.0003953226,0.0001304644,0.0001304228,2.724441e-06,-1.135194e-17,2.893376e-14,0.0005257873772701732
PART_001_R158G218B229A255,5078,-0.0003953234,0.0001304857,0.0001304151,2.747197e-06,-8.085665e-10,-5.776007e-07,0.0005257962862634613
PART_001_R158G218B229A255,5079,-0.0003953226,0.0001304632,0.0001304195,2.809228e-06,-5.769707e-09,-1.070291e-06,0.0005257897341200954
PART_001_R158G218B229A255,5080,-0.0003953235,0.000130497,0.0001304012,2.93873e-06,-4.811908e-09,-1.372473e-06,0.0005258026182056336
PART_001_R158G218B229A255,5081,-0.0003953224,0.0001304595,0.0001304002,3.13498e-06,-2.46635e-08,-1.348009e-06,0.0005257854776673545
PART_001_R158G218B229A255,5082,-0.0003953237,0.0001305345,0.000130338,3.647966e-06,-3.999661e-08,-6.234839e-07,0.0005257990566240192
PART_003_R247G182B210A255,5083,0.0003907785,-0.0001290341,-0.0001288372,3.648064e-06,3.959107e-08,-6.235037e-07,0.0005197537136694884
PART_000_R31G119B180A255,5084,0.0003907796,-0.0001289601,-0.0001289039,3.134914e-06,2.434803e-08,-1.347962e-06,0.0005197452119874624
PART_000_R31G119B180A255,5085,0.0003907787,-0.0001289971,-0.0001288999,2.938766e-06,4.777519e-09,-1.372528e-06,0.0005197575685936038
PART_000_R31G119B180A255,5086,0.0003907795,-0.0001289637,-0.0001289227,2.809189e-06,5.690898e-09,-1.070246e-06,0.0005197487827414449
PART_000_R31G119B180A255,5087,0.0003907788,-0.0001289859,-0.0001289137,2.747218e-06,8.0516e-10,-5.77626e-07,0.000519751348382225
PART_000_R31G119B180A255,5088,0.0003907794,-0.0001289648,-0.000128926,2.724409e-06,-4.665542e-17,-2.89184e-14,0.0005197462227638772
PART_000_R31G119B180A255,5089,0.0003907788,-0.0001289859,-0.0001289137,2.747218e-06,-8.051599e-10,5.776259e-07,0.0005197513483818916
PART_000_R31G119B180A255,5090,0.0003907795,-0.0001289637,-0.0001289227,2.809189e-06,-5.690899e-09,1.070246e-06,0.0005197487827414449
PART_000_R31G119B180A255,5091,0.0003907787,-0.0001289971,-0.0001288999,2.938766e-06,-4.777519e-09,1.372528e-06,0.0005197575685936038
PART_000_R31G119B180A255,5092,0.0003907796,-0.0001289601,-0.0001289039,3.134914e-06,-2.434803e-08,1.347962e-06,0.0005197452119874624
PART_000_R31G119B180A255,5093,0.0003907785,-0.0001290341,-0.0001288372,3.648064e-06,-3.959107e-08,6.235037e-07,0.0005197537136694884
PART_003_R247G182B210A255,5094,0.0003126228,-0.0001031742,-0.000103202,9.93257e-06,-2.572088e-08,-2.312887e-07,0.00041616683607290713
PART_003_R247G182B210A255,5095,0.0003126237,-0.0001031508,-0.0001031633,8.856116e-06,2.506131e-08,-6.333903e-07,0.00041606505500172753
PART_000_R31G119B180A255,5096,0.0003126229,-0.0001031721,-0.0001031378,8.266725e-06,1.791568e-08,-7.743741e-07,0.00041602648664276407
PART_000_R31G119B180A255,5097,0.0003126236,-0.0001031796,-0.0001031404,7.924973e-06,5.263237e-09,-6.407444e-07,0.0004160115990160077
PART_000_R31G119B180A255,5098,0.000312623,-0.0001031726,-0.0001031381,7.736573e-06,4.39215e-09,-3.580987e-07,0.0004159946942794737
PART_000_R31G119B180A255,5099,0.0003126236,-0.0001031827,-0.0001031381,7.679068e-06,1.202617e-16,-2.140252e-14,0.00041599668316456064
PART_000_R31G119B180A255,5100,0.000312623,-0.0001031726,-0.0001031381,7.736573e-06,-4.392151e-09,3.580986e-07,0.00041599469427921543
PART_000_R31G119B180A255,5101,0.0003126236,-0.0001031796,-0.0001031404,7.924973e-06,-5.263236e-09,6.407444e-07,0.0004160115990160076
PART_000_R31G119B180A255,5102,0.0003126229,-0.0001031721,-0.0001031378,8.266725e-06,-1.791568e-08,7.743741e-07,0.00041602648664276407
PART_000_R31G119B180A255,5103,0.0003126237,-0.0001031508,-0.0001031633,8.856116e-06,-2.506131e-08,6.333903e-07,0.00041606505500172753
PART_002_R214G39B40A255,5104,0.0003126228,-0.0001031742,-0.000103202,9.93257e-06,2.572088e-08,2.312887e-07,0.00041616683607290713
PART_003_R247G182B210A255,5105,0.0002344671,-7.740964e-05,-7.733294e-05,1.452035e-05,2.743103e-09,-1.262048e-07,0.0003128510114860676
PART_003_R247G182B210A255,5106,0.0002344678,-7.737433e-05,-7.738526e-05,1.331918e-05,-2.741017e-08,-3.183379e-07,0.00031270022471291555
PART_003_R247G182B210A255,5107,0.0002344672,-7.73599e-05,-7.73776e-05,1.249378e-05,1.086253e-08,-4.060063e-07,0.00031258668948111945
PART_000_R31G119B180A255,5108,0.0002344677,-7.737854e-05,-7.735873e-05,1.198339e-05,2.913934e-09,-3.623405e-07,0.00031252695711829796
PART_000_R31G119B180A255,5109,0.0002344672,-7.737839e-05,-7.736038e-05,1.170196e-05,2.362327e-09,-2.069343e-07,0.0003124947872739838
PART_000_R31G119B180A255,5110,0.0002344677,-7.737955e-05,-7.735594e-05,1.161083e-05,-2.888577e-16,-1.500286e-14,0.00031248324642497045
PART_000_R31G119B180A255,5111,0.0002344672,-7.737839e-05,-7.736038e-05,1.170196e-05,-2.362326e-09,2.069342e-07,0.00031249478727378514
PART_000_R31G119B180A255,5112,0.0002344677,-7.737854e-05,-7.735873e-05,1.198339e-05,-2.913934e-09,3.623405e-07,0.00031252695711829796
PART_000_R31G119B180A255,5113,0.0002344672,-7.73599e-05,-7.73776e-05,1.249378e-05,-1.086253e-08,4.060063e-07,0.00031258668948111945
PART_002_R214G39B40A255,5114,0.0002344678,-7.737433e-05,-7.738526e-05,1.331918e-05,2.741017e-08,3.183379e-07,0.00031270022471291555
PART_002_R214G39B40A255,5115,0.0002344671,-7.740964e-05,-7.733294e-05,1.452035e-05,-2.743104e-09,1.262048e-07,0.0003128510114860676
PART_003_R247G182B210A255,5116,0.0001563114,-5.158908e-05,-5.15923e-05,1.772534e-05,-1.091287e-08,-5.843772e-08,0.00021015673358392478
PART_003_R247G182B210A255,5117,0.0001563118,-5.158841e-05,-5.157324e-05,1.645287e-05,8.752707e-10,-1.613703e-07,0.0002098368714480786
PART_003_R247G182B210A255,5118,0.0001563114,-5.15824e-05,-5.15828e-05,1.553578e-05,-2.079569e-08,-2.068154e-07,0.00020962854345712656
PART_003_R247G182B210A255,5119,0.0001563118,-5.157457e-05,-5.158531e-05,1.492195e-05,3.219894e-09,-1.868091e-07,0.00020949242025946542
PART_000_R31G119B180A255,5120,0.0001563115,-5.158554e-05,-5.157174e-05,1.457598e-05,-3.152295e-09,-1.104294e-07,0.0002094175843731821
PART_000_R31G119B180A255,5121,0.0001563118,-5.15818e-05,-5.157826e-05,1.446383e-05,2.631206e-16,-9.465828e-15,0.0002093958455293569
PART_000_R31G119B180A255,5122,0.0001563115,-5.158554e-05,-5.157174e-05,1.457598e-05,3.152295e-09,1.104294e-07,0.0002094175843731821
PART_000_R31G119B180A255,5123,0.0001563118,-5.157457e-05,-5.158531e-05,1.492195e-05,-3.219894e-09,1.868091e-07,0.00020949242025946542
PART_002_R214G39B40A255,5124,0.0001563114,-5.15824e-05,-5.15828e-05,1.553578e-05,2.079569e-08,2.068154e-07,0.00020962854345712656
PART_002_R214G39B40A255,5125,0.0001563118,-5.158841e-05,-5.157324e-05,1.645286e-05,-8.752708e-10,1.613703e-07,0.00020983686909584206
PART_002_R214G39B40A255,5126,0.0001563114,-5.158908e-05,-5.15923e-05,1.772534e-05,1.091287e-08,5.843772e-08,0.00021015673358392478
PART_003_R247G182B210A255,5127,7.815569e-05,-2.580187e-05,-2.57802e-05,1.962262e-05,-1.440178e-09,-2.573312e-08,0.00010936208497561315
PART_003_R247G182B210A255,5128,7.815593e-05,-2.579201e-05,-2.579512e-05,1.832412e-05,-2.11028e-08,-6.64179e-08,0.00010868685389378573
PART_003_R247G182B210A255,5129,7.815573e-05,-2.578929e-05,-2.579063e-05,1.7357e-05,-1.469427e-09,-8.711914e-08,0.00010820594065777585
PART_003_R247G182B210A255,5130,7.815591e-05,-2.579152e-05,-2.57896e-05,1.669889e-05,-1.640174e-08,-7.934764e-08,0.00010789553792959718
PART_003_R247G182B210A255,5131,7.815574e-05,-2.578778e-05,-2.579173e-05,1.631656e-05,2.822314e-10,-4.673845e-08,0.00010771890682180538
PART_000_R31G119B180A255,5132,7.81559e-05,-2.579274e-05,-2.578641e-05,1.61926e-05,-1.872212e-16,-4.584102e-15,0.00010766272654594671
PART_000_R31G119B180A255,5133,7.815574e-05,-2.578778e-05,-2.579173e-05,1.631656e-05,-2.82231e-10,4.673844e-08,0.00010771890682179237
PART_002_R214G39B40A255,5134,7.815591e-05,-2.579152e-05,-2.57896e-05,1.669889e-05,1.640174e-08,7.934763e-08,0.00010789553792957512
PART_002_R214G39B40A255,5135,7.815573e-05,-2.578929e-05,-2.579063e-05,1.7357e-05,1.469426e-09,8.711913e-08,0.00010820594065775165
PART_002_R214G39B40A255,5136,7.815593e-05,-2.579201e-05,-2.579512e-05,1.832412e-05,2.11028e-08,6.641789e-08,0.00010868685389376739
PART_002_R214G39B40A255,5137,7.815569e-05,-2.580187e-05,-2.57802e-05,1.962262e-05,1.440179e-09,2.573312e-08,0.00010936208497561319
PART_003_R247G182B210A255,5138,8.552642e-14,-2.822742e-14,-2.819019e-14,2.025231e-05,-8.481497e-09,-1.673398e-17,3.5078032966739654e-05
PART_003_R247G182B210A255,5139,8.556318e-14,-2.801578e-14,-2.849747e-14,1.894419e-05,-3.570833e-09,-7.976679e-17,3.2812300171137726e-05
PART_003_R247G182B210A255,5140,8.544586e-14,-2.80366e-14,-2.810665e-14,1.796589e-05,-2.25667e-08,-8.687848e-17,3.111785883129086e-05
PART_003_R247G182B210A255,5141,8.546137e-14,-2.796721e-14,-2.827032e-14,1.729132e-05,-1.384275e-09,-8.827312e-17,2.9949444865904474e-05
PART_003_R247G182B210A255,5142,8.535436e-14,-2.782843e-14,-2.813836e-14,1.690024e-05,-9.375507e-09,-6.094963e-17,2.927207884440725e-05
PART_003_R247G182B210A255,5143,8.538135e-14,-2.792558e-14,-2.822358e-14,1.677114e-05,1.834094e-16,2.385986e-18,2.9048466580850697e-05
PART_002_R214G39B40A255,5144,8.53201e-14,-2.786313e-14,-2.81293e-14,1.690024e-05,9.375507e-09,4.570209e-17,2.927207884440725e-05
PART_002_R214G39B40A255,5145,8.537507e-14,-2.792905e-14,-2.824722e-14,1.729132e-05,1.384276e-09,8.630588e-17,2.994944486590461e-05
PART_002_R214G39B40A255,5146,8.531348e-14,-2.791864e-14,-2.809559e-14,1.796589e-05,2.25667e-08,9.109585e-17,3.111785883129086e-05
PART_002_R214G39B40A255,5147,8.537062e-14,-2.790476e-14,-2.840505e-14,1.894419e-05,3.570833e-09,6.578905e-17,3.2812300171137726e-05
PART_002_R214G39B40A255,5148,8.52957e-14,-2.806783e-14,-2.815959e-14,2.025231e-05,8.481497e-09,3.004595e-17,3.5078032966739654e-05
PART_003_R247G182B210A255,5149,-7.815569e-05,2.580187e-05,2.57802e-05,1.962262e-05,-1.440179e-09,2.573312e-08,0.00010936208497561319
PART_003_R247G182B210A255,5150,-7.815593e-05,2.579201e-05,2.579512e-05,1.832412e-05,-2.11028e-08,6.64179e-08,0.00010868685389378573
PART_003_R247G182B210A255,5151,-7.815573e-05,2.578929e-05,2.579063e-05,1.735701e-05,-1.469427e-09,8.711914e-08,0.00010820594546998981
PART_003_R247G182B210A255,5152,-7.815591e-05,2.579152e-05,2.57896e-05,1.669889e-05,-1.640174e-08,7.934764e-08,0.00010789553792959718
PART_003_R247G182B210A255,5153,-7.815574e-05,2.578778e-05,2.579173e-05,1.631656e-05,2.822313e-10,4.673845e-08,0.00010771890682180538
PART_001_R158G218B229A255,5154,-7.81559e-05,2.579273e-05,2.578641e-05,1.61926e-05,-1.856751e-16,4.558143e-15,0.00010766272171814021
PART_001_R158G218B229A255,5155,-7.815574e-05,2.578778e-05,2.579173e-05,1.631656e-05,-2.82231e-10,-4.673844e-08,0.00010771890682179237
PART_002_R214G39B40A255,5156,-7.815591e-05,2.579152e-05,2.57896e-05,1.669889e-05,1.640174e-08,-7.934763e-08,0.00010789553792957512
PART_002_R214G39B40A255,5157,-7.815573e-05,2.578929e-05,2.579063e-05,1.7357e-05,1.469426e-09,-8.711913e-08,0.00010820594065775165
PART_002_R214G39B40A255,5158,-7.815593e-05,2.579201e-05,2.579512e-05,1.832412e-05,2.11028e-08,-6.641789e-08,0.00010868685389376739
PART_002_R214G39B40A255,5159,-7.815569e-05,2.580187e-05,2.57802e-05,1.962262e-05,1.440179e-09,-2.573312e-08,0.00010936208497561319
PART_003_R247G182B210A255,5160,-0.0001563114,5.158908e-05,5.15923e-05,1.772534e-05,-1.091287e-08,5.843772e-08,0.00021015673358392478
PART_003_R247G182B210A255,5161,-0.0001563118,5.158841e-05,5.157324e-05,1.645287e-05,8.752708e-10,1.613703e-07,0.0002098368714480786
PART_003_R247G182B210A255,5162,-0.0001563114,5.15824e-05,5.15828e-05,1.553578e-05,-2.079569e-08,2.068154e-07,0.00020962854345712656
PART_003_R247G182B210A255,5163,-0.0001563118,5.157457e-05,5.158531e-05,1.492195e-05,3.219894e-09,1.868091e-07,0.00020949242025946542
PART_001_R158G218B229A255,5164,-0.0001563115,5.158554e-05,5.157174e-05,1.457598e-05,-3.152295e-09,1.104294e-07,0.0002094175843731821
PART_001_R158G218B229A255,5165,-0.0001563118,5.15818e-05,5.157826e-05,1.446383e-05,2.619102e-16,9.453245e-15,0.0002093958455293569
PART_001_R158G218B229A255,5166,-0.0001563115,5.158554e-05,5.157174e-05,1.457598e-05,3.152295e-09,-1.104294e-07,0.0002094175843731821
PART_001_R158G218B229A255,5167,-0.0001563118,5.157457e-05,5.158531e-05,1.492195e-05,-3.219894e-09,-1.868091e-07,0.00020949242025946542
PART_002_R214G39B40A255,5168,-0.0001563114,5.15824e-05,5.15828e-05,1.553578e-05,2.079569e-08,-2.068154e-07,0.00020962854345712656
PART_002_R214G39B40A255,5169,-0.0001563118,5.158841e-05,5.157324e-05,1.645286e-05,-8.752709e-10,-1.613703e-07,0.00020983686909584206
PART_002_R214G39B40A255,5170,-0.0001563114,5.158908e-05,5.15923e-05,1.772534e-05,1.091287e-08,-5.843772e-08,0.00021015673358392478
PART_003_R247G182B210A255,5171,-0.0002344671,7.740964e-05,7.733294e-05,1.452035e-05,2.743104e-09,1.262048e-07,0.0003128510114860676
PART_003_R247G182B210A255,5172,-0.0002344678,7.737433e-05,7.738526e-05,1.331918e-05,-2.741017e-08,3.183379e-07,0.00031270022471291555
PART_003_R247G182B210A255,5173,-0.0002344672,7.73599e-05,7.73776e-05,1.249378e-05,1.086253e-08,4.060063e-07,0.00031258668948111945
PART_001_R158G218B229A255,5174,-0.0002344677,7.737854e-05,7.735873e-05,1.198339e-05,2.913934e-09,3.623405e-07,0.00031252695711829796
PART_001_R158G218B229A255,5175,-0.0002344672,7.737839e-05,7.736038e-05,1.170196e-05,2.362327e-09,2.069343e-07,0.0003124947872739838
PART_001_R158G218B229A255,5176,-0.0002344677,7.737955e-05,7.735594e-05,1.161083e-05,-2.514519e-16,1.500513e-14,0.00031248324642497045
PART_001_R158G218B229A255,5177,-0.0002344672,7.737839e-05,7.736038e-05,1.170196e-05,-2.362326e-09,-2.069342e-07,0.00031249478727378514
PART_001_R158G218B229A255,5178,-0.0002344677,7.737854e-05,7.735873e-05,1.198339e-05,-2.913934e-09,-3.623405e-07,0.00031252695711829796
PART_001_R158G218B229A255,5179,-0.0002344672,7.73599e-05,7.73776e-05,1.249378e-05,-1.086253e-08,-4.060063e-07,0.00031258668948111945
PART_002_R214G39B40A255,5180,-0.0002344678,7.737433e-05,7.738526e-05,1.331918e-05,2.741017e-08,-3.183379e-07,0.00031270022471291555
PART_002_R214G39B40A255,5181,-0.0002344671,7.740964e-05,7.733294e-05,1.452035e-05,-2.743104e-09,-1.262048e-07,0.0003128510114860676
PART_003_R247G182B210A255,5182,-0.0003126228,0.0001031742,0.000103202,9.93257e-06,-2.572088e-08,2.312887e-07,0.00041616683607290713
PART_003_R247G182B210A255,5183,-0.0003126237,0.0001031508,0.0001031633,8.856116e-06,2.506131e-08,6.333903e-07,0.00041606505500172753
PART_001_R158G218B229A255,5184,-0.0003126229,0.0001031721,0.0001031378,8.266725e-06,1.791568e-08,7.743741e-07,0.00041602648664276407
PART_001_R158G218B229A255,5185,-0.0003126236,0.0001031796,0.0001031404,7.924973e-06,5.263237e-09,6.407444e-07,0.0004160115990160077
PART_001_R158G218B229A255,5186,-0.000312623,0.0001031726,0.0001031381,7.736573e-06,4.39215e-09,3.580987e-07,0.0004159946942794737
PART_001_R158G218B229A255,5187,-0.0003126236,0.0001031827,0.0001031381,7.679068e-06,7.373337e-17,2.137878e-14,0.00041599668316456064
PART_001_R158G218B229A255,5188,-0.000312623,0.0001031726,0.0001031381,7.736573e-06,-4.392151e-09,-3.580986e-07,0.00041599469427921543
PART_001_R158G218B229A255,5189,-0.0003126236,0.0001031796,0.0001031404,7.924973e-06,-5.263236e-09,-6.407444e-07,0.0004160115990160076
PART_001_R158G218B229A255,5190,-0.0003126229,0.0001031721,0.0001031378,8.266725e-06,-1.791568e-08,-7.743741e-07,0.00041602648664276407
PART_001_R158G218B229A255,5191,-0.0003126237,0.0001031508,0.0001031633,8.856116e-06,-2.506131e-08,-6.333903e-07,0.00041606505500172753
PART_002_R214G39B40A255,5192,-0.0003126228,0.0001031742,0.000103202,9.93257e-06,2.572088e-08,-2.312887e-07,0.00041616683607290713
PART_003_R247G182B210A255,5193,-0.0003907785,0.0001290341,0.0001288372,3.648064e-06,3.959107e-08,6.235037e-07,0.0005197537136694884
PART_001_R158G218B229A255,5194,-0.0003907796,0.0001289601,0.0001289039,3.134914e-06,2.434803e-08,1.347962e-06,0.0005197452119874624
PART_001_R158G218B229A255,5195,-0.0003907787,0.0001289971,0.0001288999,2.938766e-06,4.777519e-09,1.372528e-06,0.0005197575685936038
PART_001_R158G218B229A255,5196,-0.0003907795,0.0001289637,0.0001289227,2.809189e-06,5.690898e-09,1.070246e-06,0.0005197487827414449
PART_001_R158G218B229A255,5197,-0.0003907788,0.0001289859,0.0001289137,2.747218e-06,8.0516e-10,5.77626e-07,0.000519751348382225
PART_001_R158G218B229A255,5198,-0.0003907794,0.0001289648,0.000128926,2.724409e-06,-4.497576e-17,2.89192e-14,0.0005197462227638772
PART_001_R158G218B229A255,5199,-0.0003907788,0.0001289859,0.0001289137,2.747218e-06,-8.051599e-10,-5.776259e-07,0.0005197513483818916
PART_001_R158G218B229A255,5200,-0.0003907795,0.0001289637,0.0001289227,2.809189e-06,-5.690899e-09,-1.070246e-06,0.0005197487827414449
PART_001_R158G218B229A255,5201,-0.0003907787,0.0001289971,0.0001288999,2.938766e-06,-4.777519e-09,-1.372528e-06,0.0005197575685936038
PART_001_R158G218B229A255,5202,-0.0003907796,0.0001289601,0.0001289039,3.134914e-06,-2.434803e-08,-1.347962e-06,0.0005197452119874624
PART_001_R158G218B229A255,5203,-0.0003907785,0.0001290341,0.0001288372,3.648064e-06,-3.959107e-08,-6.235037e-07,0.0005197537136694884
PART_003_R247G182B210A255,5204,0.0003862356,-0.0001275337,-0.0001273413,3.647984e-06,3.908659e-08,-6.234877e-07,0.0005137131257645102
PART_000_R31G119B180A255,5205,0.0003862348,-0.0001274605,-0.000127403,3.134967e-06,2.409099e-08,-1.348001e-06,0.0005137005588707089
PART_000_R31G119B180A255,5206,0.0003862355,-0.0001274971,-0.0001274031,2.938737e-06,4.704955e-09,-1.372483e-06,0.0005137163244388786
PART_000_R31G119B180A255,5207,0.0003862348,-0.000127464,-0.0001274217,2.80922e-06,5.634919e-09,-1.070283e-06,0.0005137040404891443
PART_000_R31G119B180A255,5208,0.0003862354,-0.000127486,-0.0001274166,2.7472e-06,7.910145e-10,-5.776055e-07,0.0005137097152856834
PART_000_R31G119B180A255,5209,0.0003862349,-0.0001274652,-0.0001274249,2.724435e-06,-2.034743e-17,-2.893363e-14,0.0005137016253510179
PART_000_R31G119B180A255,5210,0.0003862354,-0.000127486,-0.0001274166,2.7472e-06,-7.910144e-10,5.776054e-07,0.0005137097152853461
PART_000_R31G119B180A255,5211,0.0003862348,-0.000127464,-0.0001274217,2.80922e-06,-5.63492e-09,1.070283e-06,0.0005137040404891443
PART_000_R31G119B180A255,5212,0.0003862355,-0.0001274971,-0.0001274031,2.938737e-06,-4.704955e-09,1.372483e-06,0.0005137163244388786
PART_000_R31G119B180A255,5213,0.0003862348,-0.0001274605,-0.000127403,3.134967e-06,-2.409099e-08,1.348001e-06,0.0005137005588707089
PART_000_R31G119B180A255,5214,0.0003862356,-0.0001275337,-0.0001273413,3.647984e-06,-3.908659e-08,6.234877e-07,0.0005137131257645102
PART_003_R247G182B210A255,5215,0.0003089885,-0.0001019745,-0.0001020039,9.932634e-06,-2.541059e-08,-2.31269e-07,0.0004113378229548545
PART_003_R247G182B210A255,5216,0.0003089878,-0.0001019514,-0.0001019619,8.856084e-06,2.476968e-08,-6.334308e-07,0.0004112320966124622
PART_000_R31G119B180A255,5217,0.0003089884,-0.0001019724,-0.0001019403,8.266719e-06,1.770661e-08,-7.743314e-07,0.00041119630830342826
PART_000_R31G119B180A255,5218,0.0003089879,-0.0001019799,-0.0001019394,7.924955e-06,5.203028e-09,-6.407786e-07,0.000411178229833856
PART_000_R31G119B180A255,5219,0.0003089884,-0.000101973,-0.0001019405,7.736561e-06,4.340531e-09,-3.580799e-07,0.00041116403654648
PART_000_R31G119B180A255,5220,0.0003089879,-0.000101983,-0.0001019372,7.679053e-06,8.447036e-17,-2.139789e-14,0.0004111631839576112
PART_000_R31G119B180A255,5221,0.0003089884,-0.000101973,-0.0001019405,7.736561e-06,-4.340531e-09,3.580799e-07,0.00041116403654648
PART_000_R31G119B180A255,5222,0.0003089879,-0.0001019799,-0.0001019394,7.924955e-06,-5.203027e-09,6.407786e-07,0.00041117822983385594
PART_000_R31G119B180A255,5223,0.0003089884,-0.0001019724,-0.0001019403,8.266719e-06,-1.770662e-08,7.743314e-07,0.00041119630830342956
PART_000_R31G119B180A255,5224,0.0003089878,-0.0001019514,-0.0001019619,8.856084e-06,-2.476968e-08,6.334308e-07,0.0004112320966124622
PART_002_R214G39B40A255,5225,0.0003089885,-0.0001019745,-0.0001020039,9.932634e-06,2.541059e-08,2.31269e-07,0.0004113378229548545
PART_003_R247G182B210A255,5226,0.0002317414,-7.650954e-05,-7.64352e-05,1.452032e-05,2.705228e-09,-1.261954e-07,0.0003092382561051244
PART_003_R247G182B210A255,5227,0.0002317408,-7.64746e-05,-7.648403e-05,1.331919e-05,-2.709418e-08,-3.183646e-07,0.0003090827528258647
PART_003_R247G182B210A255,5228,0.0002317413,-7.646033e-05,-7.647921e-05,1.249382e-05,1.073818e-08,-4.059749e-07,0.0003089706221394628
PART_000_R31G119B180A255,5229,0.0002317409,-7.647876e-05,-7.64579e-05,1.19834e-05,2.87876e-09,-3.623664e-07,0.0003089079626091126
PART_000_R31G119B180A255,5230,0.0002317413,-7.647861e-05,-7.646213e-05,1.170199e-05,2.335538e-09,-2.069199e-07,0.0003088776001940919
PART_000_R31G119B180A255,5231,0.0002317409,-7.647975e-05,-7.645516e-05,1.161084e-05,-2.858872e-16,-1.500317e-14,0.00030886376505155784
PART_000_R31G119B180A255,5232,0.0002317413,-7.647861e-05,-7.646213e-05,1.170199e-05,-2.335538e-09,2.069199e-07,0.0003088776001940919
PART_000_R31G119B180A255,5233,0.0002317409,-7.647876e-05,-7.64579e-05,1.19834e-05,-2.878761e-09,3.623664e-07,0.0003089079626091127
PART_000_R31G119B180A255,5234,0.0002317413,-7.646033e-05,-7.647921e-05,1.249382e-05,-1.073819e-08,4.059749e-07,0.00030897062213946385
PART_002_R214G39B40A255,5235,0.0002317408,-7.64746e-05,-7.648403e-05,1.331919e-05,2.709418e-08,3.183646e-07,0.0003090827528258647
PART_002_R214G39B40A255,5236,0.0002317414,-7.650954e-05,-7.64352e-05,1.452032e-05,-2.705228e-09,1.261954e-07,0.0003092382561051244
PART_003_R247G182B210A255,5237,0.0001544943,-5.09892e-05,-5.099339e-05,1.772538e-05,-1.078117e-08,-5.842806e-08,0.00020776647382174
PART_003_R247G182B210A255,5238,0.0001544939,-5.098856e-05,-5.097261e-05,1.645284e-05,8.672117e-10,-1.6139e-07,0.0002074413896778229
PART_003_R247G182B210A255,5239,0.0001544942,-5.098263e-05,-5.098391e-05,1.553576e-05,-2.055409e-08,-2.067945e-07,0.00020723223628207565
PART_003_R247G182B210A255,5240,0.0001544939,-5.097489e-05,-5.09846e-05,1.492192e-05,3.182409e-09,-1.86826e-07,0.00020709300976132512
PART_000_R31G119B180A255,5241,0.0001544942,-5.098573e-05,-5.097294e-05,1.457596e-05,-3.115486e-09,-1.104201e-07,0.00020701880625866652
PART_000_R31G119B180A255,5242,0.0001544939,-5.098203e-05,-5.097764e-05,1.44638e-05,2.005537e-16,-9.460159e-15,0.00020699531473109312
PART_000_R31G119B180A255,5243,0.0001544942,-5.098573e-05,-5.097294e-05,1.457596e-05,3.115485e-09,1.104201e-07,0.00020701880625866647
PART_000_R31G119B180A255,5244,0.0001544939,-5.097489e-05,-5.09846e-05,1.492192e-05,-3.182409e-09,1.86826e-07,0.00020709300976132512
PART_002_R214G39B40A255,5245,0.0001544942,-5.098263e-05,-5.098391e-05,1.553576e-05,2.055409e-08,2.067945e-07,0.00020723223628207565
PART_002_R214G39B40A255,5246,0.0001544939,-5.098856e-05,-5.097261e-05,1.645284e-05,-8.672117e-10,1.6139e-07,0.0002074413896778229
PART_002_R214G39B40A255,5247,0.0001544943,-5.09892e-05,-5.099339e-05,1.772538e-05,1.078117e-08,5.842806e-08,0.00020776647382174
PART_003_R247G182B210A255,5248,7.724714e-05,-2.550186e-05,-2.548093e-05,1.96226e-05,-1.42706e-09,-2.572979e-08,0.00010821436220276254
PART_003_R247G182B210A255,5249,7.724694e-05,-2.54921e-05,-2.54947e-05,1.832412e-05,-2.086035e-08,-6.64272e-08,0.00010753098219996926
PART_003_R247G182B210A255,5250,7.72471e-05,-2.54894e-05,-2.549119e-05,1.735704e-05,-1.451295e-09,-8.710829e-08,0.00010704576412149727
PART_003_R247G182B210A255,5251,7.724696e-05,-2.549161e-05,-2.548927e-05,1.669891e-05,-1.621146e-08,-7.935653e-08,0.00010673122237303323
PART_003_R247G182B210A255,5252,7.724709e-05,-2.548791e-05,-2.549227e-05,1.631659e-05,2.791844e-10,-4.673354e-08,0.00010655340467858835
PART_000_R31G119B180A255,5253,7.724696e-05,-2.549281e-05,-2.548613e-05,1.619262e-05,-2.253083e-16,-4.573042e-15,0.00010649590090705323
PART_000_R31G119B180A255,5254,7.724709e-05,-2.548791e-05,-2.549227e-05,1.631659e-05,-2.791841e-10,4.673353e-08,0.00010655340467857519
PART_002_R214G39B40A255,5255,7.724696e-05,-2.549161e-05,-2.548927e-05,1.669891e-05,1.621146e-08,7.935652e-08,0.00010673122237301092
PART_002_R214G39B40A255,5256,7.72471e-05,-2.54894e-05,-2.549119e-05,1.735704e-05,1.451295e-09,8.710828e-08,0.00010704576412147284
PART_002_R214G39B40A255,5257,7.724694e-05,-2.54921e-05,-2.54947e-05,1.832412e-05,2.086035e-08,6.64272e-08,0.00010753098219996926
PART_002_R214G39B40A255,5258,7.724714e-05,-2.550186e-05,-2.548093e-05,1.96226e-05,1.42706e-09,2.572979e-08,0.00010821436220276254
PART_003_R247G182B210A255,5259,8.46325e-14,-2.793252e-14,-2.807995e-14,2.025234e-05,-8.378985e-09,-1.946312e-17,3.507808485434986e-05
PART_003_R247G182B210A255,5260,8.455389e-14,-2.789435e-14,-2.798813e-14,1.894417e-05,-3.52721e-09,-5.402207e-17,3.281226551596721e-05
PART_003_R247G182B210A255,5261,8.464551e-14,-2.812334e-14,-2.794664e-14,1.796587e-05,-2.230403e-08,-9.813216e-17,3.111782362216167e-05
PART_003_R247G182B210A255,5262,8.458663e-14,-2.825865e-14,-2.779457e-14,1.729128e-05,-1.368582e-09,-8.443309e-17,2.9949375581708716e-05
PART_003_R247G182B210A255,5263,8.4684e-14,-2.831416e-14,-2.795599e-14,1.690022e-05,-9.266155e-09,-6.003325e-17,2.9272044098936535e-05
PART_003_R247G182B210A255,5264,8.459715e-14,-2.835232e-14,-2.774814e-14,1.67711e-05,2.074539e-16,-3.933621e-18,2.9048397298818397e-05
PART_002_R214G39B40A255,5265,8.462068e-14,-2.824824e-14,-2.795404e-14,1.690022e-05,9.266154e-09,5.18219e-17,2.927204409893559e-05
PART_002_R214G39B40A255,5266,8.453091e-14,-2.823783e-14,-2.776557e-14,1.729128e-05,1.368582e-09,9.344891e-17,2.9949375581708716e-05
PART_002_R214G39B40A255,5267,8.455422e-14,-2.813721e-14,-2.793599e-14,1.796587e-05,2.230403e-08,9.112126e-17,3.111782362216167e-05
PART_002_R214G39B40A255,5268,8.444027e-14,-2.799497e-14,-2.790702e-14,1.894417e-05,3.52721e-09,7.047992e-17,3.281226551596721e-05
PART_002_R214G39B40A255,5269,8.450705e-14,-2.802619e-14,-2.798825e-14,2.025234e-05,8.378985e-09,1.692202e-17,3.507808485434986e-05
PART_003_R247G182B210A255,5270,-7.724713e-05,2.550186e-05,2.548093e-05,1.96226e-05,-1.42706e-09,2.572979e-08,0.00010821435270877926
PART_003_R247G182B210A255,5271,-7.724694e-05,2.54921e-05,2.54947e-05,1.832412e-05,-2.086035e-08,6.64272e-08,0.00010753098219996926
PART_003_R247G182B210A255,5272,-7.72471e-05,2.54894e-05,2.549119e-05,1.735704e-05,-1.451295e-09,8.710829e-08,0.00010704576412149727
PART_003_R247G182B210A255,5273,-7.724696e-05,2.549161e-05,2.548927e-05,1.669891e-05,-1.621146e-08,7.935653e-08,0.00010673122237303323
PART_003_R247G182B210A255,5274,-7.724709e-05,2.548791e-05,2.549227e-05,1.631659e-05,2.791844e-10,4.673354e-08,0.00010655340467858835
PART_001_R158G218B229A255,5275,-7.724696e-05,2.549281e-05,2.548613e-05,1.619262e-05,-1.964706e-16,4.572675e-15,0.00010649590090705323
PART_001_R158G218B229A255,5276,-7.724709e-05,2.548791e-05,2.549227e-05,1.631659e-05,-2.791841e-10,-4.673353e-08,0.00010655340467857519
PART_002_R214G39B40A255,5277,-7.724696e-05,2.549161e-05,2.548927e-05,1.669891e-05,1.621146e-08,-7.935652e-08,0.00010673122237301092
PART_002_R214G39B40A255,5278,-7.72471e-05,2.54894e-05,2.549119e-05,1.735704e-05,1.451295e-09,-8.710828e-08,0.00010704576412147284
PART_002_R214G39B40A255,5279,-7.724694e-05,2.54921e-05,2.54947e-05,1.832412e-05,2.086035e-08,-6.64272e-08,0.00010753098219996926
PART_002_R214G39B40A255,5280,-7.724713e-05,2.550186e-05,2.548093e-05,1.96226e-05,1.42706e-09,-2.572979e-08,0.00010821435270877926
PART_003_R247G182B210A255,5281,-0.0001544943,5.09892e-05,5.099339e-05,1.772538e-05,-1.078117e-08,5.842806e-08,0.00020776647382174
PART_003_R247G182B210A255,5282,-0.0001544939,5.098856e-05,5.097261e-05,1.645284e-05,8.672118e-10,1.6139e-07,0.0002074413896778229
PART_003_R247G182B210A255,5283,-0.0001544942,5.098263e-05,5.098391e-05,1.553576e-05,-2.055409e-08,2.067945e-07,0.00020723223628207565
PART_003_R247G182B210A255,5284,-0.0001544939,5.097489e-05,5.09846e-05,1.492192e-05,3.182409e-09,1.86826e-07,0.00020709300976132512
PART_001_R158G218B229A255,5285,-0.0001544942,5.098573e-05,5.097294e-05,1.457596e-05,-3.115486e-09,1.104201e-07,0.00020701880625866652
PART_001_R158G218B229A255,5286,-0.0001544939,5.098203e-05,5.097764e-05,1.44638e-05,2.667688e-16,9.454708e-15,0.00020699531473109312
PART_001_R158G218B229A255,5287,-0.0001544942,5.098573e-05,5.097294e-05,1.457596e-05,3.115485e-09,-1.104201e-07,0.00020701880625866647
PART_001_R158G218B229A255,5288,-0.0001544939,5.097489e-05,5.09846e-05,1.492192e-05,-3.182409e-09,-1.86826e-07,0.00020709300976132512
PART_002_R214G39B40A255,5289,-0.0001544942,5.098263e-05,5.098391e-05,1.553576e-05,2.055409e-08,-2.067945e-07,0.00020723223628207565
PART_002_R214G39B40A255,5290,-0.0001544939,5.098856e-05,5.097261e-05,1.645284e-05,-8.672118e-10,-1.6139e-07,0.0002074413896778229
PART_002_R214G39B40A255,5291,-0.0001544943,5.09892e-05,5.099339e-05,1.772538e-05,1.078117e-08,-5.842806e-08,0.00020776647382174
PART_003_R247G182B210A255,5292,-0.0002317414,7.650954e-05,7.64352e-05,1.452032e-05,2.705228e-09,1.261954e-07,0.0003092382561051244
PART_003_R247G182B210A255,5293,-0.0002317408,7.64746e-05,7.648403e-05,1.331919e-05,-2.709418e-08,3.183646e-07,0.0003090827528258647
PART_003_R247G182B210A255,5294,-0.0002317413,7.646033e-05,7.647921e-05,1.249382e-05,1.073818e-08,4.059749e-07,0.0003089706221394628
PART_001_R158G218B229A255,5295,-0.0002317409,7.647876e-05,7.64579e-05,1.19834e-05,2.87876e-09,3.623664e-07,0.0003089079626091126
PART_001_R158G218B229A255,5296,-0.0002317413,7.647861e-05,7.646213e-05,1.170199e-05,2.335538e-09,2.069199e-07,0.0003088776001940919
PART_001_R158G218B229A255,5297,-0.0002317409,7.647975e-05,7.645516e-05,1.161084e-05,-2.523675e-16,1.499012e-14,0.00030886376505155784
PART_001_R158G218B229A255,5298,-0.0002317413,7.647861e-05,7.646213e-05,1.170199e-05,-2.335538e-09,-2.069199e-07,0.0003088776001940919
PART_001_R158G218B229A255,5299,-0.0002317409,7.647876e-05,7.64579e-05,1.19834e-05,-2.878761e-09,-3.623664e-07,0.0003089079626091127
PART_001_R158G218B229A255,5300,-0.0002317413,7.646033e-05,7.647921e-05,1.249382e-05,-1.073819e-08,-4.059749e-07,0.00030897062213946385
PART_002_R214G39B40A255,5301,-0.0002317408,7.64746e-05,7.648403e-05,1.331919e-05,2.709418e-08,-3.183646e-07,0.0003090827528258647
PART_002_R214G39B40A255,5302,-0.0002317414,7.650954e-05,7.64352e-05,1.452032e-05,-2.705229e-09,-1.261954e-07,0.00030923825610512445
PART_003_R247G182B210A255,5303,-0.0003089885,0.0001019745,0.0001020039,9.932634e-06,-2.541059e-08,2.31269e-07,0.0004113378229548545
PART_003_R247G182B210A255,5304,-0.0003089878,0.0001019514,0.0001019619,8.856084e-06,2.476968e-08,6.334308e-07,0.0004112320966124622
PART_001_R158G218B229A255,5305,-0.0003089884,0.0001019724,0.0001019403,8.266719e-06,1.770661e-08,7.743314e-07,0.00041119630830342826
PART_001_R158G218B229A255,5306,-0.0003089879,0.0001019799,0.0001019394,7.924955e-06,5.203028e-09,6.407786e-07,0.000411178229833856
PART_001_R158G218B229A255,5307,-0.0003089884,0.000101973,0.0001019405,7.736561e-06,4.340531e-09,3.580799e-07,0.00041116403654648
PART_001_R158G218B229A255,5308,-0.0003089879,0.000101983,0.0001019372,7.679053e-06,1.175614e-16,2.13942e-14,0.0004111631839576112
PART_001_R158G218B229A255,5309,-0.0003089884,0.000101973,0.0001019405,7.736561e-06,-4.340531e-09,-3.580799e-07,0.00041116403654648
PART_001_R158G218B229A255,5310,-0.0003089879,0.0001019799,0.0001019394,7.924955e-06,-5.203027e-09,-6.407786e-07,0.00041117822983385594
PART_001_R158G218B229A255,5311,-0.0003089884,0.0001019724,0.0001019403,8.266719e-06,-1.770662e-08,-7.743314e-07,0.00041119630830342956
PART_001_R158G218B229A255,5312,-0.0003089878,0.0001019514,0.0001019619,8.856084e-06,-2.476968e-08,-6.334308e-07,0.0004112320966124622
PART_002_R214G39B40A255,5313,-0.0003089885,0.0001019745,0.0001020039,9.932634e-06,2.541059e-08,-2.31269e-07,0.0004113378229548545
PART_003_R247G182B210A255,5314,-0.0003862356,0.0001275337,0.0001273413,3.647984e-06,3.908659e-08,6.234877e-07,0.0005137131257645102
PART_001_R158G218B229A255,5315,-0.0003862348,0.0001274605,0.000127403,3.134967e-06,2.409099e-08,1.348001e-06,0.0005137005588707089
PART_001_R158G218B229A255,5316,-0.0003862355,0.0001274971,0.0001274031,2.938737e-06,4.704955e-09,1.372483e-06,0.0005137163244388786
PART_001_R158G218B229A255,5317,-0.0003862348,0.000127464,0.0001274217,2.80922e-06,5.634919e-09,1.070283e-06,0.0005137040404891443
PART_001_R158G218B229A255,5318,-0.0003862354,0.000127486,0.0001274166,2.7472e-06,7.910145e-10,5.776055e-07,0.0005137097152856834
PART_001_R158G218B229A255,5319,-0.0003862349,0.0001274652,0.0001274249,2.724435e-06,-2.902443e-17,2.89202e-14,0.0005137016253510179
PART_001_R158G218B229A255,5320,-0.0003862354,0.000127486,0.0001274166,2.7472e-06,-7.910144e-10,-5.776054e-07,0.0005137097152853461
PART_001_R158G218B229A255,5321,-0.0003862348,0.000127464,0.0001274217,2.80922e-06,-5.63492e-09,-1.070283e-06,0.0005137040404891443
PART_001_R158G218B229A255,5322,-0.0003862355,0.0001274971,0.0001274031,2.938737e-06,-4.704955e-09,-1.372483e-06,0.0005137163244388786
PART_001_R158G218B229A255,5323,-0.0003862348,0.0001274605,0.000127403,3.134967e-06,-2.409099e-08,-1.348001e-06,0.0005137005588707089
PART_001_R158G218B229A255,5324,-0.0003862356,0.0001275337,0.0001273413,3.647984e-06,-3.908659e-08,-6.234877e-07,0.0005137131257645102
PART_003_R247G182B210A255,5325,0.0003816908,-0.0001260333,-0.0001258414,3.64805e-06,3.866269e-08,-6.235006e-07,0.0005076686535935058
PART_000_R31G119B180A255,5326,0.0003816915,-0.000125961,-0.0001259058,3.134924e-06,2.378633e-08,-1.347969e-06,0.0005076593123241124
PART_000_R31G119B180A255,5327,0.0003816909,-0.0001259972,-0.0001259026,2.938761e-06,4.663483e-09,-1.37252e-06,0.0005076718910712418
PART_000_R31G119B180A255,5328,0.0003816915,-0.0001259645,-0.0001259242,2.809195e-06,5.560338e-09,-1.070253e-06,0.0005076625538388056
PART_000_R31G119B180A255,5329,0.000381691,-0.0001259862,-0.000125916,2.747215e-06,7.856153e-10,-5.776222e-07,0.0005076653897039644
PART_000_R31G119B180A255,5330,0.0003816914,-0.0001259657,-0.0001259274,2.724414e-06,-4.288443e-17,-2.891618e-14,0.0005076598828697224
PART_000_R31G119B180A255,5331,0.000381691,-0.0001259862,-0.000125916,2.747215e-06,-7.856152e-10,5.776221e-07,0.000507665389703623
PART_000_R31G119B180A255,5332,0.0003816915,-0.0001259645,-0.0001259242,2.809195e-06,-5.560339e-09,1.070253e-06,0.0005076625538388056
PART_000_R31G119B180A255,5333,0.0003816909,-0.0001259972,-0.0001259026,2.938761e-06,-4.663483e-09,1.37252e-06,0.0005076718910712418
PART_000_R31G119B180A255,5334,0.0003816915,-0.000125961,-0.0001259058,3.134924e-06,-2.378633e-08,1.347969e-06,0.0005076593123241124
PART_000_R31G119B180A255,5335,0.0003816908,-0.0001260333,-0.0001258414,3.64805e-06,-3.866269e-08,6.235006e-07,0.0005076686535935058
PART_003_R247G182B210A255,5336,0.0003053526,-0.0001007748,-0.0001008023,9.932582e-06,-2.512073e-08,-2.312851e-07,0.0004065055537352667
PART_003_R247G182B210A255,5337,0.0003053532,-0.000100752,-0.0001007639,8.85611e-06,2.44785e-08,-6.333977e-07,0.0004064022190995717
PART_000_R31G119B180A255,5338,0.0003053527,-0.0001007727,-0.0001007396,8.266723e-06,1.749897e-08,-7.743663e-07,0.00040636340244373364
PART_000_R31G119B180A255,5339,0.0003053532,-0.0001007801,-0.0001007415,7.924969e-06,5.141057e-09,-6.407507e-07,0.00040634742435272423
PART_000_R31G119B180A255,5340,0.0003053528,-0.0001007732,-0.0001007398,7.73657e-06,4.28994e-09,-3.580953e-07,0.000406330792189316
PART_000_R31G119B180A255,5341,0.0003053532,-0.0001007831,-0.0001007393,7.679065e-06,5.331395e-17,-2.139378e-14,0.0004063321442416446
PART_000_R31G119B180A255,5342,0.0003053528,-0.0001007732,-0.0001007398,7.73657e-06,-4.289941e-09,3.580952e-07,0.00040633079218905166
PART_000_R31G119B180A255,5343,0.0003053532,-0.0001007801,-0.0001007415,7.924969e-06,-5.141056e-09,6.407507e-07,0.0004063474243527242
PART_000_R31G119B180A255,5344,0.0003053527,-0.0001007727,-0.0001007396,8.266723e-06,-1.749897e-08,7.743663e-07,0.00040636340244373364
PART_000_R31G119B180A255,5345,0.0003053532,-0.000100752,-0.0001007639,8.85611e-06,-2.44785e-08,6.333976e-07,0.0004064022190991042
PART_002_R214G39B40A255,5346,0.0003053526,-0.0001007748,-0.0001008023,9.932582e-06,2.512073e-08,2.312851e-07,0.0004065055537352667
PART_003_R247G182B210A255,5347,0.0002290145,-7.560942e-05,-7.553475e-05,1.452034e-05,2.678286e-09,-1.262031e-07,0.00030562323303047934
PART_003_R247G182B210A255,5348,0.0002290149,-7.557492e-05,-7.558537e-05,1.331918e-05,-2.677313e-08,-3.183427e-07,0.0003054679187160192
PART_003_R247G182B210A255,5349,0.0002290145,-7.556082e-05,-7.557835e-05,1.249379e-05,1.061034e-08,-4.060006e-07,0.0003053526555945678
PART_000_R31G119B180A255,5350,0.0002290149,-7.557903e-05,-7.555947e-05,1.198339e-05,2.846015e-09,-3.623452e-07,0.00030529117827457
PART_000_R31G119B180A255,5351,0.0002290146,-7.557889e-05,-7.556152e-05,1.170196e-05,2.307545e-09,-2.069317e-07,0.0003052586440133354
PART_000_R31G119B180A255,5352,0.0002290149,-7.558001e-05,-7.555674e-05,1.161083e-05,-2.828082e-16,-1.500045e-14,0.0003052464675237242
PART_000_R31G119B180A255,5353,0.0002290146,-7.557889e-05,-7.556152e-05,1.170196e-05,-2.307544e-09,2.069316e-07,0.0003052586440131319
PART_000_R31G119B180A255,5354,0.0002290149,-7.557903e-05,-7.555947e-05,1.198339e-05,-2.846015e-09,3.623452e-07,0.00030529117827457
PART_000_R31G119B180A255,5355,0.0002290145,-7.556082e-05,-7.557835e-05,1.249379e-05,-1.061034e-08,4.060005e-07,0.0003053526555941689
PART_002_R214G39B40A255,5356,0.0002290149,-7.557492e-05,-7.558537e-05,1.331918e-05,2.677313e-08,3.183427e-07,0.0003054679187160192
PART_002_R214G39B40A255,5357,0.0002290145,-7.560942e-05,-7.553475e-05,1.452034e-05,-2.678286e-09,1.262031e-07,0.00030562323303047934
PART_003_R247G182B210A255,5358,0.0001526763,-5.038933e-05,-5.039265e-05,1.772535e-05,-1.065818e-08,-5.843596e-08,0.00020537502029008558
PART_003_R247G182B210A255,5359,0.0001526766,-5.038868e-05,-5.03737e-05,1.645286e-05,8.55398e-10,-1.613739e-07,0.00020504788265506455
PART_003_R247G182B210A255,5360,0.0001526764,-5.038281e-05,-5.038336e-05,1.553577e-05,-2.0312e-08,-2.068116e-07,0.00020483496881152036
PART_003_R247G182B210A255,5361,0.0001526766,-5.037517e-05,-5.03855e-05,1.492195e-05,3.145091e-09,-1.868122e-07,0.0002046954260190061
PART_000_R31G119B180A255,5362,0.0001526764,-5.038588e-05,-5.037254e-05,1.457598e-05,-3.078915e-09,-1.104278e-07,0.00020461914640657698
PART_000_R31G119B180A255,5363,0.0001526766,-5.038222e-05,-5.037862e-05,1.446382e-05,2.047774e-16,-9.459089e-15,0.00020459657780123693
PART_000_R31G119B180A255,5364,0.0001526764,-5.038588e-05,-5.037254e-05,1.457598e-05,3.078915e-09,1.104277e-07,0.00020461914640641508
PART_000_R31G119B180A255,5365,0.0001526766,-5.037517e-05,-5.03855e-05,1.492195e-05,-3.14509e-09,1.868121e-07,0.00020469542601873225
PART_002_R214G39B40A255,5366,0.0001526764,-5.038281e-05,-5.038336e-05,1.553577e-05,2.0312e-08,2.068115e-07,0.00020483496881121746
PART_002_R214G39B40A255,5367,0.0001526766,-5.038868e-05,-5.03737e-05,1.645286e-05,-8.553981e-10,1.613738e-07,0.00020504788265482844
PART_002_R214G39B40A255,5368,0.0001526763,-5.038933e-05,-5.039265e-05,1.772535e-05,1.065818e-08,5.843595e-08,0.00020537502029007704
PART_003_R247G182B210A255,5369,7.633815e-05,-2.520183e-05,-2.518074e-05,1.962261e-05,-1.407287e-09,-2.57325e-08,0.00010706712365181311
PART_003_R247G182B210A255,5370,7.633831e-05,-2.51922e-05,-2.519515e-05,1.832412e-05,-2.061245e-08,-6.641957e-08,0.00010637705868836297
PART_003_R247G182B210A255,5371,7.633818e-05,-2.518953e-05,-2.519092e-05,1.735701e-05,-1.434956e-09,-8.711715e-08,0.00010588596312110576
PART_003_R247G182B210A255,5372,7.63383e-05,-2.519171e-05,-2.518976e-05,1.669889e-05,-1.602029e-08,-7.934925e-08,0.00010556857198730548
PART_003_R247G182B210A255,5373,7.633819e-05,-2.518806e-05,-2.5192e-05,1.631657e-05,2.757576e-10,-4.673755e-08,0.00010538822226003087
PART_000_R31G119B180A255,5374,7.63383e-05,-2.51929e-05,-2.518665e-05,1.61926e-05,-1.964418e-16,-4.580994e-15,0.00010533067419694274
PART_000_R31G119B180A255,5375,7.633819e-05,-2.518806e-05,-2.5192e-05,1.631657e-05,-2.757573e-10,4.673754e-08,0.00010538822226001756
PART_002_R214G39B40A255,5376,7.63383e-05,-2.519171e-05,-2.518976e-05,1.669889e-05,1.602029e-08,7.934925e-08,0.00010556857198730548
PART_002_R214G39B40A255,5377,7.633818e-05,-2.518953e-05,-2.519092e-05,1.735701e-05,1.434956e-09,8.711714e-08,0.00010588596312108108
PART_002_R214G39B40A255,5378,7.633831e-05,-2.51922e-05,-2.519515e-05,1.832412e-05,2.061245e-08,6.641956e-08,0.00010637705868834424
PART_002_R214G39B40A255,5379,7.633815e-05,-2.520183e-05,-2.518074e-05,1.962261e-05,1.407287e-09,2.57325e-08,0.00010706712365181311
PART_003_R247G182B210A255,5380,8.347804e-14,-2.747802e-14,-2.757334e-14,2.025231e-05,-8.283505e-09,-1.89981e-17,3.507803282479885e-05
PART_003_R247G182B210A255,5381,8.354884e-14,-2.731496e-14,-2.782674e-14,1.894419e-05,-3.487294e-09,-7.774407e-17,3.2812300144183105e-05
PART_003_R247G182B210A255,5382,8.340344e-14,-2.723516e-14,-2.746334e-14,1.796589e-05,-2.204172e-08,-9.374198e-17,3.111785770242806e-05
PART_003_R247G182B210A255,5383,8.344345e-14,-2.723863e-14,-2.764296e-14,1.729131e-05,-1.352058e-09,-8.939247e-17,2.994942754098119e-05
PART_003_R247G182B210A255,5384,8.32998e-14,-2.709985e-14,-2.744072e-14,1.690024e-05,-9.157364e-09,-6.132783e-17,2.927207863723973e-05
PART_003_R247G182B210A255,5385,8.336929e-14,-2.706863e-14,-2.761904e-14,1.677113e-05,1.726598e-16,-1.127263e-17,2.904844926034263e-05
PART_002_R214G39B40A255,5386,8.331562e-14,-2.714495e-14,-2.742668e-14,1.690024e-05,9.157364e-09,4.604471e-17,2.927207863723973e-05
PART_002_R214G39B40A255,5387,8.336973e-14,-2.714495e-14,-2.764169e-14,1.729131e-05,1.352058e-09,7.161918e-17,2.994942754098119e-05
PART_002_R214G39B40A255,5388,8.329231e-14,-2.718312e-14,-2.739308e-14,1.796589e-05,2.204172e-08,9.06554e-17,3.111785770242806e-05
PART_002_R214G39B40A255,5389,8.340073e-14,-2.720046e-14,-2.780304e-14,1.894419e-05,3.487295e-09,7.2783e-17,3.281230014418342e-05
PART_002_R214G39B40A255,5390,8.328613e-14,-2.742598e-14,-2.743749e-14,2.025231e-05,8.283505e-09,2.074723e-17,3.507803282479885e-05
PART_003_R247G182B210A255,5391,-7.633815e-05,2.520183e-05,2.518074e-05,1.962261e-05,-1.407287e-09,2.57325e-08,0.00010706712365181311
PART_003_R247G182B210A255,5392,-7.633831e-05,2.51922e-05,2.519515e-05,1.832412e-05,-2.061245e-08,6.641957e-08,0.00010637705868836297
PART_003_R247G182B210A255,5393,-7.633818e-05,2.518953e-05,2.519092e-05,1.735701e-05,-1.434956e-09,8.711715e-08,0.00010588596312110576
PART_003_R247G182B210A255,5394,-7.63383e-05,2.519171e-05,2.518976e-05,1.669889e-05,-1.602029e-08,7.934925e-08,0.00010556857198730548
PART_003_R247G182B210A255,5395,-7.633819e-05,2.518806e-05,2.5192e-05,1.631657e-05,2.757577e-10,4.673755e-08,0.00010538822226003087
PART_001_R158G218B229A255,5396,-7.63383e-05,2.51929e-05,2.518665e-05,1.61926e-05,-2.384499e-16,4.571506e-15,0.00010533067419694274
PART_001_R158G218B229A255,5397,-7.633819e-05,2.518806e-05,2.5192e-05,1.631657e-05,-2.757573e-10,-4.673754e-08,0.00010538822226001756
PART_002_R214G39B40A255,5398,-7.63383e-05,2.519171e-05,2.518976e-05,1.669889e-05,1.602029e-08,-7.934925e-08,0.00010556857198730548
PART_002_R214G39B40A255,5399,-7.633818e-05,2.518953e-05,2.519092e-05,1.735701e-05,1.434956e-09,-8.711714e-08,0.00010588596312108108
PART_002_R214G39B40A255,5400,-7.633831e-05,2.51922e-05,2.519515e-05,1.832412e-05,2.061245e-08,-6.641956e-08,0.00010637705868834424
PART_002_R214G39B40A255,5401,-7.633815e-05,2.520183e-05,2.518074e-05,1.962261e-05,1.407287e-09,-2.57325e-08,0.00010706712365181311
PART_003_R247G182B210A255,5402,-0.0001526763,5.038933e-05,5.039265e-05,1.772535e-05,-1.065818e-08,5.843596e-08,0.00020537502029008558
PART_003_R247G182B210A255,5403,-0.0001526766,5.038868e-05,5.03737e-05,1.645286e-05,8.553981e-10,1.613739e-07,0.00020504788265506455
PART_003_R247G182B210A255,5404,-0.0001526764,5.038281e-05,5.038336e-05,1.553577e-05,-2.0312e-08,2.068115e-07,0.00020483496881121746
PART_003_R247G182B210A255,5405,-0.0001526766,5.037517e-05,5.03855e-05,1.492195e-05,3.145091e-09,1.868122e-07,0.0002046954260190061
PART_001_R158G218B229A255,5406,-0.0001526764,5.038588e-05,5.037254e-05,1.457598e-05,-3.078915e-09,1.104278e-07,0.00020461914640657698
PART_001_R158G218B229A255,5407,-0.0001526766,5.038222e-05,5.037862e-05,1.446382e-05,2.603966e-16,9.441332e-15,0.00020459657780123693
PART_001_R158G218B229A255,5408,-0.0001526764,5.038588e-05,5.037254e-05,1.457598e-05,3.078915e-09,-1.104277e-07,0.00020461914640641508
PART_001_R158G218B229A255,5409,-0.0001526766,5.037517e-05,5.03855e-05,1.492195e-05,-3.14509e-09,-1.868121e-07,0.00020469542601873225
PART_002_R214G39B40A255,5410,-0.0001526764,5.038281e-05,5.038336e-05,1.553577e-05,2.0312e-08,-2.068115e-07,0.00020483496881121746
PART_002_R214G39B40A255,5411,-0.0001526766,5.038868e-05,5.03737e-05,1.645286e-05,-8.553982e-10,-1.613738e-07,0.00020504788265482844
PART_002_R214G39B40A255,5412,-0.0001526763,5.038933e-05,5.039265e-05,1.772535e-05,1.065818e-08,-5.843595e-08,0.00020537502029007704
PART_003_R247G182B210A255,5413,-0.0002290145,7.560942e-05,7.553475e-05,1.452034e-05,2.678286e-09,1.262031e-07,0.00030562323303047934
PART_003_R247G182B210A255,5414,-0.0002290149,7.557492e-05,7.558537e-05,1.331918e-05,-2.677313e-08,3.183427e-07,0.0003054679187160192
PART_003_R247G182B210A255,5415,-0.0002290145,7.556082e-05,7.557835e-05,1.249379e-05,1.061034e-08,4.060006e-07,0.0003053526555945678
PART_001_R158G218B229A255,5416,-0.0002290149,7.557903e-05,7.555947e-05,1.198339e-05,2.846015e-09,3.623452e-07,0.00030529117827457
PART_001_R158G218B229A255,5417,-0.0002290146,7.557889e-05,7.556152e-05,1.170196e-05,2.307545e-09,2.069317e-07,0.0003052586440133354
PART_001_R158G218B229A255,5418,-0.0002290149,7.558001e-05,7.555674e-05,1.161083e-05,-2.702306e-16,1.49824e-14,0.0003052464675237242
PART_001_R158G218B229A255,5419,-0.0002290146,7.557889e-05,7.556152e-05,1.170196e-05,-2.307544e-09,-2.069316e-07,0.0003052586440131319
PART_001_R158G218B229A255,5420,-0.0002290149,7.557903e-05,7.555947e-05,1.198339e-05,-2.846015e-09,-3.623452e-07,0.00030529117827457
PART_001_R158G218B229A255,5421,-0.0002290145,7.556082e-05,7.557835e-05,1.249379e-05,-1.061034e-08,-4.060005e-07,0.0003053526555941689
PART_002_R214G39B40A255,5422,-0.0002290149,7.557492e-05,7.558537e-05,1.331918e-05,2.677313e-08,-3.183427e-07,0.0003054679187160192
PART_002_R214G39B40A255,5423,-0.0002290145,7.560942e-05,7.553475e-05,1.452034e-05,-2.678286e-09,-1.262031e-07,0.00030562323303047934
PART_003_R247G182B210A255,5424,-0.0003053526,0.0001007748,0.0001008023,9.932582e-06,-2.512073e-08,2.312851e-07,0.0004065055537352667
PART_003_R247G182B210A255,5425,-0.0003053532,0.000100752,0.0001007639,8.85611e-06,2.44785e-08,6.333977e-07,0.0004064022190995717
PART_001_R158G218B229A255,5426,-0.0003053527,0.0001007727,0.0001007396,8.266723e-06,1.749897e-08,7.743663e-07,0.00040636340244373364
PART_001_R158G218B229A255,5427,-0.0003053532,0.0001007801,0.0001007415,7.924969e-06,5.141057e-09,6.407507e-07,0.00040634742435272423
PART_001_R158G218B229A255,5428,-0.0003053528,0.0001007732,0.0001007398,7.73657e-06,4.28994e-09,3.580953e-07,0.000406330792189316
PART_001_R158G218B229A255,5429,-0.0003053532,0.0001007831,0.0001007393,7.679065e-06,8.101023e-17,2.138385e-14,0.0004063321442416446
PART_001_R158G218B229A255,5430,-0.0003053528,0.0001007732,0.0001007398,7.73657e-06,-4.289941e-09,-3.580952e-07,0.00040633079218905166
PART_001_R158G218B229A255,5431,-0.0003053532,0.0001007801,0.0001007415,7.924969e-06,-5.141056e-09,-6.407507e-07,0.0004063474243527242
PART_001_R158G218B229A255,5432,-0.0003053527,0.0001007727,0.0001007396,8.266723e-06,-1.749897e-08,-7.743663e-07,0.00040636340244373364
PART_001_R158G218B229A255,5433,-0.0003053532,0.000100752,0.0001007639,8.85611e-06,-2.44785e-08,-6.333976e-07,0.0004064022190991042
PART_002_R214G39B40A255,5434,-0.0003053526,0.0001007748,0.0001008023,9.932582e-06,2.512073e-08,-2.312851e-07,0.0004065055537352667
PART_003_R247G182B210A255,5435,-0.0003816908,0.0001260333,0.0001258414,3.64805e-06,3.866269e-08,6.235006e-07,0.0005076686535935058
PART_001_R158G218B229A255,5436,-0.0003816915,0.000125961,0.0001259058,3.134924e-06,2.378633e-08,1.347969e-06,0.0005076593123241124
PART_001_R158G218B229A255,5437,-0.0003816909,0.0001259972,0.0001259026,2.938761e-06,4.663483e-09,1.37252e-06,0.0005076718910712418
PART_001_R158G218B229A255,5438,-0.0003816915,0.0001259645,0.0001259242,2.809195e-06,5.560338e-09,1.070253e-06,0.0005076625538388056
PART_001_R158G218B229A255,5439,-0.000381691,0.0001259862,0.000125916,2.747215e-06,7.856153e-10,5.776222e-07,0.0005076653897039644
PART_001_R158G218B229A255,5440,-0.0003816914,0.0001259657,0.0001259274,2.724414e-06,-3.20314e-17,2.890951e-14,0.0005076598828697224
PART_001_R158G218B229A255,5441,-0.000381691,0.0001259862,0.000125916,2.747215e-06,-7.856152e-10,-5.776221e-07,0.000507665389703623
PART_001_R158G218B229A255,5442,-0.0003816915,0.0001259645,0.0001259242,2.809195e-06,-5.560339e-09,-1.070253e-06,0.0005076625538388056
PART_001_R158G218B229A255,5443,-0.0003816909,0.0001259972,0.0001259026,2.938761e-06,-4.663483e-09,-1.37252e-06,0.0005076718910712418
PART_001_R158G218B229A255,5444,-0.0003816915,0.000125961,0.0001259058,3.134924e-06,-2.378633e-08,-1.347969e-06,0.0005076593123241124
PART_001_R158G218B229A255,5445,-0.0003816908,0.0001260333,0.0001258414,3.64805e-06,-3.866269e-08,-6.235006e-07,0.0005076686535935058
PART_003_R247G182B210A255,5446,0.0003771476,-0.0001245329,-0.0001243447,3.647996e-06,3.817314e-08,-6.234902e-07,0.0005016273890503711
PART_000_R31G119B180A255,5447,0.000377147,-0.0001244614,-0.0001244055,3.134959e-06,2.352049e-08,-1.347995e-06,0.0005016152778781818
PART_000_R31G119B180A255,5448,0.0003771475,-0.0001244972,-0.0001244051,2.938741e-06,4.596671e-09,-1.37249e-06,0.0005016301146157532
PART_000_R31G119B180A255,5449,0.0003771471,-0.0001244649,-0.0001244238,2.809215e-06,5.500914e-09,-1.070278e-06,0.0005016184761574584
PART_000_R31G119B180A255,5450,0.0003771474,-0.0001244863,-0.0001244183,2.747203e-06,7.730878e-10,-5.776085e-07,0.0005016232697728351
PART_000_R31G119B180A255,5451,0.0003771471,-0.000124466,-0.000124427,2.724431e-06,-8.648206e-19,-2.891939e-14,0.0005016157974730573
PART_000_R31G119B180A255,5452,0.0003771474,-0.0001244863,-0.0001244183,2.747203e-06,-7.730878e-10,5.776085e-07,0.0005016232697728351
PART_000_R31G119B180A255,5453,0.0003771471,-0.0001244649,-0.0001244238,2.809215e-06,-5.500914e-09,1.070277e-06,0.0005016184761510575
PART_000_R31G119B180A255,5454,0.0003771475,-0.0001244972,-0.0001244051,2.938741e-06,-4.596671e-09,1.37249e-06,0.0005016301146157532
PART_000_R31G119B180A255,5455,0.000377147,-0.0001244614,-0.0001244055,3.134959e-06,-2.352049e-08,1.347995e-06,0.0005016152778781818
PART_000_R31G119B180A255,5456,0.0003771476,-0.0001245329,-0.0001243447,3.647996e-06,-3.817314e-08,6.234902e-07,0.0005016273890503711
PART_003_R247G182B210A255,5457,0.0003017181,-9.957509e-05,-9.960356e-05,9.932625e-06,-2.481427e-08,-2.312719e-07,0.00040167621711215037
PART_003_R247G182B210A255,5458,0.0003017176,-9.955258e-05,-9.956309e-05,8.856089e-06,2.418693e-08,-6.334247e-07,0.0004015700078317435
PART_000_R31G119B180A255,5459,0.000301718,-9.957309e-05,-9.954146e-05,8.266721e-06,1.729015e-08,-7.743378e-07,0.0004015328913039095
PART_000_R31G119B180A255,5460,0.0003017176,-9.958032e-05,-9.954103e-05,7.924958e-06,5.080513e-09,-6.407735e-07,0.00040151451016386537
PART_000_R31G119B180A255,5461,0.000301718,-9.957359e-05,-9.954165e-05,7.736563e-06,4.238505e-09,-3.580827e-07,0.00040149977822686385
PART_000_R31G119B180A255,5462,0.0003017177,-9.958337e-05,-9.953891e-05,7.679055e-06,1.019599e-16,-2.13926e-14,0.00040149920619017836
PART_000_R31G119B180A255,5463,0.000301718,-9.957359e-05,-9.954165e-05,7.736563e-06,-4.238506e-09,3.580827e-07,0.0004014997782268639
PART_000_R31G119B180A255,5464,0.0003017176,-9.958032e-05,-9.954103e-05,7.924958e-06,-5.080512e-09,6.407734e-07,0.0004015145101633866
PART_000_R31G119B180A255,5465,0.000301718,-9.957309e-05,-9.954146e-05,8.266721e-06,-1.729015e-08,7.743377e-07,0.00040153289130333096
PART_000_R31G119B180A255,5466,0.0003017176,-9.955258e-05,-9.956309e-05,8.856089e-06,-2.418693e-08,6.334247e-07,0.0004015700078317435
PART_002_R214G39B40A255,5467,0.0003017181,-9.957509e-05,-9.960356e-05,9.932625e-06,2.481427e-08,2.312719e-07,0.00040167621711215037
PART_003_R247G182B210A255,5468,0.0002262886,-7.470932e-05,-7.463652e-05,1.452032e-05,2.642467e-09,-1.261968e-07,0.00030201060804571503
PART_003_R247G182B210A255,5469,0.0002262882,-7.46752e-05,-7.468461e-05,1.331919e-05,-2.64562e-08,-3.183606e-07,0.0003018514683096255
PART_003_R247G182B210A255,5470,0.0002262885,-7.466127e-05,-7.467951e-05,1.249381e-05,1.048533e-08,-4.059795e-07,0.0003017366970926693
PART_000_R31G119B180A255,5471,0.0002262882,-7.467927e-05,-7.465907e-05,1.198339e-05,2.811277e-09,-3.623625e-07,0.00030167289854157806
PART_000_R31G119B180A255,5472,0.0002262885,-7.467912e-05,-7.466284e-05,1.170198e-05,2.280528e-09,-2.06922e-07,0.0003016414200240993
PART_000_R31G119B180A255,5473,0.0002262882,-7.468024e-05,-7.465639e-05,1.161084e-05,-2.91918e-16,-1.497644e-14,0.00030162768302010825
PART_000_R31G119B180A255,5474,0.0002262885,-7.467912e-05,-7.466284e-05,1.170198e-05,-2.280527e-09,2.06922e-07,0.0003016414200240992
PART_000_R31G119B180A255,5475,0.0002262882,-7.467927e-05,-7.465907e-05,1.198339e-05,-2.811277e-09,3.623625e-07,0.00030167289854157806
PART_000_R31G119B180A255,5476,0.0002262885,-7.466127e-05,-7.467951e-05,1.249381e-05,-1.048533e-08,4.059795e-07,0.0003017366970926693
PART_002_R214G39B40A255,5477,0.0002262882,-7.46752e-05,-7.468461e-05,1.331919e-05,2.64562e-08,3.183606e-07,0.0003018514683096255
PART_002_R214G39B40A255,5478,0.0002262886,-7.470932e-05,-7.463652e-05,1.452032e-05,-2.642467e-09,1.261968e-07,0.00030201060804571503
PART_003_R247G182B210A255,5479,0.000150859,-4.978945e-05,-4.97934e-05,1.772538e-05,-1.052815e-08,-5.842947e-08,0.00020298564217045107
PART_003_R247G182B210A255,5480,0.0001508588,-4.978882e-05,-4.977339e-05,1.645284e-05,8.465963e-10,-1.61387e-07,0.00020265373825471608
PART_003_R247G182B210A255,5481,0.000150859,-4.978303e-05,-4.978416e-05,1.553576e-05,-2.007033e-08,-2.067975e-07,0.00020243927472132713
PART_003_R247G182B210A255,5482,0.0001508588,-4.977548e-05,-4.978508e-05,1.492193e-05,3.10762e-09,-1.868234e-07,0.00020229715078334983
PART_000_R31G119B180A255,5483,0.000150859,-4.978606e-05,-4.977345e-05,1.457597e-05,-3.042154e-09,-1.104215e-07,0.00020222097675072902
PART_000_R31G119B180A255,5484,0.0001508588,-4.978245e-05,-4.977829e-05,1.44638e-05,2.40299e-16,-9.441638e-15,0.0002021971342096324
PART_000_R31G119B180A255,5485,0.000150859,-4.978606e-05,-4.977345e-05,1.457597e-05,3.042154e-09,1.104215e-07,0.00020222097675072902
PART_000_R31G119B180A255,5486,0.0001508588,-4.977548e-05,-4.978508e-05,1.492193e-05,-3.10762e-09,1.868234e-07,0.00020229715078334983
PART_002_R214G39B40A255,5487,0.000150859,-4.978303e-05,-4.978416e-05,1.553576e-05,2.007033e-08,2.067975e-07,0.00020243927472132713
PART_002_R214G39B40A255,5488,0.0001508588,-4.978882e-05,-4.977339e-05,1.645284e-05,-8.465964e-10,1.61387e-07,0.00020265373825471608
PART_002_R214G39B40A255,5489,0.000150859,-4.978945e-05,-4.97934e-05,1.772538e-05,1.052815e-08,5.842946e-08,0.00020298564217044245
PART_003_R247G182B210A255,5490,7.542952e-05,-2.490181e-05,-2.488131e-05,1.96226e-05,-1.392908e-09,-2.573028e-08,0.00010592195566451935
PART_003_R247G182B210A255,5491,7.542939e-05,-2.489229e-05,-2.489489e-05,1.832412e-05,-2.036899e-08,-6.642579e-08,0.00010522373745651497
PART_003_R247G182B210A255,5492,7.54295e-05,-2.488965e-05,-2.489134e-05,1.735704e-05,-1.417174e-09,-8.710988e-08,0.0001047278601043945
PART_003_R247G182B210A255,5493,7.54294e-05,-2.489181e-05,-2.488959e-05,1.66989e-05,-1.582986e-08,-7.935519e-08,0.00010440642650157242
PART_003_R247G182B210A255,5494,7.54295e-05,-2.48882e-05,-2.489239e-05,1.631659e-05,2.726346e-10,-4.673426e-08,0.00010422457081796768
PART_000_R31G119B180A255,5495,7.542941e-05,-2.489298e-05,-2.488652e-05,1.619261e-05,-2.324299e-16,-4.576637e-15,0.00010416590493170306
PART_000_R31G119B180A255,5496,7.54295e-05,-2.48882e-05,-2.489239e-05,1.631659e-05,-2.726343e-10,4.673425e-08,0.00010422457081795422
PART_002_R214G39B40A255,5497,7.54294e-05,-2.489181e-05,-2.488959e-05,1.66989e-05,1.582985e-08,7.935518e-08,0.00010440642650154508
PART_002_R214G39B40A255,5498,7.54295e-05,-2.488965e-05,-2.489134e-05,1.735704e-05,1.417174e-09,8.710987e-08,0.00010472786010436955
PART_002_R214G39B40A255,5499,7.542939e-05,-2.489229e-05,-2.489489e-05,1.832412e-05,2.036899e-08,6.642579e-08,0.00010522373745651497
PART_002_R214G39B40A255,5500,7.542952e-05,-2.490181e-05,-2.488131e-05,1.96226e-05,1.392908e-09,2.573028e-08,0.00010592195566451935
PART_003_R247G182B210A255,5501,8.266163e-14,-2.72872e-14,-2.746936e-14,2.025234e-05,-8.182351e-09,-1.621221e-17,3.507808471509531e-05
PART_003_R247G182B210A255,5502,8.256004e-14,-2.735659e-14,-2.727748e-14,1.894417e-05,-3.444411e-09,-6.817091e-17,3.281226548957876e-05
PART_003_R247G182B210A255,5503,8.270652e-14,-2.75821e-14,-2.733851e-14,1.796587e-05,-2.177914e-08,-9.583924e-17,3.1117822506780865e-05
PART_003_R247G182B210A255,5504,8.261924e-14,-2.7707e-14,-2.711672e-14,1.729129e-05,-1.336225e-09,-8.143502e-17,2.994939289783337e-05
PART_003_R247G182B210A255,5505,8.273471e-14,-2.780068e-14,-2.733268e-14,1.690022e-05,-9.048121e-09,-7.051274e-17,2.9272043894314602e-05
PART_003_R247G182B210A255,5506,8.26419e-14,-2.785966e-14,-2.706851e-14,1.67711e-05,9.348861e-17,7.165793e-18,2.9048397298818397e-05
PART_002_R214G39B40A255,5507,8.268874e-14,-2.773823e-14,-2.733641e-14,1.690022e-05,9.048121e-09,4.224026e-17,2.9272043894314602e-05
PART_002_R214G39B40A255,5508,8.257913e-14,-2.774517e-14,-2.707324e-14,1.729129e-05,1.336225e-09,7.383501e-17,2.994939289783337e-05
PART_002_R214G39B40A255,5509,8.263583e-14,-2.759251e-14,-2.729446e-14,1.796587e-05,2.177914e-08,9.295763e-17,3.1117822506780865e-05
PART_002_R214G39B40A255,5510,8.247038e-14,-2.737741e-14,-2.722988e-14,1.894417e-05,3.444411e-09,6.86588e-17,3.281226548957876e-05
PART_002_R214G39B40A255,5511,8.255853e-14,-2.747455e-14,-2.73863e-14,2.025234e-05,8.182351e-09,1.106225e-17,3.507808471509531e-05
PART_003_R247G182B210A255,5512,-7.542952e-05,2.490181e-05,2.488131e-05,1.96226e-05,-1.392908e-09,2.573028e-08,0.00010592195566451935
PART_003_R247G182B210A255,5513,-7.542939e-05,2.489229e-05,2.489489e-05,1.832412e-05,-2.036899e-08,6.642579e-08,0.00010522373745651497
PART_003_R247G182B210A255,5514,-7.54295e-05,2.488965e-05,2.489134e-05,1.735704e-05,-1.417174e-09,8.710988e-08,0.0001047278601043945
PART_003_R247G182B210A255,5515,-7.54294e-05,2.489181e-05,2.488959e-05,1.66989e-05,-1.582986e-08,7.935519e-08,0.00010440642650157242
PART_003_R247G182B210A255,5516,-7.542949e-05,2.48882e-05,2.489239e-05,1.631659e-05,2.726347e-10,4.673426e-08,0.00010422456119261794
PART_001_R158G218B229A255,5517,-7.542941e-05,2.489298e-05,2.488652e-05,1.619261e-05,-2.032896e-16,4.562379e-15,0.00010416590493170306
PART_001_R158G218B229A255,5518,-7.542949e-05,2.48882e-05,2.489239e-05,1.631659e-05,-2.726343e-10,-4.673425e-08,0.00010422456119260448
PART_002_R214G39B40A255,5519,-7.54294e-05,2.489181e-05,2.488959e-05,1.66989e-05,1.582985e-08,-7.935518e-08,0.00010440642650154508
PART_002_R214G39B40A255,5520,-7.54295e-05,2.488965e-05,2.489134e-05,1.735704e-05,1.417174e-09,-8.710987e-08,0.00010472786010436955
PART_002_R214G39B40A255,5521,-7.542939e-05,2.489229e-05,2.489489e-05,1.832412e-05,2.036899e-08,-6.642579e-08,0.00010522373745651497
PART_002_R214G39B40A255,5522,-7.542952e-05,2.490181e-05,2.488131e-05,1.96226e-05,1.392909e-09,-2.573028e-08,0.0001059219556645194
PART_003_R247G182B210A255,5523,-0.000150859,4.978945e-05,4.97934e-05,1.772538e-05,-1.052815e-08,5.842947e-08,0.00020298564217045107
PART_003_R247G182B210A255,5524,-0.0001508588,4.978882e-05,4.977339e-05,1.645284e-05,8.465964e-10,1.61387e-07,0.00020265373825471608
PART_003_R247G182B210A255,5525,-0.000150859,4.978303e-05,4.978416e-05,1.553576e-05,-2.007033e-08,2.067975e-07,0.00020243927472132713
PART_003_R247G182B210A255,5526,-0.0001508588,4.977548e-05,4.978508e-05,1.492193e-05,3.10762e-09,1.868234e-07,0.00020229715078334983
PART_001_R158G218B229A255,5527,-0.000150859,4.978606e-05,4.977345e-05,1.457597e-05,-3.042154e-09,1.104215e-07,0.00020222097675072902
PART_001_R158G218B229A255,5528,-0.0001508588,4.978245e-05,4.977829e-05,1.44638e-05,2.365221e-16,9.462306e-15,0.0002021971342096324
PART_001_R158G218B229A255,5529,-0.000150859,4.978606e-05,4.977345e-05,1.457597e-05,3.042154e-09,-1.104215e-07,0.00020222097675072902
PART_001_R158G218B229A255,5530,-0.0001508588,4.977548e-05,4.978508e-05,1.492193e-05,-3.10762e-09,-1.868234e-07,0.00020229715078334983
PART_002_R214G39B40A255,5531,-0.000150859,4.978303e-05,4.978416e-05,1.553576e-05,2.007033e-08,-2.067975e-07,0.00020243927472132713
PART_002_R214G39B40A255,5532,-0.0001508588,4.978882e-05,4.977339e-05,1.645284e-05,-8.465965e-10,-1.61387e-07,0.00020265373825471608
PART_002_R214G39B40A255,5533,-0.000150859,4.978945e-05,4.97934e-05,1.772538e-05,1.052815e-08,-5.842946e-08,0.00020298564217044245
PART_003_R247G182B210A255,5534,-0.0002262886,7.470932e-05,7.463652e-05,1.452032e-05,2.642467e-09,1.261968e-07,0.00030201060804571503
PART_003_R247G182B210A255,5535,-0.0002262882,7.46752e-05,7.468461e-05,1.331919e-05,-2.64562e-08,3.183606e-07,0.0003018514683096255
PART_003_R247G182B210A255,5536,-0.0002262885,7.466127e-05,7.467951e-05,1.249381e-05,1.048533e-08,4.059795e-07,0.0003017366970926693
PART_001_R158G218B229A255,5537,-0.0002262882,7.467927e-05,7.465907e-05,1.198339e-05,2.811277e-09,3.623625e-07,0.00030167289854157806
PART_001_R158G218B229A255,5538,-0.0002262885,7.467912e-05,7.466284e-05,1.170198e-05,2.280528e-09,2.06922e-07,0.0003016414200240993
PART_001_R158G218B229A255,5539,-0.0002262882,7.468024e-05,7.465639e-05,1.161084e-05,-2.940839e-16,1.496967e-14,0.00030162768302010825
PART_001_R158G218B229A255,5540,-0.0002262885,7.467912e-05,7.466284e-05,1.170198e-05,-2.280527e-09,-2.06922e-07,0.0003016414200240992
PART_001_R158G218B229A255,5541,-0.0002262882,7.467927e-05,7.465907e-05,1.198339e-05,-2.811277e-09,-3.623625e-07,0.00030167289854157806
PART_001_R158G218B229A255,5542,-0.0002262885,7.466127e-05,7.467951e-05,1.249381e-05,-1.048533e-08,-4.059795e-07,0.0003017366970926693
PART_002_R214G39B40A255,5543,-0.0002262882,7.46752e-05,7.468461e-05,1.331919e-05,2.64562e-08,-3.183606e-07,0.0003018514683096255
PART_002_R214G39B40A255,5544,-0.0002262886,7.470932e-05,7.463652e-05,1.452032e-05,-2.642467e-09,-1.261968e-07,0.00030201060804571503
PART_003_R247G182B210A255,5545,-0.0003017181,9.957509e-05,9.960356e-05,9.932625e-06,-2.481427e-08,2.312719e-07,0.00040167621711215037
PART_003_R247G182B210A255,5546,-0.0003017176,9.955258e-05,9.956309e-05,8.856089e-06,2.418693e-08,6.334247e-07,0.0004015700078317435
PART_001_R158G218B229A255,5547,-0.000301718,9.957309e-05,9.954146e-05,8.266721e-06,1.729015e-08,7.743378e-07,0.0004015328913039095
PART_001_R158G218B229A255,5548,-0.0003017176,9.958032e-05,9.954103e-05,7.924958e-06,5.080513e-09,6.407735e-07,0.00040151451016386537
PART_001_R158G218B229A255,5549,-0.000301718,9.957359e-05,9.954165e-05,7.736563e-06,4.238505e-09,3.580827e-07,0.00040149977822686385
PART_001_R158G218B229A255,5550,-0.0003017177,9.958337e-05,9.953891e-05,7.679055e-06,7.591025e-17,2.13708e-14,0.00040149920619017836
PART_001_R158G218B229A255,5551,-0.000301718,9.957359e-05,9.954165e-05,7.736563e-06,-4.238506e-09,-3.580827e-07,0.0004014997782268639
PART_001_R158G218B229A255,5552,-0.0003017176,9.958032e-05,9.954103e-05,7.924958e-06,-5.080512e-09,-6.407734e-07,0.0004015145101633866
PART_001_R158G218B229A255,5553,-0.000301718,9.957309e-05,9.954146e-05,8.266721e-06,-1.729015e-08,-7.743377e-07,0.00040153289130333096
PART_001_R158G218B229A255,5554,-0.0003017176,9.955258e-05,9.956309e-05,8.856089e-06,-2.418693e-08,-6.334247e-07,0.0004015700078317435
PART_002_R214G39B40A255,5555,-0.0003017181,9.957509e-05,9.960356e-05,9.932625e-06,2.481427e-08,-2.312719e-07,0.00040167621711215037
PART_003_R247G182B210A255,5556,-0.0003771476,0.0001245329,0.0001243447,3.647996e-06,3.817314e-08,6.234902e-07,0.0005016273890503711
PART_001_R158G218B229A255,5557,-0.000377147,0.0001244614,0.0001244055,3.134959e-06,2.352049e-08,1.347995e-06,0.0005016152778781818
PART_001_R158G218B229A255,5558,-0.0003771475,0.0001244972,0.0001244051,2.938741e-06,4.596671e-09,1.37249e-06,0.0005016301146157532
PART_001_R158G218B229A255,5559,-0.0003771471,0.0001244649,0.0001244238,2.809215e-06,5.500914e-09,1.070278e-06,0.0005016184761574584
PART_001_R158G218B229A255,5560,-0.0003771474,0.0001244863,0.0001244183,2.747203e-06,7.730879e-10,5.776085e-07,0.0005016232697728351
PART_001_R158G218B229A255,5561,-0.0003771471,0.000124466,0.000124427,2.724431e-06,-5.866042e-17,2.890854e-14,0.0005016157974730573
PART_001_R158G218B229A255,5562,-0.0003771474,0.0001244863,0.0001244183,2.747203e-06,-7.730878e-10,-5.776085e-07,0.0005016232697728351
PART_001_R158G218B229A255,5563,-0.0003771471,0.0001244649,0.0001244238,2.809215e-06,-5.500914e-09,-1.070277e-06,0.0005016184761510575
PART_001_R158G218B229A255,5564,-0.0003771475,0.0001244972,0.0001244051,2.938741e-06,-4.596671e-09,-1.37249e-06,0.0005016301146157532
PART_001_R158G218B229A255,5565,-0.000377147,0.0001244614,0.0001244055,3.134959e-06,-2.352049e-08,-1.347995e-06,0.0005016152778781818
PART_001_R158G218B229A255,5566,-0.0003771476,0.0001245329,0.0001243447,3.647996e-06,-3.817314e-08,-6.234902e-07,0.0005016273890503711
PART_003_R247G182B210A255,5567,0.0003726031,-0.0001230325,-0.0001228454,3.64804e-06,3.773709e-08,-6.234986e-07,0.0004955835395615064
PART_000_R31G119B180A255,5568,0.0003726035,-0.0001229619,-0.0001229078,3.13493e-06,2.322298e-08,-1.347974e-06,0.0004955736015909032
PART_000_R31G119B180A255,5569,0.0003726031,-0.0001229972,-0.0001229051,2.938758e-06,4.550508e-09,-1.372514e-06,0.0004955860988736263
PART_000_R31G119B180A255,5570,0.0003726035,-0.0001229653,-0.0001229258,2.809199e-06,5.42913e-09,-1.070258e-06,0.0004955764051769826
PART_000_R31G119B180A255,5571,0.0003726032,-0.0001229865,-0.0001229183,2.747212e-06,7.663679e-10,-5.776197e-07,0.0004955794574398987
PART_000_R31G119B180A255,5572,0.0003726035,-0.0001229665,-0.0001229289,2.724417e-06,-4.592697e-17,-2.890379e-14,0.0004955736678090651
PART_000_R31G119B180A255,5573,0.0003726032,-0.0001229865,-0.0001229183,2.747212e-06,-7.663678e-10,5.776196e-07,0.000495579457439549
PART_000_R31G119B180A255,5574,0.0003726035,-0.0001229653,-0.0001229258,2.809199e-06,-5.429131e-09,1.070257e-06,0.0004955764051705038
PART_000_R31G119B180A255,5575,0.0003726031,-0.0001229972,-0.0001229051,2.938758e-06,-4.550508e-09,1.372514e-06,0.0004955860988736263
PART_000_R31G119B180A255,5576,0.0003726035,-0.0001229619,-0.0001229078,3.13493e-06,-2.322298e-08,1.347974e-06,0.0004955736015909032
PART_000_R31G119B180A255,5577,0.0003726031,-0.0001230325,-0.0001228454,3.64804e-06,-3.773709e-08,6.234986e-07,0.0004955835395615064
PART_003_R247G182B210A255,5578,0.0002980824,-9.837541e-05,-9.840248e-05,9.93259e-06,-2.452132e-08,-2.312827e-07,0.0003968446286230536
PART_003_R247G182B210A255,5579,0.0002980828,-9.835314e-05,-9.836452e-05,8.856106e-06,2.389569e-08,-6.334025e-07,0.00039673979286659406
PART_000_R31G119B180A255,5580,0.0002980825,-9.837339e-05,-9.834123e-05,8.266722e-06,1.708228e-08,-7.74361e-07,0.0003967005666579
PART_000_R31G119B180A255,5581,0.0002980828,-9.838055e-05,-9.834266e-05,7.924967e-06,5.018794e-09,-6.407548e-07,0.0003966835192116033
PART_000_R31G119B180A255,5582,0.0002980825,-9.837389e-05,-9.834145e-05,7.736568e-06,4.187754e-09,-3.580929e-07,0.0003966670611184358
PART_000_R31G119B180A255,5583,0.0002980828,-9.838355e-05,-9.834055e-05,7.679063e-06,9.478807e-17,-2.138272e-14,0.0003966679020338631
PART_000_R31G119B180A255,5584,0.0002980825,-9.837389e-05,-9.834145e-05,7.736568e-06,-4.187755e-09,3.580929e-07,0.00039666706111843585
PART_000_R31G119B180A255,5585,0.0002980828,-9.838055e-05,-9.834266e-05,7.924967e-06,-5.018793e-09,6.407548e-07,0.00039668351921160323
PART_000_R31G119B180A255,5586,0.0002980825,-9.837339e-05,-9.834123e-05,8.266722e-06,-1.708228e-08,7.74361e-07,0.0003967005666579
PART_000_R31G119B180A255,5587,0.0002980828,-9.835314e-05,-9.836452e-05,8.856106e-06,-2.389569e-08,6.334025e-07,0.00039673979286659406
PART_002_R214G39B40A255,5588,0.0002980824,-9.837541e-05,-9.840248e-05,9.93259e-06,2.452132e-08,2.312827e-07,0.0003968446286230536
PART_003_R247G182B210A255,5589,0.0002235618,-7.380919e-05,-7.373647e-05,1.452034e-05,2.613839e-09,-1.262019e-07,0.0002983964724754427
PART_003_R247G182B210A255,5590,0.0002235621,-7.377551e-05,-7.378556e-05,1.331918e-05,-2.613594e-08,-3.183459e-07,0.00029823673552014095
PART_003_R247G182B210A255,5591,0.0002235619,-7.376175e-05,-7.377902e-05,1.249379e-05,1.035799e-08,-4.059967e-07,0.0002981195517146239
PART_000_R31G119B180A255,5592,0.0002235621,-7.377953e-05,-7.376029e-05,1.198339e-05,2.778149e-09,-3.623483e-07,0.0002980562417866391
PART_000_R31G119B180A255,5593,0.0002235619,-7.377938e-05,-7.376258e-05,1.170197e-05,2.252707e-09,-2.069299e-07,0.000298023117428148
PART_000_R31G119B180A255,5594,0.0002235621,-7.378049e-05,-7.375762e-05,1.161083e-05,-3.105401e-16,-1.496973e-14,0.0002980104868050425
PART_000_R31G119B180A255,5595,0.0002235619,-7.377938e-05,-7.376258e-05,1.170197e-05,-2.252706e-09,2.069299e-07,0.000298023117428148
PART_000_R31G119B180A255,5596,0.0002235621,-7.377953e-05,-7.376029e-05,1.198339e-05,-2.778149e-09,3.623483e-07,0.0002980562417866391
PART_000_R31G119B180A255,5597,0.0002235619,-7.376175e-05,-7.377902e-05,1.249379e-05,-1.035799e-08,4.059967e-07,0.0002981195517146239
PART_002_R214G39B40A255,5598,0.0002235621,-7.377551e-05,-7.378556e-05,1.331918e-05,2.613594e-08,3.183459e-07,0.00029823673552014095
PART_002_R214G39B40A255,5599,0.0002235618,-7.380919e-05,-7.373647e-05,1.452034e-05,-2.613839e-09,1.262019e-07,0.0002983964724754427
PART_003_R247G182B210A255,5600,0.0001490412,-4.918958e-05,-4.919294e-05,1.772535e-05,-1.040383e-08,-5.843477e-08,0.0002005958196787071
PART_003_R247G182B210A255,5601,0.0001490414,-4.918895e-05,-4.917422e-05,1.645286e-05,8.35335e-10,-1.613762e-07,0.0002002611292300776
PART_003_R247G182B210A255,5602,0.0001490412,-4.918323e-05,-4.918386e-05,1.553577e-05,-1.982834e-08,-2.06809e-07,0.00020004314401765445
PART_003_R247G182B210A255,5603,0.0001490414,-4.917576e-05,-4.918575e-05,1.492194e-05,3.070259e-09,-1.868142e-07,0.00019990027617464748
PART_000_R31G119B180A255,5604,0.0001490413,-4.918622e-05,-4.91733e-05,1.457598e-05,-3.005559e-09,-1.104266e-07,0.00019982242852293063
PART_000_R31G119B180A255,5605,0.0001490414,-4.918265e-05,-4.917903e-05,1.446382e-05,2.002699e-16,-9.433206e-15,0.00019979905582215123
PART_000_R31G119B180A255,5606,0.0001490413,-4.918622e-05,-4.91733e-05,1.457598e-05,3.005559e-09,1.104266e-07,0.00019982242852293063
PART_000_R31G119B180A255,5607,0.0001490414,-4.917576e-05,-4.918575e-05,1.492194e-05,-3.070258e-09,1.868142e-07,0.00019990027617464742
PART_002_R214G39B40A255,5608,0.0001490412,-4.918323e-05,-4.918386e-05,1.553577e-05,1.982834e-08,2.068089e-07,0.0002000431440173443
PART_002_R214G39B40A255,5609,0.0001490414,-4.918895e-05,-4.917422e-05,1.645286e-05,-8.353352e-10,1.613762e-07,0.0002002611292300776
PART_002_R214G39B40A255,5610,0.0001490412,-4.918958e-05,-4.919294e-05,1.772535e-05,1.040383e-08,5.843477e-08,0.0002005958196787071
PART_003_R247G182B210A255,5611,7.452061e-05,-2.460179e-05,-2.458126e-05,1.962261e-05,-1.374182e-09,-2.573208e-08,0.00010477766022435391
PART_003_R247G182B210A255,5612,7.452071e-05,-2.459238e-05,-2.459521e-05,1.832412e-05,-2.012195e-08,-6.642068e-08,0.00010407218494162458
PART_003_R247G182B210A255,5613,7.452062e-05,-2.458978e-05,-2.459119e-05,1.735702e-05,-1.400598e-09,-8.71158e-08,0.00010357042212439879
PART_003_R247G182B210A255,5614,7.45207e-05,-2.459191e-05,-2.458996e-05,1.66989e-05,-1.563884e-08,-7.935032e-08,0.00010324580186135853
PART_003_R247G182B210A255,5615,7.452063e-05,-2.458834e-05,-2.459224e-05,1.631657e-05,2.692535e-10,-4.673694e-08,0.00010306149813383645
PART_000_R31G119B180A255,5616,7.45207e-05,-2.459307e-05,-2.458692e-05,1.61926e-05,-2.470605e-16,-4.562198e-15,0.00010300257655044316
PART_000_R31G119B180A255,5617,7.452063e-05,-2.458834e-05,-2.459224e-05,1.631657e-05,-2.692531e-10,4.673693e-08,0.00010306149813382284
PART_002_R214G39B40A255,5618,7.45207e-05,-2.459191e-05,-2.458996e-05,1.66989e-05,1.563884e-08,7.935031e-08,0.00010324580186133547
PART_002_R214G39B40A255,5619,7.452062e-05,-2.458978e-05,-2.459119e-05,1.735702e-05,1.400598e-09,8.711579e-08,0.00010357042212437354
PART_002_R214G39B40A255,5620,7.452071e-05,-2.459238e-05,-2.459521e-05,1.832412e-05,2.012195e-08,6.642067e-08,0.00010407218494160544
PART_002_R214G39B40A255,5621,7.452061e-05,-2.460179e-05,-2.458126e-05,1.962261e-05,1.374182e-09,2.573208e-08,0.00010477766022435391
PART_003_R247G182B210A255,5622,8.146999e-14,-2.681882e-14,-2.681904e-14,2.025232e-05,-8.085795e-09,-3.078372e-17,3.507805000691233e-05
PART_003_R247G182B210A255,5623,8.15538e-14,-2.655168e-14,-2.722625e-14,1.894418e-05,-3.403952e-09,-6.883244e-17,3.281228279742005e-05
PART_003_R247G182B210A255,5624,8.134986e-14,-2.646494e-14,-2.673851e-14,1.796588e-05,-2.151681e-08,-9.755448e-17,3.1117839279785115e-05
PART_003_R247G182B210A255,5625,8.140071e-14,-2.627412e-14,-2.705048e-14,1.729131e-05,-1.319847e-09,-9.748206e-17,2.9949427536670682e-05
PART_003_R247G182B210A255,5626,8.124122e-14,-2.615963e-14,-2.674692e-14,1.690023e-05,-8.939257e-09,-4.272e-17,2.9272061114476503e-05
PART_003_R247G182B210A255,5627,8.132264e-14,-2.61631e-14,-2.701252e-14,1.677112e-05,1.19178e-16,3.59989e-21,2.9048431939834554e-05
PART_002_R214G39B40A255,5628,8.120989e-14,-2.614228e-14,-2.67441e-14,1.690023e-05,8.939257e-09,4.030649e-17,2.9272061114476503e-05
PART_002_R214G39B40A255,5629,8.129998e-14,-2.625677e-14,-2.700492e-14,1.729131e-05,1.319847e-09,8.70013e-17,2.9949427536670682e-05
PART_002_R214G39B40A255,5630,8.120349e-14,-2.630188e-14,-2.669744e-14,1.796588e-05,2.151681e-08,9.165744e-17,3.1117839279785115e-05
PART_002_R214G39B40A255,5631,8.136254e-14,-2.630535e-14,-2.71785e-14,1.894418e-05,3.403952e-09,7.341827e-17,3.281228279742005e-05
PART_002_R214G39B40A255,5632,8.123168e-14,-2.660372e-14,-2.676526e-14,2.025232e-05,8.085795e-09,3.202123e-17,3.507805000691233e-05
PART_003_R247G182B210A255,5633,-7.452061e-05,2.460179e-05,2.458126e-05,1.962261e-05,-1.374183e-09,2.573208e-08,0.00010477766022435394
PART_003_R247G182B210A255,5634,-7.452071e-05,2.459238e-05,2.459521e-05,1.832412e-05,-2.012195e-08,6.642068e-08,0.00010407218494162458
PART_003_R247G182B210A255,5635,-7.452062e-05,2.458978e-05,2.459119e-05,1.735702e-05,-1.400598e-09,8.71158e-08,0.00010357042212439879
PART_003_R247G182B210A255,5636,-7.45207e-05,2.459191e-05,2.458996e-05,1.66989e-05,-1.563884e-08,7.935032e-08,0.00010324580186135853
PART_003_R247G182B210A255,5637,-7.452063e-05,2.458834e-05,2.459224e-05,1.631657e-05,2.692534e-10,4.673694e-08,0.00010306149813383645
PART_001_R158G218B229A255,5638,-7.45207e-05,2.459307e-05,2.458692e-05,1.61926e-05,-2.21674e-16,4.575336e-15,0.00010300257655044316
PART_001_R158G218B229A255,5639,-7.452063e-05,2.458834e-05,2.459224e-05,1.631657e-05,-2.692532e-10,-4.673693e-08,0.00010306149813382284
PART_002_R214G39B40A255,5640,-7.45207e-05,2.459191e-05,2.458996e-05,1.66989e-05,1.563884e-08,-7.935031e-08,0.00010324580186133547
PART_002_R214G39B40A255,5641,-7.452062e-05,2.458978e-05,2.459119e-05,1.735702e-05,1.400598e-09,-8.711579e-08,0.00010357042212437354
PART_002_R214G39B40A255,5642,-7.452071e-05,2.459238e-05,2.459521e-05,1.832412e-05,2.012195e-08,-6.642067e-08,0.00010407218494160544
PART_002_R214G39B40A255,5643,-7.452061e-05,2.460179e-05,2.458126e-05,1.962261e-05,1.374182e-09,-2.573208e-08,0.00010477766022435391
PART_003_R247G182B210A255,5644,-0.0001490412,4.918958e-05,4.919294e-05,1.772535e-05,-1.040383e-08,5.843477e-08,0.0002005958196787071
PART_003_R247G182B210A255,5645,-0.0001490414,4.918895e-05,4.917422e-05,1.645286e-05,8.353351e-10,1.613762e-07,0.0002002611292300776
PART_003_R247G182B210A255,5646,-0.0001490412,4.918323e-05,4.918386e-05,1.553577e-05,-1.982834e-08,2.06809e-07,0.00020004314401765445
PART_003_R247G182B210A255,5647,-0.0001490414,4.917576e-05,4.918575e-05,1.492194e-05,3.070259e-09,1.868142e-07,0.00019990027617464748
PART_001_R158G218B229A255,5648,-0.0001490413,4.918622e-05,4.91733e-05,1.457598e-05,-3.005559e-09,1.104266e-07,0.00019982242852293063
PART_001_R158G218B229A255,5649,-0.0001490414,4.918265e-05,4.917903e-05,1.446382e-05,1.82384e-16,9.428468e-15,0.00019979905582215123
PART_001_R158G218B229A255,5650,-0.0001490413,4.918622e-05,4.91733e-05,1.457598e-05,3.005559e-09,-1.104266e-07,0.00019982242852293063
PART_001_R158G218B229A255,5651,-0.0001490414,4.917576e-05,4.918575e-05,1.492194e-05,-3.070258e-09,-1.868142e-07,0.00019990027617464742
PART_002_R214G39B40A255,5652,-0.0001490412,4.918323e-05,4.918386e-05,1.553577e-05,1.982834e-08,-2.068089e-07,0.0002000431440173443
PART_002_R214G39B40A255,5653,-0.0001490414,4.918895e-05,4.917422e-05,1.645286e-05,-8.353353e-10,-1.613762e-07,0.00020026112923007762
PART_002_R214G39B40A255,5654,-0.0001490412,4.918958e-05,4.919294e-05,1.772535e-05,1.040383e-08,-5.843477e-08,0.0002005958196787071
PART_003_R247G182B210A255,5655,-0.0002235618,7.380919e-05,7.373647e-05,1.452034e-05,2.613839e-09,1.262019e-07,0.0002983964724754427
PART_003_R247G182B210A255,5656,-0.0002235621,7.377551e-05,7.378556e-05,1.331918e-05,-2.613594e-08,3.183459e-07,0.00029823673552014095
PART_003_R247G182B210A255,5657,-0.0002235619,7.376175e-05,7.377902e-05,1.249379e-05,1.035799e-08,4.059967e-07,0.0002981195517146239
PART_001_R158G218B229A255,5658,-0.0002235621,7.377953e-05,7.376029e-05,1.198339e-05,2.778149e-09,3.623483e-07,0.0002980562417866391
PART_001_R158G218B229A255,5659,-0.0002235619,7.377938e-05,7.376258e-05,1.170197e-05,2.252707e-09,2.069299e-07,0.000298023117428148
PART_001_R158G218B229A255,5660,-0.0002235621,7.378049e-05,7.375762e-05,1.161083e-05,-2.748139e-16,1.495681e-14,0.0002980104868050425
PART_001_R158G218B229A255,5661,-0.0002235619,7.377938e-05,7.376258e-05,1.170197e-05,-2.252706e-09,-2.069299e-07,0.000298023117428148
PART_001_R158G218B229A255,5662,-0.0002235621,7.377953e-05,7.376029e-05,1.198339e-05,-2.778149e-09,-3.623483e-07,0.0002980562417866391
PART_001_R158G218B229A255,5663,-0.0002235619,7.376175e-05,7.377902e-05,1.249379e-05,-1.035799e-08,-4.059967e-07,0.0002981195517146239
PART_002_R214G39B40A255,5664,-0.0002235621,7.377551e-05,7.378556e-05,1.331918e-05,2.613594e-08,-3.183459e-07,0.00029823673552014095
PART_002_R214G39B40A255,5665,-0.0002235618,7.380919e-05,7.373647e-05,1.452034e-05,-2.61384e-09,-1.262019e-07,0.0002983964724754427
PART_003_R247G182B210A255,5666,-0.0002980824,9.837541e-05,9.840248e-05,9.93259e-06,-2.452132e-08,2.312827e-07,0.0003968446286230536
PART_003_R247G182B210A255,5667,-0.0002980828,9.835314e-05,9.836452e-05,8.856106e-06,2.389569e-08,6.334025e-07,0.00039673979286659406
PART_001_R158G218B229A255,5668,-0.0002980825,9.837339e-05,9.834123e-05,8.266722e-06,1.708228e-08,7.74361e-07,0.0003967005666579
PART_001_R158G218B229A255,5669,-0.0002980828,9.838055e-05,9.834266e-05,7.924967e-06,5.018794e-09,6.407548e-07,0.0003966835192116033
PART_001_R158G218B229A255,5670,-0.0002980825,9.837389e-05,9.834145e-05,7.736568e-06,4.187754e-09,3.580929e-07,0.0003966670611184358
PART_001_R158G218B229A255,5671,-0.0002980828,9.838355e-05,9.834055e-05,7.679063e-06,6.69173e-17,2.13472e-14,0.0003966679020338631
PART_001_R158G218B229A255,5672,-0.0002980825,9.837389e-05,9.834145e-05,7.736568e-06,-4.187755e-09,-3.580929e-07,0.00039666706111843585
PART_001_R158G218B229A255,5673,-0.0002980828,9.838055e-05,9.834266e-05,7.924967e-06,-5.018793e-09,-6.407548e-07,0.00039668351921160323
PART_001_R158G218B229A255,5674,-0.0002980825,9.837339e-05,9.834123e-05,8.266722e-06,-1.708228e-08,-7.74361e-07,0.0003967005666579
PART_001_R158G218B229A255,5675,-0.0002980828,9.835314e-05,9.836452e-05,8.856106e-06,-2.389569e-08,-6.334025e-07,0.00039673979286659406
PART_002_R214G39B40A255,5676,-0.0002980824,9.837541e-05,9.840248e-05,9.93259e-06,2.452132e-08,-2.312827e-07,0.0003968446286230536
PART_003_R247G182B210A255,5677,-0.0003726031,0.0001230325,0.0001228454,3.64804e-06,3.773709e-08,6.234986e-07,0.0004955835395615064
PART_001_R158G218B229A255,5678,-0.0003726035,0.0001229619,0.0001229078,3.13493e-06,2.322298e-08,1.347974e-06,0.0004955736015909032
PART_001_R158G218B229A255,5679,-0.0003726031,0.0001229972,0.0001229051,2.938758e-06,4.550508e-09,1.372514e-06,0.0004955860988736263
PART_001_R158G218B229A255,5680,-0.0003726035,0.0001229653,0.0001229258,2.809199e-06,5.429131e-09,1.070258e-06,0.0004955764051769826
PART_001_R158G218B229A255,5681,-0.0003726032,0.0001229865,0.0001229183,2.747212e-06,7.663679e-10,5.776197e-07,0.0004955794574398987
PART_001_R158G218B229A255,5682,-0.0003726035,0.0001229665,0.0001229289,2.724417e-06,-2.543301e-17,2.887506e-14,0.0004955736678090651
PART_001_R158G218B229A255,5683,-0.0003726032,0.0001229865,0.0001229183,2.747212e-06,-7.663679e-10,-5.776196e-07,0.000495579457439549
PART_001_R158G218B229A255,5684,-0.0003726035,0.0001229653,0.0001229258,2.809199e-06,-5.429131e-09,-1.070257e-06,0.0004955764051705038
PART_001_R158G218B229A255,5685,-0.0003726031,0.0001229972,0.0001229051,2.938758e-06,-4.550508e-09,-1.372514e-06,0.0004955860988736263
PART_001_R158G218B229A255,5686,-0.0003726035,0.0001229619,0.0001229078,3.13493e-06,-2.322298e-08,-1.347974e-06,0.0004955736015909032
PART_001_R158G218B229A255,5687,-0.0003726031,0.0001230325,0.0001228454,3.64804e-06,-3.773709e-08,-6.234986e-07,0.0004955835395615064
PART_003_R247G182B210A255,5688,0.0003680596,-0.0001215321,-0.0001213483,3.648004e-06,3.725742e-08,-6.234918e-07,0.0004895417997748936
PART_000_R31G119B180A255,5689,0.0003680592,-0.0001214623,-0.000121408,3.134954e-06,2.29513e-08,-1.347991e-06,0.0004895300374058074
PART_000_R31G119B180A255,5690,0.0003680595,-0.0001214972,-0.0001214072,2.938744e-06,4.487507e-09,-1.372494e-06,0.0004895439412765068
PART_000_R31G119B180A255,5691,0.0003680592,-0.0001214658,-0.0001214258,2.809212e-06,5.36742e-09,-1.070274e-06,0.0004895326932768798
PART_000_R31G119B180A255,5692,0.0003680595,-0.0001214867,-0.0001214201,2.747204e-06,7.549116e-10,-5.776106e-07,0.0004895370515969739
PART_000_R31G119B180A255,5693,0.0003680593,-0.0001214669,-0.0001214289,2.724428e-06,-1.615292e-17,-2.889799e-14,0.0004895299454156216
PART_000_R31G119B180A255,5694,0.0003680595,-0.0001214867,-0.0001214201,2.747204e-06,-7.549117e-10,5.776105e-07,0.00048953705159662
PART_000_R31G119B180A255,5695,0.0003680592,-0.0001214658,-0.0001214258,2.809212e-06,-5.36742e-09,1.070274e-06,0.0004895326932768798
PART_000_R31G119B180A255,5696,0.0003680595,-0.0001214972,-0.0001214072,2.938744e-06,-4.487506e-09,1.372494e-06,0.0004895439412765068
PART_000_R31G119B180A255,5697,0.0003680592,-0.0001214623,-0.000121408,3.134954e-06,-2.29513e-08,1.347991e-06,0.0004895300374058074
PART_000_R31G119B180A255,5698,0.0003680596,-0.0001215321,-0.0001213483,3.648004e-06,-3.725742e-08,6.234918e-07,0.0004895417997748936
PART_003_R247G182B210A255,5699,0.0002944477,-9.717569e-05,-9.72033e-05,9.932619e-06,-2.421737e-08,-2.312738e-07,0.0003920150839724848
PART_003_R247G182B210A255,5700,0.0002944474,-9.715372e-05,-9.716415e-05,8.856092e-06,2.360416e-08,-6.334206e-07,0.00039190817563135484
PART_000_R31G119B180A255,5701,0.0002944476,-9.717373e-05,-9.714271e-05,8.266721e-06,1.687362e-08,-7.74342e-07,0.0003918697930162317
PART_000_R31G119B180A255,5702,0.0002944474,-9.718079e-05,-9.714261e-05,7.92496e-06,4.958026e-09,-6.4077e-07,0.00039185116447628917
PART_000_R31G119B180A255,5703,0.0002944476,-9.717422e-05,-9.71429e-05,7.736564e-06,4.136439e-09,-3.580846e-07,0.0003918358499146082
PART_000_R31G119B180A255,5704,0.0002944474,-9.718376e-05,-9.714053e-05,7.679057e-06,1.240988e-17,-2.135658e-14,0.0003918353492041772
PART_000_R31G119B180A255,5705,0.0002944476,-9.717422e-05,-9.71429e-05,7.736564e-06,-4.136439e-09,3.580845e-07,0.00039183584991433405
PART_000_R31G119B180A255,5706,0.0002944474,-9.718079e-05,-9.714261e-05,7.92496e-06,-4.958025e-09,6.4077e-07,0.00039185116447628917
PART_000_R31G119B180A255,5707,0.0002944476,-9.717373e-05,-9.714271e-05,8.266721e-06,-1.687362e-08,7.743419e-07,0.00039186979301563887
PART_000_R31G119B180A255,5708,0.0002944474,-9.715372e-05,-9.716415e-05,8.856092e-06,-2.360416e-08,6.334206e-07,0.00039190817563135484
PART_002_R214G39B40A255,5709,0.0002944477,-9.717569e-05,-9.72033e-05,9.932619e-06,2.421737e-08,2.312738e-07,0.0003920150839724848
PART_003_R247G182B210A255,5710,0.0002208358,-7.290909e-05,-7.283791e-05,1.452033e-05,2.57937e-09,-1.261977e-07,0.0002947841998036851
PART_003_R247G182B210A255,5711,0.0002208355,-7.28758e-05,-7.288511e-05,1.331918e-05,-2.581841e-08,-3.183579e-07,0.00029462106172033025
PART_003_R247G182B210A255,5712,0.0002208357,-7.286221e-05,-7.287988e-05,1.249381e-05,1.023254e-08,-4.059826e-07,0.0002945037061521368
PART_000_R31G119B180A255,5713,0.0002208355,-7.287977e-05,-7.286018e-05,1.198339e-05,2.743695e-09,-3.623599e-07,0.0002944386271825641
PART_000_R31G119B180A255,5714,0.0002208357,-7.287963e-05,-7.286362e-05,1.170198e-05,2.225535e-09,-2.069234e-07,0.00029440606383937865
PART_000_R31G119B180A255,5715,0.0002208355,-7.288071e-05,-7.285756e-05,1.161084e-05,-3.248253e-16,-1.49846e-14,0.0002943923365832438
PART_000_R31G119B180A255,5716,0.0002208357,-7.287963e-05,-7.286362e-05,1.170198e-05,-2.225534e-09,2.069234e-07,0.00029440606383937865
PART_000_R31G119B180A255,5717,0.0002208355,-7.287977e-05,-7.286018e-05,1.198339e-05,-2.743696e-09,3.623599e-07,0.00029443862718256413
PART_000_R31G119B180A255,5718,0.0002208357,-7.286221e-05,-7.287988e-05,1.249381e-05,-1.023254e-08,4.059826e-07,0.0002945037061521368
PART_002_R214G39B40A255,5719,0.0002208355,-7.28758e-05,-7.288511e-05,1.331918e-05,2.581841e-08,3.183578e-07,0.00029462106172000607
PART_002_R214G39B40A255,5720,0.0002208358,-7.290909e-05,-7.283791e-05,1.452033e-05,-2.579371e-09,1.261977e-07,0.0002947841998036851
PART_003_R247G182B210A255,5721,0.0001472238,-4.85897e-05,-4.859347e-05,1.772537e-05,-1.027489e-08,-5.843041e-08,0.0001982075725024832
PART_003_R247G182B210A255,5722,0.0001472237,-4.858909e-05,-4.857411e-05,1.645285e-05,8.260474e-10,-1.61385e-07,0.0001978683467186188
PART_003_R247G182B210A255,5723,0.0001472238,-4.858344e-05,-4.858446e-05,1.553576e-05,-1.958663e-08,-2.067996e-07,0.00019764838457803674
PART_003_R247G182B210A255,5724,0.0001472237,-4.857607e-05,-4.858552e-05,1.492193e-05,3.03279e-09,-1.868217e-07,0.00019750315705981215
PART_000_R31G119B180A255,5725,0.0001472238,-4.85864e-05,-4.857401e-05,1.457597e-05,-2.968836e-09,-1.104224e-07,0.00019742497764786002
PART_000_R31G119B180A255,5726,0.0001472237,-4.858287e-05,-4.857889e-05,1.446381e-05,2.141918e-16,-9.432483e-15,0.00019740070658436106
PART_000_R31G119B180A255,5727,0.0001472238,-4.85864e-05,-4.857401e-05,1.457597e-05,2.968836e-09,1.104224e-07,0.00019742497764786002
PART_000_R31G119B180A255,5728,0.0001472237,-4.857607e-05,-4.858552e-05,1.492193e-05,-3.03279e-09,1.868217e-07,0.00019750315705981215
PART_002_R214G39B40A255,5729,0.0001472238,-4.858344e-05,-4.858446e-05,1.553576e-05,1.958663e-08,2.067996e-07,0.00019764838457803674
PART_002_R214G39B40A255,5730,0.0001472237,-4.858909e-05,-4.857411e-05,1.645285e-05,-8.260475e-10,1.61385e-07,0.0001978683467186188
PART_002_R214G39B40A255,5731,0.0001472238,-4.85897e-05,-4.859347e-05,1.772537e-05,1.027489e-08,5.84304e-08,0.00019820757250247438
PART_003_R247G182B210A255,5732,7.361192e-05,-2.430177e-05,-2.428171e-05,1.962261e-05,-1.358975e-09,-2.57306e-08,0.0001036352710449795
PART_003_R247G182B210A255,5733,7.361184e-05,-2.429247e-05,-2.429506e-05,1.832412e-05,-1.987784e-08,-6.642484e-08,0.00010292153340741662
PART_003_R247G182B210A255,5734,7.361191e-05,-2.42899e-05,-2.42915e-05,1.735703e-05,-1.383056e-09,-8.711094e-08,0.00010241456580331205
PART_003_R247G182B210A255,5735,7.361184e-05,-2.429201e-05,-2.428988e-05,1.66989e-05,-1.544832e-08,-7.935429e-08,0.00010208591825051434
PART_003_R247G182B210A255,5736,7.36119e-05,-2.428848e-05,-2.429253e-05,1.631658e-05,2.660742e-10,-4.673474e-08,0.0001018998519056591
PART_000_R31G119B180A255,5737,7.361185e-05,-2.429315e-05,-2.428688e-05,1.619261e-05,-2.158651e-16,-4.572976e-15,0.00010183995805085154
PART_000_R31G119B180A255,5738,7.36119e-05,-2.428848e-05,-2.429253e-05,1.631658e-05,-2.66074e-10,4.673473e-08,0.00010189985190564535
PART_002_R214G39B40A255,5739,7.361184e-05,-2.429201e-05,-2.428988e-05,1.66989e-05,1.544832e-08,7.935428e-08,0.00010208591825049102
PART_002_R214G39B40A255,5740,7.361191e-05,-2.42899e-05,-2.42915e-05,1.735703e-05,1.383056e-09,8.711093e-08,0.00010241456580328653
PART_002_R214G39B40A255,5741,7.361184e-05,-2.429247e-05,-2.429506e-05,1.832412e-05,1.987784e-08,6.642484e-08,0.00010292153340741662
PART_002_R214G39B40A255,5742,7.361192e-05,-2.430177e-05,-2.428171e-05,1.962261e-05,1.358975e-09,2.57306e-08,0.0001036352710449795
PART_003_R247G182B210A255,5743,8.073913e-14,-2.668699e-14,-2.684222e-14,2.025233e-05,-7.985531e-09,-5.005965e-19,3.507806725851378e-05
PART_003_R247G182B210A255,5744,8.059157e-14,-2.678413e-14,-2.655524e-14,1.894417e-05,-3.361551e-09,-6.425507e-17,3.281226546379837e-05
PART_003_R247G182B210A255,5745,8.079854e-14,-2.707903e-14,-2.673148e-14,1.796587e-05,-2.12543e-08,-8.101489e-17,3.111782141806373e-05
PART_003_R247G182B210A255,5746,8.072113e-14,-2.732536e-14,-2.642072e-14,1.729129e-05,-1.303933e-09,-8.280509e-17,2.9949392893563367e-05
PART_003_R247G182B210A255,5747,8.087736e-14,-2.74572e-14,-2.672857e-14,1.690022e-05,-8.830094e-09,-6.439536e-17,2.9272043694571107e-05
PART_003_R247G182B210A255,5748,8.07542e-14,-2.74919e-14,-2.637579e-14,1.677111e-05,1.147865e-16,7.759563e-18,2.9048414619326475e-05
PART_002_R214G39B40A255,5749,8.084505e-14,-2.744333e-14,-2.670789e-14,1.690022e-05,8.830093e-09,4.957684e-17,2.9272043694570203e-05
PART_002_R214G39B40A255,5750,8.067093e-14,-2.739822e-14,-2.638114e-14,1.729129e-05,1.303933e-09,7.912092e-17,2.9949392893563367e-05
PART_002_R214G39B40A255,5751,8.074704e-14,-2.72421e-14,-2.669157e-14,1.796587e-05,2.12543e-08,1.039318e-16,3.111782141806373e-05
PART_002_R214G39B40A255,5752,8.052814e-14,-2.69125e-14,-2.652231e-14,1.894417e-05,3.361551e-09,5.919405e-17,3.281226546379837e-05
PART_002_R214G39B40A255,5753,8.063418e-14,-2.691944e-14,-2.677611e-14,2.025233e-05,7.985531e-09,1.484171e-17,3.507806725851378e-05
PART_003_R247G182B210A255,5754,-7.361192e-05,2.430177e-05,2.428171e-05,1.962261e-05,-1.358975e-09,2.57306e-08,0.0001036352710449795
PART_003_R247G182B210A255,5755,-7.361183e-05,2.429247e-05,2.429506e-05,1.832412e-05,-1.987784e-08,6.642484e-08,0.00010292152389477129
PART_003_R247G182B210A255,5756,-7.361191e-05,2.42899e-05,2.42915e-05,1.735703e-05,-1.383056e-09,8.711094e-08,0.00010241456580331205
PART_003_R247G182B210A255,5757,-7.361184e-05,2.429201e-05,2.428988e-05,1.66989e-05,-1.544832e-08,7.935429e-08,0.00010208591825051434
PART_003_R247G182B210A255,5758,-7.36119e-05,2.428848e-05,2.429253e-05,1.631658e-05,2.660742e-10,4.673474e-08,0.0001018998519056591
PART_001_R158G218B229A255,5759,-7.361185e-05,2.429315e-05,2.428688e-05,1.619261e-05,-2.379832e-16,4.567328e-15,0.00010183995805085154
PART_001_R158G218B229A255,5760,-7.36119e-05,2.428848e-05,2.429253e-05,1.631658e-05,-2.66074e-10,-4.673473e-08,0.00010189985190564535
PART_002_R214G39B40A255,5761,-7.361184e-05,2.429201e-05,2.428988e-05,1.66989e-05,1.544832e-08,-7.935428e-08,0.00010208591825049102
PART_002_R214G39B40A255,5762,-7.361191e-05,2.42899e-05,2.42915e-05,1.735703e-05,1.383056e-09,-8.711093e-08,0.00010241456580328653
PART_002_R214G39B40A255,5763,-7.361183e-05,2.429247e-05,2.429506e-05,1.832412e-05,1.987784e-08,-6.642484e-08,0.00010292152389477129
PART_002_R214G39B40A255,5764,-7.361192e-05,2.430177e-05,2.428171e-05,1.962261e-05,1.358975e-09,-2.57306e-08,0.0001036352710449795
PART_003_R247G182B210A255,5765,-0.0001472238,4.85897e-05,4.859347e-05,1.772537e-05,-1.027489e-08,5.843041e-08,0.0001982075725024832
PART_003_R247G182B210A255,5766,-0.0001472237,4.858909e-05,4.857411e-05,1.645285e-05,8.260475e-10,1.61385e-07,0.0001978683467186188
PART_003_R247G182B210A255,5767,-0.0001472238,4.858344e-05,4.858446e-05,1.553576e-05,-1.958663e-08,2.067996e-07,0.00019764838457803674
PART_003_R247G182B210A255,5768,-0.0001472237,4.857607e-05,4.858552e-05,1.492193e-05,3.03279e-09,1.868217e-07,0.00019750315705981215
PART_001_R158G218B229A255,5769,-0.0001472238,4.85864e-05,4.857401e-05,1.457597e-05,-2.968836e-09,1.104224e-07,0.00019742497764786002
PART_001_R158G218B229A255,5770,-0.0001472237,4.858287e-05,4.857889e-05,1.446381e-05,1.752223e-16,9.418505e-15,0.00019740070658436106
PART_001_R158G218B229A255,5771,-0.0001472238,4.85864e-05,4.857401e-05,1.457597e-05,2.968836e-09,-1.104224e-07,0.00019742497764786002
PART_001_R158G218B229A255,5772,-0.0001472237,4.857607e-05,4.858552e-05,1.492193e-05,-3.03279e-09,-1.868217e-07,0.00019750315705981215
PART_002_R214G39B40A255,5773,-0.0001472238,4.858344e-05,4.858446e-05,1.553576e-05,1.958663e-08,-2.067996e-07,0.00019764838457803674
PART_002_R214G39B40A255,5774,-0.0001472237,4.858909e-05,4.857411e-05,1.645285e-05,-8.260476e-10,-1.61385e-07,0.0001978683467186188
PART_002_R214G39B40A255,5775,-0.0001472238,4.85897e-05,4.859347e-05,1.772537e-05,1.027489e-08,-5.84304e-08,0.00019820757250247438
PART_003_R247G182B210A255,5776,-0.0002208358,7.290909e-05,7.283791e-05,1.452033e-05,2.579371e-09,1.261977e-07,0.0002947841998036851
PART_003_R247G182B210A255,5777,-0.0002208355,7.28758e-05,7.288511e-05,1.331918e-05,-2.581841e-08,3.183579e-07,0.00029462106172033025
PART_003_R247G182B210A255,5778,-0.0002208357,7.286221e-05,7.287988e-05,1.249381e-05,1.023254e-08,4.059826e-07,0.0002945037061521368
PART_001_R158G218B229A255,5779,-0.0002208355,7.287977e-05,7.286018e-05,1.198339e-05,2.743695e-09,3.623599e-07,0.0002944386271825641
PART_001_R158G218B229A255,5780,-0.0002208357,7.287963e-05,7.286362e-05,1.170198e-05,2.225535e-09,2.069234e-07,0.00029440606383937865
PART_001_R158G218B229A255,5781,-0.0002208355,7.288071e-05,7.285756e-05,1.161084e-05,-3.394764e-16,1.494875e-14,0.0002943923365832438
PART_001_R158G218B229A255,5782,-0.0002208357,7.287963e-05,7.286362e-05,1.170198e-05,-2.225534e-09,-2.069234e-07,0.00029440606383937865
PART_001_R158G218B229A255,5783,-0.0002208355,7.287977e-05,7.286018e-05,1.198339e-05,-2.743696e-09,-3.623599e-07,0.00029443862718256413
PART_001_R158G218B229A255,5784,-0.0002208357,7.286221e-05,7.287988e-05,1.249381e-05,-1.023254e-08,-4.059826e-07,0.0002945037061521368
PART_002_R214G39B40A255,5785,-0.0002208355,7.28758e-05,7.288511e-05,1.331918e-05,2.581841e-08,-3.183578e-07,0.00029462106172000607
PART_002_R214G39B40A255,5786,-0.0002208358,7.290909e-05,7.283791e-05,1.452033e-05,-2.579371e-09,-1.261977e-07,0.0002947841998036851
PART_003_R247G182B210A255,5787,-0.0002944477,9.717569e-05,9.72033e-05,9.932619e-06,-2.421737e-08,2.312738e-07,0.0003920150839724848
PART_003_R247G182B210A255,5788,-0.0002944474,9.715372e-05,9.716415e-05,8.856092e-06,2.360416e-08,6.334206e-07,0.00039190817563135484
PART_001_R158G218B229A255,5789,-0.0002944476,9.717373e-05,9.714271e-05,8.266721e-06,1.687362e-08,7.74342e-07,0.0003918697930162317
PART_001_R158G218B229A255,5790,-0.0002944474,9.718079e-05,9.714261e-05,7.92496e-06,4.958026e-09,6.4077e-07,0.00039185116447628917
PART_001_R158G218B229A255,5791,-0.0002944476,9.717422e-05,9.71429e-05,7.736564e-06,4.136439e-09,3.580846e-07,0.0003918358499146082
PART_001_R158G218B229A255,5792,-0.0002944474,9.718376e-05,9.714053e-05,7.679057e-06,6.314715e-17,2.133556e-14,0.0003918353492041772
PART_001_R158G218B229A255,5793,-0.0002944476,9.717422e-05,9.71429e-05,7.736564e-06,-4.13644e-09,-3.580845e-07,0.00039183584991433405
PART_001_R158G218B229A255,5794,-0.0002944474,9.718079e-05,9.714261e-05,7.92496e-06,-4.958025e-09,-6.4077e-07,0.00039185116447628917
PART_001_R158G218B229A255,5795,-0.0002944476,9.717373e-05,9.714271e-05,8.266721e-06,-1.687362e-08,-7.743419e-07,0.00039186979301563887
PART_001_R158G218B229A255,5796,-0.0002944474,9.715372e-05,9.716415e-05,8.856092e-06,-2.360416e-08,-6.334206e-07,0.00039190817563135484
PART_002_R214G39B40A255,5797,-0.0002944477,9.717569e-05,9.72033e-05,9.932619e-06,2.421737e-08,-2.312738e-07,0.0003920150839724848
PART_003_R247G182B210A255,5798,-0.0003680596,0.0001215321,0.0001213483,3.648004e-06,3.725742e-08,6.234918e-07,0.0004895417997748936
PART_001_R158G218B229A255,5799,-0.0003680592,0.0001214623,0.000121408,3.134954e-06,2.29513e-08,1.347991e-06,0.0004895300374058074
PART_001_R158G218B229A255,5800,-0.0003680595,0.0001214972,0.0001214072,2.938744e-06,4.487507e-09,1.372494e-06,0.0004895439412765068
PART_001_R158G218B229A255,5801,-0.0003680592,0.0001214658,0.0001214258,2.809212e-06,5.36742e-09,1.070274e-06,0.0004895326932768798
PART_001_R158G218B229A255,5802,-0.0003680595,0.0001214867,0.0001214201,2.747204e-06,7.549117e-10,5.776106e-07,0.0004895370515969739
PART_001_R158G218B229A255,5803,-0.0003680593,0.0001214669,0.0001214289,2.724428e-06,-4.951416e-17,2.885414e-14,0.0004895299454156216
PART_001_R158G218B229A255,5804,-0.0003680595,0.0001214867,0.0001214201,2.747204e-06,-7.549116e-10,-5.776105e-07,0.00048953705159662
PART_001_R158G218B229A255,5805,-0.0003680592,0.0001214658,0.0001214258,2.809212e-06,-5.36742e-09,-1.070274e-06,0.0004895326932768798
PART_001_R158G218B229A255,5806,-0.0003680595,0.0001214972,0.0001214072,2.938744e-06,-4.487506e-09,-1.372494e-06,0.0004895439412765068
PART_001_R158G218B229A255,5807,-0.0003680592,0.0001214623,0.000121408,3.134954e-06,-2.29513e-08,-1.347991e-06,0.0004895300374058074
PART_001_R158G218B229A255,5808,-0.0003680596,0.0001215321,0.0001213483,3.648004e-06,-3.725742e-08,-6.234918e-07,0.0004895417997748936
PART_003_R247G182B210A255,5809,0.0003635153,-0.0001200317,-0.0001198494,3.648033e-06,3.681333e-08,-6.234973e-07,0.0004834983749412302
PART_000_R31G119B180A255,5810,0.0003635156,-0.0001199628,-0.0001199099,3.134935e-06,2.265856e-08,-1.347977e-06,0.0004834880827654197
PART_000_R31G119B180A255,5811,0.0003635153,-0.0001199973,-0.0001199076,2.938755e-06,4.438233e-09,-1.37251e-06,0.0004835003945992952
PART_000_R31G119B180A255,5812,0.0003635155,-0.0001199662,-0.0001199274,2.809201e-06,5.297493e-09,-1.07026e-06,0.0004834903390293733
PART_000_R31G119B180A255,5813,0.0003635153,-0.0001199868,-0.0001199204,2.747211e-06,7.473158e-10,-5.77618e-07,0.0004834933536338455
PART_000_R31G119B180A255,5814,0.0003635155,-0.0001199673,-0.0001199305,2.724419e-06,-2.167049e-17,-2.886157e-14,0.0004834874294743377
PART_000_R31G119B180A255,5815,0.0003635153,-0.0001199868,-0.0001199204,2.747211e-06,-7.473157e-10,5.776179e-07,0.0004834933536334871
PART_000_R31G119B180A255,5816,0.0003635155,-0.0001199662,-0.0001199274,2.809201e-06,-5.297493e-09,1.07026e-06,0.0004834903390293733
PART_000_R31G119B180A255,5817,0.0003635153,-0.0001199973,-0.0001199076,2.938755e-06,-4.438233e-09,1.37251e-06,0.0004835003945992952
PART_000_R31G119B180A255,5818,0.0003635156,-0.0001199628,-0.0001199099,3.134935e-06,-2.265855e-08,1.347977e-06,0.00048348808276541823
PART_000_R31G119B180A255,5819,0.0003635153,-0.0001200317,-0.0001198494,3.648033e-06,-3.681333e-08,6.234973e-07,0.0004834983749412302
PART_003_R247G182B210A255,5820,0.0002908122,-9.5976e-05,-9.600257e-05,9.932595e-06,-2.392239e-08,-2.312811e-07,0.0003871840916768984
PART_003_R247G182B210A255,5821,0.0002908125,-9.595428e-05,-9.596525e-05,8.856103e-06,2.331286e-08,-6.334058e-07,0.00038707787586442666
PART_000_R31G119B180A255,5822,0.0002908122,-9.597405e-05,-9.594279e-05,8.266722e-06,1.66656e-08,-7.743575e-07,0.00038703789094582337
PART_000_R31G119B180A255,5823,0.0002908124,-9.598102e-05,-9.594393e-05,7.924965e-06,4.896474e-09,-6.407576e-07,0.0003870199632533219
PART_000_R31G119B180A255,5824,0.0002908123,-9.597453e-05,-9.5943e-05,7.736567e-06,4.085581e-09,-3.580914e-07,0.00038700362480486477
PART_000_R31G119B180A255,5825,0.0002908124,-9.598396e-05,-9.594187e-05,7.679061e-06,2.872543e-17,-2.134065e-14,0.0003870039399741952
PART_000_R31G119B180A255,5826,0.0002908123,-9.597453e-05,-9.5943e-05,7.736567e-06,-4.085582e-09,3.580913e-07,0.0003870036248045872
PART_000_R31G119B180A255,5827,0.0002908124,-9.598102e-05,-9.594393e-05,7.924965e-06,-4.896473e-09,6.407575e-07,0.00038701996325282516
PART_000_R31G119B180A255,5828,0.0002908122,-9.597405e-05,-9.594279e-05,8.266722e-06,-1.66656e-08,7.743574e-07,0.0003870378909452231
PART_000_R31G119B180A255,5829,0.0002908125,-9.595428e-05,-9.596525e-05,8.856103e-06,-2.331286e-08,6.334058e-07,0.00038707787586442666
PART_002_R214G39B40A255,5830,0.0002908122,-9.5976e-05,-9.600257e-05,9.932595e-06,2.392239e-08,2.312811e-07,0.0003871840916768984
PART_003_R247G182B210A255,5831,0.0002181091,-7.200897e-05,-7.193814e-05,1.452034e-05,2.54964e-09,-1.262011e-07,0.0002911709448336448
PART_003_R247G182B210A255,5832,0.0002181094,-7.197611e-05,-7.19858e-05,1.331918e-05,-2.549867e-08,-3.183481e-07,0.0002910067383913131
PART_003_R247G182B210A255,5833,0.0002181092,-7.196268e-05,-7.197964e-05,1.24938e-05,1.010553e-08,-4.059941e-07,0.0002908872554595229
PART_000_R31G119B180A255,5834,0.0002181093,-7.198003e-05,-7.196115e-05,1.198339e-05,2.710313e-09,-3.623504e-07,0.0002908221822229242
PART_000_R31G119B180A255,5835,0.0002181092,-7.197988e-05,-7.196359e-05,1.170197e-05,2.197827e-09,-2.069287e-07,0.0002907883866802318
PART_000_R31G119B180A255,5836,0.0002181093,-7.198096e-05,-7.195856e-05,1.161084e-05,-3.229245e-16,-1.495028e-14,0.00029077533637384106
PART_000_R31G119B180A255,5837,0.0002181092,-7.197988e-05,-7.196359e-05,1.170197e-05,-2.197826e-09,2.069287e-07,0.0002907883866802318
PART_000_R31G119B180A255,5838,0.0002181093,-7.198003e-05,-7.196115e-05,1.198339e-05,-2.710313e-09,3.623504e-07,0.0002908221822229242
PART_000_R31G119B180A255,5839,0.0002181092,-7.196268e-05,-7.197964e-05,1.24938e-05,-1.010553e-08,4.059941e-07,0.0002908872554595229
PART_002_R214G39B40A255,5840,0.0002181094,-7.197611e-05,-7.19858e-05,1.331918e-05,2.549867e-08,3.18348e-07,0.00029100673839098487
PART_002_R214G39B40A255,5841,0.0002181091,-7.200897e-05,-7.193814e-05,1.452034e-05,-2.54964e-09,1.262011e-07,0.0002911709448336448
PART_003_R247G182B210A255,5842,0.0001454061,-4.798984e-05,-4.799319e-05,1.772536e-05,-1.01497e-08,-5.843398e-08,0.0001958193381924604
PART_003_R247G182B210A255,5843,0.0001454062,-4.798922e-05,-4.797478e-05,1.645285e-05,8.151471e-10,-1.613778e-07,0.0001954767582229895
PART_003_R247G182B210A255,5844,0.0001454061,-4.798364e-05,-4.798432e-05,1.553577e-05,-1.934471e-08,-2.068072e-07,0.00019525350937061087
PART_003_R247G182B210A255,5845,0.0001454062,-4.797636e-05,-4.798603e-05,1.492194e-05,2.995398e-09,-1.868155e-07,0.00019510710448909555
PART_000_R31G119B180A255,5846,0.0001454061,-4.798656e-05,-4.797401e-05,1.457597e-05,-2.932225e-09,-1.104258e-07,0.00019502745276802326
PART_000_R31G119B180A255,5847,0.0001454062,-4.798307e-05,-4.797947e-05,1.446382e-05,1.617719e-16,-9.428894e-15,0.00019500338414934777
PART_000_R31G119B180A255,5848,0.0001454061,-4.798656e-05,-4.797401e-05,1.457597e-05,2.932225e-09,1.104258e-07,0.00019502745276802326
PART_000_R31G119B180A255,5849,0.0001454062,-4.797636e-05,-4.798603e-05,1.492194e-05,-2.995398e-09,1.868155e-07,0.00019510710448909555
PART_002_R214G39B40A255,5850,0.0001454061,-4.798364e-05,-4.798432e-05,1.553577e-05,1.934471e-08,2.068072e-07,0.00019525350937061087
PART_002_R214G39B40A255,5851,0.0001454062,-4.798922e-05,-4.797478e-05,1.645285e-05,-8.151472e-10,1.613778e-07,0.0001954767582229895
PART_002_R214G39B40A255,5852,0.0001454061,-4.798984e-05,-4.799319e-05,1.772536e-05,1.01497e-08,5.843397e-08,0.00019581933819245146
PART_003_R247G182B210A255,5853,7.270305e-05,-2.400174e-05,-2.398175e-05,1.962261e-05,-1.340933e-09,-2.57318e-08,0.00010249402978319906
PART_003_R247G182B210A255,5854,7.270312e-05,-2.399257e-05,-2.399529e-05,1.832412e-05,-1.963137e-08,-6.642142e-08,0.00010177256013858386
PART_003_R247G182B210A255,5855,7.270306e-05,-2.399003e-05,-2.399144e-05,1.735702e-05,-1.366323e-09,-8.71149e-08,0.00010125962273014958
PART_003_R247G182B210A255,5856,7.270311e-05,-2.399211e-05,-2.399017e-05,1.66989e-05,-1.525741e-08,-7.935103e-08,0.0001009274856401306
PART_003_R247G182B210A255,5857,7.270306e-05,-2.398863e-05,-2.399246e-05,1.631657e-05,2.627216e-10,-4.673654e-08,0.00010073902511793522
PART_000_R31G119B180A255,5858,7.270311e-05,-2.399324e-05,-2.39872e-05,1.61926e-05,-2.827178e-16,-4.54382e-15,0.00010067870171059072
PART_000_R31G119B180A255,5859,7.270306e-05,-2.398863e-05,-2.399246e-05,1.631657e-05,-2.627214e-10,4.673653e-08,0.00010073902511792129
PART_002_R214G39B40A255,5860,7.270311e-05,-2.399211e-05,-2.399017e-05,1.66989e-05,1.525741e-08,7.935102e-08,0.000100927485640107
PART_002_R214G39B40A255,5861,7.270306e-05,-2.399003e-05,-2.399144e-05,1.735702e-05,1.366322e-09,8.71149e-08,0.00010125962273014954
PART_002_R214G39B40A255,5862,7.270312e-05,-2.399257e-05,-2.399529e-05,1.832412e-05,1.963137e-08,6.642142e-08,0.00010177256013858386
PART_002_R214G39B40A255,5863,7.270305e-05,-2.400174e-05,-2.398175e-05,1.962261e-05,1.340933e-09,2.57318e-08,0.00010249402978319906
PART_003_R247G182B210A255,5864,7.946389e-14,-2.620126e-14,-2.611238e-14,2.025232e-05,-7.88827e-09,-2.462409e-17,3.507804987198705e-05
PART_003_R247G182B210A255,5865,7.957914e-14,-2.577799e-14,-2.665389e-14,1.894418e-05,-3.320739e-09,-7.425345e-17,3.2812282771839e-05
PART_003_R247G182B210A255,5866,7.928283e-14,-2.570513e-14,-2.599253e-14,1.796588e-05,-2.099195e-08,-1.150195e-16,3.1117838204301636e-05
PART_003_R247G182B210A255,5867,7.933205e-14,-2.533043e-14,-2.648353e-14,1.72913e-05,-1.287654e-09,-8.562317e-17,2.9949410211958407e-05
PART_003_R247G182B210A255,5868,7.912876e-14,-2.522288e-14,-2.602396e-14,1.690023e-05,-8.721183e-09,-4.144659e-17,2.9272060917123668e-05
PART_003_R247G182B210A255,5869,7.921246e-14,-2.518818e-14,-2.641028e-14,1.677112e-05,1.17155e-16,1.091084e-18,2.9048431939834554e-05
PART_002_R214G39B40A255,5870,7.90623e-14,-2.517084e-14,-2.602539e-14,1.690023e-05,8.721182e-09,3.624369e-17,2.9272060917122773e-05
PART_002_R214G39B40A255,5871,7.92709e-14,-2.539635e-14,-2.640552e-14,1.72913e-05,1.287654e-09,9.100776e-17,2.9949410211958407e-05
PART_002_R214G39B40A255,5872,7.913505e-14,-2.545186e-14,-2.598729e-14,1.796588e-05,2.099195e-08,9.671846e-17,3.1117838204301636e-05
PART_002_R214G39B40A255,5873,7.932544e-14,-2.544839e-14,-2.661224e-14,1.894418e-05,3.320739e-09,7.413995e-17,3.2812282771839e-05
PART_002_R214G39B40A255,5874,7.915413e-14,-2.583003e-14,-2.602485e-14,2.025232e-05,7.88827e-09,2.045923e-17,3.507804987198705e-05
PART_003_R247G182B210A255,5875,-7.270305e-05,2.400174e-05,2.398175e-05,1.962261e-05,-1.340933e-09,2.57318e-08,0.00010249402978319906
PART_003_R247G182B210A255,5876,-7.270312e-05,2.399257e-05,2.399529e-05,1.832412e-05,-1.963137e-08,6.642142e-08,0.00010177256013858386
PART_003_R247G182B210A255,5877,-7.270306e-05,2.399003e-05,2.399144e-05,1.735702e-05,-1.366323e-09,8.71149e-08,0.00010125962273014958
PART_003_R247G182B210A255,5878,-7.270311e-05,2.399211e-05,2.399017e-05,1.66989e-05,-1.525741e-08,7.935103e-08,0.0001009274856401306
PART_003_R247G182B210A255,5879,-7.270306e-05,2.398863e-05,2.399246e-05,1.631657e-05,2.627215e-10,4.673654e-08,0.00010073902511793521
PART_001_R158G218B229A255,5880,-7.270311e-05,2.399324e-05,2.39872e-05,1.61926e-05,-1.925289e-16,4.568351e-15,0.00010067870171059072
PART_001_R158G218B229A255,5881,-7.270306e-05,2.398863e-05,2.399246e-05,1.631657e-05,-2.627215e-10,-4.673653e-08,0.00010073902511792129
PART_002_R214G39B40A255,5882,-7.270311e-05,2.399211e-05,2.399017e-05,1.66989e-05,1.525741e-08,-7.935102e-08,0.000100927485640107
PART_002_R214G39B40A255,5883,-7.270306e-05,2.399003e-05,2.399144e-05,1.735702e-05,1.366322e-09,-8.71149e-08,0.00010125962273014954
PART_002_R214G39B40A255,5884,-7.270312e-05,2.399257e-05,2.399529e-05,1.832412e-05,1.963137e-08,-6.642142e-08,0.00010177256013858386
PART_002_R214G39B40A255,5885,-7.270305e-05,2.400174e-05,2.398175e-05,1.962261e-05,1.340933e-09,-2.57318e-08,0.00010249402978319906
PART_003_R247G182B210A255,5886,-0.0001454061,4.798984e-05,4.799319e-05,1.772536e-05,-1.01497e-08,5.843398e-08,0.0001958193381924604
PART_003_R247G182B210A255,5887,-0.0001454062,4.798922e-05,4.797478e-05,1.645285e-05,8.151472e-10,1.613778e-07,0.0001954767582229895
PART_003_R247G182B210A255,5888,-0.0001454061,4.798364e-05,4.798432e-05,1.553577e-05,-1.934471e-08,2.068072e-07,0.00019525350937061087
PART_003_R247G182B210A255,5889,-0.0001454062,4.797636e-05,4.798603e-05,1.492194e-05,2.995398e-09,1.868155e-07,0.00019510710448909555
PART_001_R158G218B229A255,5890,-0.0001454061,4.798656e-05,4.797401e-05,1.457597e-05,-2.932225e-09,1.104258e-07,0.00019502745276802326
PART_001_R158G218B229A255,5891,-0.0001454062,4.798307e-05,4.797947e-05,1.446382e-05,1.63687e-16,9.417191e-15,0.00019500338414934777
PART_001_R158G218B229A255,5892,-0.0001454061,4.798656e-05,4.797401e-05,1.457597e-05,2.932225e-09,-1.104258e-07,0.00019502745276802326
PART_001_R158G218B229A255,5893,-0.0001454062,4.797636e-05,4.798603e-05,1.492194e-05,-2.995398e-09,-1.868155e-07,0.00019510710448909555
PART_002_R214G39B40A255,5894,-0.0001454061,4.798364e-05,4.798432e-05,1.553577e-05,1.934471e-08,-2.068072e-07,0.00019525350937061087
PART_002_R214G39B40A255,5895,-0.0001454062,4.798922e-05,4.797478e-05,1.645285e-05,-8.151473e-10,-1.613778e-07,0.0001954767582229895
PART_002_R214G39B40A255,5896,-0.0001454061,4.798984e-05,4.799319e-05,1.772536e-05,1.01497e-08,-5.843397e-08,0.00019581933819245146
PART_003_R247G182B210A255,5897,-0.0002181091,7.200897e-05,7.193814e-05,1.452034e-05,2.54964e-09,1.262011e-07,0.0002911709448336448
PART_003_R247G182B210A255,5898,-0.0002181094,7.197611e-05,7.19858e-05,1.331918e-05,-2.549867e-08,3.183481e-07,0.0002910067383913131
PART_003_R247G182B210A255,5899,-0.0002181092,7.196268e-05,7.197964e-05,1.24938e-05,1.010553e-08,4.059941e-07,0.0002908872554595229
PART_001_R158G218B229A255,5900,-0.0002181093,7.198003e-05,7.196115e-05,1.198339e-05,2.710313e-09,3.623504e-07,0.0002908221822229242
PART_001_R158G218B229A255,5901,-0.0002181092,7.197988e-05,7.196359e-05,1.170197e-05,2.197827e-09,2.069287e-07,0.0002907883866802318
PART_001_R158G218B229A255,5902,-0.0002181093,7.198096e-05,7.195856e-05,1.161084e-05,-3.737762e-16,1.4926e-14,0.00029077533637384106
PART_001_R158G218B229A255,5903,-0.0002181092,7.197988e-05,7.196359e-05,1.170197e-05,-2.197826e-09,-2.069287e-07,0.0002907883866802318
PART_001_R158G218B229A255,5904,-0.0002181093,7.198003e-05,7.196115e-05,1.198339e-05,-2.710313e-09,-3.623504e-07,0.0002908221822229242
PART_001_R158G218B229A255,5905,-0.0002181092,7.196268e-05,7.197964e-05,1.24938e-05,-1.010553e-08,-4.059941e-07,0.0002908872554595229
PART_002_R214G39B40A255,5906,-0.0002181094,7.197611e-05,7.19858e-05,1.331918e-05,2.549867e-08,-3.18348e-07,0.00029100673839098487
PART_002_R214G39B40A255,5907,-0.0002181091,7.200897e-05,7.193814e-05,1.452034e-05,-2.54964e-09,-1.262011e-07,0.0002911709448336448
PART_003_R247G182B210A255,5908,-0.0002908122,9.5976e-05,9.600257e-05,9.932595e-06,-2.392239e-08,2.312811e-07,0.0003871840916768984
PART_003_R247G182B210A255,5909,-0.0002908125,9.595428e-05,9.596525e-05,8.856103e-06,2.331286e-08,6.334058e-07,0.00038707787586442666
PART_001_R158G218B229A255,5910,-0.0002908122,9.597405e-05,9.594279e-05,8.266722e-06,1.66656e-08,7.743575e-07,0.00038703789094582337
PART_001_R158G218B229A255,5911,-0.0002908124,9.598102e-05,9.594393e-05,7.924965e-06,4.896474e-09,6.407576e-07,0.0003870199632533219
PART_001_R158G218B229A255,5912,-0.0002908123,9.597453e-05,9.5943e-05,7.736567e-06,4.085581e-09,3.580914e-07,0.00038700362480486477
PART_001_R158G218B229A255,5913,-0.0002908124,9.598396e-05,9.594187e-05,7.679061e-06,3.290469e-17,2.133091e-14,0.0003870039399741952
PART_001_R158G218B229A255,5914,-0.0002908123,9.597453e-05,9.5943e-05,7.736567e-06,-4.085582e-09,-3.580913e-07,0.0003870036248045872
PART_001_R158G218B229A255,5915,-0.0002908124,9.598102e-05,9.594393e-05,7.924965e-06,-4.896473e-09,-6.407575e-07,0.00038701996325282516
PART_001_R158G218B229A255,5916,-0.0002908122,9.597405e-05,9.594279e-05,8.266722e-06,-1.66656e-08,-7.743574e-07,0.0003870378909452231
PART_001_R158G218B229A255,5917,-0.0002908125,9.595428e-05,9.596525e-05,8.856103e-06,-2.331286e-08,-6.334058e-07,0.00038707787586442666
PART_002_R214G39B40A255,5918,-0.0002908122,9.5976e-05,9.600257e-05,9.932595e-06,2.392239e-08,-2.312811e-07,0.0003871840916768984
PART_003_R247G182B210A255,5919,-0.0003635153,0.0001200317,0.0001198494,3.648033e-06,3.681333e-08,6.234973e-07,0.0004834983749412302
PART_001_R158G218B229A255,5920,-0.0003635156,0.0001199628,0.0001199099,3.134935e-06,2.265856e-08,1.347977e-06,0.0004834880827654197
PART_001_R158G218B229A255,5921,-0.0003635153,0.0001199973,0.0001199076,2.938755e-06,4.438233e-09,1.37251e-06,0.0004835003945992952
PART_001_R158G218B229A255,5922,-0.0003635155,0.0001199662,0.0001199274,2.809201e-06,5.297493e-09,1.07026e-06,0.0004834903390293733
PART_001_R158G218B229A255,5923,-0.0003635153,0.0001199868,0.0001199204,2.747211e-06,7.473158e-10,5.77618e-07,0.0004834933536338455
PART_001_R158G218B229A255,5924,-0.0003635155,0.0001199673,0.0001199305,2.724419e-06,-9.992617e-17,2.885457e-14,0.0004834874294743377
PART_001_R158G218B229A255,5925,-0.0003635153,0.0001199868,0.0001199204,2.747211e-06,-7.473157e-10,-5.776179e-07,0.0004834933536334871
PART_001_R158G218B229A255,5926,-0.0003635155,0.0001199662,0.0001199274,2.809201e-06,-5.297493e-09,-1.07026e-06,0.0004834903390293733
PART_001_R158G218B229A255,5927,-0.0003635153,0.0001199973,0.0001199076,2.938755e-06,-4.438233e-09,-1.37251e-06,0.0004835003945992952
PART_001_R158G218B229A255,5928,-0.0003635156,0.0001199628,0.0001199099,3.134935e-06,-2.265855e-08,-1.347977e-06,0.00048348808276541823
PART_001_R158G218B229A255,5929,-0.0003635153,0.0001200317,0.0001198494,3.648033e-06,-3.681333e-08,-6.234973e-07,0.0004834983749412302
PART_003_R247G182B210A255,5930,0.0003589716,-0.0001185313,-0.0001183519,3.648009e-06,3.634021e-08,-6.234928e-07,0.0004774562616336179
PART_000_R31G119B180A255,5931,0.0003589714,-0.0001184633,-0.0001184104,3.13495e-06,2.238299e-08,-1.347988e-06,0.0004774448404992106
PART_000_R31G119B180A255,5932,0.0003589716,-0.0001184973,-0.0001184093,2.938746e-06,4.377761e-09,-1.372497e-06,0.00047745795724200363
PART_000_R31G119B180A255,5933,0.0003589714,-0.0001184666,-0.0001184278,2.80921e-06,5.234265e-09,-1.070271e-06,0.0004774469941886169
PART_000_R31G119B180A255,5934,0.0003589716,-0.000118487,-0.000118422,2.747205e-06,7.365704e-10,-5.776119e-07,0.00047745086285820533
PART_000_R31G119B180A255,5935,0.0003589714,-0.0001184677,-0.0001184308,2.724427e-06,-9.872169e-17,-2.884197e-14,0.0004774439711369963
PART_000_R31G119B180A255,5936,0.0003589716,-0.000118487,-0.000118422,2.747205e-06,-7.365704e-10,5.776119e-07,0.00047745086285820533
PART_000_R31G119B180A255,5937,0.0003589714,-0.0001184666,-0.0001184278,2.80921e-06,-5.234265e-09,1.070271e-06,0.0004774469941886169
PART_000_R31G119B180A255,5938,0.0003589716,-0.0001184973,-0.0001184093,2.938746e-06,-4.377761e-09,1.372497e-06,0.00047745795724200363
PART_000_R31G119B180A255,5939,0.0003589714,-0.0001184633,-0.0001184104,3.13495e-06,-2.238299e-08,1.347988e-06,0.0004774448404992106
PART_000_R31G119B180A255,5940,0.0003589716,-0.0001185313,-0.0001183519,3.648009e-06,-3.634021e-08,6.234928e-07,0.0004774562616336179
PART_003_R247G182B210A255,5941,0.0002871773,-9.477629e-05,-9.48031e-05,9.932615e-06,-2.36201e-08,-2.312751e-07,0.0003823544408907392
PART_003_R247G182B210A255,5942,0.0002871771,-9.475486e-05,-9.476515e-05,8.856095e-06,2.302137e-08,-6.334178e-07,0.0003822465810905569
PART_000_R31G119B180A255,5943,0.0002871773,-9.477438e-05,-9.474402e-05,8.266722e-06,1.645705e-08,-7.743448e-07,0.00038220715121977295
PART_000_R31G119B180A255,5944,0.0002871771,-9.478127e-05,-9.474413e-05,7.924961e-06,4.835558e-09,-6.407677e-07,0.0003821879886901382
PART_000_R31G119B180A255,5945,0.0002871773,-9.477486e-05,-9.474421e-05,7.736565e-06,4.034346e-09,-3.580858e-07,0.0003821723363530256
PART_000_R31G119B180A255,5946,0.0002871771,-9.478416e-05,-9.474211e-05,7.679058e-06,-1.683986e-17,-2.131144e-14,0.0003821717522702446
PART_000_R31G119B180A255,5947,0.0002871773,-9.477486e-05,-9.474421e-05,7.736565e-06,-4.034347e-09,3.580858e-07,0.0003821723363530256
PART_000_R31G119B180A255,5948,0.0002871771,-9.478127e-05,-9.474413e-05,7.924961e-06,-4.835557e-09,6.407677e-07,0.00038218798869013815
PART_000_R31G119B180A255,5949,0.0002871773,-9.477438e-05,-9.474402e-05,8.266722e-06,-1.645705e-08,7.743447e-07,0.00038220715121916514
PART_000_R31G119B180A255,5950,0.0002871771,-9.475486e-05,-9.476515e-05,8.856095e-06,-2.302137e-08,6.334178e-07,0.0003822465810905569
PART_002_R214G39B40A255,5951,0.0002871773,-9.477629e-05,-9.48031e-05,9.932615e-06,2.36201e-08,2.312751e-07,0.0003823544408907392
PART_003_R247G182B210A255,5952,0.000215383,-7.110887e-05,-7.103935e-05,1.452033e-05,2.516058e-09,-1.261983e-07,0.0002875591195585284
PART_003_R247G182B210A255,5953,0.0002153828,-7.10764e-05,-7.108556e-05,1.331918e-05,-2.518073e-08,-3.183561e-07,0.0002873917273278086
PART_003_R247G182B210A255,5954,0.000215383,-7.106314e-05,-7.108029e-05,1.24938e-05,9.979783e-09,-4.059847e-07,0.00028727179438845234
PART_000_R31G119B180A255,5955,0.0002153828,-7.108027e-05,-7.106125e-05,1.198339e-05,2.676049e-09,-3.623581e-07,0.0002872052247911444
PART_000_R31G119B180A255,5956,0.000215383,-7.108013e-05,-7.106444e-05,1.170198e-05,2.170552e-09,-2.069244e-07,0.0002871716698493783
PART_000_R31G119B180A255,5957,0.0002153828,-7.108119e-05,-7.105869e-05,1.161084e-05,-3.224684e-16,-1.493121e-14,0.00028715780931347124
PART_000_R31G119B180A255,5958,0.000215383,-7.108013e-05,-7.106444e-05,1.170198e-05,-2.170552e-09,2.069243e-07,0.00028717166984916216
PART_000_R31G119B180A255,5959,0.0002153828,-7.108027e-05,-7.106125e-05,1.198339e-05,-2.676049e-09,3.623581e-07,0.0002872052247911444
PART_000_R31G119B180A255,5960,0.000215383,-7.106314e-05,-7.108029e-05,1.24938e-05,-9.979784e-09,4.059846e-07,0.00028727179438802847
PART_002_R214G39B40A255,5961,0.0002153828,-7.10764e-05,-7.108556e-05,1.331918e-05,2.518073e-08,3.18356e-07,0.0002873917273274763
PART_002_R214G39B40A255,5962,0.000215383,-7.110887e-05,-7.103935e-05,1.452033e-05,-2.516058e-09,1.261983e-07,0.0002875591195585284
PART_003_R247G182B210A255,5963,0.0001435887,-4.738996e-05,-4.739357e-05,1.772537e-05,-1.002148e-08,-5.843104e-08,0.0001934324553691817
PART_003_R247G182B210A255,5964,0.0001435885,-4.738936e-05,-4.737481e-05,1.645285e-05,8.055453e-10,-1.613837e-07,0.00019308529578771446
PART_003_R247G182B210A255,5965,0.0001435886,-4.738385e-05,-4.738479e-05,1.553576e-05,-1.910297e-08,-2.06801e-07,0.00019285970311356672
PART_003_R247G182B210A255,5966,0.0001435886,-4.737665e-05,-4.738594e-05,1.492193e-05,2.957933e-09,-1.868206e-07,0.00019271117657746698
PART_000_R31G119B180A255,5967,0.0001435886,-4.738673e-05,-4.73746e-05,1.457597e-05,-2.895528e-09,-1.10423e-07,0.00019263092585092517
PART_000_R31G119B180A255,5968,0.0001435886,-4.738329e-05,-4.737947e-05,1.446381e-05,1.235406e-16,-9.417079e-15,0.00019260617506012886
PART_000_R31G119B180A255,5969,0.0001435886,-4.738673e-05,-4.73746e-05,1.457597e-05,2.895527e-09,1.10423e-07,0.00019263092585092515
PART_000_R31G119B180A255,5970,0.0001435886,-4.737665e-05,-4.738594e-05,1.492193e-05,-2.957933e-09,1.868206e-07,0.00019271117657746698
PART_002_R214G39B40A255,5971,0.0001435886,-4.738385e-05,-4.738479e-05,1.553576e-05,1.910297e-08,2.068009e-07,0.000192859703113245
PART_002_R214G39B40A255,5972,0.0001435885,-4.738936e-05,-4.737481e-05,1.645285e-05,-8.055454e-10,1.613837e-07,0.00019308529578771446
PART_002_R214G39B40A255,5973,0.0001435887,-4.738996e-05,-4.739357e-05,1.772537e-05,1.002148e-08,5.843104e-08,0.0001934324553691817
PART_003_R247G182B210A255,5974,7.179433e-05,-2.370172e-05,-2.368213e-05,1.962261e-05,-1.325184e-09,-2.573082e-08,0.00010135466265979592
PART_003_R247G182B210A255,5975,7.179427e-05,-2.369266e-05,-2.369521e-05,1.832412e-05,-1.938683e-08,-6.642421e-08,0.00010062470762390646
PART_003_R247G182B210A255,5976,7.179432e-05,-2.369015e-05,-2.369169e-05,1.735703e-05,-1.348939e-09,-8.711165e-08,0.00010010621010545053
PART_003_R247G182B210A255,5977,7.179428e-05,-2.36922e-05,-2.369016e-05,1.66989e-05,-1.506682e-08,-7.935369e-08,9.976999764565672e-05
PART_003_R247G182B210A255,5978,7.179432e-05,-2.368877e-05,-2.369269e-05,1.631658e-05,2.595053e-10,-4.673506e-08,9.957958468690271e-05
PART_000_R31G119B180A255,5979,7.179428e-05,-2.369332e-05,-2.368723e-05,1.619261e-05,-3.181113e-16,-4.558974e-15,9.951835070578895e-05
PART_000_R31G119B180A255,5980,7.179432e-05,-2.368877e-05,-2.369269e-05,1.631658e-05,-2.595051e-10,4.673506e-08,9.957958468690271e-05
PART_002_R214G39B40A255,5981,7.179428e-05,-2.36922e-05,-2.369016e-05,1.66989e-05,1.506682e-08,7.935368e-08,9.976999764563285e-05
PART_002_R214G39B40A255,5982,7.179432e-05,-2.369015e-05,-2.369169e-05,1.735703e-05,1.348939e-09,8.711164e-08,0.00010010621010542443
PART_002_R214G39B40A255,5983,7.179427e-05,-2.369266e-05,-2.369521e-05,1.832412e-05,1.938682e-08,6.642421e-08,0.00010062470762390067
PART_002_R214G39B40A255,5984,7.179433e-05,-2.370172e-05,-2.368213e-05,1.962261e-05,1.325184e-09,2.573082e-08,0.00010135466265979592
PART_003_R247G182B210A255,5985,7.881532e-14,-2.610065e-14,-2.627805e-14,2.025233e-05,-7.788586e-09,-3.267599e-17,3.507806712566865e-05
PART_003_R247G182B210A255,5986,7.863773e-14,-2.626024e-14,-2.584655e-14,1.894418e-05,-3.278651e-09,-7.319042e-17,3.281228275914154e-05
PART_003_R247G182B210A255,5987,7.892948e-14,-2.676331e-14,-2.613442e-14,1.796588e-05,-2.072949e-08,-9.596968e-17,3.111783767645925e-05
PART_003_R247G182B210A255,5988,7.883733e-14,-2.706516e-14,-2.567814e-14,1.72913e-05,-1.271684e-09,-7.355507e-17,2.9949410209911324e-05
PART_003_R247G182B210A255,5989,7.904896e-14,-2.72421e-14,-2.614006e-14,1.690023e-05,-8.612072e-09,-4.565201e-17,2.9272060820209644e-05
PART_003_R247G182B210A255,5990,7.888828e-14,-2.728373e-14,-2.566853e-14,1.677111e-05,6.173727e-17,-1.990464e-17,2.9048414619326475e-05
PART_002_R214G39B40A255,5991,7.904094e-14,-2.722822e-14,-2.613594e-14,1.690023e-05,8.612071e-09,6.690883e-17,2.927206082020876e-05
PART_002_R214G39B40A255,5992,7.876978e-14,-2.712761e-14,-2.562391e-14,1.72913e-05,1.271684e-09,6.426566e-17,2.9949410209911324e-05
PART_002_R214G39B40A255,5993,7.885814e-14,-2.679107e-14,-2.611418e-14,1.796588e-05,2.072949e-08,7.540287e-17,3.111783767645925e-05
PART_002_R214G39B40A255,5994,7.857137e-14,-2.653086e-14,-2.580128e-14,1.894418e-05,3.278651e-09,5.740342e-17,3.281228275914154e-05
PART_002_R214G39B40A255,5995,7.872804e-14,-2.643025e-14,-2.619702e-14,2.025233e-05,7.788586e-09,3.28005e-17,3.507806712566865e-05
PART_003_R247G182B210A255,5996,-7.179433e-05,2.370172e-05,2.368213e-05,1.962261e-05,-1.325184e-09,2.573082e-08,0.00010135466265979592
PART_003_R247G182B210A255,5997,-7.179427e-05,2.369266e-05,2.369521e-05,1.832412e-05,-1.938683e-08,6.642421e-08,0.00010062470762390646
PART_003_R247G182B210A255,5998,-7.179432e-05,2.369015e-05,2.369169e-05,1.735703e-05,-1.348939e-09,8.711165e-08,0.00010010621010545053
PART_003_R247G182B210A255,5999,-7.179428e-05,2.36922e-05,2.369016e-05,1.66989e-05,-1.506682e-08,7.935369e-08,9.976999764565672e-05
PART_003_R247G182B210A255,6000,-7.179432e-05,2.368877e-05,2.369269e-05,1.631658e-05,2.595053e-10,4.673506e-08,9.957958468690271e-05
PART_001_R158G218B229A255,6001,-7.179428e-05,2.369332e-05,2.368723e-05,1.619261e-05,-2.733189e-16,4.536095e-15,9.951835070578895e-05
PART_001_R158G218B229A255,6002,-7.179432e-05,2.368877e-05,2.369269e-05,1.631658e-05,-2.595052e-10,-4.673506e-08,9.957958468690271e-05
PART_002_R214G39B40A255,6003,-7.179428e-05,2.36922e-05,2.369016e-05,1.66989e-05,1.506682e-08,-7.935368e-08,9.976999764563285e-05
PART_002_R214G39B40A255,6004,-7.179432e-05,2.369015e-05,2.369169e-05,1.735703e-05,1.348939e-09,-8.711164e-08,0.00010010621010542443
PART_002_R214G39B40A255,6005,-7.179427e-05,2.369266e-05,2.369521e-05,1.832412e-05,1.938683e-08,-6.642421e-08,0.00010062470762390646
PART_002_R214G39B40A255,6006,-7.179433e-05,2.370172e-05,2.368213e-05,1.962261e-05,1.325184e-09,-2.573082e-08,0.00010135466265979592
PART_003_R247G182B210A255,6007,-0.0001435887,4.738996e-05,4.739357e-05,1.772537e-05,-1.002148e-08,5.843104e-08,0.0001934324553691817
PART_003_R247G182B210A255,6008,-0.0001435885,4.738936e-05,4.737481e-05,1.645285e-05,8.055454e-10,1.613837e-07,0.00019308529578771446
PART_003_R247G182B210A255,6009,-0.0001435886,4.738385e-05,4.738479e-05,1.553576e-05,-1.910297e-08,2.06801e-07,0.00019285970311356672
PART_003_R247G182B210A255,6010,-0.0001435886,4.737665e-05,4.738594e-05,1.492193e-05,2.957933e-09,1.868206e-07,0.00019271117657746698
PART_001_R158G218B229A255,6011,-0.0001435886,4.738673e-05,4.73746e-05,1.457597e-05,-2.895528e-09,1.10423e-07,0.00019263092585092517
PART_001_R158G218B229A255,6012,-0.0001435886,4.738329e-05,4.737947e-05,1.446381e-05,1.461394e-16,9.408204e-15,0.00019260617506012886
PART_001_R158G218B229A255,6013,-0.0001435886,4.738673e-05,4.73746e-05,1.457597e-05,2.895527e-09,-1.10423e-07,0.00019263092585092515
PART_001_R158G218B229A255,6014,-0.0001435886,4.737665e-05,4.738594e-05,1.492193e-05,-2.957933e-09,-1.868206e-07,0.00019271117657746698
PART_002_R214G39B40A255,6015,-0.0001435886,4.738385e-05,4.738479e-05,1.553576e-05,1.910297e-08,-2.068009e-07,0.000192859703113245
PART_002_R214G39B40A255,6016,-0.0001435885,4.738936e-05,4.737481e-05,1.645285e-05,-8.055455e-10,-1.613837e-07,0.00019308529578771446
PART_002_R214G39B40A255,6017,-0.0001435887,4.738996e-05,4.739357e-05,1.772537e-05,1.002148e-08,-5.843104e-08,0.0001934324553691817
PART_003_R247G182B210A255,6018,-0.000215383,7.110887e-05,7.103935e-05,1.452033e-05,2.516058e-09,1.261983e-07,0.0002875591195585284
PART_003_R247G182B210A255,6019,-0.0002153828,7.10764e-05,7.108556e-05,1.331918e-05,-2.518073e-08,3.183561e-07,0.0002873917273278086
PART_003_R247G182B210A255,6020,-0.000215383,7.106314e-05,7.108029e-05,1.24938e-05,9.979783e-09,4.059847e-07,0.00028727179438845234
PART_001_R158G218B229A255,6021,-0.0002153828,7.108027e-05,7.106125e-05,1.198339e-05,2.676049e-09,3.623581e-07,0.0002872052247911444
PART_001_R158G218B229A255,6022,-0.0002153829,7.108013e-05,7.106444e-05,1.170198e-05,2.170552e-09,2.069244e-07,0.0002871715700988406
PART_001_R158G218B229A255,6023,-0.0002153828,7.108119e-05,7.105869e-05,1.161084e-05,-3.376553e-16,1.490939e-14,0.00028715780931347124
PART_001_R158G218B229A255,6024,-0.0002153829,7.108013e-05,7.106444e-05,1.170198e-05,-2.170552e-09,-2.069243e-07,0.00028717157009862447
PART_001_R158G218B229A255,6025,-0.0002153828,7.108027e-05,7.106125e-05,1.198339e-05,-2.676049e-09,-3.623581e-07,0.0002872052247911444
PART_001_R158G218B229A255,6026,-0.000215383,7.106314e-05,7.108029e-05,1.24938e-05,-9.979784e-09,-4.059846e-07,0.00028727179438802847
PART_002_R214G39B40A255,6027,-0.0002153828,7.10764e-05,7.108556e-05,1.331918e-05,2.518073e-08,-3.18356e-07,0.0002873917273274763
PART_002_R214G39B40A255,6028,-0.000215383,7.110887e-05,7.103935e-05,1.452033e-05,-2.516059e-09,-1.261983e-07,0.00028755911955852844
PART_003_R247G182B210A255,6029,-0.0002871773,9.477629e-05,9.48031e-05,9.932615e-06,-2.36201e-08,2.312751e-07,0.0003823544408907392
PART_003_R247G182B210A255,6030,-0.0002871771,9.475486e-05,9.476515e-05,8.856095e-06,2.302137e-08,6.334178e-07,0.0003822465810905569
PART_001_R158G218B229A255,6031,-0.0002871773,9.477438e-05,9.474402e-05,8.266722e-06,1.645705e-08,7.743448e-07,0.00038220715121977295
PART_001_R158G218B229A255,6032,-0.0002871771,9.478127e-05,9.474413e-05,7.924961e-06,4.835558e-09,6.407677e-07,0.0003821879886901382
PART_001_R158G218B229A255,6033,-0.0002871773,9.477486e-05,9.474421e-05,7.736565e-06,4.034346e-09,3.580858e-07,0.0003821723363530256
PART_001_R158G218B229A255,6034,-0.0002871771,9.478416e-05,9.474211e-05,7.679058e-06,-7.316671e-18,2.128571e-14,0.0003821717522702446
PART_001_R158G218B229A255,6035,-0.0002871773,9.477486e-05,9.474421e-05,7.736565e-06,-4.034347e-09,-3.580858e-07,0.0003821723363530256
PART_001_R158G218B229A255,6036,-0.0002871771,9.478127e-05,9.474413e-05,7.924961e-06,-4.835557e-09,-6.407677e-07,0.00038218798869013815
PART_001_R158G218B229A255,6037,-0.0002871773,9.477438e-05,9.474402e-05,8.266722e-06,-1.645705e-08,-7.743447e-07,0.00038220715121916514
PART_001_R158G218B229A255,6038,-0.0002871771,9.475486e-05,9.476515e-05,8.856095e-06,-2.302137e-08,-6.334178e-07,0.0003822465810905569
PART_002_R214G39B40A255,6039,-0.0002871773,9.477629e-05,9.48031e-05,9.932615e-06,2.36201e-08,-2.312751e-07,0.0003823544408907392
PART_003_R247G182B210A255,6040,-0.0003589716,0.0001185313,0.0001183519,3.648009e-06,3.634021e-08,6.234928e-07,0.0004774562616336179
PART_001_R158G218B229A255,6041,-0.0003589714,0.0001184633,0.0001184104,3.13495e-06,2.238299e-08,1.347988e-06,0.0004774448404992106
PART_001_R158G218B229A255,6042,-0.0003589716,0.0001184973,0.0001184093,2.938746e-06,4.377761e-09,1.372497e-06,0.00047745795724200363
PART_001_R158G218B229A255,6043,-0.0003589714,0.0001184666,0.0001184278,2.80921e-06,5.234265e-09,1.070271e-06,0.0004774469941886169
PART_001_R158G218B229A255,6044,-0.0003589716,0.000118487,0.000118422,2.747205e-06,7.365704e-10,5.776119e-07,0.00047745086285820533
PART_001_R158G218B229A255,6045,-0.0003589714,0.0001184677,0.0001184308,2.724427e-06,-4.291408e-17,2.880935e-14,0.0004774439711369963
PART_001_R158G218B229A255,6046,-0.0003589716,0.000118487,0.000118422,2.747205e-06,-7.365704e-10,-5.776119e-07,0.00047745086285820533
PART_001_R158G218B229A255,6047,-0.0003589714,0.0001184666,0.0001184278,2.80921e-06,-5.234265e-09,-1.070271e-06,0.0004774469941886169
PART_001_R158G218B229A255,6048,-0.0003589716,0.0001184973,0.0001184093,2.938746e-06,-4.377761e-09,-1.372497e-06,0.00047745795724200363
PART_001_R158G218B229A255,6049,-0.0003589714,0.0001184633,0.0001184104,3.13495e-06,-2.238299e-08,-1.347988e-06,0.0004774448404992106
PART_001_R158G218B229A255,6050,-0.0003589716,0.0001185313,0.0001183519,3.648009e-06,-3.634021e-08,-6.234928e-07,0.0004774562616336179
PART_003_R247G182B210A255,6051,0.0003544274,-0.0001170309,-0.0001168532,3.648029e-06,3.589077e-08,-6.234964e-07,0.00047141306359789085
PART_000_R31G119B180A255,6052,0.0003544276,-0.0001169638,-0.000116912,3.134938e-06,2.209341e-08,-1.347979e-06,0.0004714025590914639
PART_000_R31G119B180A255,6053,0.0003544275,-0.0001169973,-0.00011691,2.938753e-06,4.326423e-09,-1.372508e-06,0.000471414631179028
PART_000_R31G119B180A255,6054,0.0003544276,-0.000116967,-0.0001169292,2.809203e-06,5.165571e-09,-1.070262e-06,0.00047140445792217634
PART_000_R31G119B180A255,6055,0.0003544275,-0.0001169872,-0.0001169225,2.74721e-06,7.283935e-10,-5.776168e-07,0.00047140743040870376
PART_000_R31G119B180A255,6056,0.0003544276,-0.0001169681,-0.0001169321,2.724421e-06,-3.345611e-17,-2.879784e-14,0.00047140131993731805
PART_000_R31G119B180A255,6057,0.0003544275,-0.0001169872,-0.0001169225,2.74721e-06,-7.283935e-10,5.776168e-07,0.00047140743040870376
PART_000_R31G119B180A255,6058,0.0003544276,-0.000116967,-0.0001169292,2.809203e-06,-5.165572e-09,1.070262e-06,0.00047140445792217634
PART_000_R31G119B180A255,6059,0.0003544275,-0.0001169973,-0.00011691,2.938753e-06,-4.326423e-09,1.372508e-06,0.000471414631179028
PART_000_R31G119B180A255,6060,0.0003544276,-0.0001169638,-0.000116912,3.134938e-06,-2.209341e-08,1.347979e-06,0.0004714025590914639
PART_000_R31G119B180A255,6061,0.0003544274,-0.0001170309,-0.0001168532,3.648029e-06,-3.589077e-08,6.234964e-07,0.00047141306359789085
PART_003_R247G182B210A255,6062,0.0002835419,-9.35766e-05,-9.36026e-05,9.932598e-06,-2.332376e-08,-2.3128e-07,0.00037752390707297906
PART_003_R247G182B210A255,6063,0.0002835421,-9.355543e-05,-9.356603e-05,8.856101e-06,2.273003e-08,-6.33408e-07,0.000377416270476104
PART_000_R31G119B180A255,6064,0.000283542,-9.35747e-05,-9.354431e-05,8.266722e-06,1.624893e-08,-7.743551e-07,0.0003773756238992535
PART_000_R31G119B180A255,6065,0.0002835421,-9.35815e-05,-9.354525e-05,7.924964e-06,4.774118e-09,-6.407594e-07,0.00037735684333257963
PART_000_R31G119B180A255,6066,0.000283542,-9.357517e-05,-9.354451e-05,7.736567e-06,3.983417e-09,-3.580904e-07,0.00037734035906202153
PART_000_R31G119B180A255,6067,0.0002835421,-9.358436e-05,-9.354324e-05,7.67906e-06,9.940779e-18,-2.128475e-14,0.0003773403834343756
PART_000_R31G119B180A255,6068,0.000283542,-9.357517e-05,-9.354451e-05,7.736567e-06,-3.983418e-09,3.580903e-07,0.0003773403590617369
PART_000_R31G119B180A255,6069,0.0002835421,-9.35815e-05,-9.354525e-05,7.924964e-06,-4.774117e-09,6.407594e-07,0.00037735684333257963
PART_000_R31G119B180A255,6070,0.000283542,-9.35747e-05,-9.354431e-05,8.266722e-06,-1.624893e-08,7.743551e-07,0.0003773756238992535
PART_000_R31G119B180A255,6071,0.0002835421,-9.355543e-05,-9.356603e-05,8.856101e-06,-2.273003e-08,6.33408e-07,0.000377416270476104
PART_002_R214G39B40A255,6072,0.0002835419,-9.35766e-05,-9.36026e-05,9.932598e-06,2.332376e-08,2.3128e-07,0.00037752390707297906
PART_003_R247G182B210A255,6073,0.0002126565,-7.020875e-05,-7.013976e-05,1.452034e-05,2.485603e-09,-1.262006e-07,0.0002839468403822112
PART_003_R247G182B210A255,6074,0.0002126566,-7.01767e-05,-7.018609e-05,1.331918e-05,-2.486133e-08,-3.183495e-07,0.00028377779871377527
PART_003_R247G182B210A255,6075,0.0002126565,-7.016361e-05,-7.018021e-05,1.24938e-05,9.852999e-09,-4.059924e-07,0.0002836559352558121
PART_000_R31G119B180A255,6076,0.0002126566,-7.018053e-05,-7.016206e-05,1.198339e-05,2.642499e-09,-3.623518e-07,0.00028358916987623536
PART_000_R31G119B180A255,6077,0.0002126565,-7.018039e-05,-7.016457e-05,1.170197e-05,2.142921e-09,-2.069279e-07,0.00028355452543105553
PART_000_R31G119B180A255,6078,0.0002126566,-7.018143e-05,-7.015953e-05,1.161084e-05,-3.265981e-16,-1.490274e-14,0.000283541165190437
PART_000_R31G119B180A255,6079,0.0002126565,-7.018039e-05,-7.016457e-05,1.170197e-05,-2.14292e-09,2.069279e-07,0.0002835545254310555
PART_000_R31G119B180A255,6080,0.0002126566,-7.018053e-05,-7.016206e-05,1.198339e-05,-2.642499e-09,3.623517e-07,0.00028358916987585204
PART_000_R31G119B180A255,6081,0.0002126565,-7.016361e-05,-7.018021e-05,1.24938e-05,-9.852999e-09,4.059923e-07,0.0002836559352553827
PART_002_R214G39B40A255,6082,0.0002126566,-7.01767e-05,-7.018609e-05,1.331918e-05,2.486133e-08,3.183495e-07,0.00028377779871377527
PART_002_R214G39B40A255,6083,0.0002126565,-7.020875e-05,-7.013976e-05,1.452034e-05,-2.485603e-09,1.262006e-07,0.0002839468403822112
PART_003_R247G182B210A255,6084,0.000141771,-4.679009e-05,-4.679341e-05,1.772536e-05,-9.895719e-09,-5.843344e-08,0.00019104577041744367
PART_003_R247G182B210A255,6085,0.0001417711,-4.678949e-05,-4.677536e-05,1.645285e-05,7.948828e-10,-1.613789e-07,0.00019069504159882974
PART_003_R247G182B210A255,6086,0.000141771,-4.678405e-05,-4.678476e-05,1.553577e-05,-1.886109e-08,-2.068061e-07,0.0001904661402377912
PART_003_R247G182B210A255,6087,0.0001417711,-4.677695e-05,-4.678633e-05,1.492194e-05,2.920522e-09,-1.868164e-07,0.00019031614076130528
PART_000_R31G119B180A255,6088,0.000141771,-4.67869e-05,-4.677471e-05,1.457597e-05,-2.858905e-09,-1.104253e-07,0.00019023458305546988
PART_000_R31G119B180A255,6089,0.000141771,-4.67835e-05,-4.677994e-05,1.446381e-05,5.706884e-17,-9.402485e-15,0.00019020970960508798
PART_000_R31G119B180A255,6090,0.000141771,-4.67869e-05,-4.677471e-05,1.457597e-05,2.858904e-09,1.104253e-07,0.00019023458305546983
PART_000_R31G119B180A255,6091,0.0001417711,-4.677695e-05,-4.678633e-05,1.492194e-05,-2.920522e-09,1.868164e-07,0.00019031614076130528
PART_002_R214G39B40A255,6092,0.000141771,-4.678405e-05,-4.678476e-05,1.553577e-05,1.886109e-08,2.068061e-07,0.0001904661402377912
PART_002_R214G39B40A255,6093,0.0001417711,-4.678949e-05,-4.677536e-05,1.645285e-05,-7.94883e-10,1.613788e-07,0.00019069504159857588
PART_002_R214G39B40A255,6094,0.000141771,-4.679009e-05,-4.679341e-05,1.772536e-05,9.895719e-09,5.843344e-08,0.00019104577041744367
PART_003_R247G182B210A255,6095,7.088548e-05,-2.34017e-05,-2.338224e-05,1.962261e-05,-1.307587e-09,-2.573162e-08,0.00010021666689546033
PART_003_R247G182B210A255,6096,7.088553e-05,-2.339275e-05,-2.339538e-05,1.832412e-05,-1.914072e-08,-6.642192e-08,9.94785227805015e-05
PART_003_R247G182B210A255,6097,7.088549e-05,-2.339028e-05,-2.339168e-05,1.735702e-05,-1.332098e-09,-8.71143e-08,9.895389835170391e-05
PART_003_R247G182B210A255,6098,7.088553e-05,-2.33923e-05,-2.339039e-05,1.66989e-05,-1.487598e-08,-7.935151e-08,9.861393664184826e-05
PART_003_R247G182B210A255,6099,7.088549e-05,-2.338891e-05,-2.339267e-05,1.631658e-05,2.561727e-10,-4.673627e-08,9.842111502601703e-05
PART_000_R31G119B180A255,6100,7.088553e-05,-2.339341e-05,-2.33875e-05,1.619261e-05,-2.946007e-16,-4.540042e-15,9.835935761152878e-05
PART_000_R31G119B180A255,6101,7.088549e-05,-2.338891e-05,-2.339267e-05,1.631658e-05,-2.561726e-10,4.673626e-08,9.842111502600279e-05
PART_002_R214G39B40A255,6102,7.088553e-05,-2.33923e-05,-2.339039e-05,1.66989e-05,1.487598e-08,7.93515e-08,9.86139366418241e-05
PART_002_R214G39B40A255,6103,7.088549e-05,-2.339028e-05,-2.339168e-05,1.735702e-05,1.332097e-09,8.71143e-08,9.895389835170387e-05
PART_002_R214G39B40A255,6104,7.088553e-05,-2.339275e-05,-2.339538e-05,1.832412e-05,1.914072e-08,6.642192e-08,9.94785227805015e-05
PART_002_R214G39B40A255,6105,7.088548e-05,-2.34017e-05,-2.338224e-05,1.962261e-05,1.307587e-09,2.573162e-08,0.00010021666689546033
PART_003_R247G182B210A255,6106,7.736129e-14,-2.53686e-14,-2.538219e-14,2.025232e-05,-7.690865e-09,-2.082854e-18,3.5078049740477496e-05
PART_003_R247G182B210A255,6107,7.754832e-14,-2.491063e-14,-2.605535e-14,1.894418e-05,-3.237605e-09,-8.392318e-17,3.281228274691443e-05
PART_003_R247G182B210A255,6108,7.717004e-14,-2.459838e-14,-2.52845e-14,1.796588e-05,-2.046712e-08,-1.016639e-16,3.1117837155435516e-05
PART_003_R247G182B210A255,6109,7.724062e-14,-2.432082e-14,-2.585155e-14,1.72913e-05,-1.255469e-09,-8.739093e-17,2.9949410207858977e-05
PART_003_R247G182B210A255,6110,7.692425e-14,-2.396e-14,-2.531726e-14,1.690023e-05,-8.503128e-09,-5.725816e-17,2.927206072466128e-05
PART_003_R247G182B210A255,6111,7.708677e-14,-2.392531e-14,-2.584617e-14,1.677112e-05,2.951635e-17,-9.370302e-20,2.9048431939834554e-05
PART_002_R214G39B40A255,6112,7.685649e-14,-2.390449e-14,-2.528644e-14,1.690023e-05,8.503128e-09,4.984958e-17,2.927206072466128e-05
PART_002_R214G39B40A255,6113,7.710304e-14,-2.41196e-14,-2.584182e-14,1.72913e-05,1.255469e-09,8.509166e-17,2.9949410207858977e-05
PART_002_R214G39B40A255,6114,7.697499e-14,-2.439715e-14,-2.523886e-14,1.796588e-05,2.046712e-08,9.154309e-17,3.1117837155435516e-05
PART_002_R214G39B40A255,6115,7.730925e-14,-2.460532e-14,-2.601761e-14,1.894418e-05,3.237605e-09,7.560193e-17,3.281228274691443e-05
PART_002_R214G39B40A255,6116,7.707095e-14,-2.500083e-14,-2.526069e-14,2.025232e-05,7.690865e-09,2.017463e-17,3.5078049740477496e-05
PART_003_R247G182B210A255,6117,-7.088548e-05,2.34017e-05,2.338224e-05,1.962261e-05,-1.307588e-09,2.573162e-08,0.00010021666689546037
PART_003_R247G182B210A255,6118,-7.088553e-05,2.339275e-05,2.339538e-05,1.832412e-05,-1.914072e-08,6.642192e-08,9.94785227805015e-05
PART_003_R247G182B210A255,6119,-7.088549e-05,2.339028e-05,2.339168e-05,1.735702e-05,-1.332098e-09,8.71143e-08,9.895389835170391e-05
PART_003_R247G182B210A255,6120,-7.088553e-05,2.33923e-05,2.339039e-05,1.66989e-05,-1.487598e-08,7.935151e-08,9.861393664184826e-05
PART_003_R247G182B210A255,6121,-7.088549e-05,2.338891e-05,2.339267e-05,1.631658e-05,2.561727e-10,4.673626e-08,9.842111502600279e-05
PART_001_R158G218B229A255,6122,-7.088553e-05,2.339341e-05,2.33875e-05,1.619261e-05,-3.182701e-16,4.534102e-15,9.835935761152878e-05
PART_001_R158G218B229A255,6123,-7.088549e-05,2.338891e-05,2.339267e-05,1.631658e-05,-2.561726e-10,-4.673626e-08,9.842111502600279e-05
PART_002_R214G39B40A255,6124,-7.088553e-05,2.33923e-05,2.339039e-05,1.66989e-05,1.487598e-08,-7.93515e-08,9.86139366418241e-05
PART_002_R214G39B40A255,6125,-7.088549e-05,2.339028e-05,2.339168e-05,1.735702e-05,1.332097e-09,-8.71143e-08,9.895389835170387e-05
PART_002_R214G39B40A255,6126,-7.088553e-05,2.339275e-05,2.339538e-05,1.832412e-05,1.914072e-08,-6.642192e-08,9.94785227805015e-05
PART_002_R214G39B40A255,6127,-7.088548e-05,2.34017e-05,2.338224e-05,1.962261e-05,1.307588e-09,-2.573162e-08,0.00010021666689546037
PART_003_R247G182B210A255,6128,-0.000141771,4.679009e-05,4.679341e-05,1.772536e-05,-9.895719e-09,5.843344e-08,0.00019104577041744367
PART_003_R247G182B210A255,6129,-0.0001417711,4.678949e-05,4.677536e-05,1.645285e-05,7.948829e-10,1.613788e-07,0.00019069504159857588
PART_003_R247G182B210A255,6130,-0.000141771,4.678405e-05,4.678476e-05,1.553577e-05,-1.886109e-08,2.068061e-07,0.0001904661402377912
PART_003_R247G182B210A255,6131,-0.0001417711,4.677695e-05,4.678633e-05,1.492194e-05,2.920522e-09,1.868164e-07,0.00019031614076130528
PART_001_R158G218B229A255,6132,-0.000141771,4.67869e-05,4.677471e-05,1.457597e-05,-2.858905e-09,1.104253e-07,0.00019023458305546988
PART_001_R158G218B229A255,6133,-0.000141771,4.67835e-05,4.677994e-05,1.446381e-05,1.606449e-16,9.386654e-15,0.00019020970960508798
PART_001_R158G218B229A255,6134,-0.000141771,4.67869e-05,4.677471e-05,1.457597e-05,2.858904e-09,-1.104253e-07,0.00019023458305546983
PART_001_R158G218B229A255,6135,-0.0001417711,4.677695e-05,4.678633e-05,1.492194e-05,-2.920522e-09,-1.868164e-07,0.00019031614076130528
PART_002_R214G39B40A255,6136,-0.000141771,4.678405e-05,4.678476e-05,1.553577e-05,1.886109e-08,-2.068061e-07,0.0001904661402377912
PART_002_R214G39B40A255,6137,-0.0001417711,4.678949e-05,4.677536e-05,1.645285e-05,-7.948831e-10,-1.613788e-07,0.00019069504159857588
PART_002_R214G39B40A255,6138,-0.000141771,4.679009e-05,4.679341e-05,1.772536e-05,9.895719e-09,-5.843344e-08,0.00019104577041744367
PART_003_R247G182B210A255,6139,-0.0002126565,7.020875e-05,7.013976e-05,1.452034e-05,2.485603e-09,1.262006e-07,0.0002839468403822112
PART_003_R247G182B210A255,6140,-0.0002126566,7.01767e-05,7.018609e-05,1.331918e-05,-2.486133e-08,3.183495e-07,0.00028377779871377527
PART_003_R247G182B210A255,6141,-0.0002126565,7.016361e-05,7.018021e-05,1.24938e-05,9.852999e-09,4.059924e-07,0.0002836559352558121
PART_001_R158G218B229A255,6142,-0.0002126566,7.018052e-05,7.016206e-05,1.198339e-05,2.642499e-09,3.623518e-07,0.00028358916488916916
PART_001_R158G218B229A255,6143,-0.0002126565,7.018039e-05,7.016457e-05,1.170197e-05,2.142921e-09,2.069279e-07,0.00028355452543105553
PART_001_R158G218B229A255,6144,-0.0002126566,7.018143e-05,7.015953e-05,1.161084e-05,-2.935367e-16,1.490972e-14,0.000283541165190437
PART_001_R158G218B229A255,6145,-0.0002126565,7.018039e-05,7.016457e-05,1.170197e-05,-2.14292e-09,-2.069279e-07,0.0002835545254310555
PART_001_R158G218B229A255,6146,-0.0002126566,7.018052e-05,7.016206e-05,1.198339e-05,-2.642499e-09,-3.623517e-07,0.00028358916488878584
PART_001_R158G218B229A255,6147,-0.0002126565,7.016361e-05,7.018021e-05,1.24938e-05,-9.852999e-09,-4.059923e-07,0.0002836559352553827
PART_002_R214G39B40A255,6148,-0.0002126566,7.01767e-05,7.018609e-05,1.331918e-05,2.486133e-08,-3.183495e-07,0.00028377779871377527
PART_002_R214G39B40A255,6149,-0.0002126565,7.020875e-05,7.013976e-05,1.452034e-05,-2.485604e-09,-1.262006e-07,0.0002839468403822112
PART_003_R247G182B210A255,6150,-0.0002835419,9.35766e-05,9.36026e-05,9.932598e-06,-2.332376e-08,2.3128e-07,0.00037752390707297906
PART_003_R247G182B210A255,6151,-0.0002835421,9.355543e-05,9.356603e-05,8.856101e-06,2.273003e-08,6.33408e-07,0.000377416270476104
PART_001_R158G218B229A255,6152,-0.000283542,9.35747e-05,9.354431e-05,8.266722e-06,1.624893e-08,7.743551e-07,0.0003773756238992535
PART_001_R158G218B229A255,6153,-0.0002835421,9.35815e-05,9.354525e-05,7.924964e-06,4.774118e-09,6.407594e-07,0.00037735684333257963
PART_001_R158G218B229A255,6154,-0.000283542,9.357517e-05,9.354451e-05,7.736567e-06,3.983417e-09,3.580904e-07,0.00037734035906202153
PART_001_R158G218B229A255,6155,-0.0002835421,9.358436e-05,9.354324e-05,7.67906e-06,5.245336e-17,2.125871e-14,0.0003773403834343756
PART_001_R158G218B229A255,6156,-0.000283542,9.357517e-05,9.354451e-05,7.736567e-06,-3.983418e-09,-3.580903e-07,0.0003773403590617369
PART_001_R158G218B229A255,6157,-0.0002835421,9.35815e-05,9.354525e-05,7.924964e-06,-4.774117e-09,-6.407594e-07,0.00037735684333257963
PART_001_R158G218B229A255,6158,-0.000283542,9.35747e-05,9.354431e-05,8.266722e-06,-1.624893e-08,-7.743551e-07,0.0003773756238992535
PART_001_R158G218B229A255,6159,-0.0002835421,9.355543e-05,9.356603e-05,8.856101e-06,-2.273003e-08,-6.33408e-07,0.000377416270476104
PART_002_R214G39B40A255,6160,-0.0002835419,9.35766e-05,9.36026e-05,9.932598e-06,2.332376e-08,-2.3128e-07,0.00037752390707297906
PART_003_R247G182B210A255,6161,-0.0003544274,0.0001170309,0.0001168532,3.648029e-06,3.589077e-08,6.234964e-07,0.00047141306359789085
PART_001_R158G218B229A255,6162,-0.0003544276,0.0001169638,0.000116912,3.134938e-06,2.209341e-08,1.347979e-06,0.0004714025590914639
PART_001_R158G218B229A255,6163,-0.0003544275,0.0001169973,0.00011691,2.938753e-06,4.326423e-09,1.372508e-06,0.000471414631179028
PART_001_R158G218B229A255,6164,-0.0003544276,0.000116967,0.0001169292,2.809203e-06,5.165571e-09,1.070262e-06,0.00047140445792217634
PART_001_R158G218B229A255,6165,-0.0003544275,0.0001169872,0.0001169225,2.74721e-06,7.283934e-10,5.776168e-07,0.00047140743040870376
PART_001_R158G218B229A255,6166,-0.0003544276,0.0001169681,0.0001169321,2.724421e-06,-9.31516e-17,2.879637e-14,0.00047140131993731805
PART_001_R158G218B229A255,6167,-0.0003544275,0.0001169872,0.0001169225,2.74721e-06,-7.283934e-10,-5.776168e-07,0.00047140743040870376
PART_001_R158G218B229A255,6168,-0.0003544276,0.000116967,0.0001169292,2.809203e-06,-5.165572e-09,-1.070262e-06,0.00047140445792217634
PART_001_R158G218B229A255,6169,-0.0003544275,0.0001169973,0.00011691,2.938753e-06,-4.326423e-09,-1.372508e-06,0.000471414631179028
PART_001_R158G218B229A255,6170,-0.0003544276,0.0001169638,0.000116912,3.134938e-06,-2.209341e-08,-1.347979e-06,0.0004714025590914639
PART_001_R158G218B229A255,6171,-0.0003544274,0.0001170309,0.0001168532,3.648029e-06,-3.589077e-08,-6.234964e-07,0.00047141306359789085
PART_003_R247G182B210A255,6172,0.0003498837,-0.0001155305,-0.0001153555,3.648013e-06,3.542202e-08,-6.234935e-07,0.00046537087864925177
PART_000_R31G119B180A255,6173,0.0003498835,-0.0001154642,-0.0001154128,3.134948e-06,2.181527e-08,-1.347987e-06,0.00046535954056721847
PART_000_R31G119B180A255,6174,0.0003498837,-0.0001154974,-0.0001154115,2.938747e-06,4.267632e-09,-1.372499e-06,0.0004653720655523632
PART_000_R31G119B180A255,6175,0.0003498835,-0.0001154674,-0.0001154297,2.809209e-06,5.101335e-09,-1.07027e-06,0.0004653611815573755
PART_000_R31G119B180A255,6176,0.0003498837,-0.0001154873,-0.0001154239,2.747206e-06,7.181206e-10,-5.776128e-07,0.0004653647058735402
PART_000_R31G119B180A255,6177,0.0003498835,-0.0001154685,-0.0001154326,2.724425e-06,-2.793938e-17,-2.876043e-14,0.0004653579767563374
PART_000_R31G119B180A255,6178,0.0003498837,-0.0001154873,-0.0001154239,2.747206e-06,-7.181206e-10,5.776128e-07,0.0004653647058735402
PART_000_R31G119B180A255,6179,0.0003498835,-0.0001154674,-0.0001154297,2.809209e-06,-5.101336e-09,1.07027e-06,0.00046536118155737554
PART_000_R31G119B180A255,6180,0.0003498837,-0.0001154974,-0.0001154115,2.938747e-06,-4.267632e-09,1.372499e-06,0.0004653720655523632
PART_000_R31G119B180A255,6181,0.0003498835,-0.0001154642,-0.0001154128,3.134948e-06,-2.181526e-08,1.347987e-06,0.00046535954056721706
PART_000_R31G119B180A255,6182,0.0003498837,-0.0001155305,-0.0001153555,3.648013e-06,-3.542202e-08,6.234935e-07,0.00046537087864925177
PART_003_R247G182B210A255,6183,0.000279907,-9.237689e-05,-9.240294e-05,9.932612e-06,-2.302257e-08,-2.31276e-07,0.0003726944134633325
PART_003_R247G182B210A255,6184,0.0002799068,-9.2356e-05,-9.236611e-05,8.856096e-06,2.243856e-08,-6.33416e-07,0.00037258536258151346
PART_000_R31G119B180A255,6185,0.0002799069,-9.237503e-05,-9.234537e-05,8.266722e-06,1.604045e-08,-7.743467e-07,0.0003725447759537047
PART_000_R31G119B180A255,6186,0.0002799068,-9.238174e-05,-9.234562e-05,7.924962e-06,4.713104e-09,-6.407662e-07,0.00037252511074642306
PART_000_R31G119B180A255,6187,0.0002799069,-9.237549e-05,-9.234555e-05,7.736565e-06,3.932236e-09,-3.580866e-07,0.00037250903439270237
PART_000_R31G119B180A255,6188,0.0002799068,-9.238456e-05,-9.234364e-05,7.679059e-06,4.007059e-17,-2.124899e-14,0.00037250842686309963
PART_000_R31G119B180A255,6189,0.0002799069,-9.237549e-05,-9.234555e-05,7.736565e-06,-3.932237e-09,3.580866e-07,0.0003725090343927024
PART_000_R31G119B180A255,6190,0.0002799068,-9.238174e-05,-9.234562e-05,7.924962e-06,-4.713103e-09,6.407661e-07,0.00037252511074590703
PART_000_R31G119B180A255,6191,0.0002799069,-9.237503e-05,-9.234537e-05,8.266722e-06,-1.604045e-08,7.743466e-07,0.0003725447759530812
PART_000_R31G119B180A255,6192,0.0002799068,-9.2356e-05,-9.236611e-05,8.856096e-06,-2.243856e-08,6.33416e-07,0.00037258536258151346
PART_002_R214G39B40A255,6193,0.000279907,-9.237689e-05,-9.240294e-05,9.932612e-06,2.302257e-08,2.31276e-07,0.0003726944134633325
PART_003_R247G182B210A255,6194,0.0002099302,-6.930864e-05,-6.924083e-05,1.452033e-05,2.452604e-09,-1.261988e-07,0.00028033545427466925
PART_003_R247G182B210A255,6195,0.0002099301,-6.9277e-05,-6.928598e-05,1.331918e-05,-2.454312e-08,-3.183548e-07,0.0002801635586132784
PART_003_R247G182B210A255,6196,0.0002099302,-6.926408e-05,-6.928073e-05,1.24938e-05,9.727059e-09,-4.059861e-07,0.0002800408447352102
PART_000_R31G119B180A255,6197,0.0002099301,-6.928077e-05,-6.926228e-05,1.198339e-05,2.608362e-09,-3.62357e-07,0.0002799727602730737
PART_000_R31G119B180A255,6198,0.0002099302,-6.928063e-05,-6.926528e-05,1.170198e-05,2.115578e-09,-2.06925e-07,0.00027993809925361355
PART_000_R31G119B180A255,6199,0.0002099301,-6.928167e-05,-6.925979e-05,1.161084e-05,-2.56302e-16,-1.488747e-14,0.0002799241658882929
PART_000_R31G119B180A255,6200,0.0002099302,-6.928063e-05,-6.926528e-05,1.170198e-05,-2.115578e-09,2.06925e-07,0.00027993809925361355
PART_000_R31G119B180A255,6201,0.0002099301,-6.928077e-05,-6.926228e-05,1.198339e-05,-2.608363e-09,3.623569e-07,0.0002799727602726855
PART_000_R31G119B180A255,6202,0.0002099302,-6.926408e-05,-6.928073e-05,1.24938e-05,-9.72706e-09,4.05986e-07,0.00028004084473477536
PART_002_R214G39B40A255,6203,0.0002099301,-6.9277e-05,-6.928598e-05,1.331918e-05,2.454312e-08,3.183548e-07,0.0002801635586132784
PART_002_R214G39B40A255,6204,0.0002099302,-6.930864e-05,-6.924083e-05,1.452033e-05,-2.452604e-09,1.261987e-07,0.0002803354542745342
PART_003_R247G182B210A255,6205,0.0001399535,-4.619021e-05,-4.619369e-05,1.772537e-05,-9.76796e-09,-5.843147e-08,0.0001886602907838456
PART_003_R247G182B210A255,6206,0.0001399534,-4.618963e-05,-4.617549e-05,1.645285e-05,7.850767e-10,-1.613828e-07,0.00018830497260963994
PART_003_R247G182B210A255,6207,0.0001399535,-4.618425e-05,-4.618513e-05,1.553576e-05,-1.861933e-08,-2.068019e-07,0.0001880734820077131
PART_003_R247G182B210A255,6208,0.0001399534,-4.617725e-05,-4.618633e-05,1.492193e-05,2.883061e-09,-1.868198e-07,0.00018792127535964293
PART_000_R31G119B180A255,6209,0.0001399535,-4.618707e-05,-4.617521e-05,1.457597e-05,-2.822224e-09,-1.104234e-07,0.00018783907373500235
PART_000_R31G119B180A255,6210,0.0001399534,-4.618371e-05,-4.618003e-05,1.446381e-05,1.472122e-16,-9.378215e-15,0.0001878135888248718
PART_000_R31G119B180A255,6211,0.0001399535,-4.618707e-05,-4.617521e-05,1.457597e-05,2.822223e-09,1.104234e-07,0.0001878390737350023
PART_000_R31G119B180A255,6212,0.0001399534,-4.617725e-05,-4.618633e-05,1.492193e-05,-2.883061e-09,1.868198e-07,0.00018792127535964293
PART_002_R214G39B40A255,6213,0.0001399535,-4.618425e-05,-4.618513e-05,1.553576e-05,1.861933e-08,2.068019e-07,0.0001880734820077131
PART_002_R214G39B40A255,6214,0.0001399534,-4.618963e-05,-4.617549e-05,1.645285e-05,-7.85077e-10,1.613828e-07,0.00018830497260963994
PART_002_R214G39B40A255,6215,0.0001399535,-4.619021e-05,-4.619369e-05,1.772537e-05,9.76796e-09,5.843147e-08,0.0001886602907838456
PART_003_R247G182B210A255,6216,6.997674e-05,-2.310168e-05,-2.308256e-05,1.962261e-05,-1.291485e-09,-2.573097e-08,9.908055024458107e-05
PART_003_R247G182B210A255,6217,6.99767e-05,-2.309284e-05,-2.309535e-05,1.832412e-05,-1.889589e-08,-6.642379e-08,9.833365301616689e-05
PART_003_R247G182B210A255,6218,6.997674e-05,-2.30904e-05,-2.309188e-05,1.735703e-05,-1.314818e-09,-8.711213e-08,9.780313150076393e-05
PART_003_R247G182B210A255,6219,6.997671e-05,-2.30924e-05,-2.309042e-05,1.66989e-05,-1.468536e-08,-7.935329e-08,9.745898770620387e-05
PART_003_R247G182B210A255,6220,6.997673e-05,-2.308905e-05,-2.309285e-05,1.631658e-05,2.529325e-10,-4.673528e-08,9.726403226708584e-05
PART_000_R31G119B180A255,6221,6.997671e-05,-2.309349e-05,-2.308757e-05,1.619261e-05,-2.28145e-16,-4.52904e-15,9.720140453377565e-05
PART_000_R31G119B180A255,6222,6.997673e-05,-2.308905e-05,-2.309285e-05,1.631658e-05,-2.529325e-10,4.673527e-08,9.726403226707142e-05
PART_002_R214G39B40A255,6223,6.997671e-05,-2.30924e-05,-2.309042e-05,1.66989e-05,1.468535e-08,7.935328e-08,9.745898770617492e-05
PART_002_R214G39B40A255,6224,6.997674e-05,-2.30904e-05,-2.309188e-05,1.735703e-05,1.314818e-09,8.711212e-08,9.78031315007372e-05
PART_002_R214G39B40A255,6225,6.99767e-05,-2.309284e-05,-2.309535e-05,1.832412e-05,1.889589e-08,6.642379e-08,9.833365301616689e-05
PART_002_R214G39B40A255,6226,6.997674e-05,-2.310168e-05,-2.308256e-05,1.962261e-05,1.291485e-09,2.573097e-08,9.908055024458107e-05
PART_003_R247G182B210A255,6227,7.691547e-14,-2.547268e-14,-2.57233e-14,2.025233e-05,-7.591559e-09,-3.195601e-17,3.5078066996087516e-05
PART_003_R247G182B210A255,6228,7.665765e-14,-2.580575e-14,-2.507231e-14,1.894418e-05,-3.195718e-09,-5.453368e-17,3.28122827345956e-05
PART_003_R247G182B210A255,6229,7.70974e-14,-2.639555e-14,-2.560844e-14,1.796588e-05,-2.020468e-08,-9.195898e-17,3.111783664091194e-05
PART_003_R247G182B210A255,6230,7.69674e-14,-2.700618e-14,-2.488207e-14,1.72913e-05,-1.239461e-09,-8.899267e-17,2.9949410205858658e-05
PART_003_R247G182B210A255,6231,7.731283e-14,-2.717271e-14,-2.562445e-14,1.690023e-05,-8.394051e-09,-4.775392e-17,2.9272060630214892e-05
PART_003_R247G182B210A255,6232,7.709382e-14,-2.739475e-14,-2.489373e-14,1.677111e-05,5.637851e-17,-1.848025e-17,2.9048414619326475e-05
PART_002_R214G39B40A255,6233,7.728811e-14,-2.72421e-14,-2.556451e-14,1.690023e-05,8.394051e-09,3.641606e-17,2.9272060630214892e-05
PART_002_R214G39B40A255,6234,7.695667e-14,-2.70825e-14,-2.4899e-14,1.72913e-05,1.239461e-09,8.607761e-17,2.9949410205858658e-05
PART_002_R214G39B40A255,6235,7.709057e-14,-2.670086e-14,-2.553894e-14,1.796588e-05,2.020468e-08,9.194458e-17,3.111783664091194e-05
PART_002_R214G39B40A255,6236,7.662924e-14,-2.616657e-14,-2.503744e-14,1.894418e-05,3.195718e-09,5.90221e-17,3.28122827345956e-05
PART_002_R214G39B40A255,6237,7.687481e-14,-2.598616e-14,-2.563825e-14,2.025233e-05,7.591559e-09,4.025101e-18,3.5078066996087516e-05
PART_003_R247G182B210A255,6238,-6.997674e-05,2.310168e-05,2.308256e-05,1.962261e-05,-1.291485e-09,2.573097e-08,9.908055024458107e-05
PART_003_R247G182B210A255,6239,-6.99767e-05,2.309284e-05,2.309535e-05,1.832412e-05,-1.889589e-08,6.642379e-08,9.833365301616689e-05
PART_003_R247G182B210A255,6240,-6.997674e-05,2.30904e-05,2.309188e-05,1.735703e-05,-1.314818e-09,8.711213e-08,9.780313150076393e-05
PART_003_R247G182B210A255,6241,-6.997671e-05,2.30924e-05,2.309042e-05,1.66989e-05,-1.468536e-08,7.935328e-08,9.745898770617945e-05
PART_003_R247G182B210A255,6242,-6.997673e-05,2.308905e-05,2.309285e-05,1.631658e-05,2.529326e-10,4.673528e-08,9.726403226708584e-05
PART_001_R158G218B229A255,6243,-6.997671e-05,2.309349e-05,2.308757e-05,1.619261e-05,-2.87375e-16,4.544837e-15,9.720140453377565e-05
PART_001_R158G218B229A255,6244,-6.997673e-05,2.308905e-05,2.309285e-05,1.631658e-05,-2.529325e-10,-4.673527e-08,9.726403226707142e-05
PART_002_R214G39B40A255,6245,-6.997671e-05,2.30924e-05,2.309042e-05,1.66989e-05,1.468535e-08,-7.935328e-08,9.745898770617492e-05
PART_002_R214G39B40A255,6246,-6.997674e-05,2.30904e-05,2.309188e-05,1.735703e-05,1.314818e-09,-8.711212e-08,9.78031315007372e-05
PART_002_R214G39B40A255,6247,-6.99767e-05,2.309284e-05,2.309535e-05,1.832412e-05,1.889589e-08,-6.642379e-08,9.833365301616689e-05
PART_002_R214G39B40A255,6248,-6.997674e-05,2.310168e-05,2.308256e-05,1.962261e-05,1.291485e-09,-2.573097e-08,9.908055024458107e-05
PART_003_R247G182B210A255,6249,-0.0001399535,4.619021e-05,4.619369e-05,1.772537e-05,-9.76796e-09,5.843147e-08,0.0001886602907838456
PART_003_R247G182B210A255,6250,-0.0001399534,4.618963e-05,4.617549e-05,1.645285e-05,7.850768e-10,1.613828e-07,0.00018830497260963994
PART_003_R247G182B210A255,6251,-0.0001399535,4.618425e-05,4.618513e-05,1.553576e-05,-1.861933e-08,2.068019e-07,0.0001880734820077131
PART_003_R247G182B210A255,6252,-0.0001399534,4.617725e-05,4.618633e-05,1.492193e-05,2.883061e-09,1.868198e-07,0.00018792127535964293
PART_001_R158G218B229A255,6253,-0.0001399535,4.618707e-05,4.617521e-05,1.457597e-05,-2.822224e-09,1.104234e-07,0.00018783907373500235
PART_001_R158G218B229A255,6254,-0.0001399534,4.618371e-05,4.618003e-05,1.446381e-05,1.488453e-16,9.368037e-15,0.0001878135888248718
PART_001_R158G218B229A255,6255,-0.0001399535,4.618707e-05,4.617521e-05,1.457597e-05,2.822223e-09,-1.104234e-07,0.0001878390737350023
PART_001_R158G218B229A255,6256,-0.0001399534,4.617725e-05,4.618633e-05,1.492193e-05,-2.883061e-09,-1.868198e-07,0.00018792127535964293
PART_002_R214G39B40A255,6257,-0.0001399535,4.618425e-05,4.618513e-05,1.553576e-05,1.861933e-08,-2.068019e-07,0.0001880734820077131
PART_002_R214G39B40A255,6258,-0.0001399534,4.618963e-05,4.617549e-05,1.645285e-05,-7.85077e-10,-1.613828e-07,0.00018830497260963994
PART_002_R214G39B40A255,6259,-0.0001399535,4.619021e-05,4.619369e-05,1.772537e-05,9.76796e-09,-5.843147e-08,0.0001886602907838456
PART_003_R247G182B210A255,6260,-0.0002099302,6.930864e-05,6.924083e-05,1.452033e-05,2.452604e-09,1.261988e-07,0.00028033545427466925
PART_003_R247G182B210A255,6261,-0.0002099301,6.9277e-05,6.928598e-05,1.331918e-05,-2.454312e-08,3.183548e-07,0.0002801635586132784
PART_003_R247G182B210A255,6262,-0.0002099302,6.926408e-05,6.928073e-05,1.24938e-05,9.727059e-09,4.059861e-07,0.0002800408447352102
PART_001_R158G218B229A255,6263,-0.0002099301,6.928077e-05,6.926228e-05,1.198339e-05,2.608362e-09,3.62357e-07,0.0002799727602730737
PART_001_R158G218B229A255,6264,-0.0002099302,6.928063e-05,6.926528e-05,1.170198e-05,2.115578e-09,2.06925e-07,0.00027993809925361355
PART_001_R158G218B229A255,6265,-0.0002099301,6.928167e-05,6.925979e-05,1.161084e-05,-3.560833e-16,1.485789e-14,0.0002799241658882929
PART_001_R158G218B229A255,6266,-0.0002099302,6.928063e-05,6.926528e-05,1.170198e-05,-2.115578e-09,-2.06925e-07,0.00027993809925361355
PART_001_R158G218B229A255,6267,-0.0002099301,6.928077e-05,6.926228e-05,1.198339e-05,-2.608363e-09,-3.623569e-07,0.0002799727602726855
PART_001_R158G218B229A255,6268,-0.0002099302,6.926408e-05,6.928073e-05,1.24938e-05,-9.72706e-09,-4.05986e-07,0.00028004084473477536
PART_002_R214G39B40A255,6269,-0.0002099301,6.9277e-05,6.928598e-05,1.331918e-05,2.454312e-08,-3.183548e-07,0.0002801635586132784
PART_002_R214G39B40A255,6270,-0.0002099302,6.930864e-05,6.924083e-05,1.452033e-05,-2.452604e-09,-1.261987e-07,0.0002803354542745342
PART_003_R247G182B210A255,6271,-0.000279907,9.237689e-05,9.240294e-05,9.932612e-06,-2.302257e-08,2.31276e-07,0.0003726944134633325
PART_003_R247G182B210A255,6272,-0.0002799068,9.2356e-05,9.236611e-05,8.856096e-06,2.243856e-08,6.33416e-07,0.00037258536258151346
PART_001_R158G218B229A255,6273,-0.0002799069,9.237503e-05,9.234537e-05,8.266722e-06,1.604045e-08,7.743467e-07,0.0003725447759537047
PART_001_R158G218B229A255,6274,-0.0002799068,9.238174e-05,9.234562e-05,7.924962e-06,4.713104e-09,6.407662e-07,0.00037252511074642306
PART_001_R158G218B229A255,6275,-0.0002799069,9.237549e-05,9.234555e-05,7.736565e-06,3.932236e-09,3.580866e-07,0.00037250903439270237
PART_001_R158G218B229A255,6276,-0.0002799068,9.238456e-05,9.234364e-05,7.679059e-06,-3.759979e-18,2.12722e-14,0.00037250842686309963
PART_001_R158G218B229A255,6277,-0.0002799069,9.237549e-05,9.234555e-05,7.736565e-06,-3.932237e-09,-3.580866e-07,0.0003725090343927024
PART_001_R158G218B229A255,6278,-0.0002799068,9.238174e-05,9.234562e-05,7.924962e-06,-4.713103e-09,-6.407661e-07,0.00037252511074590703
PART_001_R158G218B229A255,6279,-0.0002799069,9.237503e-05,9.234537e-05,8.266722e-06,-1.604045e-08,-7.743466e-07,0.0003725447759530812
PART_001_R158G218B229A255,6280,-0.0002799068,9.2356e-05,9.236611e-05,8.856096e-06,-2.243856e-08,-6.33416e-07,0.00037258536258151346
PART_002_R214G39B40A255,6281,-0.000279907,9.237689e-05,9.240294e-05,9.932612e-06,2.302257e-08,-2.31276e-07,0.0003726944134633325
PART_003_R247G182B210A255,6282,-0.0003498837,0.0001155305,0.0001153555,3.648013e-06,3.542202e-08,6.234935e-07,0.00046537087864925177
PART_001_R158G218B229A255,6283,-0.0003498835,0.0001154642,0.0001154128,3.134948e-06,2.181526e-08,1.347987e-06,0.00046535954056721706
PART_001_R158G218B229A255,6284,-0.0003498837,0.0001154974,0.0001154115,2.938747e-06,4.267632e-09,1.372499e-06,0.0004653720655523632
PART_001_R158G218B229A255,6285,-0.0003498835,0.0001154674,0.0001154297,2.809209e-06,5.101335e-09,1.07027e-06,0.0004653611815573755
PART_001_R158G218B229A255,6286,-0.0003498837,0.0001154873,0.0001154239,2.747206e-06,7.181206e-10,5.776128e-07,0.0004653647058735402
PART_001_R158G218B229A255,6287,-0.0003498835,0.0001154685,0.0001154326,2.724425e-06,-5.743392e-17,2.873935e-14,0.0004653579767563374
PART_001_R158G218B229A255,6288,-0.0003498837,0.0001154873,0.0001154239,2.747206e-06,-7.181205e-10,-5.776128e-07,0.0004653647058735402
PART_001_R158G218B229A255,6289,-0.0003498835,0.0001154674,0.0001154297,2.809209e-06,-5.101336e-09,-1.07027e-06,0.00046536118155737554
PART_001_R158G218B229A255,6290,-0.0003498837,0.0001154974,0.0001154115,2.938747e-06,-4.267632e-09,-1.372499e-06,0.0004653720655523632
PART_001_R158G218B229A255,6291,-0.0003498835,0.0001154642,0.0001154128,3.134948e-06,-2.181526e-08,-1.347987e-06,0.00046535954056721706
PART_001_R158G218B229A255,6292,-0.0003498837,0.0001155305,0.0001153555,3.648013e-06,-3.542202e-08,-6.234935e-07,0.00046537087864925177
PART_003_R247G182B210A255,6293,0.0003453396,-0.0001140301,-0.0001138571,3.648026e-06,3.496902e-08,-6.234959e-07,0.000459327959567006
PART_000_R31G119B180A255,6294,0.0003453397,-0.0001139647,-0.0001139142,3.13494e-06,2.152778e-08,-1.347981e-06,0.00045931718412496364
PART_000_R31G119B180A255,6295,0.0003453396,-0.0001139974,-0.0001139124,2.938752e-06,4.21492e-09,-1.372506e-06,0.00045932886183039845
PART_000_R31G119B180A255,6296,0.0003453397,-0.0001139679,-0.0001139309,2.809204e-06,5.033461e-09,-1.070264e-06,0.00045931861464347073
PART_000_R31G119B180A255,6297,0.0003453396,-0.0001139875,-0.0001139245,2.747209e-06,7.095569e-10,-5.776161e-07,0.0004593213401863301
PART_000_R31G119B180A255,6298,0.0003453397,-0.0001139689,-0.0001139338,2.724422e-06,-6.649547e-17,-2.867205e-14,0.00045931529145001496
PART_000_R31G119B180A255,6299,0.0003453396,-0.0001139875,-0.0001139245,2.747209e-06,-7.095568e-10,5.77616e-07,0.0004593213401859528
PART_000_R31G119B180A255,6300,0.0003453397,-0.0001139679,-0.0001139309,2.809204e-06,-5.033462e-09,1.070264e-06,0.00045931861464347073
PART_000_R31G119B180A255,6301,0.0003453396,-0.0001139974,-0.0001139124,2.938752e-06,-4.21492e-09,1.372506e-06,0.00045932886183039845
PART_000_R31G119B180A255,6302,0.0003453397,-0.0001139647,-0.0001139142,3.13494e-06,-2.152778e-08,1.347981e-06,0.00045931718412496364
PART_000_R31G119B180A255,6303,0.0003453396,-0.0001140301,-0.0001138571,3.648026e-06,-3.496902e-08,6.234958e-07,0.00045932795956659875
PART_003_R247G182B210A255,6304,0.0002762717,-9.11772e-05,-9.12026e-05,9.932601e-06,-2.272534e-08,-2.312793e-07,0.00036786432236080285
PART_003_R247G182B210A255,6305,0.0002762718,-9.115657e-05,-9.116684e-05,8.8561e-06,2.21472e-08,-6.334095e-07,0.00036775518662773366
PART_000_R31G119B180A255,6306,0.0002762717,-9.117535e-05,-9.11458e-05,8.266722e-06,1.583226e-08,-7.743536e-07,0.0003677136019607219
PART_000_R31G119B180A255,6307,0.0002762718,-9.118198e-05,-9.11466e-05,7.924963e-06,4.651739e-09,-6.407606e-07,0.00036769406859005226
PART_000_R31G119B180A255,6308,0.0002762717,-9.117581e-05,-9.114599e-05,7.736566e-06,3.881261e-09,-3.580897e-07,0.0003676773916084502
PART_000_R31G119B180A255,6309,0.0002762718,-9.118476e-05,-9.114464e-05,7.67906e-06,-3.304191e-17,-2.120699e-14,0.00036767714999291377
PART_000_R31G119B180A255,6310,0.0002762717,-9.117581e-05,-9.114599e-05,7.736566e-06,-3.881262e-09,3.580896e-07,0.0003676773916081581
PART_000_R31G119B180A255,6311,0.0002762718,-9.118198e-05,-9.11466e-05,7.924963e-06,-4.651739e-09,6.407606e-07,0.00036769406859005226
PART_000_R31G119B180A255,6312,0.0002762717,-9.117535e-05,-9.11458e-05,8.266721e-06,-1.583226e-08,7.743535e-07,0.00036771360189264595
PART_000_R31G119B180A255,6313,0.0002762718,-9.115657e-05,-9.116684e-05,8.8561e-06,-2.21472e-08,6.334094e-07,0.00036775518662721693
PART_002_R214G39B40A255,6314,0.0002762717,-9.11772e-05,-9.12026e-05,9.932601e-06,2.272534e-08,2.312793e-07,0.00036786432236080285
PART_003_R247G182B210A255,6315,0.0002072037,-6.840852e-05,-6.834135e-05,1.452034e-05,2.421676e-09,-1.262002e-07,0.00027672397089976086
PART_003_R247G182B210A255,6316,0.0002072038,-6.83773e-05,-6.83864e-05,1.331918e-05,-2.422395e-08,-3.183505e-07,0.00027655010037454155
PART_003_R247G182B210A255,6317,0.0002072038,-6.836455e-05,-6.838077e-05,1.24938e-05,9.600426e-09,-4.059912e-07,0.0002764256959507127
PART_000_R31G119B180A255,6318,0.0002072038,-6.838102e-05,-6.836299e-05,1.198339e-05,2.574701e-09,-3.623527e-07,0.0002763570577553789
PART_000_R31G119B180A255,6319,0.0002072038,-6.838089e-05,-6.836552e-05,1.170197e-05,2.087998e-09,-2.069274e-07,0.00027632159278188196
PART_000_R31G119B180A255,6320,0.0002072038,-6.838191e-05,-6.836052e-05,1.161084e-05,-3.544884e-16,-1.483239e-14,0.00027630784290699404
PART_000_R31G119B180A255,6321,0.0002072038,-6.838089e-05,-6.836552e-05,1.170197e-05,-2.087998e-09,2.069273e-07,0.0002763215927816573
PART_000_R31G119B180A255,6322,0.0002072038,-6.838102e-05,-6.836299e-05,1.198339e-05,-2.574702e-09,3.623527e-07,0.0002763570577553789
PART_000_R31G119B180A255,6323,0.0002072038,-6.836455e-05,-6.838077e-05,1.24938e-05,-9.600427e-09,4.059912e-07,0.0002764256959507128
PART_002_R214G39B40A255,6324,0.0002072038,-6.83773e-05,-6.83864e-05,1.331918e-05,2.422395e-08,3.183504e-07,0.00027655010037419623
PART_002_R214G39B40A255,6325,0.0002072037,-6.840852e-05,-6.834135e-05,1.452034e-05,-2.421676e-09,1.262002e-07,0.00027672397089976086
PART_003_R247G182B210A255,6326,0.0001381358,-4.559034e-05,-4.559361e-05,1.772536e-05,-9.641822e-09,-5.843309e-08,0.00018627525600044498
PART_003_R247G182B210A255,6327,0.0001381359,-4.558976e-05,-4.557596e-05,1.645285e-05,7.745719e-10,-1.613796e-07,0.00018591597529545674
PART_003_R247G182B210A255,6328,0.0001381358,-4.558446e-05,-4.558518e-05,1.553577e-05,-1.837747e-08,-2.068053e-07,0.00018568111368834052
PART_003_R247G182B210A255,6329,0.0001381359,-4.557754e-05,-4.558665e-05,1.492194e-05,2.845639e-09,-1.86817e-07,0.00018552735473568945
PART_000_R31G119B180A255,6330,0.0001381358,-4.558723e-05,-4.557539e-05,1.457597e-05,-2.785592e-09,-1.10425e-07,0.0001854437648467439
PART_000_R31G119B180A255,6331,0.0001381359,-4.558392e-05,-4.558043e-05,1.446381e-05,1.87899e-16,-9.351563e-15,0.00018541827442296243
PART_000_R31G119B180A255,6332,0.0001381358,-4.558723e-05,-4.557539e-05,1.457597e-05,2.785591e-09,1.10425e-07,0.00018544376484674383
PART_000_R31G119B180A255,6333,0.0001381359,-4.557754e-05,-4.558665e-05,1.492194e-05,-2.845639e-09,1.86817e-07,0.00018552735473568945
PART_002_R214G39B40A255,6334,0.0001381358,-4.558446e-05,-4.558518e-05,1.553576e-05,1.837747e-08,2.068053e-07,0.00018568111117826856
PART_002_R214G39B40A255,6335,0.0001381359,-4.558976e-05,-4.557596e-05,1.645285e-05,-7.745722e-10,1.613796e-07,0.00018591597529545674
PART_002_R214G39B40A255,6336,0.0001381358,-4.559034e-05,-4.559361e-05,1.772536e-05,9.641822e-09,5.843308e-08,0.0001862752560004356
PART_003_R247G182B210A255,6337,6.906791e-05,-2.280166e-05,-2.278271e-05,1.962261e-05,-1.274174e-09,-2.57315e-08,9.794600442883332e-05
PART_003_R247G182B210A255,6338,6.906795e-05,-2.279294e-05,-2.279549e-05,1.832412e-05,-1.865002e-08,-6.642226e-08,9.719049214767312e-05
PART_003_R247G182B210A255,6339,6.906792e-05,-2.279053e-05,-2.279191e-05,1.735703e-05,-1.297902e-09,-8.71139e-08,9.665362820804488e-05
PART_003_R247G182B210A255,6340,6.906794e-05,-2.27925e-05,-2.279062e-05,1.66989e-05,-1.449456e-08,-7.935183e-08,9.630548814551736e-05
PART_003_R247G182B210A255,6341,6.906792e-05,-2.278919e-05,-2.279287e-05,1.631658e-05,2.496146e-10,-4.673608e-08,9.610809334764135e-05
PART_000_R31G119B180A255,6342,6.906794e-05,-2.279357e-05,-2.278781e-05,1.619261e-05,-2.561734e-16,-4.521282e-15,9.60448321680891e-05
PART_000_R31G119B180A255,6343,6.906792e-05,-2.278919e-05,-2.279287e-05,1.631658e-05,-2.496146e-10,4.673608e-08,9.610809334764135e-05
PART_002_R214G39B40A255,6344,6.906794e-05,-2.27925e-05,-2.279062e-05,1.66989e-05,1.449455e-08,7.935182e-08,9.630548814548812e-05
PART_002_R214G39B40A255,6345,6.906792e-05,-2.279053e-05,-2.279191e-05,1.735703e-05,1.297901e-09,8.71139e-08,9.665362820804484e-05
PART_002_R214G39B40A255,6346,6.906795e-05,-2.279294e-05,-2.279549e-05,1.832412e-05,1.865002e-08,6.642226e-08,9.719049214767312e-05
PART_002_R214G39B40A255,6347,6.906791e-05,-2.280166e-05,-2.278271e-05,1.962261e-05,1.274174e-09,2.57315e-08,9.794600442883332e-05
PART_003_R247G182B210A255,6348,7.531302e-14,-2.475797e-14,-2.455485e-14,2.025232e-05,-7.493534e-09,-2.761327e-18,3.507804961234811e-05
PART_003_R247G182B210A255,6349,7.554623e-14,-2.404327e-14,-2.554747e-14,1.894418e-05,-3.154519e-09,-8.611106e-17,3.281228272263559e-05
PART_003_R247G182B210A255,6350,7.496174e-14,-2.346734e-14,-2.449955e-14,1.796588e-05,-1.994231e-08,-8.527504e-17,3.111783613316299e-05
PART_003_R247G182B210A255,6351,7.50759e-14,-2.293304e-14,-2.532488e-14,1.72913e-05,-1.223287e-09,-8.724058e-17,2.9949410203863672e-05
PART_003_R247G182B210A255,6352,7.461588e-14,-2.241957e-14,-2.454327e-14,1.690023e-05,-8.285085e-09,-4.744401e-17,2.9272060537082122e-05
PART_003_R247G182B210A255,6353,7.484052e-14,-2.239875e-14,-2.530469e-14,1.677112e-05,7.435107e-17,1.774703e-17,2.9048431939834554e-05
PART_002_R214G39B40A255,6354,7.459842e-14,-2.252365e-14,-2.451262e-14,1.690023e-05,8.285085e-09,3.910412e-17,2.9272060537082122e-05
PART_002_R214G39B40A255,6355,7.494461e-14,-2.281508e-14,-2.529135e-14,1.72913e-05,1.223287e-09,9.051182e-17,2.9949410203863672e-05
PART_002_R214G39B40A255,6356,7.472256e-14,-2.312039e-14,-2.446319e-14,1.796588e-05,1.994231e-08,9.231134e-17,3.111783613316299e-05
PART_002_R214G39B40A255,6357,7.523387e-14,-2.350203e-14,-2.548872e-14,1.894418e-05,3.154519e-09,7.583909e-17,3.281228272263559e-05
PART_002_R214G39B40A255,6358,7.489614e-14,-2.401551e-14,-2.452287e-14,2.025232e-05,7.493534e-09,2.043891e-17,3.507804961234811e-05
PART_003_R247G182B210A255,6359,-6.906791e-05,2.280166e-05,2.278271e-05,1.962261e-05,-1.274174e-09,2.57315e-08,9.794600442883332e-05
PART_003_R247G182B210A255,6360,-6.906795e-05,2.279294e-05,2.279549e-05,1.832412e-05,-1.865002e-08,6.642226e-08,9.719049214767312e-05
PART_003_R247G182B210A255,6361,-6.906792e-05,2.279053e-05,2.279191e-05,1.735703e-05,-1.297902e-09,8.71139e-08,9.665362820804488e-05
PART_003_R247G182B210A255,6362,-6.906794e-05,2.27925e-05,2.279062e-05,1.66989e-05,-1.449456e-08,7.935183e-08,9.630548814551736e-05
PART_003_R247G182B210A255,6363,-6.906792e-05,2.278919e-05,2.279287e-05,1.631658e-05,2.496146e-10,4.673608e-08,9.610809334764135e-05
PART_001_R158G218B229A255,6364,-6.906794e-05,2.279357e-05,2.278781e-05,1.619261e-05,-2.903519e-16,4.508206e-15,9.60448321680891e-05
PART_001_R158G218B229A255,6365,-6.906792e-05,2.278919e-05,2.279287e-05,1.631658e-05,-2.496146e-10,-4.673608e-08,9.610809334764135e-05
PART_002_R214G39B40A255,6366,-6.906794e-05,2.27925e-05,2.279062e-05,1.66989e-05,1.449456e-08,-7.935182e-08,9.630548814549264e-05
PART_002_R214G39B40A255,6367,-6.906792e-05,2.279053e-05,2.279191e-05,1.735703e-05,1.297901e-09,-8.71139e-08,9.665362820804484e-05
PART_002_R214G39B40A255,6368,-6.906795e-05,2.279294e-05,2.279549e-05,1.832412e-05,1.865002e-08,-6.642226e-08,9.719049214767312e-05
PART_002_R214G39B40A255,6369,-6.906791e-05,2.280166e-05,2.278271e-05,1.962261e-05,1.274174e-09,-2.57315e-08,9.794600442883332e-05
PART_003_R247G182B210A255,6370,-0.0001381358,4.559034e-05,4.559361e-05,1.772536e-05,-9.641823e-09,5.843309e-08,0.00018627525600044514
PART_003_R247G182B210A255,6371,-0.0001381359,4.558976e-05,4.557596e-05,1.645285e-05,7.745721e-10,1.613796e-07,0.00018591597529545674
PART_003_R247G182B210A255,6372,-0.0001381358,4.558446e-05,4.558518e-05,1.553577e-05,-1.837747e-08,2.068053e-07,0.00018568111368834052
PART_003_R247G182B210A255,6373,-0.0001381359,4.557754e-05,4.558665e-05,1.492194e-05,2.845639e-09,1.86817e-07,0.00018552735473568945
PART_001_R158G218B229A255,6374,-0.0001381358,4.558723e-05,4.557539e-05,1.457597e-05,-2.785592e-09,1.10425e-07,0.0001854437648467439
PART_001_R158G218B229A255,6375,-0.0001381359,4.558392e-05,4.558043e-05,1.446381e-05,1.085875e-16,9.337466e-15,0.00018541827442296243
PART_001_R158G218B229A255,6376,-0.0001381358,4.558723e-05,4.557539e-05,1.457597e-05,2.785591e-09,-1.10425e-07,0.00018544376484674383
PART_001_R158G218B229A255,6377,-0.0001381359,4.557754e-05,4.558665e-05,1.492194e-05,-2.845638e-09,-1.86817e-07,0.00018552735473568942
PART_002_R214G39B40A255,6378,-0.0001381358,4.558446e-05,4.558518e-05,1.553576e-05,1.837747e-08,-2.068053e-07,0.00018568111117826856
PART_002_R214G39B40A255,6379,-0.0001381359,4.558976e-05,4.557596e-05,1.645285e-05,-7.745723e-10,-1.613796e-07,0.00018591597529545674
PART_002_R214G39B40A255,6380,-0.0001381358,4.559034e-05,4.559361e-05,1.772536e-05,9.641822e-09,-5.843308e-08,0.0001862752560004356
PART_003_R247G182B210A255,6381,-0.0002072037,6.840852e-05,6.834135e-05,1.452034e-05,2.421677e-09,1.262002e-07,0.00027672397089976086
PART_003_R247G182B210A255,6382,-0.0002072038,6.83773e-05,6.83864e-05,1.331918e-05,-2.422395e-08,3.183505e-07,0.00027655010037454155
PART_003_R247G182B210A255,6383,-0.0002072038,6.836455e-05,6.838077e-05,1.24938e-05,9.600426e-09,4.059912e-07,0.0002764256959507127
PART_001_R158G218B229A255,6384,-0.0002072038,6.838102e-05,6.836299e-05,1.198339e-05,2.574702e-09,3.623527e-07,0.0002763570577553789
PART_001_R158G218B229A255,6385,-0.0002072038,6.838089e-05,6.836552e-05,1.170197e-05,2.087998e-09,2.069274e-07,0.00027632159278188196
PART_001_R158G218B229A255,6386,-0.0002072038,6.838191e-05,6.836052e-05,1.161084e-05,-3.444417e-16,1.482691e-14,0.00027630784290699404
PART_001_R158G218B229A255,6387,-0.0002072038,6.838089e-05,6.836552e-05,1.170197e-05,-2.087998e-09,-2.069273e-07,0.0002763215927816573
PART_001_R158G218B229A255,6388,-0.0002072038,6.838102e-05,6.836299e-05,1.198339e-05,-2.574702e-09,-3.623527e-07,0.0002763570577553789
PART_001_R158G218B229A255,6389,-0.0002072038,6.836455e-05,6.838077e-05,1.24938e-05,-9.600427e-09,-4.059912e-07,0.0002764256959507128
PART_002_R214G39B40A255,6390,-0.0002072038,6.83773e-05,6.83864e-05,1.331918e-05,2.422395e-08,-3.183504e-07,0.00027655010037419623
PART_002_R214G39B40A255,6391,-0.0002072037,6.840852e-05,6.834135e-05,1.452034e-05,-2.421677e-09,-1.262002e-07,0.00027672397089976086
PART_003_R247G182B210A255,6392,-0.0002762717,9.11772e-05,9.12026e-05,9.932601e-06,-2.272534e-08,2.312793e-07,0.00036786432236080285
PART_003_R247G182B210A255,6393,-0.0002762718,9.115657e-05,9.116684e-05,8.8561e-06,2.21472e-08,6.334095e-07,0.00036775518662773366
PART_001_R158G218B229A255,6394,-0.0002762717,9.117535e-05,9.11458e-05,8.266722e-06,1.583226e-08,7.743536e-07,0.0003677136019607219
PART_001_R158G218B229A255,6395,-0.0002762718,9.118198e-05,9.11466e-05,7.924963e-06,4.65174e-09,6.407606e-07,0.0003676940685900523
PART_001_R158G218B229A255,6396,-0.0002762717,9.117581e-05,9.114599e-05,7.736566e-06,3.881261e-09,3.580897e-07,0.0003676773916084502
PART_001_R158G218B229A255,6397,-0.0002762718,9.118476e-05,9.114464e-05,7.67906e-06,-6.744076e-18,2.115544e-14,0.00036767714999291377
PART_001_R158G218B229A255,6398,-0.0002762717,9.117581e-05,9.114599e-05,7.736566e-06,-3.881262e-09,-3.580896e-07,0.0003676773916081581
PART_001_R158G218B229A255,6399,-0.0002762718,9.118198e-05,9.11466e-05,7.924963e-06,-4.651739e-09,-6.407606e-07,0.00036769406859005226
PART_001_R158G218B229A255,6400,-0.0002762717,9.117535e-05,9.11458e-05,8.266721e-06,-1.583226e-08,-7.743535e-07,0.00036771360189264595
PART_001_R158G218B229A255,6401,-0.0002762718,9.115657e-05,9.116684e-05,8.8561e-06,-2.21472e-08,-6.334094e-07,0.00036775518662721693
PART_002_R214G39B40A255,6402,-0.0002762717,9.11772e-05,9.12026e-05,9.932601e-06,2.272534e-08,-2.312793e-07,0.00036786432236080285
PART_003_R247G182B210A255,6403,-0.0003453396,0.0001140301,0.0001138571,3.648026e-06,3.496902e-08,6.234959e-07,0.000459327959567006
PART_001_R158G218B229A255,6404,-0.0003453397,0.0001139647,0.0001139142,3.13494e-06,2.152778e-08,1.347981e-06,0.00045931718412496364
PART_001_R158G218B229A255,6405,-0.0003453396,0.0001139974,0.0001139124,2.938752e-06,4.21492e-09,1.372506e-06,0.00045932886183039845
PART_001_R158G218B229A255,6406,-0.0003453397,0.0001139679,0.0001139309,2.809204e-06,5.033461e-09,1.070264e-06,0.00045931861464347073
PART_001_R158G218B229A255,6407,-0.0003453396,0.0001139875,0.0001139245,2.747209e-06,7.095568e-10,5.776161e-07,0.0004593213401863301
PART_001_R158G218B229A255,6408,-0.0003453397,0.0001139689,0.0001139338,2.724422e-06,-6.572129e-17,2.869886e-14,0.00045931529145001496
PART_001_R158G218B229A255,6409,-0.0003453396,0.0001139875,0.0001139245,2.747209e-06,-7.095568e-10,-5.77616e-07,0.0004593213401859528
PART_001_R158G218B229A255,6410,-0.0003453397,0.0001139679,0.0001139309,2.809204e-06,-5.033462e-09,-1.070264e-06,0.00045931861464347073
PART_001_R158G218B229A255,6411,-0.0003453396,0.0001139974,0.0001139124,2.938752e-06,-4.21492e-09,-1.372506e-06,0.00045932886183039845
PART_001_R158G218B229A255,6412,-0.0003453397,0.0001139647,0.0001139142,3.13494e-06,-2.152778e-08,-1.347981e-06,0.00045931718412496364
PART_001_R158G218B229A255,6413,-0.0003453396,0.0001140301,0.0001138571,3.648026e-06,-3.496902e-08,-6.234958e-07,0.00045932795956659875
PART_003_R247G182B210A255,6414,0.0003407958,-0.0001125297,-0.0001123592,3.648015e-06,3.450317e-08,-6.23494e-07,0.0004532856051859369
PART_000_R31G119B180A255,6415,0.0003407957,-0.0001124651,-0.0001124151,3.134946e-06,2.124792e-08,-1.347986e-06,0.000453274341308991
PART_000_R31G119B180A255,6416,0.0003407958,-0.0001124974,-0.0001124138,2.938748e-06,4.157249e-09,-1.372501e-06,0.00045328621961398266
PART_000_R31G119B180A255,6417,0.0003407957,-0.0001124683,-0.0001124316,2.809208e-06,4.968557e-09,-1.070269e-06,0.0004532755582469769
PART_000_R31G119B180A255,6418,0.0003407958,-0.0001124877,-0.0001124258,2.747207e-06,6.995988e-10,-5.776134e-07,0.0004532786331907786
PART_000_R31G119B180A255,6419,0.0003407957,-0.0001124693,-0.0001124344,2.724425e-06,-9.238588e-17,-2.867469e-14,0.0004532721147051204
PART_000_R31G119B180A255,6420,0.0003407958,-0.0001124877,-0.0001124258,2.747207e-06,-6.995987e-10,5.776134e-07,0.0004532786331907786
PART_000_R31G119B180A255,6421,0.0003407957,-0.0001124683,-0.0001124316,2.809208e-06,-4.968557e-09,1.070269e-06,0.0004532755582469769
PART_000_R31G119B180A255,6422,0.0003407958,-0.0001124974,-0.0001124138,2.938748e-06,-4.157248e-09,1.372501e-06,0.00045328621961398266
PART_000_R31G119B180A255,6423,0.0003407957,-0.0001124651,-0.0001124151,3.134946e-06,-2.124792e-08,1.347986e-06,0.000453274341308991
PART_000_R31G119B180A255,6424,0.0003407958,-0.0001125297,-0.0001123592,3.648015e-06,-3.450317e-08,6.23494e-07,0.0004532856051859369
PART_003_R247G182B210A255,6425,0.0002726366,-8.997749e-05,-9.000281e-05,9.93261e-06,-2.242489e-08,-2.312766e-07,0.0003630348364769555
PART_003_R247G182B210A255,6426,0.0002726365,-8.995714e-05,-8.996703e-05,8.856097e-06,2.185575e-08,-6.334148e-07,0.00036292455187756246
PART_000_R31G119B180A255,6427,0.0002726366,-8.997567e-05,-8.994674e-05,8.266722e-06,1.562384e-08,-7.743479e-07,0.0003628828798286389
PART_000_R31G119B180A255,6428,0.0002726365,-8.998221e-05,-8.994708e-05,7.924962e-06,4.59066e-09,-6.407652e-07,0.00036286256096813033
PART_000_R31G119B180A255,6429,0.0002726366,-8.997613e-05,-8.994692e-05,7.736566e-06,3.830117e-09,-3.580872e-07,0.00036284617812123716
PART_000_R31G119B180A255,6430,0.0002726365,-8.998496e-05,-8.994515e-05,7.679059e-06,9.742573e-18,-2.114698e-14,0.00036284541159896394
PART_000_R31G119B180A255,6431,0.0002726366,-8.997613e-05,-8.994692e-05,7.736566e-06,-3.830117e-09,3.580872e-07,0.00036284617812123716
PART_000_R31G119B180A255,6432,0.0002726365,-8.998221e-05,-8.994708e-05,7.924962e-06,-4.590659e-09,6.407651e-07,0.00036286256096760053
PART_000_R31G119B180A255,6433,0.0002726366,-8.997567e-05,-8.994674e-05,8.266722e-06,-1.562384e-08,7.743479e-07,0.0003628828798286389
PART_000_R31G119B180A255,6434,0.0002726365,-8.995714e-05,-8.996703e-05,8.856097e-06,-2.185575e-08,6.334148e-07,0.00036292455187756246
PART_002_R214G39B40A255,6435,0.0002726366,-8.997749e-05,-9.000281e-05,9.93261e-06,2.242489e-08,2.312766e-07,0.0003630348364769555
PART_003_R247G182B210A255,6436,0.0002044775,-6.750842e-05,-6.744232e-05,1.452033e-05,2.389061e-09,-1.26199e-07,0.00027311340963738257
PART_003_R247G182B210A255,6437,0.0002044774,-6.74776e-05,-6.748639e-05,1.331918e-05,-2.390557e-08,-3.18354e-07,0.00027293665934895607
PART_003_R247G182B210A255,6438,0.0002044775,-6.746501e-05,-6.74812e-05,1.24938e-05,9.474358e-09,-4.05987e-07,0.0002728111281040346
PART_000_R31G119B180A255,6439,0.0002044774,-6.748127e-05,-6.74633e-05,1.198339e-05,2.540651e-09,-3.623562e-07,0.0002727413247875686
PART_000_R31G119B180A255,6440,0.0002044775,-6.748114e-05,-6.746615e-05,1.170198e-05,2.060612e-09,-2.069254e-07,0.0002727056341739187
PART_000_R31G119B180A255,6441,0.0002044774,-6.748215e-05,-6.746087e-05,1.161084e-05,-3.953209e-16,-1.480887e-14,0.00027269148282690035
PART_000_R31G119B180A255,6442,0.0002044775,-6.748114e-05,-6.746615e-05,1.170198e-05,-2.060611e-09,2.069254e-07,0.0002727056341739187
PART_000_R31G119B180A255,6443,0.0002044774,-6.748127e-05,-6.74633e-05,1.198339e-05,-2.540652e-09,3.623562e-07,0.0002727413247875686
PART_000_R31G119B180A255,6444,0.0002044775,-6.746501e-05,-6.74812e-05,1.24938e-05,-9.474359e-09,4.05987e-07,0.00027281112810403473
PART_002_R214G39B40A255,6445,0.0002044774,-6.74776e-05,-6.748639e-05,1.331918e-05,2.390557e-08,3.18354e-07,0.00027293665934895607
PART_002_R214G39B40A255,6446,0.0002044775,-6.750842e-05,-6.744232e-05,1.452033e-05,-2.389061e-09,1.26199e-07,0.00027311340963738257
PART_003_R247G182B210A255,6447,0.0001363183,-4.499047e-05,-4.499383e-05,1.772537e-05,-9.514374e-09,-5.843176e-08,0.0001838914245606958
PART_003_R247G182B210A255,6448,0.0001363183,-4.49899e-05,-4.497615e-05,1.645285e-05,7.646348e-10,-1.613822e-07,0.0001835274844330337
PART_003_R247G182B210A255,6449,0.0001363183,-4.498466e-05,-4.49855e-05,1.553576e-05,-1.81357e-08,-2.068025e-07,0.00018328972803956928
PART_003_R247G182B210A255,6450,0.0001363183,-4.497784e-05,-4.498671e-05,1.492193e-05,2.808182e-09,-1.868193e-07,0.00018313381792318758
PART_000_R31G119B180A255,6451,0.0001363183,-4.49874e-05,-4.497583e-05,1.457597e-05,-2.748921e-09,-1.104237e-07,0.0001830493719917631
PART_000_R31G119B180A255,6452,0.0001363183,-4.498413e-05,-4.498057e-05,1.446381e-05,5.871632e-17,-9.346527e-15,0.000183023307529604
PART_000_R31G119B180A255,6453,0.0001363183,-4.49874e-05,-4.497583e-05,1.457597e-05,2.748921e-09,1.104237e-07,0.0001830493719917631
PART_000_R31G119B180A255,6454,0.0001363183,-4.497784e-05,-4.498671e-05,1.492193e-05,-2.808182e-09,1.868193e-07,0.00018313381792318758
PART_002_R214G39B40A255,6455,0.0001363183,-4.498466e-05,-4.49855e-05,1.553576e-05,1.81357e-08,2.068025e-07,0.00018328972803956928
PART_002_R214G39B40A255,6456,0.0001363183,-4.49899e-05,-4.497615e-05,1.645285e-05,-7.64635e-10,1.613822e-07,0.0001835274844330337
PART_002_R214G39B40A255,6457,0.0001363183,-4.499047e-05,-4.499383e-05,1.772537e-05,9.514374e-09,5.843176e-08,0.0001838914245606958
PART_003_R247G182B210A255,6458,6.815916e-05,-2.250164e-05,-2.2483e-05,1.962261e-05,-1.257843e-09,-2.573106e-08,9.681339549578225e-05
PART_003_R247G182B210A255,6459,6.815913e-05,-2.249303e-05,-2.249548e-05,1.832412e-05,-1.8405e-08,-6.642351e-08,9.604879275796972e-05
PART_003_R247G182B210A255,6460,6.815915e-05,-2.249065e-05,-2.249208e-05,1.735703e-05,-1.28069e-09,-8.711245e-08,9.550569675793657e-05
PART_003_R247G182B210A255,6461,6.815913e-05,-2.24926e-05,-2.249069e-05,1.66989e-05,-1.43039e-08,-7.935302e-08,9.515325690157282e-05
PART_003_R247G182B210A255,6462,6.815915e-05,-2.248934e-05,-2.249303e-05,1.631658e-05,2.463593e-10,-4.673543e-08,9.49535789072578e-05
PART_000_R31G119B180A255,6463,6.815913e-05,-2.249366e-05,-2.248791e-05,1.619261e-05,-3.91847e-16,-4.49454e-15,9.488945658048843e-05
PART_000_R31G119B180A255,6464,6.815915e-05,-2.248934e-05,-2.249303e-05,1.631658e-05,-2.463593e-10,4.673542e-08,9.495357890724302e-05
PART_002_R214G39B40A255,6465,6.815913e-05,-2.24926e-05,-2.249069e-05,1.66989e-05,1.43039e-08,7.935301e-08,9.515325690154781e-05
PART_002_R214G39B40A255,6466,6.815915e-05,-2.249065e-05,-2.249208e-05,1.735703e-05,1.28069e-09,8.711244e-08,9.550569675790921e-05
PART_002_R214G39B40A255,6467,6.815913e-05,-2.249303e-05,-2.249548e-05,1.832412e-05,1.8405e-08,6.642351e-08,9.604879275796972e-05
PART_002_R214G39B40A255,6468,6.815916e-05,-2.250164e-05,-2.2483e-05,1.962261e-05,1.257843e-09,2.573106e-08,9.681339549578225e-05
PART_003_R247G182B210A255,6469,7.501963e-14,-2.491757e-14,-2.521869e-14,2.025233e-05,-7.394476e-09,-1.710414e-17,3.507806686979096e-05
PART_003_R247G182B210A255,6470,7.471129e-14,-2.534084e-14,-2.431001e-14,1.894418e-05,-3.112762e-09,-5.130224e-17,3.2812282710671954e-05
PART_003_R247G182B210A255,6471,7.538067e-14,-2.640249e-14,-2.506276e-14,1.796588e-05,-1.967989e-08,-9.827446e-17,3.111783563195569e-05
PART_003_R247G182B210A255,6472,7.520579e-14,-2.715189e-14,-2.411721e-14,1.72913e-05,-1.207251e-09,-8.384059e-17,2.9949410201911573e-05
PART_003_R247G182B210A255,6473,7.568501e-14,-2.748496e-14,-2.508627e-14,1.690023e-05,-8.17603e-09,-6.083253e-17,2.927206044509166e-05
PART_003_R247G182B210A255,6474,7.53771e-14,-2.775558e-14,-2.410686e-14,1.677111e-05,-5.203154e-17,1.13873e-18,2.9048414619326475e-05
PART_002_R214G39B40A255,6475,7.565574e-14,-2.755435e-14,-2.506683e-14,1.690023e-05,8.17603e-09,4.988431e-17,2.927206044509166e-05
PART_002_R214G39B40A255,6476,7.519029e-14,-2.732536e-14,-2.407048e-14,1.72913e-05,1.207251e-09,6.411192e-17,2.9949410201911573e-05
PART_002_R214G39B40A255,6477,7.537731e-14,-2.674944e-14,-2.504995e-14,1.796588e-05,1.967989e-08,7.46524e-17,3.111783563195569e-05
PART_002_R214G39B40A255,6478,7.4732e-14,-2.597228e-14,-2.42191e-14,1.894418e-05,3.112762e-09,6.083391e-17,3.2812282710671954e-05
PART_002_R214G39B40A255,6479,7.508371e-14,-2.57086e-14,-2.512681e-14,2.025233e-05,7.394476e-09,2.032201e-17,3.507806686979096e-05
PART_003_R247G182B210A255,6480,-6.815916e-05,2.250164e-05,2.2483e-05,1.962261e-05,-1.257843e-09,2.573106e-08,9.681339549578225e-05
PART_003_R247G182B210A255,6481,-6.815913e-05,2.249303e-05,2.249548e-05,1.832412e-05,-1.8405e-08,6.642351e-08,9.604879275796972e-05
PART_003_R247G182B210A255,6482,-6.815915e-05,2.249065e-05,2.249208e-05,1.735703e-05,-1.28069e-09,8.711245e-08,9.550569675793657e-05
PART_003_R247G182B210A255,6483,-6.815913e-05,2.24926e-05,2.249069e-05,1.66989e-05,-1.43039e-08,7.935302e-08,9.515325690157282e-05
PART_003_R247G182B210A255,6484,-6.815915e-05,2.248934e-05,2.249303e-05,1.631658e-05,2.463592e-10,4.673543e-08,9.495357890725778e-05
PART_001_R158G218B229A255,6485,-6.815913e-05,2.249366e-05,2.248791e-05,1.619261e-05,-3.613951e-16,4.513848e-15,9.488945658048843e-05
PART_001_R158G218B229A255,6486,-6.815915e-05,2.248934e-05,2.249303e-05,1.631658e-05,-2.463592e-10,-4.673542e-08,9.495357890724302e-05
PART_002_R214G39B40A255,6487,-6.815913e-05,2.24926e-05,2.249069e-05,1.66989e-05,1.43039e-08,-7.935301e-08,9.515325690154781e-05
PART_002_R214G39B40A255,6488,-6.815915e-05,2.249065e-05,2.249208e-05,1.735703e-05,1.28069e-09,-8.711244e-08,9.550569675790921e-05
PART_002_R214G39B40A255,6489,-6.815913e-05,2.249303e-05,2.249548e-05,1.832412e-05,1.8405e-08,-6.642351e-08,9.604879275796972e-05
PART_002_R214G39B40A255,6490,-6.815916e-05,2.250164e-05,2.2483e-05,1.962261e-05,1.257843e-09,-2.573106e-08,9.681339549578225e-05
PART_003_R247G182B210A255,6491,-0.0001363183,4.499047e-05,4.499383e-05,1.772537e-05,-9.514374e-09,5.843176e-08,0.0001838914245606958
PART_003_R247G182B210A255,6492,-0.0001363183,4.49899e-05,4.497615e-05,1.645285e-05,7.646349e-10,1.613822e-07,0.0001835274844330337
PART_003_R247G182B210A255,6493,-0.0001363183,4.498466e-05,4.49855e-05,1.553576e-05,-1.81357e-08,2.068025e-07,0.00018328972803956928
PART_003_R247G182B210A255,6494,-0.0001363183,4.497784e-05,4.498671e-05,1.492193e-05,2.808182e-09,1.868193e-07,0.00018313381792318758
PART_001_R158G218B229A255,6495,-0.0001363183,4.49874e-05,4.497583e-05,1.457597e-05,-2.748921e-09,1.104237e-07,0.0001830493719917631
PART_001_R158G218B229A255,6496,-0.0001363183,4.498413e-05,4.498057e-05,1.446381e-05,3.624454e-18,9.316811e-15,0.000183023307529604
PART_001_R158G218B229A255,6497,-0.0001363183,4.49874e-05,4.497583e-05,1.457597e-05,2.748921e-09,-1.104237e-07,0.0001830493719917631
PART_001_R158G218B229A255,6498,-0.0001363183,4.497784e-05,4.498671e-05,1.492193e-05,-2.808182e-09,-1.868193e-07,0.00018313381792318758
PART_002_R214G39B40A255,6499,-0.0001363183,4.498466e-05,4.49855e-05,1.553576e-05,1.81357e-08,-2.068025e-07,0.00018328972803956928
PART_002_R214G39B40A255,6500,-0.0001363183,4.49899e-05,4.497615e-05,1.645285e-05,-7.646352e-10,-1.613822e-07,0.0001835274844330337
PART_002_R214G39B40A255,6501,-0.0001363183,4.499047e-05,4.499383e-05,1.772537e-05,9.514374e-09,-5.843176e-08,0.0001838914245606958
PART_003_R247G182B210A255,6502,-0.0002044775,6.750842e-05,6.744232e-05,1.452033e-05,2.389062e-09,1.26199e-07,0.0002731134096373826
PART_003_R247G182B210A255,6503,-0.0002044774,6.74776e-05,6.748639e-05,1.331918e-05,-2.390556e-08,3.18354e-07,0.0002729366593489534
PART_003_R247G182B210A255,6504,-0.0002044775,6.746501e-05,6.74812e-05,1.24938e-05,9.474358e-09,4.05987e-07,0.0002728111281040346
PART_001_R158G218B229A255,6505,-0.0002044774,6.748127e-05,6.74633e-05,1.198339e-05,2.540651e-09,3.623562e-07,0.0002727413247875686
PART_001_R158G218B229A255,6506,-0.0002044775,6.748114e-05,6.746615e-05,1.170198e-05,2.060612e-09,2.069254e-07,0.0002727056341739187
PART_001_R158G218B229A255,6507,-0.0002044774,6.748215e-05,6.746087e-05,1.161084e-05,-3.909226e-16,1.480374e-14,0.00027269148282690035
PART_001_R158G218B229A255,6508,-0.0002044775,6.748114e-05,6.746615e-05,1.170198e-05,-2.060611e-09,-2.069254e-07,0.0002727056341739187
PART_001_R158G218B229A255,6509,-0.0002044774,6.748127e-05,6.74633e-05,1.198339e-05,-2.540652e-09,-3.623562e-07,0.0002727413247875686
PART_001_R158G218B229A255,6510,-0.0002044775,6.746501e-05,6.74812e-05,1.24938e-05,-9.474359e-09,-4.05987e-07,0.00027281112810403473
PART_002_R214G39B40A255,6511,-0.0002044774,6.74776e-05,6.748639e-05,1.331918e-05,2.390556e-08,-3.18354e-07,0.0002729366593489534
PART_002_R214G39B40A255,6512,-0.0002044775,6.750842e-05,6.744232e-05,1.452033e-05,-2.389062e-09,-1.26199e-07,0.0002731134096373826
PART_003_R247G182B210A255,6513,-0.0002726366,8.997749e-05,9.000281e-05,9.93261e-06,-2.242489e-08,2.312766e-07,0.0003630348364769555
PART_003_R247G182B210A255,6514,-0.0002726365,8.995714e-05,8.996703e-05,8.856097e-06,2.185575e-08,6.334148e-07,0.00036292455187756246
PART_001_R158G218B229A255,6515,-0.0002726366,8.997567e-05,8.994674e-05,8.266722e-06,1.562384e-08,7.743479e-07,0.0003628828798286389
PART_001_R158G218B229A255,6516,-0.0002726365,8.998221e-05,8.994708e-05,7.924962e-06,4.59066e-09,6.407652e-07,0.00036286256096813033
PART_001_R158G218B229A255,6517,-0.0002726366,8.997613e-05,8.994692e-05,7.736566e-06,3.830117e-09,3.580872e-07,0.00036284617812123716
PART_001_R158G218B229A255,6518,-0.0002726365,8.998496e-05,8.994515e-05,7.679059e-06,-4.915078e-17,2.114347e-14,0.00036284541159896394
PART_001_R158G218B229A255,6519,-0.0002726366,8.997613e-05,8.994692e-05,7.736566e-06,-3.830117e-09,-3.580872e-07,0.00036284617812123716
PART_001_R158G218B229A255,6520,-0.0002726365,8.998221e-05,8.994708e-05,7.924962e-06,-4.590659e-09,-6.407651e-07,0.00036286256096760053
PART_001_R158G218B229A255,6521,-0.0002726366,8.997567e-05,8.994674e-05,8.266722e-06,-1.562384e-08,-7.743479e-07,0.0003628828798286389
PART_001_R158G218B229A255,6522,-0.0002726365,8.995714e-05,8.996703e-05,8.856097e-06,-2.185575e-08,-6.334148e-07,0.00036292455187756246
PART_002_R214G39B40A255,6523,-0.0002726366,8.997749e-05,9.000281e-05,9.93261e-06,2.242489e-08,-2.312766e-07,0.0003630348364769555
PART_003_R247G182B210A255,6524,-0.0003407958,0.0001125297,0.0001123592,3.648015e-06,3.450317e-08,6.23494e-07,0.0004532856051859369
PART_001_R158G218B229A255,6525,-0.0003407957,0.0001124651,0.0001124151,3.134946e-06,2.124792e-08,1.347986e-06,0.000453274341308991
PART_001_R158G218B229A255,6526,-0.0003407958,0.0001124974,0.0001124138,2.938748e-06,4.157249e-09,1.372501e-06,0.00045328621961398266
PART_001_R158G218B229A255,6527,-0.0003407957,0.0001124683,0.0001124316,2.809208e-06,4.968557e-09,1.070269e-06,0.0004532755582469769
PART_001_R158G218B229A255,6528,-0.0003407958,0.0001124877,0.0001124258,2.747207e-06,6.995988e-10,5.776134e-07,0.0004532786331907786
PART_001_R158G218B229A255,6529,-0.0003407957,0.0001124693,0.0001124344,2.724425e-06,-1.083118e-16,2.862405e-14,0.0004532721147051204
PART_001_R158G218B229A255,6530,-0.0003407958,0.0001124877,0.0001124258,2.747207e-06,-6.995987e-10,-5.776134e-07,0.0004532786331907786
PART_001_R158G218B229A255,6531,-0.0003407957,0.0001124683,0.0001124316,2.809208e-06,-4.968557e-09,-1.070269e-06,0.0004532755582469769
PART_001_R158G218B229A255,6532,-0.0003407958,0.0001124974,0.0001124138,2.938748e-06,-4.157248e-09,-1.372501e-06,0.00045328621961398266
PART_001_R158G218B229A255,6533,-0.0003407957,0.0001124651,0.0001124151,3.134946e-06,-2.124792e-08,-1.347986e-06,0.000453274341308991
PART_001_R158G218B229A255,6534,-0.0003407958,0.0001125297,0.0001123592,3.648015e-06,-3.450317e-08,-6.23494e-07,0.0004532856051859369
PART_003_R247G182B210A255,6535,0.0003362517,-0.0001110293,-0.0001108609,3.648024e-06,3.404781e-08,-6.234955e-07,0.0004472427675817121
PART_000_R31G119B180A255,6536,0.0003362518,-0.0001109656,-0.0001109164,3.134941e-06,2.096184e-08,-1.347982e-06,0.00044723186183136997
PART_000_R31G119B180A255,6537,0.0003362517,-0.0001109975,-0.0001109147,2.938752e-06,4.103624e-09,-1.372505e-06,0.0004472430901345674
PART_000_R31G119B180A255,6538,0.0003362518,-0.0001109687,-0.0001109327,2.809205e-06,4.901228e-09,-1.070265e-06,0.00044723281224662265
PART_000_R31G119B180A255,6539,0.0003362517,-0.0001109878,-0.0001109266,2.747209e-06,6.907784e-10,-5.776156e-07,0.00044723533563542883
PART_000_R31G119B180A255,6540,0.0003362518,-0.0001109697,-0.0001109355,2.724422e-06,-6.198926e-17,-2.856155e-14,0.0004472292965384672
PART_000_R31G119B180A255,6541,0.0003362517,-0.0001109878,-0.0001109266,2.747209e-06,-6.907784e-10,5.776155e-07,0.00044723533563504134
PART_000_R31G119B180A255,6542,0.0003362518,-0.0001109687,-0.0001109327,2.809205e-06,-4.901229e-09,1.070265e-06,0.0004472328122466227
PART_000_R31G119B180A255,6543,0.0003362517,-0.0001109975,-0.0001109147,2.938752e-06,-4.103624e-09,1.372505e-06,0.0004472430901345674
PART_000_R31G119B180A255,6544,0.0003362518,-0.0001109656,-0.0001109164,3.134941e-06,-2.096184e-08,1.347982e-06,0.00044723186183136997
PART_000_R31G119B180A255,6545,0.0003362517,-0.0001110293,-0.0001108609,3.648024e-06,-3.404781e-08,6.234955e-07,0.0004472427675817121
PART_003_R247G182B210A255,6546,0.0002690014,-8.87778e-05,-8.880257e-05,9.932602e-06,-2.212706e-08,-2.312788e-07,0.0003582051792519456
PART_003_R247G182B210A255,6547,0.0002690015,-8.875771e-05,-8.876767e-05,8.856099e-06,2.156437e-08,-6.334104e-07,0.00035809455763879093
PART_000_R31G119B180A255,6548,0.0002690014,-8.8776e-05,-8.874726e-05,8.266722e-06,1.541561e-08,-7.743525e-07,0.00035805195420560593
PART_000_R31G119B180A255,6549,0.0002690014,-8.878245e-05,-8.874796e-05,7.924963e-06,4.529347e-09,-6.407615e-07,0.0003580315509120597
PART_000_R31G119B180A255,6550,0.0002690014,-8.877644e-05,-8.874745e-05,7.736566e-06,3.779111e-09,-3.580892e-07,0.00035801474794034906
PART_000_R31G119B180A255,6551,0.0002690014,-8.878516e-05,-8.874606e-05,7.67906e-06,-2.726599e-17,-2.109051e-14,0.00035801415960601117
PART_000_R31G119B180A255,6552,0.0002690014,-8.877644e-05,-8.874745e-05,7.736566e-06,-3.779111e-09,3.580892e-07,0.00035801474794034906
PART_000_R31G119B180A255,6553,0.0002690014,-8.878245e-05,-8.874796e-05,7.924963e-06,-4.529347e-09,6.407614e-07,0.00035803155091152286
PART_000_R31G119B180A255,6554,0.0002690014,-8.8776e-05,-8.874726e-05,8.266721e-06,-1.541561e-08,7.743525e-07,0.0003580519541363418
PART_000_R31G119B180A255,6555,0.0002690015,-8.875771e-05,-8.876767e-05,8.856099e-06,-2.156437e-08,6.334104e-07,0.00035809455763879093
PART_002_R214G39B40A255,6556,0.0002690014,-8.87778e-05,-8.880257e-05,9.932602e-06,2.212706e-08,2.312788e-07,0.0003582051792519456
PART_003_R247G182B210A255,6557,0.000201751,-6.66083e-05,-6.654293e-05,1.452033e-05,2.357817e-09,-1.262e-07,0.0002695027704277092
PART_003_R247G182B210A255,6558,0.0002017511,-6.65779e-05,-6.658672e-05,1.331918e-05,-2.358654e-08,-3.183511e-07,0.00026932383177029253
PART_003_R247G182B210A255,6559,0.000201751,-6.656548e-05,-6.65813e-05,1.24938e-05,9.347828e-09,-4.059904e-07,0.0002691965050268237
PART_000_R31G119B180A255,6560,0.0002017511,-6.658152e-05,-6.656393e-05,1.198339e-05,2.506918e-09,-3.623533e-07,0.0002691261305056775
PART_000_R31G119B180A255,6561,0.000201751,-6.658139e-05,-6.656646e-05,1.170197e-05,2.033066e-09,-2.06927e-07,0.0002690895804705694
PART_000_R31G119B180A255,6562,0.0002017511,-6.658239e-05,-6.656153e-05,1.161084e-05,-3.824684e-16,-1.474571e-14,0.00026907563931102184
PART_000_R31G119B180A255,6563,0.000201751,-6.658139e-05,-6.656646e-05,1.170197e-05,-2.033066e-09,2.06927e-07,0.0002690895804705694
PART_000_R31G119B180A255,6564,0.0002017511,-6.658152e-05,-6.656393e-05,1.198339e-05,-2.506918e-09,3.623533e-07,0.0002691261305056775
PART_000_R31G119B180A255,6565,0.000201751,-6.656548e-05,-6.65813e-05,1.24938e-05,-9.347828e-09,4.059904e-07,0.0002691965050268237
PART_002_R214G39B40A255,6566,0.0002017511,-6.65779e-05,-6.658672e-05,1.331918e-05,2.358654e-08,3.183511e-07,0.00026932383177029253
PART_002_R214G39B40A255,6567,0.000201751,-6.66083e-05,-6.654293e-05,1.452033e-05,-2.357817e-09,1.262e-07,0.0002695027704277092
PART_003_R247G182B210A255,6568,0.0001345007,-4.43906e-05,-4.43938e-05,1.772536e-05,-9.387988e-09,-5.843285e-08,0.00018150825145727022
PART_003_R247G182B210A255,6569,0.0001345007,-4.439003e-05,-4.437657e-05,1.645285e-05,7.542335e-10,-1.6138e-07,0.00018113987010999542
PART_003_R247G182B210A255,6570,0.0001345007,-4.438487e-05,-4.438559e-05,1.553576e-05,-1.789386e-08,-2.068048e-07,0.0001808988245786387
PART_003_R247G182B210A255,6571,0.0001345007,-4.437813e-05,-4.438698e-05,1.492194e-05,2.770753e-09,-1.868175e-07,0.00018074102075509545
PART_000_R31G119B180A255,6572,0.0001345007,-4.438757e-05,-4.437605e-05,1.457597e-05,-2.712283e-09,-1.104247e-07,0.0001806553785268187
PART_000_R31G119B180A255,6573,0.0001345007,-4.438435e-05,-4.438092e-05,1.446381e-05,8.374615e-17,-9.291834e-15,0.00018062904790950486
PART_000_R31G119B180A255,6574,0.0001345007,-4.438757e-05,-4.437605e-05,1.457597e-05,2.712282e-09,1.104247e-07,0.00018065537852681867
PART_000_R31G119B180A255,6575,0.0001345007,-4.437813e-05,-4.438698e-05,1.492194e-05,-2.770753e-09,1.868174e-07,0.00018074102075478536
PART_002_R214G39B40A255,6576,0.0001345007,-4.438487e-05,-4.438559e-05,1.553576e-05,1.789386e-08,2.068048e-07,0.0001808988245786387
PART_002_R214G39B40A255,6577,0.0001345007,-4.439003e-05,-4.437657e-05,1.645285e-05,-7.542337e-10,1.6138e-07,0.00018113987010999542
PART_002_R214G39B40A255,6578,0.0001345007,-4.43906e-05,-4.43938e-05,1.772536e-05,9.387988e-09,5.843284e-08,0.00018150825145726057
PART_003_R247G182B210A255,6579,6.725034e-05,-2.220161e-05,-2.218317e-05,1.962261e-05,-1.240721e-09,-2.573142e-08,9.56825201666976e-05
PART_003_R247G182B210A255,6580,6.725036e-05,-2.219312e-05,-2.21956e-05,1.832412e-05,-1.81593e-08,-6.642249e-08,9.490886305786443e-05
PART_003_R247G182B210A255,6581,6.725035e-05,-2.219078e-05,-2.219213e-05,1.735703e-05,-1.263722e-09,-8.711364e-08,9.43592005341154e-05
PART_003_R247G182B210A255,6582,6.725036e-05,-2.21927e-05,-2.219086e-05,1.66989e-05,-1.411313e-08,-7.935204e-08,9.40025301879097e-05
PART_003_R247G182B210A255,6583,6.725035e-05,-2.218948e-05,-2.219307e-05,1.631658e-05,2.430516e-10,-4.673596e-08,9.380033685399533e-05
PART_000_R31G119B180A255,6584,6.725036e-05,-2.219374e-05,-2.218812e-05,1.619261e-05,-3.571961e-16,-4.495459e-15,9.373551214128348e-05
PART_000_R31G119B180A255,6585,6.725035e-05,-2.218948e-05,-2.219307e-05,1.631658e-05,-2.430516e-10,4.673596e-08,9.380033685399533e-05
PART_002_R214G39B40A255,6586,6.725036e-05,-2.21927e-05,-2.219086e-05,1.66989e-05,1.411313e-08,7.935204e-08,9.40025301879097e-05
PART_002_R214G39B40A255,6587,6.725035e-05,-2.219078e-05,-2.219213e-05,1.735703e-05,1.263722e-09,8.711363e-08,9.43592005340877e-05
PART_002_R214G39B40A255,6588,6.725036e-05,-2.219312e-05,-2.21956e-05,1.832412e-05,1.81593e-08,6.642248e-08,9.490886305784343e-05
PART_002_R214G39B40A255,6589,6.725034e-05,-2.220161e-05,-2.218317e-05,1.962261e-05,1.240721e-09,2.573142e-08,9.56825201666976e-05
PART_003_R247G182B210A255,6590,7.317888e-14,-2.39947e-14,-2.374219e-14,2.025232e-05,-7.296254e-09,-2.021868e-17,3.50780494875808e-05
PART_003_R247G182B210A255,6591,7.351834e-14,-2.303713e-14,-2.508518e-14,1.894418e-05,-3.071461e-09,-1.092732e-16,3.281228269899578e-05
PART_003_R247G182B210A255,6592,7.266681e-14,-2.20518e-14,-2.366073e-14,1.796588e-05,-1.941751e-08,-9.032802e-17,3.1117835137462305e-05
PART_003_R247G182B210A255,6593,7.282532e-14,-2.123302e-14,-2.484086e-14,1.72913e-05,-1.191104e-09,-1.065466e-16,2.9949410199971993e-05
PART_003_R247G182B210A255,6594,7.222532e-14,-2.068484e-14,-2.373567e-14,1.690023e-05,-8.067049e-09,-6.641861e-17,2.9272060354381253e-05
PART_003_R247G182B210A255,6595,7.252033e-14,-2.051831e-14,-2.477562e-14,1.677112e-05,-8.875412e-17,-4.199166e-18,2.9048431939834554e-05
PART_002_R214G39B40A255,6596,7.213089e-14,-2.055994e-14,-2.367666e-14,1.690023e-05,8.067048e-09,8.301008e-17,2.9272060354380426e-05
PART_002_R214G39B40A255,6597,7.266594e-14,-2.094852e-14,-2.483519e-14,1.72913e-05,1.191103e-09,9.967757e-17,2.9949410199971874e-05
PART_002_R214G39B40A255,6598,7.239608e-14,-2.153833e-14,-2.365992e-14,1.796588e-05,1.941751e-08,7.729684e-17,3.1117835137462305e-05
PART_002_R214G39B40A255,6599,7.309149e-14,-2.226691e-14,-2.496607e-14,1.894418e-05,3.07146e-09,7.680725e-17,3.28122826989955e-05
PART_002_R214G39B40A255,6600,7.263699e-14,-2.291223e-14,-2.364135e-14,2.025232e-05,7.296254e-09,1.997643e-17,3.50780494875808e-05
PART_003_R247G182B210A255,6601,-6.725034e-05,2.220161e-05,2.218317e-05,1.962261e-05,-1.240721e-09,2.573142e-08,9.56825201666976e-05
PART_003_R247G182B210A255,6602,-6.725036e-05,2.219312e-05,2.21956e-05,1.832412e-05,-1.81593e-08,6.642249e-08,9.490886305786443e-05
PART_003_R247G182B210A255,6603,-6.725035e-05,2.219078e-05,2.219213e-05,1.735703e-05,-1.263722e-09,8.711364e-08,9.43592005341154e-05
PART_003_R247G182B210A255,6604,-6.725036e-05,2.21927e-05,2.219086e-05,1.66989e-05,-1.411313e-08,7.935204e-08,9.40025301879097e-05
PART_003_R247G182B210A255,6605,-6.725035e-05,2.218948e-05,2.219307e-05,1.631658e-05,2.430516e-10,4.673596e-08,9.380033685399533e-05
PART_001_R158G218B229A255,6606,-6.725036e-05,2.219374e-05,2.218812e-05,1.619261e-05,-3.180748e-16,4.484667e-15,9.373551214128348e-05
PART_001_R158G218B229A255,6607,-6.725035e-05,2.218948e-05,2.219307e-05,1.631658e-05,-2.430516e-10,-4.673596e-08,9.380033685399533e-05
PART_002_R214G39B40A255,6608,-6.725036e-05,2.21927e-05,2.219086e-05,1.66989e-05,1.411313e-08,-7.935203e-08,9.400253018788437e-05
PART_002_R214G39B40A255,6609,-6.725035e-05,2.219078e-05,2.219213e-05,1.735703e-05,1.263722e-09,-8.711363e-08,9.43592005340877e-05
PART_002_R214G39B40A255,6610,-6.725036e-05,2.219312e-05,2.21956e-05,1.832412e-05,1.81593e-08,-6.642248e-08,9.490886305784343e-05
PART_002_R214G39B40A255,6611,-6.725034e-05,2.220161e-05,2.218317e-05,1.962261e-05,1.240721e-09,-2.573142e-08,9.56825201666976e-05
PART_003_R247G182B210A255,6612,-0.0001345007,4.43906e-05,4.43938e-05,1.772536e-05,-9.387988e-09,5.843285e-08,0.00018150825145727022
PART_003_R247G182B210A255,6613,-0.0001345007,4.439003e-05,4.437657e-05,1.645285e-05,7.542335e-10,1.6138e-07,0.00018113987010999542
PART_003_R247G182B210A255,6614,-0.0001345007,4.438487e-05,4.438559e-05,1.553576e-05,-1.789386e-08,2.068048e-07,0.0001808988245786387
PART_003_R247G182B210A255,6615,-0.0001345007,4.437813e-05,4.438698e-05,1.492194e-05,2.770753e-09,1.868175e-07,0.00018074102075509545
PART_001_R158G218B229A255,6616,-0.0001345007,4.438757e-05,4.437605e-05,1.457597e-05,-2.712283e-09,1.104247e-07,0.0001806553785268187
PART_001_R158G218B229A255,6617,-0.0001345007,4.438435e-05,4.438092e-05,1.446381e-05,5.571063e-17,9.276239e-15,0.00018062904790950486
PART_001_R158G218B229A255,6618,-0.0001345007,4.438757e-05,4.437605e-05,1.457597e-05,2.712282e-09,-1.104247e-07,0.00018065537852681867
PART_001_R158G218B229A255,6619,-0.0001345007,4.437813e-05,4.438698e-05,1.492194e-05,-2.770753e-09,-1.868174e-07,0.00018074102075478536
PART_002_R214G39B40A255,6620,-0.0001345007,4.438487e-05,4.438559e-05,1.553576e-05,1.789386e-08,-2.068048e-07,0.0001808988245786387
PART_002_R214G39B40A255,6621,-0.0001345007,4.439003e-05,4.437657e-05,1.645285e-05,-7.542338e-10,-1.6138e-07,0.00018113987010999542
PART_002_R214G39B40A255,6622,-0.0001345007,4.43906e-05,4.43938e-05,1.772536e-05,9.387988e-09,-5.843284e-08,0.00018150825145726057
PART_003_R247G182B210A255,6623,-0.000201751,6.66083e-05,6.654293e-05,1.452033e-05,2.357817e-09,1.262e-07,0.0002695027704277092
PART_003_R247G182B210A255,6624,-0.0002017511,6.65779e-05,6.658672e-05,1.331918e-05,-2.358654e-08,3.183511e-07,0.00026932383177029253
PART_003_R247G182B210A255,6625,-0.000201751,6.656548e-05,6.65813e-05,1.24938e-05,9.347828e-09,4.059904e-07,0.0002691965050268237
PART_001_R158G218B229A255,6626,-0.0002017511,6.658152e-05,6.656393e-05,1.198339e-05,2.506918e-09,3.623533e-07,0.0002691261305056775
PART_001_R158G218B229A255,6627,-0.000201751,6.658139e-05,6.656646e-05,1.170197e-05,2.033066e-09,2.06927e-07,0.0002690895804705694
PART_001_R158G218B229A255,6628,-0.0002017511,6.658239e-05,6.656153e-05,1.161084e-05,-4.006466e-16,1.473182e-14,0.00026907563931102184
PART_001_R158G218B229A255,6629,-0.000201751,6.658139e-05,6.656646e-05,1.170197e-05,-2.033066e-09,-2.06927e-07,0.0002690895804705694
PART_001_R158G218B229A255,6630,-0.0002017511,6.658152e-05,6.656393e-05,1.198339e-05,-2.506918e-09,-3.623533e-07,0.0002691261305056775
PART_001_R158G218B229A255,6631,-0.000201751,6.656548e-05,6.65813e-05,1.24938e-05,-9.347828e-09,-4.059904e-07,0.0002691965050268237
PART_002_R214G39B40A255,6632,-0.0002017511,6.65779e-05,6.658672e-05,1.331918e-05,2.358654e-08,-3.183511e-07,0.00026932383177029253
PART_002_R214G39B40A255,6633,-0.000201751,6.66083e-05,6.654293e-05,1.452033e-05,-2.357817e-09,-1.262e-07,0.0002695027704277092
PART_003_R247G182B210A255,6634,-0.0002690014,8.87778e-05,8.880257e-05,9.932602e-06,-2.212706e-08,2.312788e-07,0.0003582051792519456
PART_003_R247G182B210A255,6635,-0.0002690015,8.875771e-05,8.876767e-05,8.856099e-06,2.156437e-08,6.334104e-07,0.00035809455763879093
PART_001_R158G218B229A255,6636,-0.0002690014,8.8776e-05,8.874726e-05,8.266722e-06,1.541561e-08,7.743525e-07,0.00035805195420560593
PART_001_R158G218B229A255,6637,-0.0002690014,8.878245e-05,8.874796e-05,7.924963e-06,4.529347e-09,6.407615e-07,0.0003580315509120597
PART_001_R158G218B229A255,6638,-0.0002690014,8.877644e-05,8.874745e-05,7.736566e-06,3.77911e-09,3.580892e-07,0.00035801474794034906
PART_001_R158G218B229A255,6639,-0.0002690014,8.878516e-05,8.874606e-05,7.67906e-06,1.379393e-17,2.105111e-14,0.00035801415960601117
PART_001_R158G218B229A255,6640,-0.0002690014,8.877644e-05,8.874745e-05,7.736566e-06,-3.779111e-09,-3.580892e-07,0.00035801474794034906
PART_001_R158G218B229A255,6641,-0.0002690014,8.878245e-05,8.874796e-05,7.924963e-06,-4.529347e-09,-6.407614e-07,0.00035803155091152286
PART_001_R158G218B229A255,6642,-0.0002690014,8.8776e-05,8.874726e-05,8.266721e-06,-1.541561e-08,-7.743525e-07,0.0003580519541363418
PART_001_R158G218B229A255,6643,-0.0002690015,8.875771e-05,8.876767e-05,8.856099e-06,-2.156437e-08,-6.334104e-07,0.00035809455763879093
PART_002_R214G39B40A255,6644,-0.0002690014,8.87778e-05,8.880257e-05,9.932602e-06,2.212706e-08,-2.312788e-07,0.0003582051792519456
PART_003_R247G182B210A255,6645,-0.0003362517,0.0001110293,0.0001108609,3.648024e-06,3.404781e-08,6.234955e-07,0.0004472427675817121
PART_001_R158G218B229A255,6646,-0.0003362518,0.0001109656,0.0001109164,3.134941e-06,2.096184e-08,1.347982e-06,0.00044723186183136997
PART_001_R158G218B229A255,6647,-0.0003362517,0.0001109975,0.0001109147,2.938752e-06,4.103624e-09,1.372505e-06,0.0004472430901345674
PART_001_R158G218B229A255,6648,-0.0003362518,0.0001109687,0.0001109327,2.809205e-06,4.901228e-09,1.070265e-06,0.00044723281224662265
PART_001_R158G218B229A255,6649,-0.0003362517,0.0001109878,0.0001109266,2.747209e-06,6.907783e-10,5.776156e-07,0.00044723533563542883
PART_001_R158G218B229A255,6650,-0.0003362518,0.0001109697,0.0001109355,2.724422e-06,-1.833488e-17,2.853929e-14,0.0004472292965384672
PART_001_R158G218B229A255,6651,-0.0003362517,0.0001109878,0.0001109266,2.747209e-06,-6.907784e-10,-5.776155e-07,0.00044723533563504134
PART_001_R158G218B229A255,6652,-0.0003362518,0.0001109687,0.0001109327,2.809205e-06,-4.901229e-09,-1.070265e-06,0.0004472328122466227
PART_001_R158G218B229A255,6653,-0.0003362517,0.0001109975,0.0001109147,2.938752e-06,-4.103624e-09,-1.372505e-06,0.0004472430901345674
PART_001_R158G218B229A255,6654,-0.0003362518,0.0001109656,0.0001109164,3.134941e-06,-2.096184e-08,-1.347982e-06,0.00044723186183136997
PART_001_R158G218B229A255,6655,-0.0003362517,0.0001110293,0.0001108609,3.648024e-06,-3.404781e-08,-6.234955e-07,0.0004472427675817121
PART_003_R247G182B210A255,6656,0.0003317079,-0.000109529,-0.0001093629,3.648017e-06,3.358388e-08,-6.234943e-07,0.0004412004462428435
PART_000_R31G119B180A255,6657,0.0003317078,-0.0001094661,-0.0001094174,3.134945e-06,2.068084e-08,-1.347985e-06,0.0004411891469179644
PART_000_R31G119B180A255,6658,0.0003317079,-0.0001094975,-0.000109416,2.938749e-06,4.046697e-09,-1.372501e-06,0.00044120042322563254
PART_000_R31G119B180A255,6659,0.0003317078,-0.0001094691,-0.0001094334,2.809207e-06,4.835878e-09,-1.070268e-06,0.0004411897775057908
PART_000_R31G119B180A255,6660,0.0003317079,-0.000109488,-0.0001094277,2.747207e-06,6.810294e-10,-5.776138e-07,0.00044119254759518526
PART_000_R31G119B180A255,6661,0.0003317078,-0.0001094701,-0.0001094362,2.724424e-06,1.270465e-17,-2.850492e-14,0.00044118618759567406
PART_000_R31G119B180A255,6662,0.0003317079,-0.000109488,-0.0001094277,2.747207e-06,-6.810294e-10,5.776138e-07,0.00044119254759518526
PART_000_R31G119B180A255,6663,0.0003317078,-0.0001094691,-0.0001094334,2.809207e-06,-4.835878e-09,1.070268e-06,0.0004411897775057908
PART_000_R31G119B180A255,6664,0.0003317079,-0.0001094975,-0.000109416,2.938749e-06,-4.046696e-09,1.372501e-06,0.00044120042322563254
PART_000_R31G119B180A255,6665,0.0003317078,-0.0001094661,-0.0001094174,3.134945e-06,-2.068084e-08,1.347985e-06,0.0004411891469179644
PART_000_R31G119B180A255,6666,0.0003317079,-0.000109529,-0.0001093629,3.648017e-06,-3.358388e-08,6.234942e-07,0.0004412004462424196
PART_003_R247G182B210A255,6667,0.0002653663,-8.75781e-05,-8.76027e-05,9.932609e-06,-2.182709e-08,-2.31277e-07,0.00035337595361005877
PART_003_R247G182B210A255,6668,0.0002653662,-8.755829e-05,-8.756795e-05,8.856097e-06,2.127294e-08,-6.33414e-07,0.00035326420897873227
PART_000_R31G119B180A255,6669,0.0002653663,-8.757632e-05,-8.754813e-05,8.266722e-06,1.520722e-08,-7.743488e-07,0.0003532214036189332
PART_000_R31G119B180A255,6670,0.0002653662,-8.758269e-05,-8.754852e-05,7.924962e-06,4.468225e-09,-6.407645e-07,0.000353200377578624
PART_000_R31G119B180A255,6671,0.0002653663,-8.757676e-05,-8.754831e-05,7.736566e-06,3.727991e-09,-3.580876e-07,0.00035318367921494863
PART_000_R31G119B180A255,6672,0.0002653662,-8.758536e-05,-8.754664e-05,7.679059e-06,-2.552195e-17,-2.104639e-14,0.00035318273282062537
PART_000_R31G119B180A255,6673,0.0002653663,-8.757676e-05,-8.754831e-05,7.736566e-06,-3.727992e-09,3.580875e-07,0.0003531836792146445
PART_000_R31G119B180A255,6674,0.0002653662,-8.758269e-05,-8.754852e-05,7.924962e-06,-4.468225e-09,6.407644e-07,0.0003532003775780797
PART_000_R31G119B180A255,6675,0.0002653663,-8.757632e-05,-8.754813e-05,8.266722e-06,-1.520722e-08,7.743487e-07,0.00035322140361827555
PART_000_R31G119B180A255,6676,0.0002653662,-8.755829e-05,-8.756795e-05,8.856097e-06,-2.127294e-08,6.33414e-07,0.00035326420897873227
PART_002_R214G39B40A255,6677,0.0002653663,-8.75781e-05,-8.76027e-05,9.932609e-06,2.182709e-08,2.31277e-07,0.00035337595361005877
PART_003_R247G182B210A255,6678,0.0001990247,-6.570819e-05,-6.564383e-05,1.452033e-05,2.325458e-09,-1.261992e-07,0.0002658929046176778
PART_003_R247G182B210A255,6679,0.0001990247,-6.567819e-05,-6.568678e-05,1.331918e-05,-2.326803e-08,-3.183535e-07,0.0002657111235621103
PART_003_R247G182B210A255,6680,0.0001990247,-6.566594e-05,-6.568167e-05,1.24938e-05,9.221674e-09,-4.059876e-07,0.00026558252687825976
PART_000_R31G119B180A255,6681,0.0001990247,-6.568177e-05,-6.56643e-05,1.198339e-05,2.472925e-09,-3.623557e-07,0.00026551099784003906
PART_000_R31G119B180A255,6682,0.0001990247,-6.568164e-05,-6.566703e-05,1.170198e-05,2.00565e-09,-2.069257e-07,0.0002654741357733091
PART_000_R31G119B180A255,6683,0.0001990247,-6.568262e-05,-6.566194e-05,1.161084e-05,-3.972513e-16,-1.474379e-14,0.00026545983944541217
PART_000_R31G119B180A255,6684,0.0001990247,-6.568164e-05,-6.566703e-05,1.170198e-05,-2.00565e-09,2.069257e-07,0.0002654741357733091
PART_000_R31G119B180A255,6685,0.0001990247,-6.568177e-05,-6.56643e-05,1.198339e-05,-2.472926e-09,3.623556e-07,0.00026551099783962966
PART_000_R31G119B180A255,6686,0.0001990247,-6.566594e-05,-6.568167e-05,1.24938e-05,-9.221675e-09,4.059876e-07,0.00026558252687825987
PART_002_R214G39B40A255,6687,0.0001990247,-6.567819e-05,-6.568678e-05,1.331918e-05,2.326803e-08,3.183535e-07,0.0002657111235621103
PART_002_R214G39B40A255,6688,0.0001990247,-6.570819e-05,-6.564383e-05,1.452033e-05,-2.325459e-09,1.261992e-07,0.00026589290461767785
PART_003_R247G182B210A255,6689,0.0001326832,-4.379072e-05,-4.379397e-05,1.772537e-05,-9.26074e-09,-5.843196e-08,0.00017912619773792265
PART_003_R247G182B210A255,6690,0.0001326831,-4.379017e-05,-4.377681e-05,1.645285e-05,7.442089e-10,-1.613818e-07,0.0001787529705302277
PART_003_R247G182B210A255,6691,0.0001326831,-4.378507e-05,-4.378587e-05,1.553576e-05,-1.765208e-08,-2.068029e-07,0.0001785087251418368
PART_003_R247G182B210A255,6692,0.0001326831,-4.377843e-05,-4.378708e-05,1.492193e-05,2.7333e-09,-1.86819e-07,0.00017834880080393499
PART_000_R31G119B180A255,6693,0.0001326831,-4.378774e-05,-4.377645e-05,1.457597e-05,-2.675619e-09,-1.104239e-07,0.00017826210603518258
PART_000_R31G119B180A255,6694,0.0001326831,-4.378456e-05,-4.37811e-05,1.446381e-05,-2.799444e-18,-9.288381e-15,0.00017823532158046536
PART_000_R31G119B180A255,6695,0.0001326831,-4.378774e-05,-4.377645e-05,1.457597e-05,2.675618e-09,1.104239e-07,0.00017826210603518256
PART_000_R31G119B180A255,6696,0.0001326831,-4.377843e-05,-4.378708e-05,1.492193e-05,-2.7333e-09,1.86819e-07,0.00017834880080393499
PART_002_R214G39B40A255,6697,0.0001326831,-4.378507e-05,-4.378587e-05,1.553576e-05,1.765208e-08,2.068029e-07,0.0001785087251418368
PART_002_R214G39B40A255,6698,0.0001326831,-4.379017e-05,-4.377681e-05,1.645285e-05,-7.442092e-10,1.613818e-07,0.00017875297053022773
PART_002_R214G39B40A255,6699,0.0001326832,-4.379072e-05,-4.379397e-05,1.772537e-05,9.26074e-09,5.843195e-08,0.00017912619773791287
PART_003_R247G182B210A255,6700,6.634158e-05,-2.190159e-05,-2.188345e-05,1.962261e-05,-1.224238e-09,-2.573113e-08,9.455368374637992e-05
PART_003_R247G182B210A255,6701,6.634156e-05,-2.189322e-05,-2.189561e-05,1.832412e-05,-1.791415e-08,-6.642333e-08,9.377057965446582e-05
PART_003_R247G182B210A255,6702,6.634157e-05,-2.18909e-05,-2.189228e-05,1.735703e-05,-1.246556e-09,-8.711266e-08,9.321433777474848e-05
PART_003_R247G182B210A255,6703,6.634156e-05,-2.18928e-05,-2.189094e-05,1.66989e-05,-1.392245e-08,-7.935284e-08,9.285320364916383e-05
PART_003_R247G182B210A255,6704,6.634157e-05,-2.188962e-05,-2.189321e-05,1.631658e-05,2.397864e-10,-4.673552e-08,9.264857555928468e-05
PART_000_R31G119B180A255,6705,6.634156e-05,-2.189383e-05,-2.188824e-05,1.619261e-05,-2.599609e-16,-4.49541e-15,9.258289636702019e-05
PART_000_R31G119B180A255,6706,6.634157e-05,-2.188962e-05,-2.189321e-05,1.631658e-05,-2.397865e-10,4.673551e-08,9.264857555926955e-05
PART_002_R214G39B40A255,6707,6.634156e-05,-2.18928e-05,-2.189094e-05,1.66989e-05,1.392245e-08,7.935283e-08,9.28532036491382e-05
PART_002_R214G39B40A255,6708,6.634157e-05,-2.18909e-05,-2.189228e-05,1.735703e-05,1.246555e-09,8.711266e-08,9.321433777474846e-05
PART_002_R214G39B40A255,6709,6.634156e-05,-2.189322e-05,-2.189561e-05,1.832412e-05,1.791415e-08,6.642332e-08,9.377057965444457e-05
PART_002_R214G39B40A255,6710,6.634158e-05,-2.190159e-05,-2.188345e-05,1.962261e-05,1.224238e-09,2.573113e-08,9.455368374637992e-05
PART_003_R247G182B210A255,6711,7.320099e-14,-2.43347e-14,-2.481044e-14,2.025233e-05,-7.197356e-09,-2.673998e-17,3.507806674679351e-05
PART_003_R247G182B210A255,6712,7.277566e-14,-2.517431e-14,-2.340347e-14,1.894418e-05,-3.029789e-09,-3.146304e-17,3.281228268737279e-05
PART_003_R247G182B210A255,6713,7.376662e-14,-2.668699e-14,-2.460573e-14,1.796588e-05,-1.915509e-08,-9.252395e-17,3.111783464953207e-05
PART_003_R247G182B210A255,6714,7.35436e-14,-2.765843e-14,-2.32971e-14,1.72913e-05,-1.175048e-09,-6.722181e-17,2.9949410198069235e-05
PART_003_R247G182B210A255,6715,7.422405e-14,-2.832456e-14,-2.46072e-14,1.690023e-05,-7.958008e-09,-5.215394e-17,2.9272060264839133e-05
PART_003_R247G182B210A255,6716,7.38243e-14,-2.865763e-14,-2.322958e-14,1.677111e-05,6.561011e-17,-1.604492e-18,2.9048414619326475e-05
PART_002_R214G39B40A255,6717,7.423673e-14,-2.844947e-14,-2.455679e-14,1.690023e-05,7.958007e-09,4.188536e-17,2.9272060264838316e-05
PART_002_R214G39B40A255,6718,7.353677e-14,-2.779721e-14,-2.32947e-14,1.72913e-05,1.175048e-09,4.754057e-17,2.9949410198069235e-05
PART_002_R214G39B40A255,6719,7.379264e-14,-2.714495e-14,-2.457658e-14,1.796588e-05,1.915509e-08,8.270684e-17,3.111783464953207e-05
PART_002_R214G39B40A255,6720,7.291498e-14,-2.616657e-14,-2.335263e-14,1.894418e-05,3.029789e-09,5.173508e-17,3.281228268737279e-05
PART_002_R214G39B40A255,6721,7.340417e-14,-2.563227e-14,-2.469068e-14,2.025233e-05,7.197356e-09,8.538092e-19,3.507806674679351e-05
PART_003_R247G182B210A255,6722,-6.634158e-05,2.190159e-05,2.188345e-05,1.962261e-05,-1.224238e-09,2.573113e-08,9.455368374637992e-05
PART_003_R247G182B210A255,6723,-6.634156e-05,2.189322e-05,2.189561e-05,1.832412e-05,-1.791415e-08,6.642333e-08,9.377057965446582e-05
PART_003_R247G182B210A255,6724,-6.634157e-05,2.18909e-05,2.189228e-05,1.735703e-05,-1.246556e-09,8.711266e-08,9.321433777474848e-05
PART_003_R247G182B210A255,6725,-6.634156e-05,2.18928e-05,2.189094e-05,1.66989e-05,-1.392245e-08,7.935284e-08,9.285320364916383e-05
PART_003_R247G182B210A255,6726,-6.634157e-05,2.188962e-05,2.18932e-05,1.631658e-05,2.397863e-10,4.673552e-08,9.26485707972923e-05
PART_001_R158G218B229A255,6727,-6.634156e-05,2.189383e-05,2.188824e-05,1.619261e-05,-3.445836e-16,4.49505e-15,9.258289636702019e-05
PART_001_R158G218B229A255,6728,-6.634157e-05,2.188962e-05,2.18932e-05,1.631658e-05,-2.397864e-10,-4.673551e-08,9.264857079727716e-05
PART_002_R214G39B40A255,6729,-6.634156e-05,2.18928e-05,2.189094e-05,1.66989e-05,1.392245e-08,-7.935283e-08,9.28532036491382e-05
PART_002_R214G39B40A255,6730,-6.634157e-05,2.18909e-05,2.189228e-05,1.735703e-05,1.246555e-09,-8.711266e-08,9.321433777474846e-05
PART_002_R214G39B40A255,6731,-6.634156e-05,2.189322e-05,2.189561e-05,1.832412e-05,1.791415e-08,-6.642332e-08,9.377057965444457e-05
PART_002_R214G39B40A255,6732,-6.634158e-05,2.190159e-05,2.188345e-05,1.962261e-05,1.224238e-09,-2.573113e-08,9.455368374637992e-05
PART_003_R247G182B210A255,6733,-0.0001326832,4.379072e-05,4.379397e-05,1.772537e-05,-9.26074e-09,5.843196e-08,0.00017912619773792265
PART_003_R247G182B210A255,6734,-0.0001326831,4.379017e-05,4.377681e-05,1.645285e-05,7.442091e-10,1.613818e-07,0.00017875297053022773
PART_003_R247G182B210A255,6735,-0.0001326831,4.378507e-05,4.378587e-05,1.553576e-05,-1.765208e-08,2.068029e-07,0.0001785087251418368
PART_003_R247G182B210A255,6736,-0.0001326831,4.377843e-05,4.378708e-05,1.492193e-05,2.7333e-09,1.86819e-07,0.00017834880080393499
PART_001_R158G218B229A255,6737,-0.0001326831,4.378774e-05,4.377645e-05,1.457597e-05,-2.675619e-09,1.104239e-07,0.00017826210603518258
PART_001_R158G218B229A255,6738,-0.0001326831,4.378456e-05,4.37811e-05,1.446381e-05,1.044544e-16,9.298784e-15,0.00017823532158046536
PART_001_R158G218B229A255,6739,-0.0001326831,4.378774e-05,4.377645e-05,1.457597e-05,2.675618e-09,-1.104239e-07,0.00017826210603518256
PART_001_R158G218B229A255,6740,-0.0001326831,4.377843e-05,4.378708e-05,1.492193e-05,-2.7333e-09,-1.86819e-07,0.00017834880080393499
PART_002_R214G39B40A255,6741,-0.0001326831,4.378507e-05,4.378587e-05,1.553576e-05,1.765208e-08,-2.068029e-07,0.0001785087251418368
PART_002_R214G39B40A255,6742,-0.0001326831,4.379017e-05,4.377681e-05,1.645285e-05,-7.442093e-10,-1.613818e-07,0.00017875297053022773
PART_002_R214G39B40A255,6743,-0.0001326832,4.379072e-05,4.379397e-05,1.772537e-05,9.26074e-09,-5.843195e-08,0.00017912619773791287
PART_003_R247G182B210A255,6744,-0.0001990247,6.570819e-05,6.564383e-05,1.452033e-05,2.325459e-09,1.261992e-07,0.00026589290461767785
PART_003_R247G182B210A255,6745,-0.0001990247,6.567819e-05,6.568678e-05,1.331918e-05,-2.326803e-08,3.183535e-07,0.0002657111235621103
PART_003_R247G182B210A255,6746,-0.0001990247,6.566594e-05,6.568167e-05,1.24938e-05,9.221674e-09,4.059876e-07,0.00026558252687825976
PART_001_R158G218B229A255,6747,-0.0001990247,6.568177e-05,6.56643e-05,1.198339e-05,2.472925e-09,3.623557e-07,0.00026551099784003906
PART_001_R158G218B229A255,6748,-0.0001990247,6.568164e-05,6.566703e-05,1.170198e-05,2.00565e-09,2.069257e-07,0.0002654741357733091
PART_001_R158G218B229A255,6749,-0.0001990247,6.568262e-05,6.566194e-05,1.161084e-05,-3.772329e-16,1.472573e-14,0.00026545983944541217
PART_001_R158G218B229A255,6750,-0.0001990247,6.568164e-05,6.566703e-05,1.170198e-05,-2.00565e-09,-2.069257e-07,0.0002654741357733091
PART_001_R158G218B229A255,6751,-0.0001990247,6.568177e-05,6.56643e-05,1.198339e-05,-2.472926e-09,-3.623556e-07,0.00026551099783962966
PART_001_R158G218B229A255,6752,-0.0001990247,6.566594e-05,6.568167e-05,1.24938e-05,-9.221675e-09,-4.059876e-07,0.00026558252687825987
PART_002_R214G39B40A255,6753,-0.0001990247,6.567819e-05,6.568678e-05,1.331918e-05,2.326803e-08,-3.183535e-07,0.0002657111235621103
PART_002_R214G39B40A255,6754,-0.0001990247,6.570819e-05,6.564383e-05,1.452033e-05,-2.325459e-09,-1.261992e-07,0.00026589290461767785
PART_003_R247G182B210A255,6755,-0.0002653663,8.75781e-05,8.76027e-05,9.932609e-06,-2.182709e-08,2.31277e-07,0.00035337595361005877
PART_003_R247G182B210A255,6756,-0.0002653662,8.755829e-05,8.756795e-05,8.856097e-06,2.127294e-08,6.33414e-07,0.00035326420897873227
PART_001_R158G218B229A255,6757,-0.0002653663,8.757632e-05,8.754813e-05,8.266722e-06,1.520722e-08,7.743488e-07,0.0003532214036189332
PART_001_R158G218B229A255,6758,-0.0002653662,8.758269e-05,8.754852e-05,7.924962e-06,4.468225e-09,6.407645e-07,0.000353200377578624
PART_001_R158G218B229A255,6759,-0.0002653663,8.757676e-05,8.754831e-05,7.736566e-06,3.727991e-09,3.580876e-07,0.00035318367921494863
PART_001_R158G218B229A255,6760,-0.0002653662,8.758536e-05,8.754664e-05,7.679059e-06,2.453007e-17,2.104163e-14,0.00035318273282062537
PART_001_R158G218B229A255,6761,-0.0002653663,8.757676e-05,8.754831e-05,7.736566e-06,-3.727992e-09,-3.580875e-07,0.0003531836792146445
PART_001_R158G218B229A255,6762,-0.0002653662,8.758269e-05,8.754852e-05,7.924962e-06,-4.468225e-09,-6.407644e-07,0.0003532003775780797
PART_001_R158G218B229A255,6763,-0.0002653663,8.757632e-05,8.754813e-05,8.266722e-06,-1.520722e-08,-7.743487e-07,0.00035322140361827555
PART_001_R158G218B229A255,6764,-0.0002653662,8.755829e-05,8.756795e-05,8.856097e-06,-2.127294e-08,-6.33414e-07,0.00035326420897873227
PART_002_R214G39B40A255,6765,-0.0002653663,8.75781e-05,8.76027e-05,9.932609e-06,2.182709e-08,-2.31277e-07,0.00035337595361005877
PART_003_R247G182B210A255,6766,-0.0003317079,0.000109529,0.0001093629,3.648017e-06,3.358388e-08,6.234943e-07,0.0004412004462428435
PART_001_R158G218B229A255,6767,-0.0003317078,0.0001094661,0.0001094174,3.134945e-06,2.068084e-08,1.347985e-06,0.0004411891469179644
PART_001_R158G218B229A255,6768,-0.0003317079,0.0001094975,0.000109416,2.938749e-06,4.046697e-09,1.372501e-06,0.00044120042322563254
PART_001_R158G218B229A255,6769,-0.0003317078,0.0001094691,0.0001094334,2.809207e-06,4.835877e-09,1.070268e-06,0.00044118977750579074
PART_001_R158G218B229A255,6770,-0.0003317079,0.000109488,0.0001094277,2.747207e-06,6.810294e-10,5.776138e-07,0.00044119254759518526
PART_001_R158G218B229A255,6771,-0.0003317078,0.0001094701,0.0001094362,2.724424e-06,-8.003021e-17,2.849398e-14,0.00044118618759567406
PART_001_R158G218B229A255,6772,-0.0003317079,0.000109488,0.0001094277,2.747207e-06,-6.810294e-10,-5.776138e-07,0.00044119254759518526
PART_001_R158G218B229A255,6773,-0.0003317078,0.0001094691,0.0001094334,2.809207e-06,-4.835878e-09,-1.070268e-06,0.0004411897775057908
PART_001_R158G218B229A255,6774,-0.0003317079,0.0001094975,0.000109416,2.938749e-06,-4.046696e-09,-1.372501e-06,0.00044120042322563254
PART_001_R158G218B229A255,6775,-0.0003317078,0.0001094661,0.0001094174,3.134945e-06,-2.068084e-08,-1.347985e-06,0.0004411891469179644
PART_001_R158G218B229A255,6776,-0.0003317079,0.000109529,0.0001093629,3.648017e-06,-3.358388e-08,-6.234942e-07,0.0004412004462424196
PART_003_R247G182B210A255,6777,0.0003271639,-0.0001080285,-0.0001078647,3.648023e-06,3.312695e-08,-6.234953e-07,0.000435157742755265
PART_000_R31G119B180A255,6778,0.0003271639,-0.0001079665,-0.0001079187,3.134942e-06,2.039569e-08,-1.347982e-06,0.0004351466466081056
PART_000_R31G119B180A255,6779,0.0003271639,-0.0001079976,-0.0001079171,2.938751e-06,3.992465e-09,-1.372505e-06,0.00043515751997617413
PART_000_R31G119B180A255,6780,0.0003271639,-0.0001079696,-0.0001079345,2.809205e-06,4.768913e-09,-1.070265e-06,0.0004351471041341587
PART_000_R31G119B180A255,6781,0.0003271639,-0.0001079882,-0.0001079286,2.747209e-06,6.720382e-10,-5.776153e-07,0.0004351494697376274
PART_000_R31G119B180A255,6782,0.0003271639,-0.0001079705,-0.0001079372,2.724423e-06,-5.145725e-18,-2.838009e-14,0.00043514333803791453
PART_000_R31G119B180A255,6783,0.0003271639,-0.0001079882,-0.0001079286,2.747209e-06,-6.720383e-10,5.776152e-07,0.0004351494697372292
PART_000_R31G119B180A255,6784,0.0003271639,-0.0001079696,-0.0001079345,2.809205e-06,-4.768914e-09,1.070265e-06,0.0004351471041341587
PART_000_R31G119B180A255,6785,0.0003271639,-0.0001079976,-0.0001079171,2.938751e-06,-3.992465e-09,1.372505e-06,0.00043515751997617413
PART_000_R31G119B180A255,6786,0.0003271639,-0.0001079665,-0.0001079187,3.134942e-06,-2.039569e-08,1.347982e-06,0.0004351466466081056
PART_000_R31G119B180A255,6787,0.0003271639,-0.0001080285,-0.0001078647,3.648023e-06,-3.312695e-08,6.234953e-07,0.000435157742755265
PART_003_R247G182B210A255,6788,0.0002617311,-8.63784e-05,-8.640253e-05,9.932604e-06,-2.152887e-08,-2.312785e-07,0.00034854663415548104
PART_003_R247G182B210A255,6789,0.0002617311,-8.635886e-05,-8.636852e-05,8.856099e-06,2.098155e-08,-6.334111e-07,0.0003484343256815628
PART_000_R31G119B180A255,6790,0.0002617311,-8.637665e-05,-8.634871e-05,8.266722e-06,1.499896e-08,-7.743518e-07,0.00034839072300376175
PART_000_R31G119B180A255,6791,0.0002617311,-8.638292e-05,-8.634934e-05,7.924963e-06,4.406947e-09,-6.40762e-07,0.0003483695297828511
PART_000_R31G119B180A255,6792,0.0002617311,-8.637708e-05,-8.634889e-05,7.736566e-06,3.676964e-09,-3.580889e-07,0.0003483524661775089
PART_000_R31G119B180A255,6793,0.0002617311,-8.638556e-05,-8.634749e-05,7.67906e-06,-3.658251e-17,-2.097535e-14,0.00034835163485346976
PART_000_R31G119B180A255,6794,0.0002617311,-8.637708e-05,-8.634889e-05,7.736566e-06,-3.676965e-09,3.580889e-07,0.0003483524661775089
PART_000_R31G119B180A255,6795,0.0002617311,-8.638292e-05,-8.634934e-05,7.924963e-06,-4.406947e-09,6.40762e-07,0.0003483695297828511
PART_000_R31G119B180A255,6796,0.0002617311,-8.637665e-05,-8.634871e-05,8.266722e-06,-1.499896e-08,7.743518e-07,0.00034839072300376175
PART_000_R31G119B180A255,6797,0.0002617311,-8.635886e-05,-8.636852e-05,8.856099e-06,-2.098155e-08,6.334111e-07,0.0003484343256815628
PART_002_R214G39B40A255,6798,0.0002617311,-8.63784e-05,-8.640253e-05,9.932603e-06,2.152887e-08,2.312785e-07,0.0003485466340699894
PART_003_R247G182B210A255,6799,0.0001962983,-6.480808e-05,-6.474449e-05,1.452033e-05,2.294006e-09,-1.261999e-07,0.00026228326235321737
PART_003_R247G182B210A255,6800,0.0001962984,-6.477849e-05,-6.478706e-05,1.331918e-05,-2.29491e-08,-3.183516e-07,0.00026209900283154214
PART_003_R247G182B210A255,6801,0.0001962983,-6.476641e-05,-6.478183e-05,1.24938e-05,9.095212e-09,-4.059899e-07,0.00026196867849014705
PART_000_R31G119B180A255,6802,0.0001962983,-6.478202e-05,-6.476489e-05,1.198339e-05,2.439144e-09,-3.623538e-07,0.0002618962777612759
PART_000_R31G119B180A255,6803,0.0001962983,-6.478189e-05,-6.476738e-05,1.170197e-05,1.978129e-09,-2.069268e-07,0.00026185876789006443
PART_000_R31G119B180A255,6804,0.0001962983,-6.478286e-05,-6.476255e-05,1.161084e-05,-3.140218e-16,-1.471317e-14,0.00026184442857849567
PART_000_R31G119B180A255,6805,0.0001962983,-6.478189e-05,-6.476738e-05,1.170197e-05,-1.978128e-09,2.069268e-07,0.00026185876789006443
PART_000_R31G119B180A255,6806,0.0001962983,-6.478202e-05,-6.476489e-05,1.198339e-05,-2.439145e-09,3.623537e-07,0.0002618962777608609
PART_000_R31G119B180A255,6807,0.0001962983,-6.476641e-05,-6.478183e-05,1.24938e-05,-9.095213e-09,4.059899e-07,0.00026196867849014716
PART_002_R214G39B40A255,6808,0.0001962984,-6.477849e-05,-6.478706e-05,1.331918e-05,2.29491e-08,3.183515e-07,0.00026209900283117774
PART_002_R214G39B40A255,6809,0.0001962983,-6.480808e-05,-6.474449e-05,1.452033e-05,-2.294006e-09,1.261999e-07,0.00026228326235321737
PART_003_R247G182B210A255,6810,0.0001308655,-4.319085e-05,-4.319398e-05,1.772536e-05,-9.134192e-09,-5.843269e-08,0.0001767448257695876
PART_003_R247G182B210A255,6811,0.0001308656,-4.31903e-05,-4.317719e-05,1.645285e-05,7.33878e-10,-1.613804e-07,0.00017636706488377256
PART_003_R247G182B210A255,6812,0.0001308655,-4.318527e-05,-4.318599e-05,1.553576e-05,-1.741025e-08,-2.068045e-07,0.000176119290779439
PART_003_R247G182B210A255,6813,0.0001308656,-4.317872e-05,-4.318732e-05,1.492194e-05,2.695866e-09,-1.868177e-07,0.00017595743742117686
PART_000_R31G119B180A255,6814,0.0001308655,-4.318791e-05,-4.317671e-05,1.457597e-05,-2.638976e-09,-1.104246e-07,0.00017586942191827505
PART_000_R31G119B180A255,6815,0.0001308656,-4.318477e-05,-4.318143e-05,1.446381e-05,1.041677e-16,-9.267658e-15,0.00017584241632554132
PART_000_R31G119B180A255,6816,0.0001308655,-4.318791e-05,-4.317671e-05,1.457597e-05,2.638975e-09,1.104246e-07,0.000175869421918275
PART_000_R31G119B180A255,6817,0.0001308656,-4.317872e-05,-4.318732e-05,1.492194e-05,-2.695866e-09,1.868177e-07,0.00017595743742117686
PART_002_R214G39B40A255,6818,0.0001308655,-4.318527e-05,-4.318599e-05,1.553576e-05,1.741025e-08,2.068044e-07,0.0001761192907790867
PART_002_R214G39B40A255,6819,0.0001308656,-4.31903e-05,-4.317719e-05,1.645285e-05,-7.338783e-10,1.613804e-07,0.00017636706488377256
PART_002_R214G39B40A255,6820,0.0001308655,-4.319085e-05,-4.319398e-05,1.772536e-05,9.134192e-09,5.843268e-08,0.0001767448257695777
PART_003_R247G182B210A255,6821,6.543277e-05,-2.160157e-05,-2.158364e-05,1.962261e-05,-1.207238e-09,-2.573136e-08,9.342675524346082e-05
PART_003_R247G182B210A255,6822,6.543278e-05,-2.159331e-05,-2.159571e-05,1.832412e-05,-1.766855e-08,-6.642264e-08,9.263413789106903e-05
PART_003_R247G182B210A255,6823,6.543277e-05,-2.159103e-05,-2.159235e-05,1.735703e-05,-1.229552e-09,-8.711346e-08,9.207105344059683e-05
PART_003_R247G182B210A255,6824,6.543278e-05,-2.15929e-05,-2.15911e-05,1.66989e-05,-1.37317e-08,-7.935219e-08,9.170546099386518e-05
PART_003_R247G182B210A255,6825,6.543277e-05,-2.158976e-05,-2.159327e-05,1.631658e-05,2.364861e-10,-4.673588e-08,9.149822452149395e-05
PART_000_R31G119B180A255,6826,6.543278e-05,-2.159391e-05,-2.158843e-05,1.619261e-05,-2.632453e-16,-4.470069e-15,9.143177648914846e-05
PART_000_R31G119B180A255,6827,6.543277e-05,-2.158976e-05,-2.159327e-05,1.631658e-05,-2.364861e-10,4.673587e-08,9.149822452147862e-05
PART_002_R214G39B40A255,6828,6.543278e-05,-2.15929e-05,-2.15911e-05,1.66989e-05,1.37317e-08,7.935218e-08,9.170546099383922e-05
PART_002_R214G39B40A255,6829,6.543277e-05,-2.159103e-05,-2.159235e-05,1.735703e-05,1.229552e-09,8.711346e-08,9.207105344059683e-05
PART_002_R214G39B40A255,6830,6.543278e-05,-2.159331e-05,-2.159571e-05,1.832412e-05,1.766855e-08,6.642264e-08,9.263413789106903e-05
PART_002_R214G39B40A255,6831,6.543277e-05,-2.160157e-05,-2.158364e-05,1.962261e-05,1.207238e-09,2.573136e-08,9.342675524346082e-05
PART_003_R247G182B210A255,6832,7.098163e-14,-2.309264e-14,-2.286996e-14,2.025232e-05,-7.099005e-09,-1.646632e-18,3.507804936616083e-05
PART_003_R247G182B210A255,6833,7.144751e-14,-2.181588e-14,-2.465218e-14,1.894418e-05,-2.988419e-09,-9.855228e-17,3.281228267599108e-05
PART_003_R247G182B210A255,6834,7.023722e-14,-2.033096e-14,-2.275745e-14,1.796588e-05,-1.889271e-08,-1.202567e-16,3.111783416831373e-05
PART_003_R247G182B210A255,6835,7.042424e-14,-1.899869e-14,-2.442814e-14,1.72913e-05,-1.158918e-09,-1.141495e-16,2.9949410196183712e-05
PART_003_R247G182B210A255,6836,6.953682e-14,-1.824235e-14,-2.280746e-14,1.690023e-05,-7.849016e-09,-5.247475e-17,2.927206017655499e-05
PART_003_R247G182B210A255,6837,7.001929e-14,-1.799949e-14,-2.435942e-14,1.677112e-05,-2.665009e-17,3.682137e-17,2.9048431939834554e-05
PART_002_R214G39B40A255,6838,6.948684e-14,-1.80897e-14,-2.280804e-14,1.690023e-05,7.849015e-09,3.347135e-17,2.9272060176554187e-05
PART_002_R214G39B40A255,6839,7.024253e-14,-1.873501e-14,-2.437555e-14,1.72913e-05,1.158918e-09,1.152206e-16,2.9949410196183712e-05
PART_002_R214G39B40A255,6840,6.992627e-14,-1.969258e-14,-2.277817e-14,1.796588e-05,1.889271e-08,9.546993e-17,3.111783416831373e-05
PART_002_R214G39B40A255,6841,7.093404e-14,-2.068484e-14,-2.456199e-14,1.894418e-05,2.988419e-09,9.58079e-17,3.281228267599108e-05
PART_002_R214G39B40A255,6842,7.030054e-14,-2.165629e-14,-2.275008e-14,2.025232e-05,7.099005e-09,4.002824e-17,3.507804936616083e-05
PART_003_R247G182B210A255,6843,-6.543277e-05,2.160157e-05,2.158364e-05,1.962261e-05,-1.207238e-09,2.573136e-08,9.342675524346082e-05
PART_003_R247G182B210A255,6844,-6.543278e-05,2.159331e-05,2.159571e-05,1.832412e-05,-1.766855e-08,6.642264e-08,9.263413789106903e-05
PART_003_R247G182B210A255,6845,-6.543277e-05,2.159103e-05,2.159235e-05,1.735703e-05,-1.229552e-09,8.711346e-08,9.207105344059683e-05
PART_003_R247G182B210A255,6846,-6.543278e-05,2.15929e-05,2.15911e-05,1.66989e-05,-1.37317e-08,7.935219e-08,9.170546099386518e-05
PART_003_R247G182B210A255,6847,-6.543277e-05,2.158976e-05,2.159327e-05,1.631658e-05,2.364861e-10,4.673588e-08,9.149822452149395e-05
PART_001_R158G218B229A255,6848,-6.543278e-05,2.159391e-05,2.158843e-05,1.619261e-05,-3.310971e-16,4.474369e-15,9.143177648914846e-05
PART_001_R158G218B229A255,6849,-6.543277e-05,2.158976e-05,2.159327e-05,1.631658e-05,-2.36486e-10,-4.673587e-08,9.149822452147862e-05
PART_002_R214G39B40A255,6850,-6.543278e-05,2.15929e-05,2.15911e-05,1.66989e-05,1.37317e-08,-7.935218e-08,9.170546099383922e-05
PART_002_R214G39B40A255,6851,-6.543277e-05,2.159103e-05,2.159235e-05,1.735703e-05,1.229552e-09,-8.711346e-08,9.207105344059683e-05
PART_002_R214G39B40A255,6852,-6.543278e-05,2.159331e-05,2.159571e-05,1.832412e-05,1.766855e-08,-6.642264e-08,9.263413789106903e-05
PART_002_R214G39B40A255,6853,-6.543277e-05,2.160157e-05,2.158364e-05,1.962261e-05,1.207238e-09,-2.573136e-08,9.342675524346082e-05
PART_003_R247G182B210A255,6854,-0.0001308655,4.319085e-05,4.319398e-05,1.772536e-05,-9.134192e-09,5.843269e-08,0.0001767448257695876
PART_003_R247G182B210A255,6855,-0.0001308656,4.31903e-05,4.317719e-05,1.645285e-05,7.338781e-10,1.613804e-07,0.00017636706488377256
PART_003_R247G182B210A255,6856,-0.0001308655,4.318527e-05,4.318599e-05,1.553576e-05,-1.741025e-08,2.068045e-07,0.000176119290779439
PART_003_R247G182B210A255,6857,-0.0001308656,4.317872e-05,4.318732e-05,1.492194e-05,2.695866e-09,1.868177e-07,0.00017595743742117686
PART_001_R158G218B229A255,6858,-0.0001308655,4.318791e-05,4.317671e-05,1.457597e-05,-2.638976e-09,1.104246e-07,0.00017586942191827505
PART_001_R158G218B229A255,6859,-0.0001308656,4.318477e-05,4.318143e-05,1.446381e-05,8.949708e-17,9.216426e-15,0.00017584241632554132
PART_001_R158G218B229A255,6860,-0.0001308655,4.318791e-05,4.317671e-05,1.457597e-05,2.638975e-09,-1.104246e-07,0.000175869421918275
PART_001_R158G218B229A255,6861,-0.0001308656,4.317872e-05,4.318732e-05,1.492194e-05,-2.695866e-09,-1.868177e-07,0.00017595743742117686
PART_002_R214G39B40A255,6862,-0.0001308655,4.318527e-05,4.318599e-05,1.553576e-05,1.741025e-08,-2.068044e-07,0.0001761192907790867
PART_002_R214G39B40A255,6863,-0.0001308656,4.31903e-05,4.317719e-05,1.645285e-05,-7.338783e-10,-1.613804e-07,0.00017636706488377256
PART_002_R214G39B40A255,6864,-0.0001308655,4.319085e-05,4.319398e-05,1.772536e-05,9.134192e-09,-5.843268e-08,0.0001767448257695777
PART_003_R247G182B210A255,6865,-0.0001962983,6.480808e-05,6.474449e-05,1.452033e-05,2.294007e-09,1.261999e-07,0.0002622832623532174
PART_003_R247G182B210A255,6866,-0.0001962984,6.477849e-05,6.478706e-05,1.331918e-05,-2.29491e-08,3.183515e-07,0.00026209900283117774
PART_003_R247G182B210A255,6867,-0.0001962983,6.476641e-05,6.478183e-05,1.24938e-05,9.095213e-09,4.059899e-07,0.00026196867849014716
PART_001_R158G218B229A255,6868,-0.0001962983,6.478202e-05,6.476489e-05,1.198339e-05,2.439144e-09,3.623538e-07,0.0002618962777612759
PART_001_R158G218B229A255,6869,-0.0001962983,6.478189e-05,6.476738e-05,1.170197e-05,1.978129e-09,2.069268e-07,0.00026185876789006443
PART_001_R158G218B229A255,6870,-0.0001962983,6.478286e-05,6.476255e-05,1.161084e-05,-3.882469e-16,1.467578e-14,0.00026184442857849567
PART_001_R158G218B229A255,6871,-0.0001962983,6.478189e-05,6.476738e-05,1.170197e-05,-1.978128e-09,-2.069268e-07,0.00026185876789006443
PART_001_R158G218B229A255,6872,-0.0001962983,6.478202e-05,6.476489e-05,1.198339e-05,-2.439145e-09,-3.623537e-07,0.0002618962777608609
PART_001_R158G218B229A255,6873,-0.0001962983,6.476641e-05,6.478183e-05,1.24938e-05,-9.095213e-09,-4.059899e-07,0.00026196867849014716
PART_002_R214G39B40A255,6874,-0.0001962984,6.477849e-05,6.478706e-05,1.331918e-05,2.29491e-08,-3.183515e-07,0.00026209900283117774
PART_002_R214G39B40A255,6875,-0.0001962983,6.480808e-05,6.474449e-05,1.452033e-05,-2.294007e-09,-1.261999e-07,0.0002622832623532174
PART_003_R247G182B210A255,6876,-0.0002617311,8.63784e-05,8.640253e-05,9.932604e-06,-2.152887e-08,2.312785e-07,0.00034854663415548104
PART_003_R247G182B210A255,6877,-0.0002617311,8.635886e-05,8.636852e-05,8.856099e-06,2.098155e-08,6.334111e-07,0.0003484343256815628
PART_001_R158G218B229A255,6878,-0.0002617311,8.637665e-05,8.634871e-05,8.266722e-06,1.499896e-08,7.743518e-07,0.00034839072300376175
PART_001_R158G218B229A255,6879,-0.0002617311,8.638292e-05,8.634934e-05,7.924963e-06,4.406947e-09,6.40762e-07,0.0003483695297828511
PART_001_R158G218B229A255,6880,-0.0002617311,8.637708e-05,8.634889e-05,7.736566e-06,3.676964e-09,3.580889e-07,0.0003483524661775089
PART_001_R158G218B229A255,6881,-0.0002617311,8.638556e-05,8.634749e-05,7.67906e-06,-4.928122e-17,2.09754e-14,0.00034835163485346976
PART_001_R158G218B229A255,6882,-0.0002617311,8.637708e-05,8.634889e-05,7.736566e-06,-3.676965e-09,-3.580889e-07,0.0003483524661775089
PART_001_R158G218B229A255,6883,-0.0002617311,8.638292e-05,8.634934e-05,7.924963e-06,-4.406947e-09,-6.40762e-07,0.0003483695297828511
PART_001_R158G218B229A255,6884,-0.0002617311,8.637665e-05,8.634871e-05,8.266722e-06,-1.499896e-08,-7.743518e-07,0.00034839072300376175
PART_001_R158G218B229A255,6885,-0.0002617311,8.635886e-05,8.636852e-05,8.856099e-06,-2.098155e-08,-6.334111e-07,0.0003484343256815628
PART_002_R214G39B40A255,6886,-0.0002617311,8.63784e-05,8.640253e-05,9.932603e-06,2.152887e-08,-2.312785e-07,0.0003485466340699894
PART_003_R247G182B210A255,6887,-0.0003271639,0.0001080285,0.0001078647,3.648023e-06,3.312695e-08,6.234953e-07,0.000435157742755265
PART_001_R158G218B229A255,6888,-0.0003271639,0.0001079665,0.0001079187,3.134942e-06,2.039569e-08,1.347982e-06,0.0004351466466081056
PART_001_R158G218B229A255,6889,-0.0003271639,0.0001079976,0.0001079171,2.938751e-06,3.992465e-09,1.372505e-06,0.00043515751997617413
PART_001_R158G218B229A255,6890,-0.0003271639,0.0001079696,0.0001079345,2.809205e-06,4.768913e-09,1.070265e-06,0.0004351471041341587
PART_001_R158G218B229A255,6891,-0.0003271639,0.0001079882,0.0001079286,2.747209e-06,6.720383e-10,5.776153e-07,0.0004351494697376274
PART_001_R158G218B229A255,6892,-0.0003271639,0.0001079705,0.0001079372,2.724423e-06,-1.030466e-16,2.833573e-14,0.00043514333803791453
PART_001_R158G218B229A255,6893,-0.0003271639,0.0001079882,0.0001079286,2.747209e-06,-6.720382e-10,-5.776152e-07,0.0004351494697372292
PART_001_R158G218B229A255,6894,-0.0003271639,0.0001079696,0.0001079345,2.809205e-06,-4.768914e-09,-1.070265e-06,0.0004351471041341587
PART_001_R158G218B229A255,6895,-0.0003271639,0.0001079976,0.0001079171,2.938751e-06,-3.992464e-09,-1.372505e-06,0.0004351575199761741
PART_001_R158G218B229A255,6896,-0.0003271639,0.0001079665,0.0001079187,3.134942e-06,-2.039569e-08,-1.347982e-06,0.0004351466466081056
PART_001_R158G218B229A255,6897,-0.0003271639,0.0001080285,0.0001078647,3.648023e-06,-3.312695e-08,-6.234953e-07,0.000435157742755265
PART_003_R247G182B210A255,6898,0.00032262,-0.0001065282,-0.0001063667,3.648018e-06,3.26643e-08,-6.234944e-07,0.0004291153571638342
PART_000_R31G119B180A255,6899,0.0003226199,-0.000106467,-0.0001064197,3.134945e-06,2.011393e-08,-1.347984e-06,0.00042910396201304454
PART_000_R31G119B180A255,6900,0.00032262,-0.0001064976,-0.0001064183,2.938749e-06,3.936032e-09,-1.372502e-06,0.00042911473053406366
PART_000_R31G119B180A255,6901,0.0003226199,-0.00010647,-0.0001064353,2.809207e-06,4.703265e-09,-1.070267e-06,0.00042910414292942045
PART_000_R31G119B180A255,6902,0.00032262,-0.0001064883,-0.0001064297,2.747207e-06,6.624285e-10,-5.776141e-07,0.000429106552234797
PART_000_R31G119B180A255,6903,0.0003226199,-0.000106471,-0.000106438,2.724424e-06,-3.948529e-17,-2.837042e-14,0.0004291003484157352
PART_000_R31G119B180A255,6904,0.00032262,-0.0001064883,-0.0001064297,2.747207e-06,-6.624285e-10,5.77614e-07,0.0004291065522343932
PART_000_R31G119B180A255,6905,0.0003226199,-0.00010647,-0.0001064353,2.809207e-06,-4.703266e-09,1.070267e-06,0.0004291041429294205
PART_000_R31G119B180A255,6906,0.00032262,-0.0001064976,-0.0001064183,2.938749e-06,-3.936032e-09,1.372502e-06,0.00042911473053406366
PART_000_R31G119B180A255,6907,0.0003226199,-0.000106467,-0.0001064197,3.134945e-06,-2.011393e-08,1.347984e-06,0.00042910396201304454
PART_000_R31G119B180A255,6908,0.00032262,-0.0001065282,-0.0001063667,3.648018e-06,-3.26643e-08,6.234944e-07,0.0004291153571638342
PART_003_R247G182B210A255,6909,0.000258096,-8.51787e-05,-8.520261e-05,9.932608e-06,-2.122922e-08,-2.312773e-07,0.00034371770372575795
PART_003_R247G182B210A255,6910,0.0002580959,-8.515943e-05,-8.516885e-05,8.856098e-06,2.069012e-08,-6.334135e-07,0.0003436043530936997
PART_000_R31G119B180A255,6911,0.000258096,-8.517697e-05,-8.514953e-05,8.266722e-06,1.479059e-08,-7.743493e-07,0.00034356037149233816
PART_000_R31G119B180A255,6912,0.0002580959,-8.518316e-05,-8.514995e-05,7.924963e-06,4.345797e-09,-6.40764e-07,0.00034353858698496763
PART_000_R31G119B180A255,6913,0.000258096,-8.51774e-05,-8.51497e-05,7.736566e-06,3.625861e-09,-3.580878e-07,0.00034352156747742226
PART_000_R31G119B180A255,6914,0.0002580959,-8.518576e-05,-8.514812e-05,7.679059e-06,-2.656126e-17,-2.099274e-14,0.0003435204247622246
PART_000_R31G119B180A255,6915,0.000258096,-8.51774e-05,-8.51497e-05,7.736566e-06,-3.625862e-09,3.580878e-07,0.0003435215674774223
PART_000_R31G119B180A255,6916,0.0002580959,-8.518316e-05,-8.514995e-05,7.924963e-06,-4.345796e-09,6.40764e-07,0.0003435385869849676
PART_000_R31G119B180A255,6917,0.000258096,-8.517697e-05,-8.514953e-05,8.266722e-06,-1.479059e-08,7.743493e-07,0.00034356037149233816
PART_000_R31G119B180A255,6918,0.0002580959,-8.515943e-05,-8.516885e-05,8.856098e-06,-2.069012e-08,6.334135e-07,0.0003436043530936997
PART_002_R214G39B40A255,6919,0.000258096,-8.51787e-05,-8.520261e-05,9.932608e-06,2.122922e-08,2.312772e-07,0.0003437177037255561
PART_003_R247G182B210A255,6920,0.000193572,-6.390797e-05,-6.384535e-05,1.452033e-05,2.261817e-09,-1.261993e-07,0.00025867428016872494
PART_003_R247G182B210A255,6921,0.000193572,-6.387879e-05,-6.388716e-05,1.331918e-05,-2.263052e-08,-3.183532e-07,0.0002584870817954191
PART_003_R247G182B210A255,6922,0.000193572,-6.386688e-05,-6.388216e-05,1.24938e-05,8.969003e-09,-4.05988e-07,0.00025835535734843333
PART_000_R31G119B180A255,6923,0.000193572,-6.388227e-05,-6.38653e-05,1.198339e-05,2.40519e-09,-3.623553e-07,0.0002582818833355784
PART_000_R31G119B180A255,6924,0.000193572,-6.388214e-05,-6.386791e-05,1.170197e-05,1.950693e-09,-2.069259e-07,0.00025824389170949017
PART_000_R31G119B180A255,6925,0.000193572,-6.38831e-05,-6.3863e-05,1.161084e-05,-3.260039e-16,-1.470528e-14,0.0002582293339050132
PART_000_R31G119B180A255,6926,0.000193572,-6.388214e-05,-6.386791e-05,1.170197e-05,-1.950693e-09,2.069259e-07,0.00025824389170949017
PART_000_R31G119B180A255,6927,0.000193572,-6.388227e-05,-6.38653e-05,1.198339e-05,-2.405191e-09,3.623553e-07,0.0002582818833355785
PART_000_R31G119B180A255,6928,0.000193572,-6.386688e-05,-6.388216e-05,1.24938e-05,-8.969003e-09,4.05988e-07,0.00025835535734843333
PART_002_R214G39B40A255,6929,0.000193572,-6.387879e-05,-6.388716e-05,1.331918e-05,2.263052e-08,3.183531e-07,0.0002584870817950496
PART_002_R214G39B40A255,6930,0.000193572,-6.390797e-05,-6.384535e-05,1.452033e-05,-2.261817e-09,1.261993e-07,0.00025867428016872494
PART_003_R247G182B210A255,6931,0.000129048,-4.259098e-05,-4.259413e-05,1.772536e-05,-9.007074e-09,-5.843209e-08,0.00017436472055965983
PART_003_R247G182B210A255,6932,0.000129048,-4.259044e-05,-4.257745e-05,1.645285e-05,7.237964e-10,-1.613815e-07,0.0001739818715382234
PART_003_R247G182B210A255,6933,0.000129048,-4.258548e-05,-4.258624e-05,1.553576e-05,-1.716845e-08,-2.068032e-07,0.00017373079923324825
PART_003_R247G182B210A255,6934,0.000129048,-4.257902e-05,-4.258745e-05,1.492193e-05,2.658417e-09,-1.868187e-07,0.00017356663732002228
PART_000_R31G119B180A255,6935,0.000129048,-4.258807e-05,-4.257709e-05,1.457597e-05,-2.602316e-09,-1.10424e-07,0.00017347757603383462
PART_000_R31G119B180A255,6936,0.000129048,-4.258498e-05,-4.258163e-05,1.446381e-05,1.73541e-16,-9.276752e-15,0.0001734500223798435
PART_000_R31G119B180A255,6937,0.000129048,-4.258807e-05,-4.257709e-05,1.457597e-05,2.602315e-09,1.10424e-07,0.00017347757603383457
PART_000_R31G119B180A255,6938,0.000129048,-4.257902e-05,-4.258745e-05,1.492193e-05,-2.658417e-09,1.868187e-07,0.00017356663732002228
PART_002_R214G39B40A255,6939,0.000129048,-4.258548e-05,-4.258624e-05,1.553576e-05,1.716845e-08,2.068032e-07,0.00017373079923324825
PART_002_R214G39B40A255,6940,0.000129048,-4.259044e-05,-4.257745e-05,1.645285e-05,-7.237966e-10,1.613815e-07,0.0001739818715382234
PART_002_R214G39B40A255,6941,0.000129048,-4.259098e-05,-4.259413e-05,1.772536e-05,9.007074e-09,5.843209e-08,0.00017436472055965983
PART_003_R247G182B210A255,6942,6.4524e-05,-2.130155e-05,-2.128389e-05,1.962261e-05,-1.190656e-09,-2.573117e-08,9.23019616564768e-05
PART_003_R247G182B210A255,6943,6.452398e-05,-2.12934e-05,-2.129574e-05,1.832412e-05,-1.742332e-08,-6.64232e-08,9.149949615365723e-05
PART_003_R247G182B210A255,6944,6.452399e-05,-2.129115e-05,-2.129248e-05,1.735703e-05,-1.212415e-09,-8.711281e-08,9.092950363178196e-05
PART_003_R247G182B210A255,6945,6.452399e-05,-2.129299e-05,-2.12912e-05,1.66989e-05,-1.354101e-08,-7.935272e-08,9.055926055020363e-05
PART_003_R247G182B210A255,6946,6.452399e-05,-2.12899e-05,-2.129339e-05,1.631658e-05,2.332146e-10,-4.673559e-08,9.034944449794245e-05
PART_000_R31G119B180A255,6947,6.452399e-05,-2.1294e-05,-2.128857e-05,1.619261e-05,-1.717541e-16,-4.465847e-15,9.028213168327163e-05
PART_000_R31G119B180A255,6948,6.452399e-05,-2.12899e-05,-2.129339e-05,1.631658e-05,-2.332144e-10,4.673558e-08,9.034944449792694e-05
PART_002_R214G39B40A255,6949,6.452399e-05,-2.129299e-05,-2.12912e-05,1.66989e-05,1.354101e-08,7.935271e-08,9.055926055017735e-05
PART_002_R214G39B40A255,6950,6.452399e-05,-2.129115e-05,-2.129248e-05,1.735703e-05,1.212415e-09,8.71128e-08,9.092950363175323e-05
PART_002_R214G39B40A255,6951,6.452398e-05,-2.12934e-05,-2.129574e-05,1.832412e-05,1.742332e-08,6.64232e-08,9.149949615365723e-05
PART_002_R214G39B40A255,6952,6.4524e-05,-2.130155e-05,-2.128389e-05,1.962261e-05,1.190656e-09,2.573117e-08,9.23019616564768e-05
PART_003_R247G182B210A255,6953,7.148123e-14,-2.390449e-14,-2.442146e-14,2.025233e-05,-7.00021e-09,-1.753104e-17,3.507806662710361e-05
PART_003_R247G182B210A255,6954,7.090346e-14,-2.512573e-14,-2.250889e-14,1.894418e-05,-2.946805e-09,-3.277848e-17,3.281228266470011e-05
PART_003_R247G182B210A255,6955,7.229666e-14,-2.733924e-14,-2.420002e-14,1.796588e-05,-1.86303e-08,-6.663481e-17,3.111783369367852e-05
PART_003_R247G182B210A255,6956,7.205586e-14,-2.897682e-14,-2.234805e-14,1.72913e-05,-1.142849e-09,-8.358733e-17,2.994941019433123e-05
PART_003_R247G182B210A255,6957,7.308336e-14,-2.994827e-14,-2.418963e-14,1.690023e-05,-7.739984e-09,-4.025228e-17,2.9272060089456584e-05
PART_003_R247G182B210A255,6958,7.246395e-14,-3.031603e-14,-2.231987e-14,1.677111e-05,1.479905e-16,-3.17235e-18,2.9048414619326475e-05
PART_002_R214G39B40A255,6959,7.301234e-14,-2.999684e-14,-2.419922e-14,1.690023e-05,7.739983e-09,3.677605e-17,2.927206008945579e-05
PART_002_R214G39B40A255,6960,7.209348e-14,-2.930295e-14,-2.230526e-14,1.72913e-05,1.142849e-09,6.521603e-17,2.994941019433123e-05
PART_002_R214G39B40A255,6961,7.244422e-14,-2.797068e-14,-2.421353e-14,1.796588e-05,1.86303e-08,8.232398e-17,3.111783369367852e-05
PART_002_R214G39B40A255,6962,7.117939e-14,-2.663147e-14,-2.240431e-14,1.894418e-05,2.946804e-09,4.361711e-17,3.281228266469984e-05
PART_002_R214G39B40A255,6963,7.184271e-14,-2.57433e-14,-2.431247e-14,2.025233e-05,7.00021e-09,6.031722e-18,3.507806662710361e-05
PART_003_R247G182B210A255,6964,-6.4524e-05,2.130155e-05,2.128389e-05,1.962261e-05,-1.190656e-09,2.573117e-08,9.23019616564768e-05
PART_003_R247G182B210A255,6965,-6.452398e-05,2.12934e-05,2.129574e-05,1.832412e-05,-1.742332e-08,6.64232e-08,9.149949615365723e-05
PART_003_R247G182B210A255,6966,-6.452399e-05,2.129115e-05,2.129248e-05,1.735703e-05,-1.212415e-09,8.711281e-08,9.092950363178196e-05
PART_003_R247G182B210A255,6967,-6.452398e-05,2.129299e-05,2.12912e-05,1.66989e-05,-1.354101e-08,7.935272e-08,9.055925107396853e-05
PART_003_R247G182B210A255,6968,-6.452399e-05,2.12899e-05,2.129339e-05,1.631658e-05,2.332146e-10,4.673559e-08,9.034944449794245e-05
PART_001_R158G218B229A255,6969,-6.452399e-05,2.1294e-05,2.128857e-05,1.619261e-05,-1.379414e-16,4.496289e-15,9.028213168327163e-05
PART_001_R158G218B229A255,6970,-6.452399e-05,2.12899e-05,2.129339e-05,1.631658e-05,-2.332145e-10,-4.673558e-08,9.034944449792694e-05
PART_002_R214G39B40A255,6971,-6.452398e-05,2.129299e-05,2.12912e-05,1.66989e-05,1.354101e-08,-7.935271e-08,9.055925107394225e-05
PART_002_R214G39B40A255,6972,-6.452399e-05,2.129115e-05,2.129248e-05,1.735703e-05,1.212415e-09,-8.71128e-08,9.092950363175323e-05
PART_002_R214G39B40A255,6973,-6.452398e-05,2.12934e-05,2.129574e-05,1.832412e-05,1.742332e-08,-6.64232e-08,9.149949615365723e-05
PART_002_R214G39B40A255,6974,-6.4524e-05,2.130155e-05,2.128389e-05,1.962261e-05,1.190656e-09,-2.573117e-08,9.23019616564768e-05
PART_003_R247G182B210A255,6975,-0.000129048,4.259098e-05,4.259413e-05,1.772536e-05,-9.007074e-09,5.843209e-08,0.00017436472055965983
PART_003_R247G182B210A255,6976,-0.000129048,4.259044e-05,4.257745e-05,1.645285e-05,7.237965e-10,1.613815e-07,0.0001739818715382234
PART_003_R247G182B210A255,6977,-0.000129048,4.258548e-05,4.258624e-05,1.553576e-05,-1.716845e-08,2.068032e-07,0.00017373079923324825
PART_003_R247G182B210A255,6978,-0.000129048,4.257902e-05,4.258745e-05,1.492193e-05,2.658417e-09,1.868187e-07,0.00017356663732002228
PART_001_R158G218B229A255,6979,-0.000129048,4.258807e-05,4.257709e-05,1.457597e-05,-2.602316e-09,1.10424e-07,0.00017347757603383462
PART_001_R158G218B229A255,6980,-0.000129048,4.258498e-05,4.258163e-05,1.446381e-05,1.500006e-16,9.293536e-15,0.0001734500223798435
PART_001_R158G218B229A255,6981,-0.000129048,4.258807e-05,4.257709e-05,1.457597e-05,2.602315e-09,-1.10424e-07,0.00017347757603383457
PART_001_R158G218B229A255,6982,-0.000129048,4.257902e-05,4.258745e-05,1.492193e-05,-2.658417e-09,-1.868187e-07,0.00017356663732002228
PART_002_R214G39B40A255,6983,-0.000129048,4.258548e-05,4.258624e-05,1.553576e-05,1.716845e-08,-2.068032e-07,0.00017373079923324825
PART_002_R214G39B40A255,6984,-0.000129048,4.259044e-05,4.257745e-05,1.645285e-05,-7.237966e-10,-1.613815e-07,0.0001739818715382234
PART_002_R214G39B40A255,6985,-0.000129048,4.259098e-05,4.259413e-05,1.772536e-05,9.007074e-09,-5.843208e-08,0.00017436472055964978
PART_003_R247G182B210A255,6986,-0.000193572,6.390797e-05,6.384535e-05,1.452033e-05,2.261817e-09,1.261993e-07,0.00025867428016872494
PART_003_R247G182B210A255,6987,-0.000193572,6.387879e-05,6.388716e-05,1.331918e-05,-2.263052e-08,3.183532e-07,0.0002584870817954191
PART_003_R247G182B210A255,6988,-0.000193572,6.386688e-05,6.388216e-05,1.24938e-05,8.969003e-09,4.05988e-07,0.00025835535734843333
PART_001_R158G218B229A255,6989,-0.000193572,6.388227e-05,6.38653e-05,1.198339e-05,2.40519e-09,3.623553e-07,0.0002582818833355784
PART_001_R158G218B229A255,6990,-0.000193572,6.388214e-05,6.386791e-05,1.170197e-05,1.950693e-09,2.069259e-07,0.00025824389170949017
PART_001_R158G218B229A255,6991,-0.000193572,6.38831e-05,6.3863e-05,1.161084e-05,-3.41721e-16,1.469758e-14,0.0002582293339050132
PART_001_R158G218B229A255,6992,-0.000193572,6.388214e-05,6.386791e-05,1.170197e-05,-1.950693e-09,-2.069259e-07,0.00025824389170949017
PART_001_R158G218B229A255,6993,-0.000193572,6.388227e-05,6.38653e-05,1.198339e-05,-2.405191e-09,-3.623553e-07,0.0002582818833355785
PART_001_R158G218B229A255,6994,-0.000193572,6.386688e-05,6.388216e-05,1.24938e-05,-8.969003e-09,-4.05988e-07,0.00025835535734843333
PART_002_R214G39B40A255,6995,-0.000193572,6.387879e-05,6.388716e-05,1.331918e-05,2.263052e-08,-3.183531e-07,0.0002584870817950496
PART_002_R214G39B40A255,6996,-0.000193572,6.390797e-05,6.384535e-05,1.452033e-05,-2.261817e-09,-1.261993e-07,0.00025867428016872494
PART_003_R247G182B210A255,6997,-0.000258096,8.51787e-05,8.520261e-05,9.932608e-06,-2.122922e-08,2.312773e-07,0.00034371770372575795
PART_003_R247G182B210A255,6998,-0.0002580959,8.515943e-05,8.516885e-05,8.856098e-06,2.069012e-08,6.334135e-07,0.0003436043530936997
PART_001_R158G218B229A255,6999,-0.000258096,8.517697e-05,8.514953e-05,8.266722e-06,1.479059e-08,7.743493e-07,0.00034356037149233816
PART_001_R158G218B229A255,7000,-0.0002580959,8.518316e-05,8.514995e-05,7.924963e-06,4.345797e-09,6.40764e-07,0.00034353858698496763
PART_001_R158G218B229A255,7001,-0.000258096,8.51774e-05,8.51497e-05,7.736566e-06,3.625862e-09,3.580878e-07,0.0003435215674774223
PART_001_R158G218B229A255,7002,-0.0002580959,8.518576e-05,8.514812e-05,7.679059e-06,-3.289537e-17,2.097256e-14,0.0003435204247622246
PART_001_R158G218B229A255,7003,-0.000258096,8.51774e-05,8.51497e-05,7.736566e-06,-3.625862e-09,-3.580878e-07,0.0003435215674774223
PART_001_R158G218B229A255,7004,-0.0002580959,8.518316e-05,8.514995e-05,7.924963e-06,-4.345796e-09,-6.40764e-07,0.0003435385869849676
PART_001_R158G218B229A255,7005,-0.000258096,8.517697e-05,8.514953e-05,8.266722e-06,-1.479059e-08,-7.743493e-07,0.00034356037149233816
PART_001_R158G218B229A255,7006,-0.0002580959,8.515943e-05,8.516885e-05,8.856098e-06,-2.069012e-08,-6.334135e-07,0.0003436043530936997
PART_002_R214G39B40A255,7007,-0.000258096,8.51787e-05,8.520261e-05,9.932608e-06,2.122922e-08,-2.312772e-07,0.0003437177037255561
PART_003_R247G182B210A255,7008,-0.00032262,0.0001065282,0.0001063667,3.648018e-06,3.26643e-08,6.234944e-07,0.0004291153571638342
PART_001_R158G218B229A255,7009,-0.0003226199,0.000106467,0.0001064197,3.134945e-06,2.011393e-08,1.347984e-06,0.00042910396201304454
PART_001_R158G218B229A255,7010,-0.00032262,0.0001064976,0.0001064183,2.938749e-06,3.936033e-09,1.372502e-06,0.0004291147305340637
PART_001_R158G218B229A255,7011,-0.0003226199,0.00010647,0.0001064353,2.809207e-06,4.703265e-09,1.070267e-06,0.00042910414292942045
PART_001_R158G218B229A255,7012,-0.00032262,0.0001064883,0.0001064297,2.747207e-06,6.624286e-10,5.776141e-07,0.000429106552234797
PART_001_R158G218B229A255,7013,-0.0003226199,0.000106471,0.000106438,2.724424e-06,-1.213231e-16,2.831429e-14,0.0004291003484157352
PART_001_R158G218B229A255,7014,-0.00032262,0.0001064883,0.0001064297,2.747207e-06,-6.624285e-10,-5.77614e-07,0.0004291065522343932
PART_001_R158G218B229A255,7015,-0.0003226199,0.00010647,0.0001064353,2.809207e-06,-4.703266e-09,-1.070267e-06,0.0004291041429294205
PART_001_R158G218B229A255,7016,-0.00032262,0.0001064976,0.0001064183,2.938749e-06,-3.936033e-09,-1.372502e-06,0.0004291147305340637
PART_001_R158G218B229A255,7017,-0.0003226199,0.000106467,0.0001064197,3.134945e-06,-2.011393e-08,-1.347984e-06,0.00042910396201304454
PART_001_R158G218B229A255,7018,-0.00032262,0.0001065282,0.0001063667,3.648018e-06,-3.26643e-08,-6.234944e-07,0.0004291153571638342
PART_003_R247G182B210A255,7019,0.000318076,-0.0001050278,-0.0001048684,3.648022e-06,3.220632e-08,-6.234951e-07,0.00042307269089457634
PART_000_R31G119B180A255,7020,0.000318076,-0.0001049675,-0.0001049209,3.134942e-06,1.98294e-08,-1.347983e-06,0.0004230614933728432
PART_000_R31G119B180A255,7021,0.000318076,-0.0001049976,-0.0001049194,2.938751e-06,3.881397e-09,-1.372504e-06,0.00042307180583901565
PART_000_R31G119B180A255,7022,0.000318076,-0.0001049704,-0.0001049363,2.809205e-06,4.636543e-09,-1.070266e-06,0.00042306139413110115
PART_000_R31G119B180A255,7023,0.000318076,-0.0001049885,-0.0001049306,2.747208e-06,6.53324e-10,-5.776151e-07,0.0004230634957691191
PART_000_R31G119B180A255,7024,0.000318076,-0.0001049714,-0.0001049389,2.724423e-06,-7.059173e-18,-2.822106e-14,0.0004230574690329421
PART_000_R31G119B180A255,7025,0.000318076,-0.0001049885,-0.0001049306,2.747208e-06,-6.53324e-10,5.77615e-07,0.00042306349576870956
PART_000_R31G119B180A255,7026,0.000318076,-0.0001049704,-0.0001049363,2.809205e-06,-4.636544e-09,1.070266e-06,0.0004230613941311012
PART_000_R31G119B180A255,7027,0.000318076,-0.0001049976,-0.0001049194,2.938751e-06,-3.881397e-09,1.372504e-06,0.00042307180583901565
PART_000_R31G119B180A255,7028,0.000318076,-0.0001049675,-0.0001049209,3.134942e-06,-1.98294e-08,1.347983e-06,0.0004230614933728432
PART_000_R31G119B180A255,7029,0.000318076,-0.0001050278,-0.0001048684,3.648022e-06,-3.220632e-08,6.234951e-07,0.00042307269089457634
PART_003_R247G182B210A255,7030,0.0002544608,-8.3979e-05,-8.400248e-05,9.932604e-06,-2.093074e-08,-2.312782e-07,0.00033888873836647606
PART_003_R247G182B210A255,7031,0.0002544608,-8.396e-05,-8.396937e-05,8.856099e-06,2.039872e-08,-6.334115e-07,0.0003387747117341178
PART_000_R31G119B180A255,7032,0.0002544608,-8.397729e-05,-8.395015e-05,8.266722e-06,1.458231e-08,-7.743514e-07,0.00033872993942925137
PART_000_R31G119B180A255,7033,0.0002544608,-8.39834e-05,-8.395073e-05,7.924963e-06,4.284542e-09,-6.407624e-07,0.00033870793836141585
PART_000_R31G119B180A255,7034,0.0002544608,-8.397772e-05,-8.395033e-05,7.736566e-06,3.574821e-09,-3.580887e-07,0.0003386905827156196
PART_000_R31G119B180A255,7035,0.0002544608,-8.398596e-05,-8.394894e-05,7.67906e-06,9.894615e-17,-2.094416e-14,0.0003386895116672106
PART_000_R31G119B180A255,7036,0.0002544608,-8.397772e-05,-8.395033e-05,7.736566e-06,-3.574821e-09,3.580887e-07,0.0003386905827156196
PART_000_R31G119B180A255,7037,0.0002544608,-8.39834e-05,-8.395073e-05,7.924963e-06,-4.284541e-09,6.407623e-07,0.0003387079383608483
PART_000_R31G119B180A255,7038,0.0002544608,-8.397729e-05,-8.395015e-05,8.266722e-06,-1.458231e-08,7.743513e-07,0.00033872993942856555
PART_000_R31G119B180A255,7039,0.0002544608,-8.396e-05,-8.396937e-05,8.856099e-06,-2.039873e-08,6.334115e-07,0.00033877471173411963
PART_002_R214G39B40A255,7040,0.0002544608,-8.3979e-05,-8.400248e-05,9.932604e-06,2.093074e-08,2.312782e-07,0.00033888873836647606
PART_003_R247G182B210A255,7041,0.0001908456,-6.300785e-05,-6.294605e-05,1.452033e-05,2.230227e-09,-1.261998e-07,0.0002550655944986495
PART_003_R247G182B210A255,7042,0.0001908456,-6.297909e-05,-6.29874e-05,1.331918e-05,-2.231165e-08,-3.183518e-07,0.0002548756359687566
PART_003_R247G182B210A255,7043,0.0001908456,-6.296735e-05,-6.298235e-05,1.24938e-05,8.842587e-09,-4.059896e-07,0.00025474222429646884
PART_000_R31G119B180A255,7044,0.0001908456,-6.298252e-05,-6.296585e-05,1.198339e-05,2.371377e-09,-3.62354e-07,0.0002546677880920032
PART_000_R31G119B180A255,7045,0.0001908456,-6.29824e-05,-6.29683e-05,1.170197e-05,1.923187e-09,-2.069266e-07,0.0002546291648272091
PART_000_R31G119B180A255,7046,0.0001908456,-6.298334e-05,-6.296358e-05,1.161084e-05,-2.169963e-16,-1.471765e-14,0.00025461451319326556
PART_000_R31G119B180A255,7047,0.0001908456,-6.29824e-05,-6.29683e-05,1.170197e-05,-1.923187e-09,2.069266e-07,0.0002546291648272091
PART_000_R31G119B180A255,7048,0.0001908456,-6.298252e-05,-6.296585e-05,1.198339e-05,-2.371378e-09,3.62354e-07,0.0002546677880920032
PART_000_R31G119B180A255,7049,0.0001908456,-6.296735e-05,-6.298235e-05,1.24938e-05,-8.842587e-09,4.059896e-07,0.00025474222429646884
PART_002_R214G39B40A255,7050,0.0001908456,-6.297909e-05,-6.29874e-05,1.331918e-05,2.231165e-08,3.183518e-07,0.0002548756359687566
PART_002_R214G39B40A255,7051,0.0001908456,-6.300785e-05,-6.294605e-05,1.452033e-05,-2.230228e-09,1.261998e-07,0.0002550655944986495
PART_003_R247G182B210A255,7052,0.0001272304,-4.199111e-05,-4.199416e-05,1.772536e-05,-8.880422e-09,-5.843258e-08,0.000171985497128862
PART_003_R247G182B210A255,7053,0.0001272304,-4.199057e-05,-4.197782e-05,1.645285e-05,7.13512e-10,-1.613806e-07,0.00017159762887325938
PART_003_R247G182B210A255,7054,0.0001272304,-4.198568e-05,-4.198639e-05,1.553576e-05,-1.692663e-08,-2.068042e-07,0.00017134296178799967
PART_003_R247G182B210A255,7055,0.0001272304,-4.197931e-05,-4.198767e-05,1.492194e-05,2.62098e-09,-1.868179e-07,0.0001711766287342755
PART_000_R31G119B180A255,7056,0.0001272304,-4.198824e-05,-4.197737e-05,1.457597e-05,-2.565669e-09,-1.104245e-07,0.0001710863002691068
PART_000_R31G119B180A255,7057,0.0001272304,-4.198519e-05,-4.198193e-05,1.446381e-05,2.915449e-16,-9.309608e-15,0.00017105838087039347
PART_000_R31G119B180A255,7058,0.0001272304,-4.198824e-05,-4.197737e-05,1.457597e-05,2.565669e-09,1.104245e-07,0.0001710863002691068
PART_000_R31G119B180A255,7059,0.0001272304,-4.197931e-05,-4.198767e-05,1.492194e-05,-2.62098e-09,1.868179e-07,0.0001711766287342755
PART_002_R214G39B40A255,7060,0.0001272304,-4.198568e-05,-4.198639e-05,1.553576e-05,1.692663e-08,2.068042e-07,0.00017134296178799967
PART_002_R214G39B40A255,7061,0.0001272304,-4.199057e-05,-4.197782e-05,1.645285e-05,-7.135121e-10,1.613806e-07,0.00017159762887325938
PART_002_R214G39B40A255,7062,0.0001272304,-4.199111e-05,-4.199416e-05,1.772536e-05,8.880422e-09,5.843258e-08,0.000171985497128862
PART_003_R247G182B210A255,7063,6.36152e-05,-2.100153e-05,-2.09841e-05,1.962261e-05,-1.173737e-09,-2.573133e-08,9.117926787470498e-05
PART_003_R247G182B210A255,7064,6.361521e-05,-2.09935e-05,-2.099582e-05,1.832412e-05,-1.717778e-08,-6.642274e-08,9.036683212299988e-05
PART_003_R247G182B210A255,7065,6.36152e-05,-2.099128e-05,-2.099257e-05,1.735703e-05,-1.195388e-09,-8.711334e-08,8.978968673386311e-05
PART_003_R247G182B210A255,7066,6.36152e-05,-2.099309e-05,-2.099134e-05,1.66989e-05,-1.335027e-08,-7.935228e-08,8.941472968113951e-05
PART_003_R247G182B210A255,7067,6.36152e-05,-2.099005e-05,-2.099346e-05,1.631658e-05,2.299195e-10,-4.673583e-08,8.920221827204919e-05
PART_000_R31G119B180A255,7068,6.36152e-05,-2.099408e-05,-2.098875e-05,1.619261e-05,8.530575e-17,-4.50382e-15,8.9134062955198e-05
PART_000_R31G119B180A255,7069,6.36152e-05,-2.099005e-05,-2.099346e-05,1.631658e-05,-2.29919e-10,4.673582e-08,8.920221827203345e-05
PART_002_R214G39B40A255,7070,6.36152e-05,-2.099309e-05,-2.099134e-05,1.66989e-05,1.335027e-08,7.935228e-08,8.941472968113951e-05
PART_002_R214G39B40A255,7071,6.36152e-05,-2.099128e-05,-2.099257e-05,1.735703e-05,1.195388e-09,8.711334e-08,8.978968673386311e-05
PART_002_R214G39B40A255,7072,6.361521e-05,-2.09935e-05,-2.099582e-05,1.832412e-05,1.717778e-08,6.642274e-08,9.036683212299988e-05
PART_002_R214G39B40A255,7073,6.36152e-05,-2.100153e-05,-2.09841e-05,1.962261e-05,1.173737e-09,2.573133e-08,9.117926787470498e-05
PART_003_R247G182B210A255,7074,6.881691e-14,-2.24612e-14,-2.178437e-14,2.025233e-05,-6.901777e-09,-4.055763e-17,3.5078066568587806e-05
PART_003_R247G182B210A255,7075,6.942374e-14,-2.041423e-14,-2.430331e-14,1.894418e-05,-2.905389e-09,-1.278681e-16,3.281228265362006e-05
PART_003_R247G182B210A255,7076,6.768002e-14,-1.818684e-14,-2.183466e-14,1.796588e-05,-1.836791e-08,-1.424066e-16,3.1117833225717264e-05
PART_003_R247G182B210A255,7077,6.786629e-14,-1.616068e-14,-2.401477e-14,1.72913e-05,-1.12673e-09,-1.475722e-16,2.9949410192498977e-05
PART_003_R247G182B210A255,7078,6.661815e-14,-1.486311e-14,-2.185434e-14,1.690023e-05,-7.630984e-09,-4.440168e-17,2.9272060003601565e-05
PART_003_R247G182B210A255,7079,6.724851e-14,-1.456474e-14,-2.397797e-14,1.677112e-05,3.751094e-16,-2.402185e-17,2.9048431939834554e-05
PART_002_R214G39B40A255,7080,6.653445e-14,-1.475903e-14,-2.184081e-14,1.690023e-05,7.630984e-09,6.500639e-17,2.9272060003601565e-05
PART_002_R214G39B40A255,7081,6.759881e-14,-1.565414e-14,-2.404171e-14,1.72913e-05,1.12673e-09,1.182407e-16,2.9949410192498977e-05
PART_002_R214G39B40A255,7082,6.714713e-14,-1.700723e-14,-2.175289e-14,1.796588e-05,1.836791e-08,1.185075e-16,3.1117833225717264e-05
PART_002_R214G39B40A255,7083,6.865385e-14,-1.862399e-14,-2.424544e-14,1.894418e-05,2.905389e-09,1.17359e-16,3.281228265362006e-05
PART_002_R214G39B40A255,7084,6.782584e-14,-2.010198e-14,-2.172019e-14,2.025233e-05,6.901777e-09,2.993669e-17,3.5078066568587806e-05
PART_003_R247G182B210A255,7085,-6.36152e-05,2.100153e-05,2.09841e-05,1.962261e-05,-1.173737e-09,2.573133e-08,9.117926787470498e-05
PART_003_R247G182B210A255,7086,-6.361521e-05,2.09935e-05,2.099582e-05,1.832412e-05,-1.717778e-08,6.642274e-08,9.036683212299988e-05
PART_003_R247G182B210A255,7087,-6.36152e-05,2.099128e-05,2.099257e-05,1.735703e-05,-1.195388e-09,8.711334e-08,8.978968673386311e-05
PART_003_R247G182B210A255,7088,-6.36152e-05,2.099309e-05,2.099134e-05,1.66989e-05,-1.335027e-08,7.935228e-08,8.941472968113951e-05
PART_003_R247G182B210A255,7089,-6.36152e-05,2.099005e-05,2.099346e-05,1.631658e-05,2.299195e-10,4.673583e-08,8.920221827204919e-05
PART_001_R158G218B229A255,7090,-6.36152e-05,2.099408e-05,2.098875e-05,1.619261e-05,6.25771e-17,4.512614e-15,8.9134062955198e-05
PART_001_R158G218B229A255,7091,-6.36152e-05,2.099005e-05,2.099346e-05,1.631658e-05,-2.299189e-10,-4.673582e-08,8.920221827203345e-05
PART_002_R214G39B40A255,7092,-6.36152e-05,2.099309e-05,2.099134e-05,1.66989e-05,1.335027e-08,-7.935228e-08,8.941472968113951e-05
PART_002_R214G39B40A255,7093,-6.36152e-05,2.099128e-05,2.099257e-05,1.735703e-05,1.195388e-09,-8.711334e-08,8.978968673386311e-05
PART_002_R214G39B40A255,7094,-6.361521e-05,2.09935e-05,2.099582e-05,1.832412e-05,1.717778e-08,-6.642274e-08,9.036683212299988e-05
PART_002_R214G39B40A255,7095,-6.36152e-05,2.100153e-05,2.09841e-05,1.962261e-05,1.173737e-09,-2.573133e-08,9.117926787470498e-05
PART_003_R247G182B210A255,7096,-0.0001272304,4.199111e-05,4.199416e-05,1.772536e-05,-8.880422e-09,5.843258e-08,0.000171985497128862
PART_003_R247G182B210A255,7097,-0.0001272304,4.199057e-05,4.197782e-05,1.645285e-05,7.135121e-10,1.613806e-07,0.00017159762887325938
PART_003_R247G182B210A255,7098,-0.0001272304,4.198568e-05,4.198639e-05,1.553576e-05,-1.692663e-08,2.068042e-07,0.00017134296178799967
PART_003_R247G182B210A255,7099,-0.0001272304,4.197931e-05,4.198767e-05,1.492194e-05,2.62098e-09,1.868179e-07,0.0001711766287342755
PART_001_R158G218B229A255,7100,-0.0001272304,4.198824e-05,4.197737e-05,1.457597e-05,-2.565669e-09,1.104245e-07,0.0001710863002691068
PART_001_R158G218B229A255,7101,-0.0001272304,4.198519e-05,4.198193e-05,1.446381e-05,3.716687e-16,9.312508e-15,0.00017105838087039347
PART_001_R158G218B229A255,7102,-0.0001272304,4.198824e-05,4.197737e-05,1.457597e-05,2.565669e-09,-1.104245e-07,0.0001710863002691068
PART_001_R158G218B229A255,7103,-0.0001272304,4.197931e-05,4.198767e-05,1.492194e-05,-2.62098e-09,-1.868179e-07,0.0001711766287342755
PART_002_R214G39B40A255,7104,-0.0001272304,4.198568e-05,4.198639e-05,1.553576e-05,1.692663e-08,-2.068042e-07,0.00017134296178799967
PART_002_R214G39B40A255,7105,-0.0001272304,4.199057e-05,4.197782e-05,1.645285e-05,-7.135122e-10,-1.613806e-07,0.00017159762887325938
PART_002_R214G39B40A255,7106,-0.0001272304,4.199111e-05,4.199416e-05,1.772536e-05,8.880422e-09,-5.843258e-08,0.000171985497128862
PART_003_R247G182B210A255,7107,-0.0001908456,6.300785e-05,6.294605e-05,1.452033e-05,2.230228e-09,1.261998e-07,0.0002550655944986495
PART_003_R247G182B210A255,7108,-0.0001908456,6.297909e-05,6.29874e-05,1.331918e-05,-2.231165e-08,3.183518e-07,0.0002548756359687566
PART_003_R247G182B210A255,7109,-0.0001908456,6.296734e-05,6.298235e-05,1.24938e-05,8.842587e-09,4.059896e-07,0.0002547422193150029
PART_001_R158G218B229A255,7110,-0.0001908456,6.298252e-05,6.296585e-05,1.198339e-05,2.371377e-09,3.62354e-07,0.0002546677880920032
PART_001_R158G218B229A255,7111,-0.0001908456,6.29824e-05,6.29683e-05,1.170197e-05,1.923187e-09,2.069266e-07,0.0002546291648272091
PART_001_R158G218B229A255,7112,-0.0001908456,6.298334e-05,6.296358e-05,1.161084e-05,-1.058884e-16,1.468216e-14,0.00025461451319326556
PART_001_R158G218B229A255,7113,-0.0001908456,6.29824e-05,6.29683e-05,1.170197e-05,-1.923187e-09,-2.069266e-07,0.0002546291648272091
PART_001_R158G218B229A255,7114,-0.0001908456,6.298252e-05,6.296585e-05,1.198339e-05,-2.371378e-09,-3.62354e-07,0.0002546677880920032
PART_001_R158G218B229A255,7115,-0.0001908456,6.296734e-05,6.298235e-05,1.24938e-05,-8.842587e-09,-4.059896e-07,0.0002547422193150029
PART_002_R214G39B40A255,7116,-0.0001908456,6.297909e-05,6.29874e-05,1.331918e-05,2.231165e-08,-3.183518e-07,0.0002548756359687566
PART_002_R214G39B40A255,7117,-0.0001908456,6.300785e-05,6.294605e-05,1.452033e-05,-2.230228e-09,-1.261998e-07,0.0002550655944986495
PART_003_R247G182B210A255,7118,-0.0002544608,8.3979e-05,8.400248e-05,9.932604e-06,-2.093074e-08,2.312782e-07,0.00033888873836647606
PART_003_R247G182B210A255,7119,-0.0002544608,8.396e-05,8.396937e-05,8.856099e-06,2.039872e-08,6.334115e-07,0.0003387747117341178
PART_001_R158G218B229A255,7120,-0.0002544608,8.397729e-05,8.395015e-05,8.266722e-06,1.458231e-08,7.743514e-07,0.00033872993942925137
PART_001_R158G218B229A255,7121,-0.0002544608,8.39834e-05,8.395073e-05,7.924963e-06,4.284542e-09,6.407624e-07,0.00033870793836141585
PART_001_R158G218B229A255,7122,-0.0002544608,8.397772e-05,8.395033e-05,7.736566e-06,3.574821e-09,3.580887e-07,0.0003386905827156196
PART_001_R158G218B229A255,7123,-0.0002544608,8.398596e-05,8.394894e-05,7.67906e-06,8.060789e-17,2.090131e-14,0.0003386895116672106
PART_001_R158G218B229A255,7124,-0.0002544608,8.397772e-05,8.395033e-05,7.736566e-06,-3.574821e-09,-3.580887e-07,0.0003386905827156196
PART_001_R158G218B229A255,7125,-0.0002544608,8.39834e-05,8.395073e-05,7.924963e-06,-4.284541e-09,-6.407623e-07,0.0003387079383608483
PART_001_R158G218B229A255,7126,-0.0002544608,8.397729e-05,8.395015e-05,8.266722e-06,-1.458231e-08,-7.743513e-07,0.00033872993942856555
PART_001_R158G218B229A255,7127,-0.0002544608,8.396e-05,8.396937e-05,8.856099e-06,-2.039873e-08,-6.334115e-07,0.00033877471173411963
PART_002_R214G39B40A255,7128,-0.0002544608,8.3979e-05,8.400248e-05,9.932604e-06,2.093074e-08,-2.312782e-07,0.00033888873836647606
PART_003_R247G182B210A255,7129,-0.000318076,0.0001050278,0.0001048684,3.648022e-06,3.220632e-08,6.234951e-07,0.00042307269089457634
PART_001_R158G218B229A255,7130,-0.000318076,0.0001049675,0.0001049209,3.134942e-06,1.98294e-08,1.347983e-06,0.0004230614933728432
PART_001_R158G218B229A255,7131,-0.000318076,0.0001049976,0.0001049194,2.938751e-06,3.881397e-09,1.372504e-06,0.00042307180583901565
PART_001_R158G218B229A255,7132,-0.000318076,0.0001049704,0.0001049363,2.809205e-06,4.636543e-09,1.070266e-06,0.00042306139413110115
PART_001_R158G218B229A255,7133,-0.000318076,0.0001049885,0.0001049306,2.747208e-06,6.533239e-10,5.776151e-07,0.0004230634957691191
PART_001_R158G218B229A255,7134,-0.000318076,0.0001049714,0.0001049389,2.724423e-06,-2.803933e-17,2.819884e-14,0.0004230574690329421
PART_001_R158G218B229A255,7135,-0.000318076,0.0001049885,0.0001049306,2.747208e-06,-6.533239e-10,-5.77615e-07,0.00042306349576870956
PART_001_R158G218B229A255,7136,-0.000318076,0.0001049704,0.0001049363,2.809205e-06,-4.636544e-09,-1.070266e-06,0.0004230613941311012
PART_001_R158G218B229A255,7137,-0.000318076,0.0001049976,0.0001049194,2.938751e-06,-3.881397e-09,-1.372504e-06,0.00042307180583901565
PART_001_R158G218B229A255,7138,-0.000318076,0.0001049675,0.0001049209,3.134942e-06,-1.98294e-08,-1.347983e-06,0.0004230614933728432
PART_001_R158G218B229A255,7139,-0.000318076,0.0001050278,0.0001048684,3.648022e-06,-3.220632e-08,-6.234951e-07,0.00042307269089457634
PART_003_R247G182B210A255,7140,0.0003135321,-0.0001035274,-0.0001033704,3.648019e-06,3.174453e-08,-6.234946e-07,0.0004170302941457819
PART_000_R31G119B180A255,7141,0.000313532,-0.0001034679,-0.0001034219,3.134944e-06,1.954713e-08,-1.347984e-06,0.00041701879174819333
PART_000_R31G119B180A255,7142,0.0003135321,-0.0001034977,-0.0001034206,2.938749e-06,3.825295e-09,-1.372502e-06,0.00041702909622836113
PART_000_R31G119B180A255,7143,0.000313532,-0.0001034708,-0.0001034371,2.809207e-06,4.570698e-09,-1.070267e-06,0.00041701845853403687
PART_000_R31G119B180A255,7144,0.0003135321,-0.0001034886,-0.0001034316,2.747208e-06,6.438069e-10,-5.776143e-07,0.0004170205506555498
PART_000_R31G119B180A255,7145,0.0003135321,-0.0001034718,-0.0001034397,2.724424e-06,2.73634e-17,-2.82933e-14,0.0004170145504401799
PART_000_R31G119B180A255,7146,0.0003135321,-0.0001034886,-0.0001034316,2.747208e-06,-6.438068e-10,5.776142e-07,0.0004170205506551342
PART_000_R31G119B180A255,7147,0.000313532,-0.0001034708,-0.0001034371,2.809207e-06,-4.570698e-09,1.070267e-06,0.00041701845853403687
PART_000_R31G119B180A255,7148,0.0003135321,-0.0001034977,-0.0001034206,2.938749e-06,-3.825294e-09,1.372502e-06,0.00041702909622836113
PART_000_R31G119B180A255,7149,0.000313532,-0.0001034679,-0.0001034219,3.134944e-06,-1.954713e-08,1.347984e-06,0.00041701879174819333
PART_000_R31G119B180A255,7150,0.0003135321,-0.0001035274,-0.0001033704,3.648019e-06,-3.174453e-08,6.234946e-07,0.0004170302941457819
PART_003_R247G182B210A255,7151,0.0002508257,-8.27793e-05,-8.280252e-05,9.932607e-06,-2.06313e-08,-2.312774e-07,0.00033406013629641085
PART_003_R247G182B210A255,7152,0.0002508256,-8.276057e-05,-8.276974e-05,8.856098e-06,2.01073e-08,-6.334131e-07,0.00033394503761737475
PART_000_R31G119B180A255,7153,0.0002508257,-8.277762e-05,-8.275093e-05,8.266722e-06,1.437396e-08,-7.743497e-07,0.0003338998165690562
PART_000_R31G119B180A255,7154,0.0002508256,-8.278364e-05,-8.275137e-05,7.924963e-06,4.223372e-09,-6.407637e-07,0.0003338772340068699
PART_000_R31G119B180A255,7155,0.0002508257,-8.277804e-05,-8.275111e-05,7.736566e-06,3.523729e-09,-3.58088e-07,0.0003338598810836795
PART_000_R31G119B180A255,7156,0.0002508256,-8.278617e-05,-8.27496e-05,7.679059e-06,2.217388e-16,-2.104729e-14,0.00033385853003756747
PART_000_R31G119B180A255,7157,0.0002508257,-8.277804e-05,-8.275111e-05,7.736566e-06,-3.523729e-09,3.580879e-07,0.0003338598810833577
PART_000_R31G119B180A255,7158,0.0002508256,-8.278364e-05,-8.275137e-05,7.924963e-06,-4.223372e-09,6.407637e-07,0.0003338772340068699
PART_000_R31G119B180A255,7159,0.0002508257,-8.277762e-05,-8.275093e-05,8.266722e-06,-1.437396e-08,7.743497e-07,0.0003338998165690562
PART_000_R31G119B180A255,7160,0.0002508256,-8.276057e-05,-8.276974e-05,8.856098e-06,-2.01073e-08,6.334131e-07,0.00033394503761737475
PART_002_R214G39B40A255,7161,0.0002508257,-8.27793e-05,-8.280252e-05,9.932607e-06,2.06313e-08,2.312774e-07,0.00033406013629641085
PART_003_R247G182B210A255,7162,0.0001881192,-6.210774e-05,-6.204688e-05,1.452033e-05,2.198148e-09,-1.261994e-07,0.000251457479780226
PART_003_R247G182B210A255,7163,0.0001881192,-6.207939e-05,-6.208753e-05,1.331918e-05,-2.199302e-08,-3.183529e-07,0.00025126455835468146
PART_003_R247G182B210A255,7164,0.0001881192,-6.206781e-05,-6.208265e-05,1.24938e-05,8.716339e-09,-4.059883e-07,0.00025112951397822
PART_000_R31G119B180A255,7165,0.0001881192,-6.208277e-05,-6.206628e-05,1.198339e-05,2.337449e-09,-3.623551e-07,0.00025105397638961727
PART_000_R31G119B180A255,7166,0.0001881192,-6.208265e-05,-6.206881e-05,1.170197e-05,1.895739e-09,-2.06926e-07,0.0002510148201060979
PART_000_R31G119B180A255,7167,0.0001881192,-6.208358e-05,-6.206405e-05,1.161084e-05,9.054952e-17,-1.485978e-14,0.0002509999598752412
PART_000_R31G119B180A255,7168,0.0001881192,-6.208265e-05,-6.206881e-05,1.170197e-05,-1.895738e-09,2.06926e-07,0.0002510148201060979
PART_000_R31G119B180A255,7169,0.0001881192,-6.208277e-05,-6.206628e-05,1.198339e-05,-2.337449e-09,3.623551e-07,0.00025105397638961727
PART_000_R31G119B180A255,7170,0.0001881192,-6.206781e-05,-6.208265e-05,1.24938e-05,-8.71634e-09,4.059883e-07,0.0002511295139782201
PART_002_R214G39B40A255,7171,0.0001881192,-6.207939e-05,-6.208753e-05,1.331918e-05,2.199302e-08,3.183529e-07,0.00025126455835468146
PART_002_R214G39B40A255,7172,0.0001881192,-6.210774e-05,-6.204688e-05,1.452033e-05,-2.198148e-09,1.261994e-07,0.000251457479780226
PART_003_R247G182B210A255,7173,0.0001254128,-4.139123e-05,-4.139428e-05,1.772536e-05,-8.753389e-09,-5.843218e-08,0.00016960739612424967
PART_003_R247G182B210A255,7174,0.0001254128,-4.139071e-05,-4.13781e-05,1.645285e-05,7.033921e-10,-1.613814e-07,0.00016921428624023352
PART_003_R247G182B210A255,7175,0.0001254128,-4.138589e-05,-4.138662e-05,1.553576e-05,-1.668483e-08,-2.068034e-07,0.00016895601026218308
PART_003_R247G182B210A255,7176,0.0001254128,-4.137961e-05,-4.138781e-05,1.492193e-05,2.583533e-09,-1.868186e-07,0.00016878735884827588
PART_000_R31G119B180A255,7177,0.0001254128,-4.138841e-05,-4.137773e-05,1.457597e-05,-2.529011e-09,-1.104241e-07,0.00016869580800529596
PART_000_R31G119B180A255,7178,0.0001254128,-4.13854e-05,-4.138216e-05,1.446381e-05,6.440102e-16,-9.455015e-15,0.00016866743760049805
PART_000_R31G119B180A255,7179,0.0001254128,-4.138841e-05,-4.137773e-05,1.457597e-05,2.529012e-09,1.104241e-07,0.000168695808005296
PART_000_R31G119B180A255,7180,0.0001254128,-4.137961e-05,-4.138781e-05,1.492193e-05,-2.583532e-09,1.868186e-07,0.00016878735884827582
PART_002_R214G39B40A255,7181,0.0001254128,-4.138589e-05,-4.138662e-05,1.553576e-05,1.668483e-08,2.068034e-07,0.00016895601026218308
PART_002_R214G39B40A255,7182,0.0001254128,-4.139071e-05,-4.13781e-05,1.645285e-05,-7.033921e-10,1.613814e-07,0.00016921428624023352
PART_002_R214G39B40A255,7183,0.0001254128,-4.139123e-05,-4.139428e-05,1.772536e-05,8.753389e-09,5.843217e-08,0.00016960739612423932
PART_003_R247G182B210A255,7184,6.270642e-05,-2.070151e-05,-2.068434e-05,1.962261e-05,-1.157091e-09,-2.57312e-08,9.005883314518648e-05
PART_003_R247G182B210A255,7185,6.270641e-05,-2.069359e-05,-2.069586e-05,1.832412e-05,-1.69325e-08,-6.642312e-08,8.923611119214787e-05
PART_003_R247G182B210A255,7186,6.270642e-05,-2.06914e-05,-2.069269e-05,1.735703e-05,-1.178271e-09,-8.711291e-08,8.86517129389457e-05
PART_003_R247G182B210A255,7187,6.270641e-05,-2.069319e-05,-2.069145e-05,1.66989e-05,-1.315957e-08,-7.935264e-08,8.827189451666295e-05
PART_003_R247G182B210A255,7188,6.270641e-05,-2.069019e-05,-2.069357e-05,1.631658e-05,2.266439e-10,-4.673563e-08,8.805665043023745e-05
PART_000_R31G119B180A255,7189,6.270641e-05,-2.069417e-05,-2.068889e-05,1.619261e-05,3.597257e-16,-4.605274e-15,8.798760295057877e-05
PART_000_R31G119B180A255,7190,6.270641e-05,-2.069019e-05,-2.069357e-05,1.631658e-05,-2.266426e-10,4.673562e-08,8.805665043022152e-05
PART_002_R214G39B40A255,7191,6.270641e-05,-2.069319e-05,-2.069145e-05,1.66989e-05,1.315957e-08,7.935263e-08,8.827189451663598e-05
PART_002_R214G39B40A255,7192,6.270642e-05,-2.06914e-05,-2.069269e-05,1.735703e-05,1.178271e-09,8.71129e-08,8.865171293891622e-05
PART_002_R214G39B40A255,7193,6.270641e-05,-2.069359e-05,-2.069586e-05,1.832412e-05,1.69325e-08,6.642311e-08,8.923611119212555e-05
PART_002_R214G39B40A255,7194,6.270642e-05,-2.070151e-05,-2.068434e-05,1.962261e-05,1.157091e-09,2.57312e-08,9.005883314518648e-05
PART_003_R247G182B210A255,7195,6.991163e-14,-2.354367e-14,-2.411998e-14,2.025233e-05,-6.803049e-09,-2.666375e-17,3.5078066510729e-05
PART_003_R247G182B210A255,7196,6.915085e-14,-2.572942e-14,-2.140684e-14,1.894418e-05,-2.863811e-09,-2.831292e-17,3.2812282642654416e-05
PART_003_R247G182B210A255,7197,7.11847e-14,-2.880335e-14,-2.396472e-14,1.796588e-05,-1.81055e-08,-8.820408e-17,3.111783276435861e-05
PART_003_R247G182B210A255,7198,7.092027e-14,-3.132217e-14,-2.128865e-14,1.72913e-05,-1.110652e-09,-6.814719e-17,2.9949410190697307e-05
PART_003_R247G182B210A255,7199,7.229124e-14,-3.267525e-14,-2.386892e-14,1.690023e-05,-7.521958e-09,-7.407568e-17,2.927205991894415e-05
PART_003_R247G182B210A255,7200,7.148416e-14,-3.312628e-14,-2.129164e-14,1.677111e-05,6.423814e-16,-2.739728e-18,2.9048414619326475e-05
PART_002_R214G39B40A255,7201,7.229113e-14,-3.275852e-14,-2.385873e-14,1.690023e-05,7.521959e-09,3.036698e-17,2.9272059918944918e-05
PART_002_R214G39B40A255,7202,7.095637e-14,-3.166911e-14,-2.128069e-14,1.72913e-05,1.110653e-09,8.505651e-17,2.994941019069742e-05
PART_002_R214G39B40A255,7203,7.144285e-14,-2.996908e-14,-2.390037e-14,1.796588e-05,1.81055e-08,1.103167e-16,3.111783276435861e-05
PART_002_R214G39B40A255,7204,6.960253e-14,-2.772782e-14,-2.135245e-14,1.894418e-05,2.863811e-09,5.807427e-17,3.2812282642654416e-05
PART_002_R214G39B40A255,7205,7.052941e-14,-2.627759e-14,-2.409541e-14,2.025233e-05,6.803049e-09,-6.532318e-18,3.5078066510729e-05
PART_003_R247G182B210A255,7206,-6.270642e-05,2.070151e-05,2.068434e-05,1.962261e-05,-1.157091e-09,2.57312e-08,9.005883314518648e-05
PART_003_R247G182B210A255,7207,-6.270641e-05,2.069359e-05,2.069586e-05,1.832412e-05,-1.69325e-08,6.642312e-08,8.923611119214787e-05
PART_003_R247G182B210A255,7208,-6.270642e-05,2.06914e-05,2.069269e-05,1.735703e-05,-1.178271e-09,8.711291e-08,8.86517129389457e-05
PART_003_R247G182B210A255,7209,-6.270641e-05,2.069319e-05,2.069145e-05,1.66989e-05,-1.315957e-08,7.935264e-08,8.827189451666295e-05
PART_003_R247G182B210A255,7210,-6.270641e-05,2.069019e-05,2.069357e-05,1.631658e-05,2.266439e-10,4.673563e-08,8.805665043023745e-05
PART_001_R158G218B229A255,7211,-6.270641e-05,2.069417e-05,2.068889e-05,1.619261e-05,3.914872e-16,4.572998e-15,8.798760295057877e-05
PART_001_R158G218B229A255,7212,-6.270641e-05,2.069019e-05,2.069357e-05,1.631658e-05,-2.266426e-10,-4.673562e-08,8.805665043022152e-05
PART_002_R214G39B40A255,7213,-6.270641e-05,2.069319e-05,2.069145e-05,1.66989e-05,1.315957e-08,-7.935263e-08,8.827189451663598e-05
PART_002_R214G39B40A255,7214,-6.270642e-05,2.06914e-05,2.069269e-05,1.735703e-05,1.178271e-09,-8.71129e-08,8.865171293891622e-05
PART_002_R214G39B40A255,7215,-6.270641e-05,2.069359e-05,2.069586e-05,1.832412e-05,1.69325e-08,-6.642311e-08,8.923611119212555e-05
PART_002_R214G39B40A255,7216,-6.270642e-05,2.070151e-05,2.068434e-05,1.962261e-05,1.157091e-09,-2.57312e-08,9.005883314518648e-05
PART_003_R247G182B210A255,7217,-0.0001254128,4.139123e-05,4.139428e-05,1.772536e-05,-8.753389e-09,5.843218e-08,0.00016960739612424967
PART_003_R247G182B210A255,7218,-0.0001254128,4.139071e-05,4.13781e-05,1.645285e-05,7.033922e-10,1.613814e-07,0.00016921428624023352
PART_003_R247G182B210A255,7219,-0.0001254128,4.138589e-05,4.138662e-05,1.553576e-05,-1.668483e-08,2.068034e-07,0.00016895601026218308
PART_003_R247G182B210A255,7220,-0.0001254128,4.137961e-05,4.138781e-05,1.492193e-05,2.583533e-09,1.868186e-07,0.00016878735884827588
PART_001_R158G218B229A255,7221,-0.0001254128,4.138841e-05,4.137773e-05,1.457597e-05,-2.529011e-09,1.104241e-07,0.00016869580800529596
PART_001_R158G218B229A255,7222,-0.0001254128,4.13854e-05,4.138216e-05,1.446381e-05,6.618593e-16,9.445613e-15,0.00016866743760049805
PART_001_R158G218B229A255,7223,-0.0001254128,4.138841e-05,4.137773e-05,1.457597e-05,2.529012e-09,-1.104241e-07,0.000168695808005296
PART_001_R158G218B229A255,7224,-0.0001254128,4.137961e-05,4.138781e-05,1.492193e-05,-2.583532e-09,-1.868186e-07,0.00016878735884827582
PART_002_R214G39B40A255,7225,-0.0001254128,4.138589e-05,4.138662e-05,1.553576e-05,1.668483e-08,-2.068034e-07,0.00016895601026218308
PART_002_R214G39B40A255,7226,-0.0001254128,4.139071e-05,4.13781e-05,1.645285e-05,-7.033922e-10,-1.613814e-07,0.00016921428624023352
PART_002_R214G39B40A255,7227,-0.0001254128,4.139123e-05,4.139428e-05,1.772536e-05,8.753389e-09,-5.843217e-08,0.00016960739612423932
PART_003_R247G182B210A255,7228,-0.0001881192,6.210774e-05,6.204688e-05,1.452033e-05,2.198149e-09,1.261994e-07,0.00025145747978022603
PART_003_R247G182B210A255,7229,-0.0001881192,6.207939e-05,6.208753e-05,1.331918e-05,-2.199302e-08,3.183529e-07,0.00025126455835468146
PART_003_R247G182B210A255,7230,-0.0001881192,6.206781e-05,6.208265e-05,1.24938e-05,8.71634e-09,4.059883e-07,0.0002511295139782201
PART_001_R158G218B229A255,7231,-0.0001881192,6.208277e-05,6.206628e-05,1.198339e-05,2.337449e-09,3.623551e-07,0.00025105397638961727
PART_001_R158G218B229A255,7232,-0.0001881192,6.208265e-05,6.206881e-05,1.170197e-05,1.895739e-09,2.06926e-07,0.0002510148201060979
PART_001_R158G218B229A255,7233,-0.0001881192,6.208357e-05,6.206405e-05,1.161084e-05,1.028688e-16,1.489824e-14,0.0002509999548907324
PART_001_R158G218B229A255,7234,-0.0001881192,6.208265e-05,6.206881e-05,1.170197e-05,-1.895738e-09,-2.06926e-07,0.0002510148201060979
PART_001_R158G218B229A255,7235,-0.0001881192,6.208277e-05,6.206628e-05,1.198339e-05,-2.337449e-09,-3.623551e-07,0.00025105397638961727
PART_001_R158G218B229A255,7236,-0.0001881192,6.206781e-05,6.208265e-05,1.24938e-05,-8.716339e-09,-4.059883e-07,0.00025112951397822
PART_002_R214G39B40A255,7237,-0.0001881192,6.207939e-05,6.208753e-05,1.331918e-05,2.199302e-08,-3.183529e-07,0.00025126455835468146
PART_002_R214G39B40A255,7238,-0.0001881192,6.210774e-05,6.204688e-05,1.452033e-05,-2.198149e-09,-1.261994e-07,0.00025145747978022603
PART_003_R247G182B210A255,7239,-0.0002508257,8.27793e-05,8.280252e-05,9.932607e-06,-2.06313e-08,2.312774e-07,0.00033406013629641085
PART_003_R247G182B210A255,7240,-0.0002508256,8.276057e-05,8.276974e-05,8.856098e-06,2.01073e-08,6.334131e-07,0.00033394503761737475
PART_001_R158G218B229A255,7241,-0.0002508257,8.277762e-05,8.275093e-05,8.266722e-06,1.437396e-08,7.743497e-07,0.0003338998165690562
PART_001_R158G218B229A255,7242,-0.0002508256,8.278364e-05,8.275137e-05,7.924963e-06,4.223372e-09,6.407637e-07,0.0003338772340068699
PART_001_R158G218B229A255,7243,-0.0002508257,8.277804e-05,8.275111e-05,7.736566e-06,3.523729e-09,3.58088e-07,0.0003338598810836795
PART_001_R158G218B229A255,7244,-0.0002508256,8.278617e-05,8.27496e-05,7.679059e-06,3.114828e-16,2.108094e-14,0.00033385853003756747
PART_001_R158G218B229A255,7245,-0.0002508257,8.277804e-05,8.275111e-05,7.736566e-06,-3.523729e-09,-3.580879e-07,0.0003338598810833577
PART_001_R158G218B229A255,7246,-0.0002508256,8.278364e-05,8.275137e-05,7.924963e-06,-4.223372e-09,-6.407637e-07,0.0003338772340068699
PART_001_R158G218B229A255,7247,-0.0002508257,8.277762e-05,8.275093e-05,8.266722e-06,-1.437396e-08,-7.743497e-07,0.0003338998165690562
PART_001_R158G218B229A255,7248,-0.0002508256,8.276057e-05,8.276974e-05,8.856098e-06,-2.01073e-08,-6.334131e-07,0.00033394503761737475
PART_002_R214G39B40A255,7249,-0.0002508257,8.27793e-05,8.280252e-05,9.932607e-06,2.06313e-08,-2.312774e-07,0.00033406013629641085
PART_003_R247G182B210A255,7250,-0.0003135321,0.0001035274,0.0001033704,3.648019e-06,3.174453e-08,6.234946e-07,0.0004170302941457819
PART_001_R158G218B229A255,7251,-0.000313532,0.0001034679,0.0001034219,3.134944e-06,1.954713e-08,1.347984e-06,0.00041701879174819333
PART_001_R158G218B229A255,7252,-0.0003135321,0.0001034977,0.0001034206,2.938749e-06,3.825295e-09,1.372502e-06,0.00041702909622836113
PART_001_R158G218B229A255,7253,-0.000313532,0.0001034708,0.0001034371,2.809207e-06,4.570698e-09,1.070267e-06,0.00041701845853403687
PART_001_R158G218B229A255,7254,-0.0003135321,0.0001034886,0.0001034316,2.747208e-06,6.43807e-10,5.776143e-07,0.0004170205506555498
PART_001_R158G218B229A255,7255,-0.0003135321,0.0001034718,0.0001034397,2.724424e-06,6.530031e-17,2.824127e-14,0.0004170145504401799
PART_001_R158G218B229A255,7256,-0.0003135321,0.0001034886,0.0001034316,2.747208e-06,-6.438068e-10,-5.776142e-07,0.0004170205506551342
PART_001_R158G218B229A255,7257,-0.000313532,0.0001034708,0.0001034371,2.809207e-06,-4.570698e-09,-1.070267e-06,0.00041701845853403687
PART_001_R158G218B229A255,7258,-0.0003135321,0.0001034977,0.0001034206,2.938749e-06,-3.825294e-09,-1.372502e-06,0.00041702909622836113
PART_001_R158G218B229A255,7259,-0.000313532,0.0001034679,0.0001034219,3.134944e-06,-1.954713e-08,-1.347984e-06,0.00041701879174819333
PART_001_R158G218B229A255,7260,-0.0003135321,0.0001035274,0.0001033704,3.648019e-06,-3.174453e-08,-6.234946e-07,0.0004170302941457819
PART_003_R247G182B210A255,7261,0.0003089881,-0.000102027,-0.0001018722,3.648021e-06,3.128585e-08,-6.23495e-07,0.00041098771830758835
PART_000_R31G119B180A255,7262,0.0003089881,-0.0001019684,-0.0001019231,3.134943e-06,1.926301e-08,-1.347983e-06,0.00041097635759910236
PART_000_R31G119B180A255,7263,0.0003089881,-0.0001019977,-0.0001019217,2.938751e-06,3.770388e-09,-1.372504e-06,0.0004109862026558769
PART_000_R31G119B180A255,7264,0.0003089881,-0.0001019713,-0.0001019381,2.809206e-06,4.504136e-09,-1.070266e-06,0.000410975786491571
PART_000_R31G119B180A255,7265,0.0003089881,-0.0001019888,-0.0001019326,2.747208e-06,6.346262e-10,-5.776149e-07,0.0004109775674702722
PART_000_R31G119B180A255,7266,0.0003089881,-0.0001019722,-0.0001019407,2.724423e-06,1.123301e-16,-2.827298e-14,0.00041097164301316305
PART_000_R31G119B180A255,7267,0.0003089881,-0.0001019888,-0.0001019326,2.747208e-06,-6.34626e-10,5.776149e-07,0.0004109775674702722
PART_000_R31G119B180A255,7268,0.0003089881,-0.0001019713,-0.0001019381,2.809206e-06,-4.504136e-09,1.070266e-06,0.000410975786491571
PART_000_R31G119B180A255,7269,0.0003089881,-0.0001019977,-0.0001019217,2.938751e-06,-3.770388e-09,1.372504e-06,0.0004109862026558769
PART_000_R31G119B180A255,7270,0.0003089881,-0.0001019684,-0.0001019231,3.134943e-06,-1.926301e-08,1.347983e-06,0.00041097635759910236
PART_000_R31G119B180A255,7271,0.0003089881,-0.000102027,-0.0001018722,3.648021e-06,-3.128585e-08,6.23495e-07,0.00041098771830758835
PART_003_R247G182B210A255,7272,0.0002471905,-8.15796e-05,-8.160242e-05,9.932605e-06,-2.033264e-08,-2.312781e-07,0.00032923154973913093
PART_003_R247G182B210A255,7273,0.0002471905,-8.156114e-05,-8.157024e-05,8.856099e-06,1.98159e-08,-6.334118e-07,0.00032911567693358487
PART_000_R31G119B180A255,7274,0.0002471905,-8.157794e-05,-8.155159e-05,8.266722e-06,1.416567e-08,-7.743511e-07,0.00032906965877259906
PART_000_R31G119B180A255,7275,0.0002471905,-8.158387e-05,-8.155213e-05,7.924963e-06,4.162133e-09,-6.407626e-07,0.00032904680362461135
PART_000_R31G119B180A255,7276,0.0002471905,-8.157835e-05,-8.155176e-05,7.736566e-06,3.472679e-09,-3.580886e-07,0.0003290291226511128
PART_000_R31G119B180A255,7277,0.0002471905,-8.158637e-05,-8.155038e-05,7.679059e-06,4.129277e-16,-2.116773e-14,0.00032902781448397665
PART_000_R31G119B180A255,7278,0.0002471905,-8.157835e-05,-8.155176e-05,7.736566e-06,-3.472679e-09,3.580885e-07,0.0003290291226507863
PART_000_R31G119B180A255,7279,0.0002471905,-8.158387e-05,-8.155213e-05,7.924963e-06,-4.162132e-09,6.407626e-07,0.0003290468036246113
PART_000_R31G119B180A255,7280,0.0002471905,-8.157794e-05,-8.155159e-05,8.266722e-06,-1.416567e-08,7.74351e-07,0.00032906965877189313
PART_000_R31G119B180A255,7281,0.0002471905,-8.156114e-05,-8.157024e-05,8.856098e-06,-1.98159e-08,6.334118e-07,0.0003291156768528586
PART_002_R214G39B40A255,7282,0.0002471905,-8.15796e-05,-8.160242e-05,9.932605e-06,2.033264e-08,2.312781e-07,0.00032923154973913093
PART_003_R247G182B210A255,7283,0.0001853929,-6.120763e-05,-6.11476e-05,1.452033e-05,2.166471e-09,-1.261997e-07,0.0002478499330505583
PART_003_R247G182B210A255,7284,0.0001853929,-6.117969e-05,-6.118776e-05,1.331918e-05,-2.16742e-08,-3.18352e-07,0.0002476540715719248
PART_003_R247G182B210A255,7285,0.0001853929,-6.116828e-05,-6.118286e-05,1.24938e-05,8.589955e-09,-4.059893e-07,0.00024751725268390954
PART_000_R31G119B180A255,7286,0.0001853929,-6.118302e-05,-6.116682e-05,1.198339e-05,2.303615e-09,-3.623542e-07,0.00024744067750003717
PART_000_R31G119B180A255,7287,0.0001853929,-6.11829e-05,-6.116922e-05,1.170197e-05,1.868244e-09,-2.069265e-07,0.00024740086690972065
PART_000_R31G119B180A255,7288,0.0001853929,-6.118381e-05,-6.116461e-05,1.161084e-05,4.879977e-16,-1.506113e-14,0.00024738588243218107
PART_000_R31G119B180A255,7289,0.0001853929,-6.11829e-05,-6.116922e-05,1.170197e-05,-1.868243e-09,2.069265e-07,0.00024740086690972065
PART_000_R31G119B180A255,7290,0.0001853929,-6.118302e-05,-6.116682e-05,1.198339e-05,-2.303615e-09,3.623542e-07,0.00024744067750003717
PART_000_R31G119B180A255,7291,0.0001853929,-6.116828e-05,-6.118286e-05,1.24938e-05,-8.589954e-09,4.059893e-07,0.0002475172526839095
PART_002_R214G39B40A255,7292,0.0001853929,-6.117969e-05,-6.118776e-05,1.331918e-05,2.16742e-08,3.18352e-07,0.0002476540715719248
PART_002_R214G39B40A255,7293,0.0001853929,-6.120763e-05,-6.11476e-05,1.452033e-05,-2.166472e-09,1.261997e-07,0.00024784993305055833
PART_003_R247G182B210A255,7294,0.0001235952,-4.079136e-05,-4.079433e-05,1.772536e-05,-8.626664e-09,-5.843251e-08,0.00016723039488459977
PART_003_R247G182B210A255,7295,0.0001235953,-4.079084e-05,-4.077844e-05,1.645285e-05,6.931385e-10,-1.613807e-07,0.00016683204650702878
PART_003_R247G182B210A255,7296,0.0001235952,-4.078609e-05,-4.078679e-05,1.553576e-05,-1.644301e-08,-2.068041e-07,0.00016656990184518621
PART_003_R247G182B210A255,7297,0.0001235953,-4.07799e-05,-4.078801e-05,1.492194e-05,2.546095e-09,-1.86818e-07,0.00016639902982324768
PART_000_R31G119B180A255,7298,0.0001235952,-4.078858e-05,-4.077802e-05,1.457597e-05,-2.492363e-09,-1.104244e-07,0.00016630605716415705
PART_000_R31G119B180A255,7299,0.0001235953,-4.078562e-05,-4.078244e-05,1.446381e-05,1.090931e-15,-9.608051e-15,0.0001662773873320768
PART_000_R31G119B180A255,7300,0.0001235952,-4.078858e-05,-4.077802e-05,1.457597e-05,2.492364e-09,1.104244e-07,0.0001663060571641571
PART_000_R31G119B180A255,7301,0.0001235953,-4.07799e-05,-4.078801e-05,1.492193e-05,-2.546093e-09,1.86818e-07,0.00016639902713297918
PART_002_R214G39B40A255,7302,0.0001235952,-4.078609e-05,-4.078679e-05,1.553576e-05,1.644302e-08,2.068041e-07,0.00016656990184518917
PART_002_R214G39B40A255,7303,0.0001235953,-4.079084e-05,-4.077844e-05,1.645285e-05,-6.931381e-10,1.613807e-07,0.00016683204650702878
PART_002_R214G39B40A255,7304,0.0001235952,-4.079136e-05,-4.079433e-05,1.772536e-05,8.626664e-09,5.84325e-08,0.00016723039488458928
PART_003_R247G182B210A255,7305,6.179762e-05,-2.040148e-05,-2.038455e-05,1.962261e-05,-1.140221e-09,-2.573131e-08,8.894067211635774e-05
PART_003_R247G182B210A255,7306,6.179763e-05,-2.039368e-05,-2.039594e-05,1.832412e-05,-1.668701e-08,-6.642281e-08,8.810749905453832e-05
PART_003_R247G182B210A255,7307,6.179762e-05,-2.039152e-05,-2.039278e-05,1.735703e-05,-1.161227e-09,-8.711326e-08,8.751560166799888e-05
PART_003_R247G182B210A255,7308,6.179763e-05,-2.039329e-05,-2.039159e-05,1.66989e-05,-1.296883e-08,-7.935235e-08,8.713086013210477e-05
PART_003_R247G182B210A255,7309,6.179762e-05,-2.039033e-05,-2.039365e-05,1.631658e-05,2.233527e-10,-4.673579e-08,8.691277755174989e-05
PART_000_R31G119B180A255,7310,6.179763e-05,-2.039425e-05,-2.038907e-05,1.619261e-05,9.326864e-16,-4.679511e-15,8.684285386066431e-05
PART_000_R31G119B180A255,7311,6.179762e-05,-2.039033e-05,-2.039365e-05,1.631658e-05,-2.233504e-10,4.673579e-08,8.691277755174987e-05
PART_002_R214G39B40A255,7312,6.179763e-05,-2.039329e-05,-2.039159e-05,1.66989e-05,1.296884e-08,7.935234e-08,8.713086013208192e-05
PART_002_R214G39B40A255,7313,6.179762e-05,-2.039152e-05,-2.039278e-05,1.735703e-05,1.161227e-09,8.711326e-08,8.751560166799888e-05
PART_002_R214G39B40A255,7314,6.179763e-05,-2.039368e-05,-2.039594e-05,1.832412e-05,1.668701e-08,6.642281e-08,8.810749905453832e-05
PART_002_R214G39B40A255,7315,6.179762e-05,-2.040148e-05,-2.038455e-05,1.962261e-05,1.140221e-09,2.57313e-08,8.894067211634905e-05
PART_003_R247G182B210A255,7316,6.647547e-14,-2.156608e-14,-2.073706e-14,2.025233e-05,-6.704558e-09,-1.677125e-17,3.5078066453839697e-05
PART_003_R247G182B210A255,7317,6.724948e-14,-1.85893e-14,-2.410083e-14,1.894418e-05,-2.822365e-09,-1.673974e-16,3.2812282631880895e-05
PART_003_R247G182B210A255,7318,6.471115e-14,-1.504352e-14,-2.067918e-14,1.796588e-05,-1.784311e-08,-1.801402e-16,3.111783230967291e-05
PART_003_R247G182B210A255,7319,6.490967e-14,-1.19349e-14,-2.382409e-14,1.72913e-05,-1.09454e-09,-1.618464e-16,2.9949410188917806e-05
PART_003_R247G182B210A255,7320,6.317386e-14,-1.024875e-14,-2.071653e-14,1.690023e-05,-7.412953e-09,-1.016899e-16,2.9272059835520914e-05
PART_003_R247G182B210A255,7321,6.400436e-14,-9.568735e-15,-2.370766e-14,1.677112e-05,1.295251e-15,-8.130458e-18,2.9048431939834554e-05
PART_002_R214G39B40A255,7322,6.301947e-14,-9.971191e-15,-2.072511e-14,1.690023e-05,7.412955e-09,9.806566e-17,2.9272059835522432e-05
PART_002_R214G39B40A255,7323,6.462842e-14,-1.141448e-14,-2.37646e-14,1.72913e-05,1.094542e-09,1.570882e-16,2.9949410188918023e-05
PART_002_R214G39B40A255,7324,6.40835e-14,-1.341982e-14,-2.066832e-14,1.796588e-05,1.784311e-08,1.582512e-16,3.111783230967291e-05
PART_002_R214G39B40A255,7325,6.623565e-14,-1.59317e-14,-2.404541e-14,1.894418e-05,2.822366e-09,1.2062e-16,3.2812282631881146e-05
PART_002_R214G39B40A255,7326,6.514624e-14,-1.797867e-14,-2.058774e-14,2.025233e-05,6.704559e-09,9.423496e-17,3.507806645384027e-05
PART_003_R247G182B210A255,7327,-6.179762e-05,2.040148e-05,2.038455e-05,1.962261e-05,-1.140221e-09,2.573131e-08,8.894067211635774e-05
PART_003_R247G182B210A255,7328,-6.179763e-05,2.039368e-05,2.039594e-05,1.832412e-05,-1.668701e-08,6.642281e-08,8.810749905453832e-05
PART_003_R247G182B210A255,7329,-6.179762e-05,2.039152e-05,2.039278e-05,1.735703e-05,-1.161226e-09,8.711326e-08,8.751560166799883e-05
PART_003_R247G182B210A255,7330,-6.179763e-05,2.039329e-05,2.039159e-05,1.66989e-05,-1.296883e-08,7.935235e-08,8.713086013210477e-05
PART_003_R247G182B210A255,7331,-6.179762e-05,2.039033e-05,2.039365e-05,1.631658e-05,2.233527e-10,4.673579e-08,8.691277755174989e-05
PART_001_R158G218B229A255,7332,-6.179763e-05,2.039425e-05,2.038907e-05,1.619261e-05,1.001712e-15,4.667141e-15,8.684285386066431e-05
PART_001_R158G218B229A255,7333,-6.179762e-05,2.039033e-05,2.039365e-05,1.631658e-05,-2.233504e-10,-4.673578e-08,8.691277755173373e-05
PART_002_R214G39B40A255,7334,-6.179763e-05,2.039329e-05,2.039159e-05,1.66989e-05,1.296884e-08,-7.935234e-08,8.713086013208192e-05
PART_002_R214G39B40A255,7335,-6.179762e-05,2.039152e-05,2.039278e-05,1.735703e-05,1.161227e-09,-8.711326e-08,8.751560166799888e-05
PART_002_R214G39B40A255,7336,-6.179763e-05,2.039368e-05,2.039594e-05,1.832412e-05,1.668701e-08,-6.642281e-08,8.810749905453832e-05
PART_002_R214G39B40A255,7337,-6.179762e-05,2.040148e-05,2.038455e-05,1.962261e-05,1.140221e-09,-2.57313e-08,8.894067211634905e-05
PART_003_R247G182B210A255,7338,-0.0001235952,4.079136e-05,4.079433e-05,1.772536e-05,-8.626664e-09,5.843251e-08,0.00016723039488459977
PART_003_R247G182B210A255,7339,-0.0001235953,4.079084e-05,4.077844e-05,1.645285e-05,6.931386e-10,1.613807e-07,0.00016683204650702878
PART_003_R247G182B210A255,7340,-0.0001235952,4.078609e-05,4.078679e-05,1.553576e-05,-1.644301e-08,2.068041e-07,0.00016656990184518621
PART_003_R247G182B210A255,7341,-0.0001235953,4.07799e-05,4.078801e-05,1.492194e-05,2.546095e-09,1.86818e-07,0.00016639902982324768
PART_001_R158G218B229A255,7342,-0.0001235952,4.078858e-05,4.077802e-05,1.457597e-05,-2.492363e-09,1.104244e-07,0.00016630605716415705
PART_001_R158G218B229A255,7343,-0.0001235953,4.078562e-05,4.078244e-05,1.446381e-05,1.147593e-15,9.550872e-15,0.0001662773873320768
PART_001_R158G218B229A255,7344,-0.0001235952,4.078858e-05,4.077802e-05,1.457597e-05,2.492364e-09,-1.104244e-07,0.0001663060571641571
PART_001_R158G218B229A255,7345,-0.0001235953,4.07799e-05,4.078801e-05,1.492193e-05,-2.546093e-09,-1.86818e-07,0.00016639902713297918
PART_002_R214G39B40A255,7346,-0.0001235952,4.078609e-05,4.078679e-05,1.553576e-05,1.644302e-08,-2.068041e-07,0.00016656990184518917
PART_002_R214G39B40A255,7347,-0.0001235953,4.079084e-05,4.077844e-05,1.645285e-05,-6.931382e-10,-1.613807e-07,0.00016683204650702878
PART_002_R214G39B40A255,7348,-0.0001235952,4.079136e-05,4.079433e-05,1.772536e-05,8.626664e-09,-5.84325e-08,0.00016723039488458928
PART_003_R247G182B210A255,7349,-0.0001853929,6.120763e-05,6.11476e-05,1.452033e-05,2.166472e-09,1.261997e-07,0.00024784993305055833
PART_003_R247G182B210A255,7350,-0.0001853929,6.117969e-05,6.118776e-05,1.331918e-05,-2.16742e-08,3.18352e-07,0.0002476540715719248
PART_003_R247G182B210A255,7351,-0.0001853929,6.116828e-05,6.118286e-05,1.24938e-05,8.589955e-09,4.059893e-07,0.00024751725268390954
PART_001_R158G218B229A255,7352,-0.0001853929,6.118302e-05,6.116682e-05,1.198339e-05,2.303615e-09,3.623542e-07,0.00024744067750003717
PART_001_R158G218B229A255,7353,-0.0001853929,6.11829e-05,6.116922e-05,1.170197e-05,1.868244e-09,2.069265e-07,0.00024740086690972065
PART_001_R158G218B229A255,7354,-0.0001853929,6.118381e-05,6.116461e-05,1.161084e-05,4.773632e-16,1.497043e-14,0.00024738588243218107
PART_001_R158G218B229A255,7355,-0.0001853929,6.11829e-05,6.116922e-05,1.170197e-05,-1.868242e-09,-2.069265e-07,0.0002474008669097206
PART_001_R158G218B229A255,7356,-0.0001853929,6.118302e-05,6.116682e-05,1.198339e-05,-2.303615e-09,-3.623542e-07,0.00024744067750003717
PART_001_R158G218B229A255,7357,-0.0001853929,6.116828e-05,6.118286e-05,1.24938e-05,-8.589954e-09,-4.059893e-07,0.0002475172526839095
PART_002_R214G39B40A255,7358,-0.0001853929,6.117969e-05,6.118776e-05,1.331918e-05,2.16742e-08,-3.18352e-07,0.0002476540715719248
PART_002_R214G39B40A255,7359,-0.0001853929,6.120763e-05,6.11476e-05,1.452033e-05,-2.166472e-09,-1.261997e-07,0.00024784993305055833
PART_003_R247G182B210A255,7360,-0.0002471905,8.15796e-05,8.160242e-05,9.932605e-06,-2.033264e-08,2.312781e-07,0.00032923154973913093
PART_003_R247G182B210A255,7361,-0.0002471905,8.156114e-05,8.157024e-05,8.856099e-06,1.98159e-08,6.334118e-07,0.00032911567693358487
PART_001_R158G218B229A255,7362,-0.0002471905,8.157794e-05,8.155159e-05,8.266722e-06,1.416567e-08,7.743511e-07,0.00032906965877259906
PART_001_R158G218B229A255,7363,-0.0002471905,8.158387e-05,8.155213e-05,7.924963e-06,4.162133e-09,6.407626e-07,0.00032904680362461135
PART_001_R158G218B229A255,7364,-0.0002471905,8.157835e-05,8.155176e-05,7.736566e-06,3.472679e-09,3.580886e-07,0.0003290291226511128
PART_001_R158G218B229A255,7365,-0.0002471905,8.158637e-05,8.155038e-05,7.679059e-06,5.70292e-16,2.109313e-14,0.00032902781448397665
PART_001_R158G218B229A255,7366,-0.0002471905,8.157835e-05,8.155176e-05,7.736566e-06,-3.472679e-09,-3.580885e-07,0.0003290291226507863
PART_001_R158G218B229A255,7367,-0.0002471905,8.158387e-05,8.155213e-05,7.924963e-06,-4.162132e-09,-6.407626e-07,0.0003290468036246113
PART_001_R158G218B229A255,7368,-0.0002471905,8.157794e-05,8.155159e-05,8.266722e-06,-1.416567e-08,-7.74351e-07,0.00032906965877189313
PART_001_R158G218B229A255,7369,-0.0002471905,8.156114e-05,8.157024e-05,8.856098e-06,-1.98159e-08,-6.334118e-07,0.0003291156768528586
PART_002_R214G39B40A255,7370,-0.0002471905,8.15796e-05,8.160242e-05,9.932605e-06,2.033264e-08,-2.312781e-07,0.00032923154973913093
PART_003_R247G182B210A255,7371,-0.0003089881,0.000102027,0.0001018722,3.648021e-06,3.128585e-08,6.23495e-07,0.00041098771830758835
PART_001_R158G218B229A255,7372,-0.0003089881,0.0001019684,0.0001019231,3.134943e-06,1.926302e-08,1.347983e-06,0.0004109763575991038
PART_001_R158G218B229A255,7373,-0.0003089881,0.0001019977,0.0001019217,2.938751e-06,3.770388e-09,1.372504e-06,0.0004109862026558769
PART_001_R158G218B229A255,7374,-0.0003089881,0.0001019713,0.0001019381,2.809206e-06,4.504136e-09,1.070266e-06,0.000410975786491571
PART_001_R158G218B229A255,7375,-0.0003089881,0.0001019888,0.0001019326,2.747208e-06,6.34626e-10,5.776149e-07,0.0004109775674702722
PART_001_R158G218B229A255,7376,-0.0003089881,0.0001019722,0.0001019407,2.724423e-06,1.438762e-16,2.82577e-14,0.00041097164301316305
PART_001_R158G218B229A255,7377,-0.0003089881,0.0001019888,0.0001019326,2.747208e-06,-6.346258e-10,-5.776149e-07,0.0004109775674702722
PART_001_R158G218B229A255,7378,-0.0003089881,0.0001019713,0.0001019381,2.809206e-06,-4.504137e-09,-1.070266e-06,0.000410975786491571
PART_001_R158G218B229A255,7379,-0.0003089881,0.0001019977,0.0001019217,2.938751e-06,-3.770388e-09,-1.372504e-06,0.0004109862026558769
PART_001_R158G218B229A255,7380,-0.0003089881,0.0001019684,0.0001019231,3.134943e-06,-1.926301e-08,-1.347983e-06,0.00041097635759910236
PART_001_R158G218B229A255,7381,-0.0003089881,0.000102027,0.0001018722,3.648021e-06,-3.128585e-08,-6.23495e-07,0.00041098771830758835
PART_003_R247G182B210A255,7382,0.0003044442,-0.0001005266,-0.0001003742,3.648019e-06,3.082464e-08,-6.234947e-07,0.00040494536389956503
PART_000_R31G119B180A255,7383,0.0003044442,-0.0001004689,-0.0001004242,3.134944e-06,1.898041e-08,-1.347984e-06,0.00040493389191217374
PART_000_R31G119B180A255,7384,0.0003044442,-0.0001004977,-0.0001004229,2.93875e-06,3.714507e-09,-1.372503e-06,0.00040494347556920235
PART_000_R31G119B180A255,7385,0.0003044442,-0.0001004717,-0.000100439,2.809206e-06,4.43816e-09,-1.070267e-06,0.00040493302875990115
PART_000_R31G119B180A255,7386,0.0003044442,-0.000100489,-0.0001004336,2.747208e-06,6.251713e-10,-5.776144e-07,0.00040493469671524016
PART_000_R31G119B180A255,7387,0.0003044442,-0.0001004726,-0.0001004415,2.724424e-06,2.615206e-16,-2.862204e-14,0.0004049287473560815
PART_000_R31G119B180A255,7388,0.0003044442,-0.000100489,-0.0001004336,2.747208e-06,-6.251709e-10,5.776143e-07,0.0004049346967148122
PART_000_R31G119B180A255,7389,0.0003044442,-0.0001004717,-0.000100439,2.809206e-06,-4.43816e-09,1.070267e-06,0.00040493302875990115
PART_000_R31G119B180A255,7390,0.0003044442,-0.0001004977,-0.0001004229,2.93875e-06,-3.714506e-09,1.372503e-06,0.00040494347556920235
PART_000_R31G119B180A255,7391,0.0003044442,-0.0001004689,-0.0001004242,3.134944e-06,-1.898041e-08,1.347984e-06,0.00040493389191217374
PART_000_R31G119B180A255,7392,0.0003044442,-0.0001005266,-0.0001003742,3.648019e-06,-3.082464e-08,6.234946e-07,0.0004049453638991031
PART_003_R247G182B210A255,7393,0.0002435553,-8.03799e-05,-8.040243e-05,9.932607e-06,-2.003335e-08,-2.312776e-07,0.0003244032125058819
PART_003_R247G182B210A255,7394,0.0002435553,-8.036171e-05,-8.037063e-05,8.856098e-06,1.952448e-08,-6.334129e-07,0.00032428631636458873
PART_000_R31G119B180A255,7395,0.0002435553,-8.037827e-05,-8.035235e-05,8.266722e-06,1.395733e-08,-7.743499e-07,0.00032423969158981264
PART_000_R31G119B180A255,7396,0.0002435553,-8.038411e-05,-8.035279e-05,7.924963e-06,4.10095e-09,-6.407635e-07,0.00032421635284091637
PART_000_R31G119B180A255,7397,0.0002435553,-8.037867e-05,-8.035251e-05,7.736566e-06,3.421596e-09,-3.580881e-07,0.0003241985372706861
PART_000_R31G119B180A255,7398,0.0002435553,-8.038657e-05,-8.035107e-05,7.679059e-06,8.835257e-16,-2.164951e-14,0.00032419707016618506
PART_000_R31G119B180A255,7399,0.0002435553,-8.037867e-05,-8.035251e-05,7.736566e-06,-3.421595e-09,3.58088e-07,0.00032419853727035466
PART_000_R31G119B180A255,7400,0.0002435553,-8.038411e-05,-8.035279e-05,7.924963e-06,-4.100949e-09,6.407635e-07,0.00032421635284091637
PART_000_R31G119B180A255,7401,0.0002435553,-8.037827e-05,-8.035235e-05,8.266722e-06,-1.395733e-08,7.743499e-07,0.00032423969158981264
PART_000_R31G119B180A255,7402,0.0002435553,-8.036171e-05,-8.037063e-05,8.856098e-06,-1.952448e-08,6.334129e-07,0.00032428631636458873
PART_002_R214G39B40A255,7403,0.0002435553,-8.03799e-05,-8.040243e-05,9.932607e-06,2.003336e-08,2.312775e-07,0.00032440321250566987
PART_003_R247G182B210A255,7404,0.0001826665,-6.030752e-05,-6.024841e-05,1.452033e-05,2.134465e-09,-1.261995e-07,0.00024424287796610616
PART_003_R247G182B210A255,7405,0.0001826665,-6.027999e-05,-6.02879e-05,1.331918e-05,-2.135553e-08,-3.183528e-07,0.00024404390148891877
PART_003_R247G182B210A255,7406,0.0001826665,-6.026874e-05,-6.028315e-05,1.24938e-05,8.463682e-09,-4.059885e-07,0.00024390533316949478
PART_000_R31G119B180A255,7407,0.0001826665,-6.028327e-05,-6.026727e-05,1.198339e-05,2.269705e-09,-3.623549e-07,0.00024382760842259958
PART_000_R31G119B180A255,7408,0.0001826665,-6.028315e-05,-6.02697e-05,1.170197e-05,1.840788e-09,-2.069261e-07,0.000243787205805131
PART_000_R31G119B180A255,7409,0.0001826665,-6.028405e-05,-6.02651e-05,1.161084e-05,1.048942e-15,-1.55085e-14,0.00024377202671348349
PART_000_R31G119B180A255,7410,0.0001826665,-6.028315e-05,-6.02697e-05,1.170197e-05,-1.840785e-09,2.069261e-07,0.00024378720580513091
PART_000_R31G119B180A255,7411,0.0001826665,-6.028327e-05,-6.026727e-05,1.198339e-05,-2.269703e-09,3.623549e-07,0.00024382760842259953
PART_000_R31G119B180A255,7412,0.0001826665,-6.026874e-05,-6.028315e-05,1.24938e-05,-8.463681e-09,4.059885e-07,0.00024390533316949467
PART_002_R214G39B40A255,7413,0.0001826665,-6.027999e-05,-6.02879e-05,1.331918e-05,2.135553e-08,3.183527e-07,0.00024404390148852743
PART_002_R214G39B40A255,7414,0.0001826665,-6.030752e-05,-6.024841e-05,1.452033e-05,-2.134465e-09,1.261995e-07,0.00024424287796610616
PART_003_R247G182B210A255,7415,0.0001217777,-4.019149e-05,-4.019444e-05,1.772536e-05,-8.499692e-09,-5.843224e-08,0.00016485469950284161
PART_003_R247G182B210A255,7416,0.0001217777,-4.019098e-05,-4.017874e-05,1.645285e-05,6.829951e-10,-1.613813e-07,0.00016445071573774228
PART_003_R247G182B210A255,7417,0.0001217777,-4.01863e-05,-4.0187e-05,1.553576e-05,-1.620121e-08,-2.068035e-07,0.00016418483266770792
PART_003_R247G182B210A255,7418,0.0001217777,-4.01802e-05,-4.018816e-05,1.492193e-05,2.50865e-09,-1.868185e-07,0.00016401142438185852
PART_000_R31G119B180A255,7419,0.0001217777,-4.018875e-05,-4.017837e-05,1.457597e-05,-2.455706e-09,-1.104242e-07,0.00016391724474417547
PART_000_R31G119B180A255,7420,0.0001217777,-4.018583e-05,-4.018268e-05,1.446381e-05,1.804523e-15,-9.999471e-15,0.00016388801137975955
PART_000_R31G119B180A255,7421,0.0001217777,-4.018875e-05,-4.017837e-05,1.457597e-05,2.455709e-09,1.104241e-07,0.0001639172447439735
PART_000_R31G119B180A255,7422,0.0001217777,-4.01802e-05,-4.018816e-05,1.492193e-05,-2.508647e-09,1.868185e-07,0.0001640114243818584
PART_002_R214G39B40A255,7423,0.0001217777,-4.01863e-05,-4.0187e-05,1.553576e-05,1.620122e-08,2.068035e-07,0.0001641848326677109
PART_002_R214G39B40A255,7424,0.0001217777,-4.019098e-05,-4.017874e-05,1.645285e-05,-6.829941e-10,1.613812e-07,0.00016445071573744787
PART_002_R214G39B40A255,7425,0.0001217777,-4.019149e-05,-4.019444e-05,1.772536e-05,8.499692e-09,5.843223e-08,0.000164854699502831
PART_003_R247G182B210A255,7426,6.088884e-05,-2.010146e-05,-2.008479e-05,1.962261e-05,-1.123535e-09,-2.573122e-08,8.782494704460824e-05
PART_003_R247G182B210A255,7427,6.088883e-05,-2.009377e-05,-2.009598e-05,1.832412e-05,-1.644168e-08,-6.642306e-08,8.698100164730527e-05
PART_003_R247G182B210A255,7428,6.088884e-05,-2.009165e-05,-2.00929e-05,1.735703e-05,-1.144122e-09,-8.711297e-08,8.638149818690037e-05
PART_003_R247G182B210A255,7429,6.088883e-05,-2.009339e-05,-2.00917e-05,1.66989e-05,-1.277813e-08,-7.935259e-08,8.599164065771241e-05
PART_003_R247G182B210A255,7430,6.088884e-05,-2.009047e-05,-2.009375e-05,1.631658e-05,2.200748e-10,-4.673566e-08,8.577070113081476e-05
PART_000_R31G119B180A255,7431,6.088883e-05,-2.009434e-05,-2.008922e-05,1.619261e-05,1.787865e-15,-4.896392e-15,8.569983122194115e-05
PART_000_R31G119B180A255,7432,6.088884e-05,-2.009047e-05,-2.009375e-05,1.631658e-05,-2.200708e-10,4.673565e-08,8.577070113079837e-05
PART_002_R214G39B40A255,7433,6.088883e-05,-2.009339e-05,-2.00917e-05,1.66989e-05,1.277813e-08,7.935258e-08,8.599164065768472e-05
PART_002_R214G39B40A255,7434,6.088884e-05,-2.009165e-05,-2.00929e-05,1.735703e-05,1.144124e-09,8.711296e-08,8.638149818687019e-05
PART_002_R214G39B40A255,7435,6.088883e-05,-2.009377e-05,-2.009598e-05,1.832412e-05,1.644168e-08,6.642306e-08,8.698100164730527e-05
PART_002_R214G39B40A255,7436,6.088884e-05,-2.010146e-05,-2.008479e-05,1.962261e-05,1.123535e-09,2.573122e-08,8.782494704460824e-05
PART_003_R247G182B210A255,7437,6.842909e-14,-2.312733e-14,-2.406981e-14,2.025233e-05,-6.605878e-09,-5.736361e-17,3.507806639767324e-05
PART_003_R247G182B210A255,7438,6.747012e-14,-2.649964e-14,-2.024237e-14,1.894418e-05,-2.780811e-09,-2.743031e-17,3.2812282621236964e-05
PART_003_R247G182B210A255,7439,7.040592e-14,-3.114176e-14,-2.377696e-14,1.796588e-05,-1.758071e-08,-8.504295e-17,3.1117831861607776e-05
PART_003_R247G182B210A255,7440,7.010896e-14,-3.48957e-14,-2.012116e-14,1.72913e-05,-1.078455e-09,-8.330781e-17,2.9949410187167223e-05
PART_003_R247G182B210A255,7441,7.207689e-14,-3.693573e-14,-2.36836e-14,1.690023e-05,-7.30393e-09,-6.821749e-17,2.927205975330196e-05
PART_003_R247G182B210A255,7442,7.101199e-14,-3.785861e-14,-2.006997e-14,1.677111e-05,2.208372e-15,-2.959184e-17,2.9048414619326475e-05
PART_002_R214G39B40A255,7443,7.213089e-14,-3.713696e-14,-2.368696e-14,1.690023e-05,7.303934e-09,6.492804e-17,2.9272059753304955e-05
PART_002_R214G39B40A255,7444,7.02086e-14,-3.544387e-14,-2.008036e-14,1.72913e-05,1.078459e-09,7.642609e-17,2.9949410187167653e-05
PART_002_R214G39B40A255,7445,7.08061e-14,-3.278627e-14,-2.376185e-14,1.796588e-05,1.758071e-08,1.191962e-16,3.1117831861607776e-05
PART_002_R214G39B40A255,7446,6.829205e-14,-2.967071e-14,-2.016074e-14,1.894418e-05,2.780812e-09,7.372151e-17,3.2812282621237215e-05
PART_002_R214G39B40A255,7447,6.954365e-14,-2.734618e-14,-2.400161e-14,2.025233e-05,6.605879e-09,-1.810787e-17,3.507806639767381e-05
PART_003_R247G182B210A255,7448,-6.088884e-05,2.010146e-05,2.008479e-05,1.962261e-05,-1.123535e-09,2.573122e-08,8.782494704460824e-05
PART_003_R247G182B210A255,7449,-6.088883e-05,2.009377e-05,2.009598e-05,1.832412e-05,-1.644168e-08,6.642306e-08,8.698100164730527e-05
PART_003_R247G182B210A255,7450,-6.088884e-05,2.009165e-05,2.00929e-05,1.735703e-05,-1.144122e-09,8.711297e-08,8.638149818690037e-05
PART_003_R247G182B210A255,7451,-6.088883e-05,2.009339e-05,2.00917e-05,1.66989e-05,-1.277813e-08,7.935259e-08,8.599164065771241e-05
PART_003_R247G182B210A255,7452,-6.088884e-05,2.009047e-05,2.009375e-05,1.631658e-05,2.200748e-10,4.673566e-08,8.577070113081476e-05
PART_001_R158G218B229A255,7453,-6.088883e-05,2.009434e-05,2.008922e-05,1.619261e-05,1.763563e-15,4.877361e-15,8.569983122194115e-05
PART_001_R158G218B229A255,7454,-6.088884e-05,2.009047e-05,2.009375e-05,1.631658e-05,-2.200708e-10,-4.673565e-08,8.577070113079837e-05
PART_002_R214G39B40A255,7455,-6.088883e-05,2.009339e-05,2.00917e-05,1.66989e-05,1.277813e-08,-7.935258e-08,8.599164065768472e-05
PART_002_R214G39B40A255,7456,-6.088884e-05,2.009165e-05,2.00929e-05,1.735703e-05,1.144124e-09,-8.711296e-08,8.638149818687019e-05
PART_002_R214G39B40A255,7457,-6.088883e-05,2.009377e-05,2.009598e-05,1.832412e-05,1.644168e-08,-6.642306e-08,8.698100164730527e-05
PART_002_R214G39B40A255,7458,-6.088884e-05,2.010146e-05,2.008479e-05,1.962261e-05,1.123535e-09,-2.573122e-08,8.782494704460824e-05
PART_003_R247G182B210A255,7459,-0.0001217777,4.019149e-05,4.019444e-05,1.772536e-05,-8.499692e-09,5.843224e-08,0.00016485469950284161
PART_003_R247G182B210A255,7460,-0.0001217777,4.019098e-05,4.017874e-05,1.645285e-05,6.829952e-10,1.613813e-07,0.00016445071573774228
PART_003_R247G182B210A255,7461,-0.0001217777,4.01863e-05,4.0187e-05,1.553576e-05,-1.620121e-08,2.068035e-07,0.00016418483266770792
PART_003_R247G182B210A255,7462,-0.0001217777,4.01802e-05,4.018816e-05,1.492193e-05,2.50865e-09,1.868185e-07,0.00016401142438185852
PART_001_R158G218B229A255,7463,-0.0001217777,4.018875e-05,4.017837e-05,1.457597e-05,-2.455706e-09,1.104242e-07,0.00016391724474417547
PART_001_R158G218B229A255,7464,-0.0001217777,4.018583e-05,4.018268e-05,1.446381e-05,1.936992e-15,1.000577e-14,0.00016388801137975955
PART_001_R158G218B229A255,7465,-0.0001217777,4.018875e-05,4.017837e-05,1.457597e-05,2.455709e-09,-1.104241e-07,0.0001639172447439735
PART_001_R158G218B229A255,7466,-0.0001217777,4.01802e-05,4.018816e-05,1.492193e-05,-2.508647e-09,-1.868185e-07,0.0001640114243818584
PART_002_R214G39B40A255,7467,-0.0001217777,4.01863e-05,4.0187e-05,1.553576e-05,1.620122e-08,-2.068035e-07,0.0001641848326677109
PART_002_R214G39B40A255,7468,-0.0001217777,4.019098e-05,4.017874e-05,1.645285e-05,-6.829942e-10,-1.613812e-07,0.00016445071573744787
PART_002_R214G39B40A255,7469,-0.0001217777,4.019149e-05,4.019444e-05,1.772536e-05,8.499692e-09,-5.843223e-08,0.000164854699502831
PART_003_R247G182B210A255,7470,-0.0001826665,6.030752e-05,6.024841e-05,1.452033e-05,2.134466e-09,1.261995e-07,0.00024424287796610616
PART_003_R247G182B210A255,7471,-0.0001826665,6.027999e-05,6.02879e-05,1.331918e-05,-2.135553e-08,3.183528e-07,0.00024404390148891877
PART_003_R247G182B210A255,7472,-0.0001826665,6.026874e-05,6.028315e-05,1.24938e-05,8.463682e-09,4.059885e-07,0.00024390533316949478
PART_001_R158G218B229A255,7473,-0.0001826665,6.028327e-05,6.026727e-05,1.198339e-05,2.269705e-09,3.623549e-07,0.00024382760842259958
PART_001_R158G218B229A255,7474,-0.0001826665,6.028315e-05,6.02697e-05,1.170197e-05,1.840788e-09,2.069261e-07,0.000243787205805131
PART_001_R158G218B229A255,7475,-0.0001826665,6.028405e-05,6.02651e-05,1.161084e-05,9.931072e-16,1.558326e-14,0.00024377202671348349
PART_001_R158G218B229A255,7476,-0.0001826665,6.028315e-05,6.02697e-05,1.170197e-05,-1.840785e-09,-2.069261e-07,0.00024378720580513091
PART_001_R158G218B229A255,7477,-0.0001826665,6.028327e-05,6.026727e-05,1.198339e-05,-2.269704e-09,-3.623549e-07,0.00024382760842259956
PART_001_R158G218B229A255,7478,-0.0001826665,6.026874e-05,6.028315e-05,1.24938e-05,-8.463681e-09,-4.059885e-07,0.00024390533316949467
PART_002_R214G39B40A255,7479,-0.0001826665,6.027999e-05,6.02879e-05,1.331918e-05,2.135553e-08,-3.183527e-07,0.00024404390148852743
PART_002_R214G39B40A255,7480,-0.0001826665,6.030752e-05,6.024841e-05,1.452033e-05,-2.134466e-09,-1.261995e-07,0.00024424287796610616
PART_003_R247G182B210A255,7481,-0.0002435553,8.03799e-05,8.040243e-05,9.932607e-06,-2.003336e-08,2.312776e-07,0.00032440321250588373
PART_003_R247G182B210A255,7482,-0.0002435553,8.036171e-05,8.037063e-05,8.856098e-06,1.952448e-08,6.334129e-07,0.00032428631636458873
PART_001_R158G218B229A255,7483,-0.0002435553,8.037827e-05,8.035235e-05,8.266722e-06,1.395733e-08,7.743499e-07,0.00032423969158981264
PART_001_R158G218B229A255,7484,-0.0002435553,8.038411e-05,8.035279e-05,7.924963e-06,4.100951e-09,6.407635e-07,0.0003242163528409164
PART_001_R158G218B229A255,7485,-0.0002435553,8.037867e-05,8.035251e-05,7.736566e-06,3.421596e-09,3.580881e-07,0.0003241985372706861
PART_001_R158G218B229A255,7486,-0.0002435553,8.038657e-05,8.035107e-05,7.679059e-06,7.578853e-16,2.172539e-14,0.00032419707016618506
PART_001_R158G218B229A255,7487,-0.0002435553,8.037867e-05,8.035251e-05,7.736566e-06,-3.421595e-09,-3.58088e-07,0.00032419853727035466
PART_001_R158G218B229A255,7488,-0.0002435553,8.038411e-05,8.035279e-05,7.924963e-06,-4.100949e-09,-6.407635e-07,0.00032421635284091637
PART_001_R158G218B229A255,7489,-0.0002435553,8.037827e-05,8.035235e-05,8.266722e-06,-1.395733e-08,-7.743499e-07,0.00032423969158981264
PART_001_R158G218B229A255,7490,-0.0002435553,8.036171e-05,8.037063e-05,8.856098e-06,-1.952448e-08,-6.334129e-07,0.00032428631636458873
PART_002_R214G39B40A255,7491,-0.0002435553,8.03799e-05,8.040243e-05,9.932607e-06,2.003336e-08,-2.312775e-07,0.00032440321250566987
PART_003_R247G182B210A255,7492,-0.0003044442,0.0001005266,0.0001003742,3.648019e-06,3.082464e-08,6.234947e-07,0.00040494536389956503
PART_001_R158G218B229A255,7493,-0.0003044442,0.0001004689,0.0001004242,3.134944e-06,1.898041e-08,1.347984e-06,0.00040493389191217374
PART_001_R158G218B229A255,7494,-0.0003044442,0.0001004977,0.0001004229,2.93875e-06,3.714507e-09,1.372503e-06,0.00040494347556920235
PART_001_R158G218B229A255,7495,-0.0003044442,0.0001004717,0.000100439,2.809206e-06,4.43816e-09,1.070267e-06,0.00040493302875990115
PART_001_R158G218B229A255,7496,-0.0003044442,0.000100489,0.0001004336,2.747208e-06,6.251715e-10,5.776144e-07,0.00040493469671524016
PART_001_R158G218B229A255,7497,-0.0003044442,0.0001004726,0.0001004415,2.724424e-06,1.661464e-16,2.860684e-14,0.0004049287473560815
PART_001_R158G218B229A255,7498,-0.0003044442,0.000100489,0.0001004336,2.747208e-06,-6.251709e-10,-5.776143e-07,0.0004049346967148122
PART_001_R158G218B229A255,7499,-0.0003044442,0.0001004717,0.000100439,2.809206e-06,-4.43816e-09,-1.070267e-06,0.00040493302875990115
PART_001_R158G218B229A255,7500,-0.0003044442,0.0001004977,0.0001004229,2.93875e-06,-3.714506e-09,-1.372503e-06,0.00040494347556920235
PART_001_R158G218B229A255,7501,-0.0003044442,0.0001004689,0.0001004242,3.134944e-06,-1.898041e-08,-1.347984e-06,0.00040493389191217374
PART_001_R158G218B229A255,7502,-0.0003044442,0.0001005266,0.0001003742,3.648019e-06,-3.082464e-08,-6.234946e-07,0.0004049453638991031
PART_003_R247G182B210A255,7503,0.0002999002,-9.902617e-05,-9.887599e-05,3.648021e-06,3.036549e-08,-6.234949e-07,0.00039890281228473673
PART_000_R31G119B180A255,7504,0.0002999002,-9.896933e-05,-9.89254e-05,3.134943e-06,1.869657e-08,-1.347983e-06,0.0003988913603725239
PART_000_R31G119B180A255,7505,0.0002999002,-9.899775e-05,-9.892401e-05,2.93875e-06,3.659421e-09,-1.372504e-06,0.00039890064591763794
PART_000_R31G119B180A255,7506,0.0002999002,-9.89721e-05,-9.89399e-05,2.809206e-06,4.371706e-09,-1.070266e-06,0.0003988901859364166
PART_000_R31G119B180A255,7507,0.0002999002,-9.898914e-05,-9.893457e-05,2.747208e-06,6.159404e-10,-5.776148e-07,0.00039889169397886966
PART_000_R31G119B180A255,7508,0.0002999002,-9.8973e-05,-9.894239e-05,2.724423e-06,4.67962e-16,-2.891929e-14,0.00039888580890852564
PART_000_R31G119B180A255,7509,0.0002999002,-9.898914e-05,-9.893457e-05,2.747208e-06,-6.159396e-10,5.776148e-07,0.00039889169397886966
PART_000_R31G119B180A255,7510,0.0002999002,-9.89721e-05,-9.89399e-05,2.809206e-06,-4.371706e-09,1.070266e-06,0.0003988901859364166
PART_000_R31G119B180A255,7511,0.0002999002,-9.899775e-05,-9.892401e-05,2.93875e-06,-3.659421e-09,1.372504e-06,0.00039890064591763794
PART_000_R31G119B180A255,7512,0.0002999002,-9.896933e-05,-9.89254e-05,3.134943e-06,-1.869657e-08,1.347983e-06,0.0003988913603725239
PART_000_R31G119B180A255,7513,0.0002999002,-9.902617e-05,-9.887599e-05,3.648021e-06,-3.036549e-08,6.234949e-07,0.00039890281228473673
PART_003_R247G182B210A255,7514,0.0002399202,-7.91802e-05,-7.920236e-05,9.932605e-06,-1.973458e-08,-2.31278e-07,0.00031957513764254016
PART_003_R247G182B210A255,7515,0.0002399202,-7.916229e-05,-7.91711e-05,8.856098e-06,1.923308e-08,-6.33412e-07,0.00031945726283233764
PART_000_R31G119B180A255,7516,0.0002399202,-7.917859e-05,-7.915302e-05,8.266722e-06,1.374903e-08,-7.743509e-07,0.0003194099162207727
PART_000_R31G119B180A255,7517,0.0002399202,-7.918435e-05,-7.915353e-05,7.924963e-06,4.039722e-09,-6.407628e-07,0.0003193861720141523
PART_000_R31G119B180A255,7518,0.0002399202,-7.917899e-05,-7.915319e-05,7.736566e-06,3.37054e-09,-3.580885e-07,0.00031936814030490625
PART_000_R31G119B180A255,7519,0.0002399202,-7.918677e-05,-7.915184e-05,7.679059e-06,1.474613e-15,-2.224996e-14,0.00031936658710265877
PART_000_R31G119B180A255,7520,0.0002399202,-7.917899e-05,-7.915319e-05,7.736566e-06,-3.370538e-09,3.580884e-07,0.0003193681403045698
PART_000_R31G119B180A255,7521,0.0002399202,-7.918435e-05,-7.915353e-05,7.924963e-06,-4.03972e-09,6.407628e-07,0.0003193861720141522
PART_000_R31G119B180A255,7522,0.0002399202,-7.917859e-05,-7.915302e-05,8.266722e-06,-1.374903e-08,7.743508e-07,0.0003194099162200454
PART_000_R31G119B180A255,7523,0.0002399202,-7.916229e-05,-7.91711e-05,8.856098e-06,-1.923308e-08,6.33412e-07,0.00031945726283233764
PART_002_R214G39B40A255,7524,0.0002399202,-7.91802e-05,-7.920236e-05,9.932605e-06,1.973458e-08,2.31278e-07,0.00031957513764254016
PART_003_R247G182B210A255,7525,0.0001799401,-5.94074e-05,-5.934915e-05,1.452033e-05,2.102725e-09,-1.261997e-07,0.00024063635406920832
PART_003_R247G182B210A255,7526,0.0001799401,-5.938029e-05,-5.938811e-05,1.331918e-05,-2.103673e-08,-3.183522e-07,0.00024043424809284817
PART_003_R247G182B210A255,7527,0.0001799401,-5.936921e-05,-5.938337e-05,1.24938e-05,8.337318e-09,-4.059892e-07,0.0002402938086563103
PART_000_R31G119B180A255,7528,0.0001799401,-5.938352e-05,-5.936779e-05,1.198339e-05,2.235857e-09,-3.623544e-07,0.00024021496539891466
PART_000_R31G119B180A255,7529,0.0001799401,-5.93834e-05,-5.937013e-05,1.170197e-05,1.8133e-09,-2.069264e-07,0.00024017389278730905
PART_000_R31G119B180A255,7530,0.0001799401,-5.938429e-05,-5.936565e-05,1.161084e-05,1.955517e-15,-1.613131e-14,0.00024015856804663227
PART_000_R31G119B180A255,7531,0.0001799401,-5.93834e-05,-5.937013e-05,1.170197e-05,-1.813295e-09,2.069264e-07,0.00024017389278730892
PART_000_R31G119B180A255,7532,0.0001799401,-5.938352e-05,-5.936779e-05,1.198339e-05,-2.235854e-09,3.623543e-07,0.00024021496539846203
PART_000_R31G119B180A255,7533,0.0001799401,-5.936921e-05,-5.938337e-05,1.24938e-05,-8.337316e-09,4.059892e-07,0.00024029380865631008
PART_002_R214G39B40A255,7534,0.0001799401,-5.938029e-05,-5.938811e-05,1.331918e-05,2.103673e-08,3.183522e-07,0.00024043424809284817
PART_002_R214G39B40A255,7535,0.0001799401,-5.94074e-05,-5.934915e-05,1.452033e-05,-2.102725e-09,1.261997e-07,0.00024063635406920832
PART_003_R247G182B210A255,7536,0.0001199601,-3.959161e-05,-3.95945e-05,1.772536e-05,-8.37292e-09,-5.843246e-08,0.00016248010614066391
PART_003_R247G182B210A255,7537,0.0001199601,-3.959111e-05,-3.957907e-05,1.645285e-05,6.727609e-10,-1.613808e-07,0.00016207046218503373
PART_003_R247G182B210A255,7538,0.0001199601,-3.95865e-05,-3.958718e-05,1.553576e-05,-1.59594e-08,-2.06804e-07,0.00016180060150640293
PART_003_R247G182B210A255,7539,0.0001199601,-3.95805e-05,-3.958836e-05,1.492193e-05,2.471211e-09,-1.868181e-07,0.00016162473141619884
PART_000_R31G119B180A255,7540,0.0001199601,-3.958891e-05,-3.957867e-05,1.457597e-05,-2.419056e-09,-1.104244e-07,0.00016152914974548044
PART_000_R31G119B180A255,7541,0.0001199601,-3.958604e-05,-3.958296e-05,1.446381e-05,3.12485e-15,-1.045315e-14,0.00016149948852991176
PART_000_R31G119B180A255,7542,0.0001199601,-3.958891e-05,-3.957867e-05,1.457597e-05,2.419061e-09,1.104244e-07,0.00016152914974548065
PART_000_R31G119B180A255,7543,0.0001199601,-3.95805e-05,-3.958836e-05,1.492193e-05,-2.471206e-09,1.868181e-07,0.0001616247314161986
PART_002_R214G39B40A255,7544,0.0001199601,-3.95865e-05,-3.958718e-05,1.553576e-05,1.59594e-08,2.06804e-07,0.00016180060150640293
PART_002_R214G39B40A255,7545,0.0001199601,-3.959111e-05,-3.957907e-05,1.645285e-05,-6.727591e-10,1.613808e-07,0.0001620704621850337
PART_002_R214G39B40A255,7546,0.0001199601,-3.959161e-05,-3.95945e-05,1.772536e-05,8.372921e-09,5.843245e-08,0.0001624801061406533
PART_003_R247G182B210A255,7547,5.998004e-05,-1.980144e-05,-1.978501e-05,1.962261e-05,-1.1067e-09,-2.573129e-08,8.671168589542824e-05
PART_003_R247G182B210A255,7548,5.998005e-05,-1.979387e-05,-1.979606e-05,1.832412e-05,-1.619622e-08,-6.642286e-08,8.585678287772096e-05
PART_003_R247G182B210A255,7549,5.998004e-05,-1.979177e-05,-1.9793e-05,1.735703e-05,-1.127067e-09,-8.711321e-08,8.52494107470715e-05
PART_003_R247G182B210A255,7550,5.998005e-05,-1.979349e-05,-1.979183e-05,1.66989e-05,-1.25874e-08,-7.935239e-08,8.485437179175928e-05
PART_003_R247G182B210A255,7551,5.998005e-05,-1.979062e-05,-1.979384e-05,1.631658e-05,2.167867e-10,-4.673577e-08,8.463046476122817e-05
PART_000_R31G119B180A255,7552,5.998005e-05,-1.979442e-05,-1.978939e-05,1.619261e-05,3.227829e-15,-5.186573e-15,8.455865821625838e-05
PART_000_R31G119B180A255,7553,5.998005e-05,-1.979062e-05,-1.979384e-05,1.631658e-05,-2.167801e-10,4.673576e-08,8.463046476121155e-05
PART_002_R214G39B40A255,7554,5.998005e-05,-1.979349e-05,-1.979183e-05,1.66989e-05,1.25874e-08,7.935238e-08,8.485437179173123e-05
PART_002_R214G39B40A255,7555,5.998004e-05,-1.979177e-05,-1.9793e-05,1.735703e-05,1.127071e-09,8.71132e-08,8.5249410747041e-05
PART_002_R214G39B40A255,7556,5.998005e-05,-1.979387e-05,-1.979606e-05,1.832412e-05,1.619623e-08,6.642285e-08,8.58567828777034e-05
PART_002_R214G39B40A255,7557,5.998004e-05,-1.980144e-05,-1.978501e-05,1.962261e-05,1.106701e-09,2.573129e-08,8.671168589542828e-05
PART_003_R247G182B210A255,7558,6.421621e-14,-2.090689e-14,-1.939958e-14,2.025233e-05,-6.507351e-09,-6.261183e-17,3.507806634242474e-05
PART_003_R247G182B210A255,7559,6.510786e-14,-1.63411e-14,-2.404761e-14,1.894418e-05,-2.739345e-09,-2.530054e-16,3.281228261077295e-05
PART_003_R247G182B210A255,7560,6.139251e-14,-1.072059e-14,-1.94604e-14,1.796588e-05,-1.731831e-08,-2.475318e-16,3.1117831420180675e-05
PART_003_R247G182B210A255,7561,6.148239e-14,-6.127043e-15,-2.366312e-14,1.72913e-05,-1.062348e-09,-2.482721e-16,2.994941018544021e-05
PART_003_R247G182B210A255,7562,5.89806e-14,-3.379241e-15,-1.950107e-14,1.690023e-05,-7.194922e-09,-1.301541e-16,2.9272059672312227e-05
PART_003_R247G182B210A255,7563,6.020423e-14,-2.609024e-15,-2.357005e-14,1.677112e-05,3.662421e-15,-2.270673e-17,2.9048431939834554e-05
PART_002_R214G39B40A255,7564,5.88544e-14,-3.205769e-15,-1.945817e-14,1.690023e-05,7.194928e-09,9.062617e-17,2.9272059672316652e-05
PART_002_R214G39B40A255,7565,6.114412e-14,-5.315193e-15,-2.36577e-14,1.72913e-05,1.062354e-09,2.096423e-16,2.994941018544085e-05
PART_002_R214G39B40A255,7566,6.055237e-14,-8.548717e-15,-1.939258e-14,1.796588e-05,1.731831e-08,2.1795e-16,3.1117831420180675e-05
PART_002_R214G39B40A255,7567,6.359973e-14,-1.223327e-14,-2.40024e-14,1.894418e-05,2.739348e-09,1.976789e-16,3.28122826107737e-05
PART_002_R214G39B40A255,7568,6.223461e-14,-1.53072e-14,-1.939861e-14,2.025233e-05,6.507352e-09,1.064966e-16,3.507806634242529e-05
PART_003_R247G182B210A255,7569,-5.998004e-05,1.980144e-05,1.978501e-05,1.962261e-05,-1.1067e-09,2.573129e-08,8.671168589542824e-05
PART_003_R247G182B210A255,7570,-5.998005e-05,1.979387e-05,1.979605e-05,1.832412e-05,-1.619622e-08,6.642286e-08,8.585677823171109e-05
PART_003_R247G182B210A255,7571,-5.998004e-05,1.979177e-05,1.9793e-05,1.735703e-05,-1.127067e-09,8.711321e-08,8.52494107470715e-05
PART_003_R247G182B210A255,7572,-5.998005e-05,1.979349e-05,1.979183e-05,1.66989e-05,-1.25874e-08,7.935239e-08,8.485437179175928e-05
PART_003_R247G182B210A255,7573,-5.998004e-05,1.979062e-05,1.979384e-05,1.631658e-05,2.167866e-10,4.673577e-08,8.463045533527503e-05
PART_001_R158G218B229A255,7574,-5.998005e-05,1.979442e-05,1.978939e-05,1.619261e-05,3.248611e-15,5.133082e-15,8.455865821625838e-05
PART_001_R158G218B229A255,7575,-5.998004e-05,1.979062e-05,1.979384e-05,1.631658e-05,-2.167801e-10,-4.673576e-08,8.463045533525841e-05
PART_002_R214G39B40A255,7576,-5.998005e-05,1.979349e-05,1.979183e-05,1.66989e-05,1.25874e-08,-7.935238e-08,8.485437179173123e-05
PART_002_R214G39B40A255,7577,-5.998004e-05,1.979177e-05,1.9793e-05,1.735703e-05,1.127071e-09,-8.71132e-08,8.5249410747041e-05
PART_002_R214G39B40A255,7578,-5.998005e-05,1.979387e-05,1.979605e-05,1.832412e-05,1.619623e-08,-6.642285e-08,8.585677823169354e-05
PART_002_R214G39B40A255,7579,-5.998004e-05,1.980144e-05,1.978501e-05,1.962261e-05,1.106701e-09,-2.573129e-08,8.671168589542828e-05
PART_003_R247G182B210A255,7580,-0.0001199601,3.959161e-05,3.95945e-05,1.772536e-05,-8.37292e-09,5.843246e-08,0.00016248010614066391
PART_003_R247G182B210A255,7581,-0.0001199601,3.959111e-05,3.957907e-05,1.645285e-05,6.727611e-10,1.613808e-07,0.00016207046218503373
PART_003_R247G182B210A255,7582,-0.0001199601,3.95865e-05,3.958718e-05,1.553576e-05,-1.59594e-08,2.06804e-07,0.00016180060150640293
PART_003_R247G182B210A255,7583,-0.0001199601,3.95805e-05,3.958836e-05,1.492193e-05,2.471211e-09,1.868181e-07,0.00016162473141619884
PART_001_R158G218B229A255,7584,-0.0001199601,3.958891e-05,3.957867e-05,1.457597e-05,-2.419056e-09,1.104244e-07,0.00016152914974548044
PART_001_R158G218B229A255,7585,-0.0001199601,3.958604e-05,3.958296e-05,1.446381e-05,3.054181e-15,1.039581e-14,0.00016149948852991176
PART_001_R158G218B229A255,7586,-0.0001199601,3.958891e-05,3.957867e-05,1.457597e-05,2.419061e-09,-1.104244e-07,0.00016152914974548065
PART_001_R158G218B229A255,7587,-0.0001199601,3.95805e-05,3.958836e-05,1.492193e-05,-2.471206e-09,-1.868181e-07,0.0001616247314161986
PART_002_R214G39B40A255,7588,-0.0001199601,3.95865e-05,3.958718e-05,1.553576e-05,1.59594e-08,-2.06804e-07,0.00016180060150640293
PART_002_R214G39B40A255,7589,-0.0001199601,3.959111e-05,3.957907e-05,1.645285e-05,-6.727592e-10,-1.613808e-07,0.0001620704621850337
PART_002_R214G39B40A255,7590,-0.0001199601,3.959161e-05,3.95945e-05,1.772536e-05,8.372921e-09,-5.843245e-08,0.0001624801061406533
PART_003_R247G182B210A255,7591,-0.0001799401,5.94074e-05,5.934915e-05,1.452033e-05,2.102725e-09,1.261997e-07,0.00024063635406920832
PART_003_R247G182B210A255,7592,-0.0001799401,5.938029e-05,5.938811e-05,1.331918e-05,-2.103673e-08,3.183522e-07,0.00024043424809284817
PART_003_R247G182B210A255,7593,-0.0001799401,5.936921e-05,5.938337e-05,1.24938e-05,8.337318e-09,4.059892e-07,0.0002402938086563103
PART_001_R158G218B229A255,7594,-0.0001799401,5.938352e-05,5.936779e-05,1.198339e-05,2.235857e-09,3.623544e-07,0.00024021496539891466
PART_001_R158G218B229A255,7595,-0.0001799401,5.93834e-05,5.937013e-05,1.170197e-05,1.8133e-09,2.069264e-07,0.00024017389278730905
PART_001_R158G218B229A255,7596,-0.0001799401,5.938429e-05,5.936565e-05,1.161084e-05,1.949987e-15,1.601075e-14,0.00024015856804663227
PART_001_R158G218B229A255,7597,-0.0001799401,5.93834e-05,5.937013e-05,1.170197e-05,-1.813296e-09,-2.069264e-07,0.00024017389278730894
PART_001_R158G218B229A255,7598,-0.0001799401,5.938352e-05,5.936779e-05,1.198339e-05,-2.235854e-09,-3.623543e-07,0.00024021496539846203
PART_001_R158G218B229A255,7599,-0.0001799401,5.936921e-05,5.938337e-05,1.24938e-05,-8.337316e-09,-4.059892e-07,0.00024029380865631008
PART_002_R214G39B40A255,7600,-0.0001799401,5.938029e-05,5.938811e-05,1.331918e-05,2.103673e-08,-3.183522e-07,0.00024043424809284817
PART_002_R214G39B40A255,7601,-0.0001799401,5.94074e-05,5.934915e-05,1.452033e-05,-2.102725e-09,-1.261997e-07,0.00024063635406920832
PART_003_R247G182B210A255,7602,-0.0002399202,7.91802e-05,7.920236e-05,9.932605e-06,-1.973458e-08,2.31278e-07,0.00031957513764254016
PART_003_R247G182B210A255,7603,-0.0002399202,7.916229e-05,7.91711e-05,8.856098e-06,1.923308e-08,6.33412e-07,0.00031945726283233764
PART_001_R158G218B229A255,7604,-0.0002399202,7.917859e-05,7.915302e-05,8.266722e-06,1.374903e-08,7.743509e-07,0.0003194099162207727
PART_001_R158G218B229A255,7605,-0.0002399202,7.918435e-05,7.915353e-05,7.924963e-06,4.039722e-09,6.407628e-07,0.0003193861720141523
PART_001_R158G218B229A255,7606,-0.0002399202,7.917899e-05,7.915319e-05,7.736566e-06,3.37054e-09,3.580885e-07,0.00031936814030490625
PART_001_R158G218B229A255,7607,-0.0002399202,7.918677e-05,7.915184e-05,7.679059e-06,1.398163e-15,2.211135e-14,0.00031936658710265877
PART_001_R158G218B229A255,7608,-0.0002399202,7.917899e-05,7.915319e-05,7.736566e-06,-3.370538e-09,-3.580884e-07,0.0003193681403045698
PART_001_R158G218B229A255,7609,-0.0002399202,7.918435e-05,7.915353e-05,7.924963e-06,-4.03972e-09,-6.407628e-07,0.0003193861720141522
PART_001_R158G218B229A255,7610,-0.0002399202,7.917859e-05,7.915302e-05,8.266722e-06,-1.374903e-08,-7.743508e-07,0.0003194099162200454
PART_001_R158G218B229A255,7611,-0.0002399202,7.916229e-05,7.91711e-05,8.856098e-06,-1.923308e-08,-6.33412e-07,0.00031945726283233764
PART_002_R214G39B40A255,7612,-0.0002399202,7.91802e-05,7.920236e-05,9.932605e-06,1.973458e-08,-2.31278e-07,0.00031957513764254016
PART_003_R247G182B210A255,7613,-0.0002999002,9.902617e-05,9.887599e-05,3.648021e-06,3.036549e-08,6.234949e-07,0.00039890281228473673
PART_001_R158G218B229A255,7614,-0.0002999002,9.896933e-05,9.89254e-05,3.134943e-06,1.869657e-08,1.347983e-06,0.0003988913603725239
PART_001_R158G218B229A255,7615,-0.0002999002,9.899775e-05,9.892401e-05,2.93875e-06,3.659421e-09,1.372504e-06,0.00039890064591763794
PART_001_R158G218B229A255,7616,-0.0002999002,9.89721e-05,9.89399e-05,2.809206e-06,4.371707e-09,1.070266e-06,0.0003988901859364166
PART_001_R158G218B229A255,7617,-0.0002999002,9.898914e-05,9.893457e-05,2.747208e-06,6.159402e-10,5.776148e-07,0.00039889169397886966
PART_001_R158G218B229A255,7618,-0.0002999002,9.8973e-05,9.894239e-05,2.724423e-06,4.308526e-16,2.888597e-14,0.00039888580890852564
PART_001_R158G218B229A255,7619,-0.0002999002,9.898914e-05,9.893457e-05,2.747208e-06,-6.159395e-10,-5.776148e-07,0.00039889169397886966
PART_001_R158G218B229A255,7620,-0.0002999002,9.89721e-05,9.89399e-05,2.809206e-06,-4.371706e-09,-1.070266e-06,0.0003988901859364166
PART_001_R158G218B229A255,7621,-0.0002999002,9.899775e-05,9.892401e-05,2.93875e-06,-3.65942e-09,-1.372504e-06,0.0003989006459176379
PART_001_R158G218B229A255,7622,-0.0002999002,9.896933e-05,9.89254e-05,3.134943e-06,-1.869657e-08,-1.347983e-06,0.0003988913603725239
PART_001_R158G218B229A255,7623,-0.0002999002,9.902617e-05,9.887599e-05,3.648021e-06,-3.036549e-08,-6.234949e-07,0.00039890281228473673
PART_003_R247G182B210A255,7624,0.0002953563,-9.752578e-05,-9.737791e-05,3.64802e-06,2.990466e-08,-6.234947e-07,0.00039286046918345416
PART_000_R31G119B180A255,7625,0.0002953563,-9.746979e-05,-9.742649e-05,3.134944e-06,1.841374e-08,-1.347984e-06,0.000392848909011239
PART_000_R31G119B180A255,7626,0.0002953563,-9.749779e-05,-9.74252e-05,2.93875e-06,3.603686e-09,-1.372503e-06,0.0003928579693830141
PART_000_R31G119B180A255,7627,0.0002953563,-9.747252e-05,-9.744078e-05,2.809206e-06,4.305642e-09,-1.070267e-06,0.00039284745872704077
PART_000_R31G119B180A255,7628,0.0002953563,-9.748931e-05,-9.743559e-05,2.747208e-06,6.065269e-10,-5.776145e-07,0.0003928488448347055
PART_000_R31G119B180A255,7629,0.0002953563,-9.747341e-05,-9.744323e-05,2.724424e-06,6.706333e-16,-2.995989e-14,0.0003928429633164682
PART_000_R31G119B180A255,7630,0.0002953563,-9.748931e-05,-9.743559e-05,2.747208e-06,-6.065253e-10,5.776144e-07,0.0003928488448342644
PART_000_R31G119B180A255,7631,0.0002953563,-9.747252e-05,-9.744078e-05,2.809206e-06,-4.305641e-09,1.070267e-06,0.00039284745872704077
PART_000_R31G119B180A255,7632,0.0002953563,-9.749779e-05,-9.74252e-05,2.93875e-06,-3.603685e-09,1.372503e-06,0.0003928579693830141
PART_000_R31G119B180A255,7633,0.0002953563,-9.746979e-05,-9.742649e-05,3.134944e-06,-1.841374e-08,1.347984e-06,0.000392848909011239
PART_000_R31G119B180A255,7634,0.0002953563,-9.752578e-05,-9.737791e-05,3.64802e-06,-2.990466e-08,6.234947e-07,0.00039286046918345416
PART_003_R247G182B210A255,7635,0.000236285,-7.79805e-05,-7.800235e-05,9.932606e-06,-1.943538e-08,-2.312776e-07,0.00031474720531863025
PART_003_R247G182B210A255,7636,0.000236285,-7.796286e-05,-7.797151e-05,8.856098e-06,1.894166e-08,-6.334127e-07,0.00031462824405964083
PART_000_R31G119B180A255,7637,0.000236285,-7.797892e-05,-7.795376e-05,8.266722e-06,1.35407e-08,-7.743501e-07,0.0003145802292718416
PART_000_R31G119B180A255,7638,0.000236285,-7.798458e-05,-7.795421e-05,7.924963e-06,3.978532e-09,-6.407634e-07,0.0003145559924161568
PART_000_R31G119B180A255,7639,0.000236285,-7.797931e-05,-7.795393e-05,7.736566e-06,3.319462e-09,-3.580882e-07,0.0003145378025463445
PART_000_R31G119B180A255,7640,0.000236285,-7.798697e-05,-7.795254e-05,7.679059e-06,2.277858e-15,-2.347719e-14,0.00031453609613294804
PART_000_R31G119B180A255,7641,0.000236285,-7.797931e-05,-7.795393e-05,7.736566e-06,-3.319458e-09,3.580881e-07,0.00031453780254600284
PART_000_R31G119B180A255,7642,0.000236285,-7.798458e-05,-7.795421e-05,7.924963e-06,-3.978528e-09,6.407634e-07,0.00031455599241615663
PART_000_R31G119B180A255,7643,0.000236285,-7.797892e-05,-7.795376e-05,8.266722e-06,-1.354069e-08,7.743501e-07,0.0003145802292718403
PART_000_R31G119B180A255,7644,0.000236285,-7.796286e-05,-7.797151e-05,8.856098e-06,-1.894166e-08,6.334127e-07,0.00031462824405964083
PART_002_R214G39B40A255,7645,0.000236285,-7.79805e-05,-7.800235e-05,9.932606e-06,1.943538e-08,2.312776e-07,0.00031474720531863025
PART_003_R247G182B210A255,7646,0.0001772138,-5.850729e-05,-5.844995e-05,1.452033e-05,2.07077e-09,-1.261995e-07,0.00023703056143268837
PART_003_R247G182B210A255,7647,0.0001772138,-5.848058e-05,-5.848826e-05,1.331918e-05,-2.071804e-08,-3.183526e-07,0.00023682516326578923
PART_003_R247G182B210A255,7648,0.0001772138,-5.846968e-05,-5.848365e-05,1.24938e-05,8.211029e-09,-4.059886e-07,0.00023668285792617064
PART_000_R31G119B180A255,7649,0.0001772138,-5.848377e-05,-5.846825e-05,1.198339e-05,2.201959e-09,-3.623548e-07,0.00023660280121696428
PART_000_R31G119B180A255,7650,0.0001772138,-5.848365e-05,-5.84706e-05,1.170197e-05,1.785839e-09,-2.069262e-07,0.0002365610894159257
PART_000_R31G119B180A255,7651,0.0001772138,-5.848453e-05,-5.846615e-05,1.161084e-05,3.333284e-15,-1.733327e-14,0.00023654556809169918
PART_000_R31G119B180A255,7652,0.0001772138,-5.848365e-05,-5.84706e-05,1.170197e-05,-1.785831e-09,2.069262e-07,0.00023656108941592552
PART_000_R31G119B180A255,7653,0.0001772138,-5.848377e-05,-5.846825e-05,1.198339e-05,-2.201954e-09,3.623548e-07,0.00023660280121696415
PART_000_R31G119B180A255,7654,0.0001772138,-5.846968e-05,-5.848365e-05,1.24938e-05,-8.211026e-09,4.059886e-07,0.00023668285792617034
PART_002_R214G39B40A255,7655,0.0001772138,-5.848058e-05,-5.848826e-05,1.331918e-05,2.071804e-08,3.183526e-07,0.00023682516326578923
PART_002_R214G39B40A255,7656,0.0001772138,-5.850729e-05,-5.844995e-05,1.452033e-05,-2.07077e-09,1.261995e-07,0.00023703056143268837
PART_003_R247G182B210A255,7657,0.0001181425,-3.899174e-05,-3.899461e-05,1.772536e-05,-8.245985e-09,-5.843228e-08,0.00016010682675093822
PART_003_R247G182B210A255,7658,0.0001181425,-3.899125e-05,-3.897937e-05,1.645285e-05,6.626007e-10,-1.613812e-07,0.00015969131389529818
PART_003_R247G182B210A255,7659,0.0001181425,-3.898671e-05,-3.898739e-05,1.553576e-05,-1.571759e-08,-2.068036e-07,0.0001594173894034052
PART_003_R247G182B210A255,7660,0.0001181425,-3.898079e-05,-3.898852e-05,1.492193e-05,2.433768e-09,-1.868184e-07,0.0001592389386710952
PART_000_R31G119B180A255,7661,0.0001181425,-3.898908e-05,-3.897901e-05,1.457597e-05,-2.382399e-09,-1.104242e-07,0.0001591419634211942
PART_000_R31G119B180A255,7662,0.0001181425,-3.898625e-05,-3.89832e-05,1.446381e-05,4.851412e-15,-1.141888e-14,0.00015911181679034969
PART_000_R31G119B180A255,7663,0.0001181425,-3.898908e-05,-3.897901e-05,1.457597e-05,2.382408e-09,1.104242e-07,0.00015914196342119461
PART_000_R31G119B180A255,7664,0.0001181425,-3.898079e-05,-3.898852e-05,1.492193e-05,-2.43376e-09,1.868184e-07,0.00015923893867109481
PART_002_R214G39B40A255,7665,0.0001181425,-3.898671e-05,-3.898739e-05,1.553576e-05,1.57176e-08,2.068036e-07,0.00015941738940340814
PART_002_R214G39B40A255,7666,0.0001181425,-3.899125e-05,-3.897937e-05,1.645285e-05,-6.625977e-10,1.613812e-07,0.00015969131389529815
PART_002_R214G39B40A255,7667,0.0001181425,-3.899174e-05,-3.899461e-05,1.772536e-05,8.245986e-09,5.843227e-08,0.00016010682675092743
PART_003_R247G182B210A255,7668,5.907126e-05,-1.950142e-05,-1.948525e-05,1.962261e-05,-1.089984e-09,-2.573123e-08,8.560104113329924e-05
PART_003_R247G182B210A255,7669,5.907126e-05,-1.949396e-05,-1.949611e-05,1.832412e-05,-1.595088e-08,-6.642303e-08,8.473486197643542e-05
PART_003_R247G182B210A255,7670,5.907126e-05,-1.94919e-05,-1.949311e-05,1.735703e-05,-1.109971e-09,-8.711302e-08,8.411948295767674e-05
PART_003_R247G182B210A255,7671,5.907126e-05,-1.949359e-05,-1.949195e-05,1.66989e-05,-1.239669e-08,-7.935255e-08,8.371908950175846e-05
PART_003_R247G182B210A255,7672,5.907126e-05,-1.949076e-05,-1.949394e-05,1.631658e-05,2.135079e-10,-4.673568e-08,8.34921536751431e-05
PART_000_R31G119B180A255,7673,5.907126e-05,-1.94945e-05,-1.948954e-05,1.619261e-05,5.300542e-15,-5.660186e-15,8.341936728749445e-05
PART_000_R31G119B180A255,7674,5.907126e-05,-1.949076e-05,-1.949394e-05,1.631658e-05,-2.134974e-10,4.673567e-08,8.349215367512623e-05
PART_002_R214G39B40A255,7675,5.907126e-05,-1.949359e-05,-1.949195e-05,1.66989e-05,1.23967e-08,7.935254e-08,8.371908950173448e-05
PART_002_R214G39B40A255,7676,5.907126e-05,-1.94919e-05,-1.949311e-05,1.735703e-05,1.109977e-09,8.711301e-08,8.41194829576459e-05
PART_002_R214G39B40A255,7677,5.907126e-05,-1.949396e-05,-1.949611e-05,1.832412e-05,1.595088e-08,6.642302e-08,8.473486197641191e-05
PART_002_R214G39B40A255,7678,5.907126e-05,-1.950142e-05,-1.948525e-05,1.962261e-05,1.089985e-09,2.573123e-08,8.560104113329928e-05
PART_003_R247G182B210A255,7679,6.725902e-14,-2.292611e-14,-2.415721e-14,2.025233e-05,-6.408699e-09,-5.14996e-17,3.5078066287937947e-05
PART_003_R247G182B210A255,7680,6.606261e-14,-2.810946e-14,-1.890947e-14,1.894418e-05,-2.697807e-09,-8.204276e-17,3.281228260044838e-05
PART_003_R247G182B210A255,7681,7.025392e-14,-3.520795e-14,-2.377827e-14,1.796588e-05,-1.705591e-08,-1.346367e-16,3.11178309853916e-05
PART_003_R247G182B210A255,7682,6.997809e-14,-4.073825e-14,-1.875588e-14,1.72913e-05,-1.046258e-09,-1.196923e-16,2.9949410183740974e-05
PART_003_R247G182B210A255,7683,7.280559e-14,-4.377748e-14,-2.366897e-14,1.690023e-05,-7.0859e-09,-6.87165e-17,2.9272059592530153e-05
PART_003_R247G182B210A255,7684,7.128358e-14,-4.492934e-14,-1.875174e-14,1.677111e-05,5.767616e-15,1.965858e-18,2.9048414619326475e-05
PART_002_R214G39B40A255,7685,7.285242e-14,-4.409667e-14,-2.363846e-14,1.690023e-05,7.085911e-09,6.642411e-17,2.927205959253814e-05
PART_002_R214G39B40A255,7686,7.018745e-14,-4.1675e-14,-1.873035e-14,1.72913e-05,1.046268e-09,1.130988e-16,2.994941018374202e-05
PART_002_R214G39B40A255,7687,7.094184e-14,-3.759493e-14,-2.376865e-14,1.796588e-05,1.705591e-08,1.364375e-16,3.11178309853916e-05
PART_002_R214G39B40A255,7688,6.742675e-14,-3.28973e-14,-1.884383e-14,1.894418e-05,2.697812e-09,6.517326e-17,3.2812282600449617e-05
PART_002_R214G39B40A255,7689,6.90588e-14,-2.943479e-14,-2.408515e-14,2.025233e-05,6.4087e-09,2.592344e-17,3.5078066287938495e-05
PART_003_R247G182B210A255,7690,-5.907126e-05,1.950142e-05,1.948525e-05,1.962261e-05,-1.089984e-09,2.573123e-08,8.560104113329924e-05
PART_003_R247G182B210A255,7691,-5.907126e-05,1.949396e-05,1.949611e-05,1.832412e-05,-1.595088e-08,6.642302e-08,8.473486197641191e-05
PART_003_R247G182B210A255,7692,-5.907126e-05,1.94919e-05,1.949311e-05,1.735703e-05,-1.109971e-09,8.711301e-08,8.411948295764566e-05
PART_003_R247G182B210A255,7693,-5.907126e-05,1.949359e-05,1.949195e-05,1.66989e-05,-1.239669e-08,7.935255e-08,8.371908950175846e-05
PART_003_R247G182B210A255,7694,-5.907126e-05,1.949076e-05,1.949394e-05,1.631658e-05,2.135079e-10,4.673568e-08,8.34921536751431e-05
PART_001_R158G218B229A255,7695,-5.907126e-05,1.94945e-05,1.948954e-05,1.619261e-05,5.229363e-15,5.68974e-15,8.341936728749445e-05
PART_001_R158G218B229A255,7696,-5.907126e-05,1.949076e-05,1.949394e-05,1.631658e-05,-2.134974e-10,-4.673567e-08,8.349215367512623e-05
PART_002_R214G39B40A255,7697,-5.907126e-05,1.949359e-05,1.949195e-05,1.66989e-05,1.23967e-08,-7.935254e-08,8.371908950173448e-05
PART_002_R214G39B40A255,7698,-5.907126e-05,1.94919e-05,1.949311e-05,1.735703e-05,1.109977e-09,-8.711301e-08,8.41194829576459e-05
PART_002_R214G39B40A255,7699,-5.907126e-05,1.949396e-05,1.949611e-05,1.832412e-05,1.595088e-08,-6.642302e-08,8.473486197641191e-05
PART_002_R214G39B40A255,7700,-5.907126e-05,1.950142e-05,1.948525e-05,1.962261e-05,1.089986e-09,-2.573123e-08,8.560104113329932e-05
PART_003_R247G182B210A255,7701,-0.0001181425,3.899174e-05,3.899461e-05,1.772536e-05,-8.245985e-09,5.843228e-08,0.00016010682675093822
PART_003_R247G182B210A255,7702,-0.0001181425,3.899124e-05,3.897937e-05,1.645285e-05,6.626008e-10,1.613812e-07,0.00015969130897500484
PART_003_R247G182B210A255,7703,-0.0001181425,3.898671e-05,3.898739e-05,1.553576e-05,-1.571759e-08,2.068036e-07,0.0001594173894034052
PART_003_R247G182B210A255,7704,-0.0001181425,3.898079e-05,3.898852e-05,1.492193e-05,2.433768e-09,1.868184e-07,0.0001592389386710952
PART_001_R158G218B229A255,7705,-0.0001181425,3.898908e-05,3.897901e-05,1.457597e-05,-2.382399e-09,1.104242e-07,0.0001591419634211942
PART_001_R158G218B229A255,7706,-0.0001181425,3.898625e-05,3.89832e-05,1.446381e-05,4.789848e-15,1.148282e-14,0.00015911181679034969
PART_001_R158G218B229A255,7707,-0.0001181425,3.898908e-05,3.897901e-05,1.457597e-05,2.382408e-09,-1.104242e-07,0.00015914196342119461
PART_001_R158G218B229A255,7708,-0.0001181425,3.898079e-05,3.898852e-05,1.492193e-05,-2.43376e-09,-1.868184e-07,0.00015923893867109481
PART_002_R214G39B40A255,7709,-0.0001181425,3.898671e-05,3.898739e-05,1.553576e-05,1.57176e-08,-2.068036e-07,0.00015941738940340814
PART_002_R214G39B40A255,7710,-0.0001181425,3.899124e-05,3.897937e-05,1.645285e-05,-6.625977e-10,-1.613812e-07,0.0001596913089750048
PART_002_R214G39B40A255,7711,-0.0001181425,3.899174e-05,3.899461e-05,1.772536e-05,8.245986e-09,-5.843227e-08,0.00016010682675092743
PART_003_R247G182B210A255,7712,-0.0001772138,5.850729e-05,5.844995e-05,1.452033e-05,2.070771e-09,1.261995e-07,0.0002370305614326884
PART_003_R247G182B210A255,7713,-0.0001772138,5.848058e-05,5.848826e-05,1.331918e-05,-2.071804e-08,3.183526e-07,0.00023682516326578923
PART_003_R247G182B210A255,7714,-0.0001772138,5.846968e-05,5.848365e-05,1.24938e-05,8.211029e-09,4.059886e-07,0.00023668285792617064
PART_001_R158G218B229A255,7715,-0.0001772138,5.848377e-05,5.846825e-05,1.198339e-05,2.201959e-09,3.623548e-07,0.00023660280121696428
PART_001_R158G218B229A255,7716,-0.0001772138,5.848365e-05,5.84706e-05,1.170197e-05,1.785838e-09,2.069262e-07,0.00023656108941592566
PART_001_R158G218B229A255,7717,-0.0001772138,5.848453e-05,5.846615e-05,1.161084e-05,3.308965e-15,1.75095e-14,0.00023654556809169918
PART_001_R158G218B229A255,7718,-0.0001772138,5.848365e-05,5.84706e-05,1.170197e-05,-1.785831e-09,-2.069262e-07,0.00023656108941592552
PART_001_R158G218B229A255,7719,-0.0001772138,5.848377e-05,5.846825e-05,1.198339e-05,-2.201954e-09,-3.623548e-07,0.00023660280121696415
PART_001_R158G218B229A255,7720,-0.0001772138,5.846968e-05,5.848365e-05,1.24938e-05,-8.211026e-09,-4.059886e-07,0.00023668285792617034
PART_002_R214G39B40A255,7721,-0.0001772138,5.848058e-05,5.848826e-05,1.331918e-05,2.071804e-08,-3.183526e-07,0.00023682516326578923
PART_002_R214G39B40A255,7722,-0.0001772138,5.850729e-05,5.844995e-05,1.452033e-05,-2.07077e-09,-1.261995e-07,0.00023703056143268837
PART_003_R247G182B210A255,7723,-0.000236285,7.79805e-05,7.800235e-05,9.932606e-06,-1.943538e-08,2.312776e-07,0.00031474720531863025
PART_003_R247G182B210A255,7724,-0.000236285,7.796286e-05,7.797151e-05,8.856098e-06,1.894166e-08,6.334127e-07,0.00031462824405964083
PART_001_R158G218B229A255,7725,-0.000236285,7.797892e-05,7.795376e-05,8.266722e-06,1.35407e-08,7.743501e-07,0.0003145802292718416
PART_001_R158G218B229A255,7726,-0.000236285,7.798458e-05,7.795421e-05,7.924963e-06,3.978532e-09,6.407634e-07,0.0003145559924161568
PART_001_R158G218B229A255,7727,-0.000236285,7.797931e-05,7.795393e-05,7.736566e-06,3.319462e-09,3.580882e-07,0.0003145378025463445
PART_001_R158G218B229A255,7728,-0.000236285,7.798697e-05,7.795254e-05,7.679059e-06,2.163254e-15,2.363253e-14,0.00031453609613294804
PART_001_R158G218B229A255,7729,-0.000236285,7.797931e-05,7.795393e-05,7.736566e-06,-3.319458e-09,-3.580881e-07,0.00031453780254600284
PART_001_R158G218B229A255,7730,-0.000236285,7.798458e-05,7.795421e-05,7.924963e-06,-3.978528e-09,-6.407634e-07,0.00031455599241615663
PART_001_R158G218B229A255,7731,-0.000236285,7.797892e-05,7.795376e-05,8.266722e-06,-1.354069e-08,-7.743501e-07,0.0003145802292718403
PART_001_R158G218B229A255,7732,-0.000236285,7.796286e-05,7.797151e-05,8.856098e-06,-1.894166e-08,-6.334127e-07,0.00031462824405964083
PART_002_R214G39B40A255,7733,-0.000236285,7.79805e-05,7.800235e-05,9.932606e-06,1.943538e-08,-2.312776e-07,0.00031474720531863025
PART_003_R247G182B210A255,7734,-0.0002953563,9.752578e-05,9.737791e-05,3.64802e-06,2.990466e-08,6.234947e-07,0.00039286046918345416
PART_001_R158G218B229A255,7735,-0.0002953563,9.746979e-05,9.742649e-05,3.134944e-06,1.841373e-08,1.347984e-06,0.0003928489090112376
PART_001_R158G218B229A255,7736,-0.0002953563,9.749779e-05,9.74252e-05,2.93875e-06,3.603687e-09,1.372503e-06,0.00039285796938301416
PART_001_R158G218B229A255,7737,-0.0002953563,9.747252e-05,9.744078e-05,2.809206e-06,4.305642e-09,1.070267e-06,0.00039284745872704077
PART_001_R158G218B229A255,7738,-0.0002953563,9.748931e-05,9.743559e-05,2.747208e-06,6.06527e-10,5.776145e-07,0.0003928488448347055
PART_001_R158G218B229A255,7739,-0.0002953563,9.747341e-05,9.744323e-05,2.724424e-06,6.671477e-16,3.000799e-14,0.0003928429633164682
PART_001_R158G218B229A255,7740,-0.0002953563,9.748931e-05,9.743559e-05,2.747208e-06,-6.065255e-10,-5.776144e-07,0.0003928488448342644
PART_001_R158G218B229A255,7741,-0.0002953563,9.747252e-05,9.744078e-05,2.809206e-06,-4.305641e-09,-1.070267e-06,0.00039284745872704077
PART_001_R158G218B229A255,7742,-0.0002953563,9.749779e-05,9.74252e-05,2.93875e-06,-3.603686e-09,-1.372503e-06,0.0003928579693830141
PART_001_R158G218B229A255,7743,-0.0002953563,9.746979e-05,9.742649e-05,3.134944e-06,-1.841373e-08,-1.347984e-06,0.0003928489090112376
PART_001_R158G218B229A255,7744,-0.0002953563,9.752578e-05,9.737791e-05,3.64802e-06,-2.990466e-08,-6.234947e-07,0.00039286046918345416
PART_003_R247G182B210A255,7745,0.0002908123,-9.602538e-05,-9.587975e-05,3.648021e-06,2.94452e-08,-6.234949e-07,0.00038681800593421274
PART_000_R31G119B180A255,7746,0.0002908124,-9.597026e-05,-9.592765e-05,3.134943e-06,1.813008e-08,-1.347983e-06,0.0003868065186195666
PART_000_R31G119B180A255,7747,0.0002908123,-9.599782e-05,-9.592632e-05,2.93875e-06,3.548481e-09,-1.372503e-06,0.0003868151718960905
PART_000_R31G119B180A255,7748,0.0002908124,-9.597295e-05,-9.594172e-05,2.809206e-06,4.23926e-09,-1.070266e-06,0.00038680478283024435
PART_000_R31G119B180A255,7749,0.0002908123,-9.598947e-05,-9.593656e-05,2.747208e-06,5.972625e-10,-5.776148e-07,0.0003868058799526938
PART_000_R31G119B180A255,7750,0.0002908124,-9.597382e-05,-9.594413e-05,2.724423e-06,1.199075e-15,-3.125228e-14,0.0003868001610942807
PART_000_R31G119B180A255,7751,0.0002908123,-9.598947e-05,-9.593656e-05,2.747208e-06,-5.972603e-10,5.776147e-07,0.00038680587995224583
PART_000_R31G119B180A255,7752,0.0002908124,-9.597295e-05,-9.594172e-05,2.809206e-06,-4.239259e-09,1.070266e-06,0.0003868047828302443
PART_000_R31G119B180A255,7753,0.0002908123,-9.599782e-05,-9.592632e-05,2.93875e-06,-3.54848e-09,1.372503e-06,0.00038681517189609045
PART_000_R31G119B180A255,7754,0.0002908124,-9.597026e-05,-9.592765e-05,3.134943e-06,-1.813008e-08,1.347983e-06,0.0003868065186195666
PART_000_R31G119B180A255,7755,0.0002908123,-9.602538e-05,-9.587975e-05,3.648021e-06,-2.94452e-08,6.234949e-07,0.00038681800593421274
PART_003_R247G182B210A255,7756,0.0002326499,-7.67808e-05,-7.680229e-05,9.932605e-06,-1.913653e-08,-2.312779e-07,0.00030991956976501595
PART_003_R247G182B210A255,7757,0.0002326499,-7.676343e-05,-7.677197e-05,8.856098e-06,1.865026e-08,-6.334121e-07,0.00030979952765615605
PART_000_R31G119B180A255,7758,0.0002326499,-7.677924e-05,-7.675445e-05,8.266722e-06,1.333239e-08,-7.743507e-07,0.00030975076757847845
PART_000_R31G119B180A255,7759,0.0002326499,-7.678482e-05,-7.675493e-05,7.924963e-06,3.917311e-09,-6.407629e-07,0.0003097260801483818
PART_000_R31G119B180A255,7760,0.0002326499,-7.677963e-05,-7.675461e-05,7.736566e-06,3.268403e-09,-3.580884e-07,0.00030970766992367463
PART_000_R31G119B180A255,7761,0.0002326499,-7.678717e-05,-7.675329e-05,7.679059e-06,3.636624e-15,-2.511851e-14,0.0003097058629594928
PART_000_R31G119B180A255,7762,0.0002326499,-7.677963e-05,-7.675461e-05,7.736566e-06,-3.268397e-09,3.580884e-07,0.0003097076699236744
PART_000_R31G119B180A255,7763,0.0002326499,-7.678482e-05,-7.675493e-05,7.924963e-06,-3.917305e-09,6.407629e-07,0.0003097260801483816
PART_000_R31G119B180A255,7764,0.0002326499,-7.677924e-05,-7.675445e-05,8.266722e-06,-1.333239e-08,7.743507e-07,0.00030975076757847845
PART_000_R31G119B180A255,7765,0.0002326499,-7.676343e-05,-7.677197e-05,8.856098e-06,-1.865026e-08,6.334121e-07,0.00030979952765615605
PART_002_R214G39B40A255,7766,0.0002326499,-7.67808e-05,-7.680229e-05,9.932605e-06,1.913653e-08,2.312779e-07,0.00030991956976501595
PART_003_R247G182B210A255,7767,0.0001744874,-5.760718e-05,-5.755069e-05,1.452033e-05,2.03899e-09,-1.261996e-07,0.00023342526421766895
PART_003_R247G182B210A255,7768,0.0001744874,-5.758088e-05,-5.758847e-05,1.331918e-05,-2.039926e-08,-3.183523e-07,0.0002332165410055193
PART_003_R247G182B210A255,7769,0.0001744874,-5.757014e-05,-5.758388e-05,1.24938e-05,8.08468e-09,-4.059891e-07,0.00023307224271262527
PART_000_R31G119B180A255,7770,0.0001744874,-5.758402e-05,-5.756876e-05,1.198339e-05,2.168103e-09,-3.623545e-07,0.00023299099044371676
PART_000_R31G119B180A255,7771,0.0001744874,-5.75839e-05,-5.757104e-05,1.170197e-05,1.758357e-09,-2.069264e-07,0.00023294857969662492
PART_000_R31G119B180A255,7772,0.0001744874,-5.758477e-05,-5.756669e-05,1.161084e-05,5.40645e-15,-1.891881e-14,0.00023293289026472518
PART_000_R31G119B180A255,7773,0.0001744874,-5.75839e-05,-5.757104e-05,1.170197e-05,-1.758346e-09,2.069264e-07,0.00023294857969662465
PART_000_R31G119B180A255,7774,0.0001744874,-5.758402e-05,-5.756876e-05,1.198339e-05,-2.168094e-09,3.623544e-07,0.00023299099044324996
PART_000_R31G119B180A255,7775,0.0001744874,-5.757014e-05,-5.758388e-05,1.24938e-05,-8.084674e-09,4.059891e-07,0.00023307224271262465
PART_002_R214G39B40A255,7776,0.0001744874,-5.758088e-05,-5.758847e-05,1.331918e-05,2.039926e-08,3.183522e-07,0.00023321654100510978
PART_002_R214G39B40A255,7777,0.0001744874,-5.760718e-05,-5.755069e-05,1.452033e-05,-2.038989e-09,1.261996e-07,0.00023342526421766893
PART_003_R247G182B210A255,7778,0.0001163249,-3.839187e-05,-3.839467e-05,1.772536e-05,-8.119183e-09,-5.843242e-08,0.00015773486531589717
PART_003_R247G182B210A255,7779,0.0001163249,-3.839138e-05,-3.83797e-05,1.645285e-05,6.523816e-10,-1.613809e-07,0.0001573133411358978
PART_003_R247G182B210A255,7780,0.0001163249,-3.838691e-05,-3.838757e-05,1.553576e-05,-1.547578e-08,-2.068039e-07,0.0001570352024295749
PART_003_R247G182B210A255,7781,0.0001163249,-3.838109e-05,-3.838871e-05,1.492193e-05,2.396329e-09,-1.868182e-07,0.0001568541327626076
PART_000_R31G119B180A255,7782,0.0001163249,-3.838925e-05,-3.837932e-05,1.457597e-05,-2.345746e-09,-1.104243e-07,0.00015675568665514581
PART_000_R31G119B180A255,7783,0.0001163249,-3.838646e-05,-3.838347e-05,1.446381e-05,7.442497e-15,-1.264026e-14,0.00015672507053490707
PART_000_R31G119B180A255,7784,0.0001163249,-3.838925e-05,-3.837932e-05,1.457597e-05,2.34576e-09,1.104243e-07,0.00015675568665514647
PART_000_R31G119B180A255,7785,0.0001163249,-3.838109e-05,-3.838871e-05,1.492193e-05,-2.396317e-09,1.868182e-07,0.00015685413276260706
PART_002_R214G39B40A255,7786,0.0001163249,-3.838691e-05,-3.838757e-05,1.553576e-05,1.547579e-08,2.068039e-07,0.00015703520242957785
PART_002_R214G39B40A255,7787,0.0001163249,-3.839138e-05,-3.83797e-05,1.645285e-05,-6.523764e-10,1.613809e-07,0.00015731334113589776
PART_002_R214G39B40A255,7788,0.0001163249,-3.839187e-05,-3.839467e-05,1.772536e-05,8.119184e-09,5.843242e-08,0.00015773486531589734
PART_003_R247G182B210A255,7789,5.816247e-05,-1.92014e-05,-1.918547e-05,1.962261e-05,-1.073172e-09,-2.573128e-08,8.449306887597589e-05
PART_003_R247G182B210A255,7790,5.816247e-05,-1.919405e-05,-1.919617e-05,1.832412e-05,-1.570544e-08,-6.642289e-08,8.361536511989817e-05
PART_003_R247G182B210A255,7791,5.816247e-05,-1.919202e-05,-1.919321e-05,1.735703e-05,-1.092907e-09,-8.711318e-08,8.299175511690139e-05
PART_003_R247G182B210A255,7792,5.816247e-05,-1.919368e-05,-1.919208e-05,1.66989e-05,-1.220596e-08,-7.935242e-08,8.258589042051045e-05
PART_003_R247G182B210A255,7793,5.816247e-05,-1.91909e-05,-1.919402e-05,1.631658e-05,2.102228e-10,-4.673576e-08,8.235583831229738e-05
PART_000_R31G119B180A255,7794,5.816247e-05,-1.919459e-05,-1.918971e-05,1.619261e-05,8.189283e-15,-6.364746e-15,8.228207039836503e-05
PART_000_R31G119B180A255,7795,5.816247e-05,-1.91909e-05,-1.919402e-05,1.631658e-05,-2.102067e-10,4.673574e-08,8.235583831226321e-05
PART_002_R214G39B40A255,7796,5.816247e-05,-1.919368e-05,-1.919208e-05,1.66989e-05,1.220597e-08,7.935241e-08,8.258589042048605e-05
PART_002_R214G39B40A255,7797,5.816247e-05,-1.919202e-05,-1.919321e-05,1.735703e-05,1.092918e-09,8.711317e-08,8.299175511687032e-05
PART_002_R214G39B40A255,7798,5.816247e-05,-1.919405e-05,-1.919617e-05,1.832412e-05,1.570544e-08,6.642288e-08,8.361536511987435e-05
PART_002_R214G39B40A255,7799,5.816247e-05,-1.92014e-05,-1.918547e-05,1.962261e-05,1.073174e-09,2.573128e-08,8.449306887597597e-05
PART_003_R247G182B210A255,7800,6.180776e-14,-1.999789e-14,-1.800052e-14,2.025233e-05,-6.310149e-09,-9.900375e-17,3.5078066234338535e-05
PART_003_R247G182B210A255,7801,6.282648e-14,-1.305206e-14,-2.425366e-14,1.894418e-05,-2.656327e-09,-3.853771e-16,3.281228259029566e-05
PART_003_R247G182B210A255,7802,5.74355e-14,-4.586609e-15,-1.801e-14,1.796588e-05,-1.679351e-08,-3.884756e-16,3.111783055724056e-05
PART_003_R247G182B210A255,7803,5.737067e-14,2.234324e-15,-2.375451e-14,1.72913e-05,-1.030152e-09,-3.89067e-16,2.9949410182066018e-05
PART_003_R247G182B210A255,7804,5.376407e-14,6.33521e-15,-1.803424e-14,1.690023e-05,-6.976888e-09,-1.96098e-16,2.9272059513973363e-05
PART_003_R247G182B210A255,7805,5.542637e-14,7.500944e-15,-2.366685e-14,1.677112e-05,8.825845e-15,-3.257329e-17,2.9048431939834554e-05
PART_002_R214G39B40A255,7806,5.359829e-14,6.571133e-15,-1.802792e-14,1.690023e-05,6.976904e-09,1.463872e-16,2.9272059513984805e-05
PART_002_R214G39B40A255,7807,5.685871e-14,3.420875e-15,-2.373376e-14,1.72913e-05,1.030167e-09,2.890017e-16,2.9949410182067563e-05
PART_002_R214G39B40A255,7808,5.620645e-14,-1.325329e-15,-1.798697e-14,1.796588e-05,1.679352e-08,3.40215e-16,3.1117830557256746e-05
PART_002_R214G39B40A255,7809,6.065179e-14,-7.140122e-15,-2.416981e-14,1.894418e-05,2.656334e-09,3.250082e-16,3.281228259029735e-05
PART_002_R214G39B40A255,7810,5.898439e-14,-1.176143e-14,-1.790141e-14,2.025233e-05,6.310151e-09,1.429309e-16,3.507806623433961e-05
PART_003_R247G182B210A255,7811,-5.816247e-05,1.92014e-05,1.918547e-05,1.962261e-05,-1.073172e-09,2.573128e-08,8.449306887597589e-05
PART_003_R247G182B210A255,7812,-5.816247e-05,1.919405e-05,1.919617e-05,1.832412e-05,-1.570544e-08,6.642289e-08,8.361536511989817e-05
PART_003_R247G182B210A255,7813,-5.816247e-05,1.919202e-05,1.919321e-05,1.735703e-05,-1.092907e-09,8.711318e-08,8.299175511690139e-05
PART_003_R247G182B210A255,7814,-5.816247e-05,1.919368e-05,1.919208e-05,1.66989e-05,-1.220596e-08,7.935242e-08,8.258589042051045e-05
PART_003_R247G182B210A255,7815,-5.816247e-05,1.91909e-05,1.919402e-05,1.631658e-05,2.102228e-10,4.673576e-08,8.235583831229738e-05
PART_001_R158G218B229A255,7816,-5.816247e-05,1.919459e-05,1.918971e-05,1.619261e-05,8.198446e-15,6.311878e-15,8.228207039836503e-05
PART_001_R158G218B229A255,7817,-5.816247e-05,1.91909e-05,1.919402e-05,1.631658e-05,-2.102067e-10,-4.673574e-08,8.235583831226321e-05
PART_002_R214G39B40A255,7818,-5.816247e-05,1.919368e-05,1.919208e-05,1.66989e-05,1.220597e-08,-7.935241e-08,8.258589042048605e-05
PART_002_R214G39B40A255,7819,-5.816247e-05,1.919202e-05,1.919321e-05,1.735703e-05,1.092918e-09,-8.711317e-08,8.299175511687032e-05
PART_002_R214G39B40A255,7820,-5.816247e-05,1.919405e-05,1.919617e-05,1.832412e-05,1.570544e-08,-6.642288e-08,8.361536511987435e-05
PART_002_R214G39B40A255,7821,-5.816247e-05,1.92014e-05,1.918547e-05,1.962261e-05,1.073174e-09,-2.573128e-08,8.449306887597597e-05
PART_003_R247G182B210A255,7822,-0.0001163249,3.839187e-05,3.839467e-05,1.772536e-05,-8.119183e-09,5.843242e-08,0.00015773486531589717
PART_003_R247G182B210A255,7823,-0.0001163249,3.839138e-05,3.83797e-05,1.645285e-05,6.523817e-10,1.613809e-07,0.0001573133411358978
PART_003_R247G182B210A255,7824,-0.0001163249,3.838691e-05,3.838757e-05,1.553576e-05,-1.547578e-08,2.068039e-07,0.0001570352024295749
PART_003_R247G182B210A255,7825,-0.0001163249,3.838109e-05,3.838871e-05,1.492193e-05,2.396329e-09,1.868182e-07,0.0001568541327626076
PART_001_R158G218B229A255,7826,-0.0001163249,3.838925e-05,3.837932e-05,1.457597e-05,-2.345746e-09,1.104243e-07,0.00015675568665514581
PART_001_R158G218B229A255,7827,-0.0001163249,3.838646e-05,3.838347e-05,1.446381e-05,7.516271e-15,1.253477e-14,0.00015672507053490707
PART_001_R158G218B229A255,7828,-0.0001163249,3.838925e-05,3.837932e-05,1.457597e-05,2.34576e-09,-1.104243e-07,0.00015675568665514647
PART_001_R158G218B229A255,7829,-0.0001163249,3.838109e-05,3.838871e-05,1.492193e-05,-2.396317e-09,-1.868182e-07,0.00015685413276260706
PART_002_R214G39B40A255,7830,-0.0001163249,3.838691e-05,3.838757e-05,1.553576e-05,1.547579e-08,-2.068039e-07,0.00015703520242957785
PART_002_R214G39B40A255,7831,-0.0001163249,3.839138e-05,3.83797e-05,1.645285e-05,-6.523764e-10,-1.613809e-07,0.00015731334113589776
PART_002_R214G39B40A255,7832,-0.0001163249,3.839187e-05,3.839467e-05,1.772536e-05,8.119185e-09,-5.843242e-08,0.00015773486531589747
PART_003_R247G182B210A255,7833,-0.0001744874,5.760718e-05,5.755069e-05,1.452033e-05,2.03899e-09,1.261996e-07,0.00023342526421766895
PART_003_R247G182B210A255,7834,-0.0001744874,5.758088e-05,5.758847e-05,1.331918e-05,-2.039926e-08,3.183523e-07,0.0002332165410055193
PART_003_R247G182B210A255,7835,-0.0001744874,5.757014e-05,5.758388e-05,1.24938e-05,8.08468e-09,4.059891e-07,0.00023307224271262527
PART_001_R158G218B229A255,7836,-0.0001744874,5.758402e-05,5.756876e-05,1.198339e-05,2.168103e-09,3.623544e-07,0.0002329909904432502
PART_001_R158G218B229A255,7837,-0.0001744874,5.75839e-05,5.757104e-05,1.170197e-05,1.758357e-09,2.069264e-07,0.00023294857969662492
PART_001_R158G218B229A255,7838,-0.0001744874,5.758477e-05,5.756669e-05,1.161084e-05,5.420864e-15,1.866999e-14,0.00023293289026472518
PART_001_R158G218B229A255,7839,-0.0001744874,5.75839e-05,5.757104e-05,1.170197e-05,-1.758346e-09,-2.069264e-07,0.00023294857969662465
PART_001_R158G218B229A255,7840,-0.0001744874,5.758402e-05,5.756876e-05,1.198339e-05,-2.168095e-09,-3.623544e-07,0.00023299099044325
PART_001_R158G218B229A255,7841,-0.0001744874,5.757014e-05,5.758388e-05,1.24938e-05,-8.084674e-09,-4.059891e-07,0.00023307224271262465
PART_002_R214G39B40A255,7842,-0.0001744874,5.758088e-05,5.758847e-05,1.331918e-05,2.039926e-08,-3.183522e-07,0.00023321654100510978
PART_002_R214G39B40A255,7843,-0.0001744874,5.760718e-05,5.755069e-05,1.452033e-05,-2.03899e-09,-1.261996e-07,0.00023342526421766895
PART_003_R247G182B210A255,7844,-0.0002326499,7.67808e-05,7.680229e-05,9.932605e-06,-1.913653e-08,2.312779e-07,0.00030991956976501595
PART_003_R247G182B210A255,7845,-0.0002326499,7.676343e-05,7.677197e-05,8.856098e-06,1.865026e-08,6.334121e-07,0.00030979952765615605
PART_001_R158G218B229A255,7846,-0.0002326499,7.677924e-05,7.675445e-05,8.266722e-06,1.333239e-08,7.743507e-07,0.00030975076757847845
PART_001_R158G218B229A255,7847,-0.0002326499,7.678482e-05,7.675493e-05,7.924963e-06,3.917311e-09,6.407629e-07,0.0003097260801483818
PART_001_R158G218B229A255,7848,-0.0002326499,7.677963e-05,7.675461e-05,7.736566e-06,3.268403e-09,3.580884e-07,0.00030970766992367463
PART_001_R158G218B229A255,7849,-0.0002326499,7.678717e-05,7.675329e-05,7.679059e-06,3.704445e-15,2.489797e-14,0.0003097058629594928
PART_001_R158G218B229A255,7850,-0.0002326499,7.677963e-05,7.675461e-05,7.736566e-06,-3.268397e-09,-3.580884e-07,0.0003097076699236744
PART_001_R158G218B229A255,7851,-0.0002326499,7.678482e-05,7.675493e-05,7.924963e-06,-3.917305e-09,-6.407629e-07,0.0003097260801483816
PART_001_R158G218B229A255,7852,-0.0002326499,7.677924e-05,7.675445e-05,8.266722e-06,-1.333239e-08,-7.743507e-07,0.00030975076757847845
PART_001_R158G218B229A255,7853,-0.0002326499,7.676343e-05,7.677197e-05,8.856098e-06,-1.865026e-08,-6.334121e-07,0.00030979952765615605
PART_002_R214G39B40A255,7854,-0.0002326499,7.67808e-05,7.680229e-05,9.932605e-06,1.913653e-08,-2.312779e-07,0.00030991956976501595
PART_003_R247G182B210A255,7855,-0.0002908123,9.602538e-05,9.587975e-05,3.648021e-06,2.94452e-08,6.234949e-07,0.00038681800593421274
PART_001_R158G218B229A255,7856,-0.0002908124,9.597026e-05,9.592765e-05,3.134943e-06,1.813008e-08,1.347983e-06,0.0003868065186195666
PART_001_R158G218B229A255,7857,-0.0002908123,9.599782e-05,9.592632e-05,2.93875e-06,3.54848e-09,1.372503e-06,0.00038681517189609045
PART_001_R158G218B229A255,7858,-0.0002908124,9.597295e-05,9.594172e-05,2.809206e-06,4.239261e-09,1.070266e-06,0.0003868047828302444
PART_001_R158G218B229A255,7859,-0.0002908123,9.598947e-05,9.593656e-05,2.747208e-06,5.972622e-10,5.776148e-07,0.0003868058799526938
PART_001_R158G218B229A255,7860,-0.0002908124,9.597382e-05,9.594413e-05,2.724423e-06,1.242037e-15,3.116968e-14,0.0003868001610942807
PART_001_R158G218B229A255,7861,-0.0002908123,9.598947e-05,9.593656e-05,2.747208e-06,-5.972601e-10,-5.776147e-07,0.00038680587995224583
PART_001_R158G218B229A255,7862,-0.0002908124,9.597295e-05,9.594172e-05,2.809206e-06,-4.239259e-09,-1.070266e-06,0.0003868047828302443
PART_001_R158G218B229A255,7863,-0.0002908123,9.599782e-05,9.592632e-05,2.93875e-06,-3.548479e-09,-1.372503e-06,0.0003868151718960904
PART_001_R158G218B229A255,7864,-0.0002908124,9.597026e-05,9.592765e-05,3.134943e-06,-1.813008e-08,-1.347983e-06,0.0003868065186195666
PART_001_R158G218B229A255,7865,-0.0002908123,9.602538e-05,9.587975e-05,3.648021e-06,-2.94452e-08,-6.234949e-07,0.00038681800593421274
PART_003_R247G182B210A255,7866,0.0002862684,-9.452498e-05,-9.438166e-05,3.64802e-06,2.898462e-08,-6.234947e-07,0.00038077570352142186
PART_000_R31G119B180A255,7867,0.0002862684,-9.447072e-05,-9.442876e-05,3.134944e-06,1.78471e-08,-1.347984e-06,0.00038076402036607906
PART_000_R31G119B180A255,7868,0.0002862684,-9.449786e-05,-9.442749e-05,2.93875e-06,3.492844e-09,-1.372503e-06,0.0003807725243099227
PART_000_R31G119B180A255,7869,0.0002862684,-9.447337e-05,-9.444261e-05,2.809206e-06,4.173138e-09,-1.070267e-06,0.00038076199407729197
PART_000_R31G119B180A255,7870,0.0002862684,-9.448964e-05,-9.443757e-05,2.747208e-06,5.878768e-10,-5.776145e-07,0.0003807630549787336
PART_000_R31G119B180A255,7871,0.0002862684,-9.447423e-05,-9.444498e-05,2.724423e-06,1.751617e-15,-3.380062e-14,0.0003807572479612183
PART_000_R31G119B180A255,7872,0.0002862684,-9.448964e-05,-9.443757e-05,2.747208e-06,-5.87873e-10,5.776145e-07,0.0003807630549787336
PART_000_R31G119B180A255,7873,0.0002862684,-9.447337e-05,-9.444261e-05,2.809206e-06,-4.173136e-09,1.070267e-06,0.0003807619940772919
PART_000_R31G119B180A255,7874,0.0002862684,-9.449786e-05,-9.442749e-05,2.93875e-06,-3.492841e-09,1.372503e-06,0.00038077252430992266
PART_000_R31G119B180A255,7875,0.0002862684,-9.447072e-05,-9.442876e-05,3.134943e-06,-1.78471e-08,1.347983e-06,0.0003807640203307586
PART_000_R31G119B180A255,7876,0.0002862684,-9.452498e-05,-9.438166e-05,3.64802e-06,-2.898462e-08,6.234947e-07,0.00038077570352142186
PART_003_R247G182B210A255,7877,0.0002290147,-7.55811e-05,-7.560228e-05,9.932606e-06,-1.88374e-08,-2.312777e-07,0.0003050920921357953
PART_003_R247G182B210A255,7878,0.0002290147,-7.5564e-05,-7.557239e-05,8.856098e-06,1.835885e-08,-6.334126e-07,0.00030497087736444537
PART_000_R31G119B180A255,7879,0.0002290147,-7.557957e-05,-7.555518e-05,8.266722e-06,1.312406e-08,-7.743502e-07,0.00030492139365212656
PART_000_R31G119B180A255,7880,0.0002290147,-7.558506e-05,-7.555562e-05,7.924963e-06,3.856116e-09,-6.407633e-07,0.0003048962022310539
PART_000_R31G119B180A255,7881,0.0002290147,-7.557995e-05,-7.555534e-05,7.736566e-06,3.217329e-09,-3.580882e-07,0.00030487760398705205
PART_000_R31G119B180A255,7882,0.0002290147,-7.558737e-05,-7.5554e-05,7.679059e-06,5.457771e-15,-2.801711e-14,0.0003048756491295137
PART_000_R31G119B180A255,7883,0.0002290147,-7.557995e-05,-7.555534e-05,7.736566e-06,-3.217319e-09,3.580882e-07,0.0003048776039870517
PART_000_R31G119B180A255,7884,0.0002290147,-7.558506e-05,-7.555562e-05,7.924963e-06,-3.856107e-09,6.407633e-07,0.00030489620223105355
PART_000_R31G119B180A255,7885,0.0002290147,-7.557957e-05,-7.555518e-05,8.266722e-06,-1.312406e-08,7.743502e-07,0.00030492139365212656
PART_000_R31G119B180A255,7886,0.0002290147,-7.5564e-05,-7.557239e-05,8.856098e-06,-1.835884e-08,6.334126e-07,0.0003049708773644435
PART_002_R214G39B40A255,7887,0.0002290147,-7.55811e-05,-7.560228e-05,9.932606e-06,1.88374e-08,2.312777e-07,0.0003050920921357953
PART_003_R247G182B210A255,7888,0.000171761,-5.670707e-05,-5.665148e-05,1.452033e-05,2.007069e-09,-1.261995e-07,0.00022982064594094845
PART_003_R247G182B210A255,7889,0.000171761,-5.668118e-05,-5.668863e-05,1.331918e-05,-2.008055e-08,-3.183526e-07,0.0002296084460017365
PART_003_R247G182B210A255,7890,0.000171761,-5.667061e-05,-5.668415e-05,1.24938e-05,7.958381e-09,-4.059887e-07,0.0002294621393178495
PART_000_R31G119B180A255,7891,0.000171761,-5.668427e-05,-5.666923e-05,1.198339e-05,2.134214e-09,-3.623548e-07,0.0002293796081151458
PART_000_R31G119B180A255,7892,0.000171761,-5.668416e-05,-5.667151e-05,1.170197e-05,1.730893e-09,-2.069262e-07,0.00022933651742834481
PART_000_R31G119B180A255,7893,0.000171761,-5.6685e-05,-5.666719e-05,1.161084e-05,8.324788e-15,-2.167628e-14,0.00022932060837712099
PART_000_R31G119B180A255,7894,0.000171761,-5.668416e-05,-5.667151e-05,1.170197e-05,-1.730876e-09,2.069262e-07,0.00022933651742834443
PART_000_R31G119B180A255,7895,0.000171761,-5.668427e-05,-5.666923e-05,1.198339e-05,-2.134201e-09,3.623547e-07,0.0002293796081146715
PART_000_R31G119B180A255,7896,0.000171761,-5.667061e-05,-5.668415e-05,1.24938e-05,-7.958371e-09,4.059887e-07,0.00022946213931784848
PART_002_R214G39B40A255,7897,0.000171761,-5.668118e-05,-5.668863e-05,1.331918e-05,2.008056e-08,3.183526e-07,0.00022960844600173914
PART_002_R214G39B40A255,7898,0.000171761,-5.670707e-05,-5.665148e-05,1.452033e-05,-2.007067e-09,1.261995e-07,0.0002298206459409484
PART_003_R247G182B210A255,7899,0.0001145074,-3.779199e-05,-3.779477e-05,1.772536e-05,-7.992271e-09,-5.84323e-08,0.0001553644206065975
PART_003_R247G182B210A255,7900,0.0001145074,-3.779151e-05,-3.778001e-05,1.645285e-05,6.42211e-10,-1.613811e-07,0.0001549366762072693
PART_003_R247G182B210A255,7901,0.0001145074,-3.778712e-05,-3.778777e-05,1.553576e-05,-1.523397e-08,-2.068037e-07,0.00015465422182971993
PART_003_R247G182B210A255,7902,0.0001145074,-3.778138e-05,-3.778888e-05,1.492193e-05,2.358888e-09,-1.868184e-07,0.00015447042254360506
PART_000_R31G119B180A255,7903,0.0001145074,-3.778942e-05,-3.777965e-05,1.457597e-05,-2.309089e-09,-1.104242e-07,0.0001543704856456185
PART_000_R31G119B180A255,7904,0.0001145074,-3.778667e-05,-3.778372e-05,1.446381e-05,1.123304e-14,-1.476111e-14,0.00015433936600073618
PART_000_R31G119B180A255,7905,0.0001145074,-3.778942e-05,-3.777965e-05,1.457597e-05,2.309109e-09,1.104242e-07,0.0001543704856456194
PART_000_R31G119B180A255,7906,0.0001145074,-3.778138e-05,-3.778888e-05,1.492193e-05,-2.35887e-09,1.868184e-07,0.00015447042254360422
PART_002_R214G39B40A255,7907,0.0001145074,-3.778712e-05,-3.778777e-05,1.553576e-05,1.523398e-08,2.068036e-07,0.00015465422182932173
PART_002_R214G39B40A255,7908,0.0001145074,-3.779151e-05,-3.778001e-05,1.645285e-05,-6.422031e-10,1.613811e-07,0.0001549366762072692
PART_002_R214G39B40A255,7909,0.0001145074,-3.779199e-05,-3.779477e-05,1.772536e-05,7.992274e-09,5.84323e-08,0.00015536442060659796
PART_003_R247G182B210A255,7910,5.725368e-05,-1.890137e-05,-1.88857e-05,1.962261e-05,-1.056437e-09,-2.573124e-08,8.338789477911355e-05
PART_003_R247G182B210A255,7911,5.725368e-05,-1.889415e-05,-1.889623e-05,1.832412e-05,-1.546007e-08,-6.6423e-08,8.249839077176585e-05
PART_003_R247G182B210A255,7912,5.725368e-05,-1.889215e-05,-1.889332e-05,1.735703e-05,-1.075815e-09,-8.711305e-08,8.186634692695268e-05
PART_003_R247G182B210A255,7913,5.725368e-05,-1.889378e-05,-1.88922e-05,1.66989e-05,-1.201524e-08,-7.935253e-08,8.145486149494841e-05
PART_003_R247G182B210A255,7914,5.725368e-05,-1.889104e-05,-1.889412e-05,1.631658e-05,2.069451e-10,-4.67357e-08,8.122162163240182e-05
PART_000_R31G119B180A255,7915,5.725368e-05,-1.889467e-05,-1.888986e-05,1.619261e-05,1.246315e-14,-7.463269e-15,8.114682256953381e-05
PART_000_R31G119B180A255,7916,5.725368e-05,-1.889104e-05,-1.889412e-05,1.631658e-05,-2.069206e-10,4.673568e-08,8.122162163236711e-05
PART_002_R214G39B40A255,7917,5.725368e-05,-1.889378e-05,-1.88922e-05,1.66989e-05,1.201526e-08,7.935252e-08,8.145486149492804e-05
PART_002_R214G39B40A255,7918,5.725368e-05,-1.889215e-05,-1.889332e-05,1.735703e-05,1.075832e-09,8.711304e-08,8.186634692692143e-05
PART_002_R214G39B40A255,7919,5.725368e-05,-1.889415e-05,-1.889623e-05,1.832412e-05,1.546008e-08,6.6423e-08,8.249839077177148e-05
PART_002_R214G39B40A255,7920,5.725368e-05,-1.890137e-05,-1.88857e-05,1.962261e-05,1.056441e-09,2.573124e-08,8.338789477911371e-05
PART_003_R247G182B210A255,7921,6.641801e-14,-2.271794e-14,-2.463217e-14,2.025233e-05,-6.211514e-09,-9.642792e-17,3.507806618152458e-05
PART_003_R247G182B210A255,7922,6.488495e-14,-3.074624e-14,-1.733429e-14,1.894418e-05,-2.614799e-09,-9.565712e-17,3.281228258028876e-05
PART_003_R247G182B210A255,7923,7.095138e-14,-4.134887e-14,-2.411786e-14,1.796588e-05,-1.65311e-08,-1.661252e-16,3.111783013571161e-05
PART_003_R247G182B210A255,7924,7.078008e-14,-4.976575e-14,-1.721707e-14,1.72913e-05,-1.014058e-09,-1.350103e-16,2.994941018041826e-05
PART_003_R247G182B210A255,7925,7.480518e-14,-5.459522e-14,-2.387929e-14,1.690023e-05,-6.867866e-09,-1.336872e-16,2.9272059436627454e-05
PART_003_R247G182B210A255,7926,7.269326e-14,-5.596218e-14,-1.716148e-14,1.677111e-05,1.325117e-14,1.093562e-17,2.9048414619326475e-05
PART_002_R214G39B40A255,7927,7.482795e-14,-5.458828e-14,-2.390837e-14,1.690023e-05,6.867891e-09,1.141822e-16,2.927205943664505e-05
PART_002_R214G39B40A255,7928,7.113516e-14,-5.099393e-14,-1.71873e-14,1.72913e-05,1.01408e-09,1.743029e-16,2.9949410180420497e-05
PART_002_R214G39B40A255,7929,7.207744e-14,-4.506812e-14,-2.4048e-14,1.796588e-05,1.653112e-08,1.821417e-16,3.1117830135743485e-05
PART_002_R214G39B40A255,7930,6.705921e-14,-3.80182e-14,-1.729234e-14,1.894418e-05,2.61481e-09,1.420703e-16,3.281228258029139e-05
PART_002_R214G39B40A255,7931,6.929234e-14,-3.250872e-14,-2.459201e-14,2.025233e-05,6.211518e-09,3.79979e-18,3.507806618152671e-05
PART_003_R247G182B210A255,7932,-5.725368e-05,1.890137e-05,1.88857e-05,1.962261e-05,-1.056437e-09,2.573124e-08,8.338789477911355e-05
PART_003_R247G182B210A255,7933,-5.725368e-05,1.889415e-05,1.889623e-05,1.832412e-05,-1.546007e-08,6.6423e-08,8.249839077176585e-05
PART_003_R247G182B210A255,7934,-5.725368e-05,1.889215e-05,1.889332e-05,1.735703e-05,-1.075815e-09,8.711304e-08,8.186634692692076e-05
PART_003_R247G182B210A255,7935,-5.725368e-05,1.889378e-05,1.88922e-05,1.66989e-05,-1.201524e-08,7.935253e-08,8.145486149494841e-05
PART_003_R247G182B210A255,7936,-5.725368e-05,1.889104e-05,1.889412e-05,1.631658e-05,2.06945e-10,4.67357e-08,8.122162163240182e-05
PART_001_R158G218B229A255,7937,-5.725368e-05,1.889467e-05,1.888986e-05,1.619261e-05,1.253186e-14,7.484061e-15,8.114682256953381e-05
PART_001_R158G218B229A255,7938,-5.725368e-05,1.889104e-05,1.889412e-05,1.631658e-05,-2.069206e-10,-4.673568e-08,8.122162163236711e-05
PART_002_R214G39B40A255,7939,-5.725368e-05,1.889378e-05,1.88922e-05,1.66989e-05,1.201526e-08,-7.935252e-08,8.145486149492804e-05
PART_002_R214G39B40A255,7940,-5.725368e-05,1.889215e-05,1.889332e-05,1.735703e-05,1.075831e-09,-8.711303e-08,8.186634692688947e-05
PART_002_R214G39B40A255,7941,-5.725368e-05,1.889415e-05,1.889623e-05,1.832412e-05,1.546008e-08,-6.642299e-08,8.249839077174731e-05
PART_002_R214G39B40A255,7942,-5.725368e-05,1.890137e-05,1.88857e-05,1.962261e-05,1.056441e-09,-2.573124e-08,8.338789477911371e-05
PART_003_R247G182B210A255,7943,-0.0001145074,3.779199e-05,3.779477e-05,1.772536e-05,-7.992271e-09,5.84323e-08,0.0001553644206065975
PART_003_R247G182B210A255,7944,-0.0001145074,3.779151e-05,3.778001e-05,1.645285e-05,6.422111e-10,1.613811e-07,0.0001549366762072693
PART_003_R247G182B210A255,7945,-0.0001145074,3.778712e-05,3.778777e-05,1.553576e-05,-1.523397e-08,2.068036e-07,0.00015465422182931878
PART_003_R247G182B210A255,7946,-0.0001145074,3.778138e-05,3.778888e-05,1.492193e-05,2.358888e-09,1.868184e-07,0.00015447042254360506
PART_001_R158G218B229A255,7947,-0.0001145074,3.778942e-05,3.777965e-05,1.457597e-05,-2.309089e-09,1.104242e-07,0.0001543704856456185
PART_001_R158G218B229A255,7948,-0.0001145074,3.778667e-05,3.778372e-05,1.446381e-05,1.126789e-14,1.483443e-14,0.00015433936600073618
PART_001_R158G218B229A255,7949,-0.0001145074,3.778942e-05,3.777965e-05,1.457597e-05,2.309109e-09,-1.104242e-07,0.0001543704856456194
PART_001_R158G218B229A255,7950,-0.0001145074,3.778138e-05,3.778888e-05,1.492193e-05,-2.35887e-09,-1.868184e-07,0.00015447042254360422
PART_002_R214G39B40A255,7951,-0.0001145074,3.778712e-05,3.778777e-05,1.553576e-05,1.523398e-08,-2.068036e-07,0.00015465422182932173
PART_002_R214G39B40A255,7952,-0.0001145074,3.779151e-05,3.778001e-05,1.645285e-05,-6.42203e-10,-1.613811e-07,0.0001549366762072692
PART_002_R214G39B40A255,7953,-0.0001145074,3.779199e-05,3.779477e-05,1.772536e-05,7.992274e-09,-5.84323e-08,0.00015536442060659796
PART_003_R247G182B210A255,7954,-0.000171761,5.670707e-05,5.665148e-05,1.452033e-05,2.007069e-09,1.261995e-07,0.00022982064594094845
PART_003_R247G182B210A255,7955,-0.000171761,5.668118e-05,5.668863e-05,1.331918e-05,-2.008055e-08,3.183526e-07,0.0002296084460017365
PART_003_R247G182B210A255,7956,-0.000171761,5.667061e-05,5.668415e-05,1.24938e-05,7.958381e-09,4.059887e-07,0.0002294621393178495
PART_001_R158G218B229A255,7957,-0.000171761,5.668427e-05,5.666923e-05,1.198339e-05,2.134214e-09,3.623548e-07,0.0002293796081151458
PART_001_R158G218B229A255,7958,-0.000171761,5.668416e-05,5.667151e-05,1.170197e-05,1.730893e-09,2.069262e-07,0.00022933651742834481
PART_001_R158G218B229A255,7959,-0.000171761,5.6685e-05,5.666719e-05,1.161084e-05,8.382591e-15,2.1962e-14,0.00022932060837712099
PART_001_R158G218B229A255,7960,-0.000171761,5.668416e-05,5.667151e-05,1.170197e-05,-1.730876e-09,-2.069262e-07,0.00022933651742834443
PART_001_R158G218B229A255,7961,-0.000171761,5.668427e-05,5.666923e-05,1.198339e-05,-2.134201e-09,-3.623547e-07,0.0002293796081146715
PART_001_R158G218B229A255,7962,-0.000171761,5.667061e-05,5.668415e-05,1.24938e-05,-7.958371e-09,-4.059887e-07,0.00022946213931784848
PART_002_R214G39B40A255,7963,-0.000171761,5.668118e-05,5.668863e-05,1.331918e-05,2.008056e-08,-3.183526e-07,0.00022960844600173914
PART_002_R214G39B40A255,7964,-0.000171761,5.670707e-05,5.665148e-05,1.452033e-05,-2.007067e-09,-1.261995e-07,0.0002298206459409484
PART_003_R247G182B210A255,7965,-0.0002290147,7.55811e-05,7.560228e-05,9.932606e-06,-1.88374e-08,2.312777e-07,0.0003050920921357953
PART_003_R247G182B210A255,7966,-0.0002290147,7.5564e-05,7.557239e-05,8.856098e-06,1.835885e-08,6.334126e-07,0.00030497087736444537
PART_001_R158G218B229A255,7967,-0.0002290147,7.557957e-05,7.555518e-05,8.266722e-06,1.312406e-08,7.743502e-07,0.00030492139365212656
PART_001_R158G218B229A255,7968,-0.0002290147,7.558506e-05,7.555562e-05,7.924963e-06,3.856116e-09,6.407633e-07,0.0003048962022310539
PART_001_R158G218B229A255,7969,-0.0002290147,7.557995e-05,7.555534e-05,7.736566e-06,3.217329e-09,3.580882e-07,0.00030487760398705205
PART_001_R158G218B229A255,7970,-0.0002290147,7.558737e-05,7.5554e-05,7.679059e-06,5.524686e-15,2.832527e-14,0.0003048756491295137
PART_001_R158G218B229A255,7971,-0.0002290147,7.557995e-05,7.555534e-05,7.736566e-06,-3.21732e-09,-3.580882e-07,0.0003048776039870517
PART_001_R158G218B229A255,7972,-0.0002290147,7.558506e-05,7.555562e-05,7.924963e-06,-3.856107e-09,-6.407633e-07,0.00030489620223105355
PART_001_R158G218B229A255,7973,-0.0002290147,7.557957e-05,7.555518e-05,8.266722e-06,-1.312406e-08,-7.743502e-07,0.00030492139365212656
PART_001_R158G218B229A255,7974,-0.0002290147,7.5564e-05,7.557239e-05,8.856098e-06,-1.835884e-08,-6.334126e-07,0.0003049708773644435
PART_002_R214G39B40A255,7975,-0.0002290147,7.55811e-05,7.560228e-05,9.932606e-06,1.88374e-08,-2.312777e-07,0.0003050920921357953
PART_003_R247G182B210A255,7976,-0.0002862684,9.452498e-05,9.438166e-05,3.64802e-06,2.898462e-08,6.234947e-07,0.00038077570352142186
PART_001_R158G218B229A255,7977,-0.0002862684,9.447072e-05,9.442876e-05,3.134944e-06,1.78471e-08,1.347984e-06,0.00038076402036607906
PART_001_R158G218B229A255,7978,-0.0002862684,9.449786e-05,9.442749e-05,2.93875e-06,3.492845e-09,1.372503e-06,0.00038077252430992277
PART_001_R158G218B229A255,7979,-0.0002862684,9.447337e-05,9.444261e-05,2.809206e-06,4.173137e-09,1.070267e-06,0.0003807619940772919
PART_001_R158G218B229A255,7980,-0.0002862684,9.448964e-05,9.443757e-05,2.747208e-06,5.87877e-10,5.776145e-07,0.0003807630549787336
PART_001_R158G218B229A255,7981,-0.0002862684,9.447423e-05,9.444498e-05,2.724423e-06,1.804026e-15,3.389566e-14,0.0003807572479612183
PART_001_R158G218B229A255,7982,-0.0002862684,9.448964e-05,9.443757e-05,2.747208e-06,-5.878733e-10,-5.776145e-07,0.0003807630549787336
PART_001_R158G218B229A255,7983,-0.0002862684,9.447337e-05,9.444261e-05,2.809206e-06,-4.173135e-09,-1.070267e-06,0.00038076199407729186
PART_001_R158G218B229A255,7984,-0.0002862684,9.449786e-05,9.442749e-05,2.93875e-06,-3.492843e-09,-1.372503e-06,0.0003807725243099227
PART_001_R158G218B229A255,7985,-0.0002862684,9.447072e-05,9.442876e-05,3.134944e-06,-1.784709e-08,-1.347983e-06,0.0003807640203554571
PART_001_R158G218B229A255,7986,-0.0002862684,9.452498e-05,9.438166e-05,3.64802e-06,-2.898462e-08,-6.234947e-07,0.00038077570352142186
PART_003_R247G182B210A255,7987,0.0002817245,-9.302459e-05,-9.288352e-05,3.648021e-06,2.852495e-08,-6.234949e-07,0.00037473340837558815
PART_000_R31G119B180A255,7988,0.0002817245,-9.297119e-05,-9.292991e-05,3.134943e-06,1.756357e-08,-1.347983e-06,0.00037472167014107003
PART_000_R31G119B180A255,7989,0.0002817245,-9.299789e-05,-9.292863e-05,2.93875e-06,3.43756e-09,-1.372503e-06,0.00037472987761202247
PART_000_R31G119B180A255,7990,0.0002817245,-9.297379e-05,-9.294354e-05,2.809206e-06,4.106805e-09,-1.070266e-06,0.00037471934323476713
PART_000_R31G119B180A255,7991,0.0002817245,-9.29898e-05,-9.293854e-05,2.747208e-06,5.785907e-10,-5.776147e-07,0.00037472022065759234
PART_000_R31G119B180A255,7992,0.0002817245,-9.297464e-05,-9.294587e-05,2.724423e-06,2.877858e-15,-3.72664e-14,0.0003747144695528096
PART_000_R31G119B180A255,7993,0.0002817245,-9.29898e-05,-9.293854e-05,2.747208e-06,-5.785855e-10,5.776146e-07,0.0003747202206571299
PART_000_R31G119B180A255,7994,0.0002817245,-9.297379e-05,-9.294354e-05,2.809206e-06,-4.106801e-09,1.070266e-06,0.000374719343234767
PART_000_R31G119B180A255,7995,0.0002817245,-9.299789e-05,-9.292863e-05,2.93875e-06,-3.437558e-09,1.372503e-06,0.00037472987761202236
PART_000_R31G119B180A255,7996,0.0002817245,-9.297119e-05,-9.292991e-05,3.134943e-06,-1.756357e-08,1.347983e-06,0.00037472167014107003
PART_000_R31G119B180A255,7997,0.0002817245,-9.302459e-05,-9.288352e-05,3.648021e-06,-2.852495e-08,6.234949e-07,0.00037473340837558815
PART_003_R247G182B210A255,7998,0.0002253796,-7.43814e-05,-7.440222e-05,9.932605e-06,-1.853849e-08,-2.312779e-07,0.0003002649330244516
PART_003_R247G182B210A255,7999,0.0002253796,-7.436457e-05,-7.437285e-05,8.856098e-06,1.806744e-08,-6.334122e-07,0.00030014254184799295
PART_000_R31G119B180A255,8000,0.0002253796,-7.437989e-05,-7.435588e-05,8.266722e-06,1.291575e-08,-7.743506e-07,0.00030009227019546194
PART_000_R31G119B180A255,8001,0.0002253796,-7.43853e-05,-7.435634e-05,7.924963e-06,3.794901e-09,-6.40763e-07,0.00030006659562455807
PART_000_R31G119B180A255,8002,0.0002253796,-7.438026e-05,-7.435603e-05,7.736566e-06,3.166269e-09,-3.580884e-07,0.0003000477614402484
PART_000_R31G119B180A255,8003,0.0002253796,-7.438757e-05,-7.435475e-05,7.679059e-06,8.444942e-15,-3.200106e-14,0.0003000457011353743
PART_000_R31G119B180A255,8004,0.0002253796,-7.438026e-05,-7.435603e-05,7.736566e-06,-3.166254e-09,3.580883e-07,0.00030004776143988983
PART_000_R31G119B180A255,8005,0.0002253796,-7.43853e-05,-7.435634e-05,7.924963e-06,-3.794887e-09,6.407629e-07,0.00030006659562391687
PART_000_R31G119B180A255,8006,0.0002253796,-7.437989e-05,-7.435588e-05,8.266722e-06,-1.291575e-08,7.743506e-07,0.00030009227019546194
PART_000_R31G119B180A255,8007,0.0002253796,-7.436457e-05,-7.437285e-05,8.856098e-06,-1.806744e-08,6.334122e-07,0.00030014254184799295
PART_002_R214G39B40A255,8008,0.0002253796,-7.43814e-05,-7.440222e-05,9.932605e-06,1.853849e-08,2.312779e-07,0.0003002649330244516
PART_003_R247G182B210A255,8009,0.0001690347,-5.580696e-05,-5.575224e-05,1.452033e-05,1.975261e-09,-1.261996e-07,0.0002262167974993183
PART_003_R247G182B210A255,8010,0.0001690347,-5.578148e-05,-5.578882e-05,1.331918e-05,-1.976179e-08,-3.183523e-07,0.00022600104397589002
PART_003_R247G182B210A255,8011,0.0001690347,-5.577108e-05,-5.578438e-05,1.24938e-05,7.832042e-09,-4.05989e-07,0.00022585262583312907
PART_000_R31G119B180A255,8012,0.0001690347,-5.578452e-05,-5.576973e-05,1.198339e-05,2.100353e-09,-3.623545e-07,0.00022576881017348358
PART_000_R31G119B180A255,8013,0.0001690347,-5.578441e-05,-5.577195e-05,1.170197e-05,1.703416e-09,-2.069264e-07,0.00022572498288910274
PART_000_R31G119B180A255,8014,0.0001690347,-5.578524e-05,-5.576772e-05,1.161084e-05,1.275927e-14,-2.530407e-14,0.00022570888706411628
PART_000_R31G119B180A255,8015,0.0001690347,-5.578441e-05,-5.577195e-05,1.170197e-05,-1.703392e-09,2.069263e-07,0.0002257249828888272
PART_000_R31G119B180A255,8016,0.0001690347,-5.578452e-05,-5.576973e-05,1.198339e-05,-2.100333e-09,3.623545e-07,0.00022576881017348304
PART_000_R31G119B180A255,8017,0.0001690347,-5.577108e-05,-5.578438e-05,1.24938e-05,-7.832027e-09,4.05989e-07,0.0002258526258331275
PART_002_R214G39B40A255,8018,0.0001690347,-5.578148e-05,-5.578882e-05,1.331918e-05,1.976179e-08,3.183523e-07,0.00022600104397589002
PART_002_R214G39B40A255,8019,0.0001690347,-5.580696e-05,-5.575224e-05,1.452033e-05,-1.975259e-09,1.261996e-07,0.00022621679749931827
PART_003_R247G182B210A255,8020,0.0001126898,-3.719212e-05,-3.719484e-05,1.772536e-05,-7.86545e-09,-5.84324e-08,0.00015299533724636195
PART_003_R247G182B210A255,8021,0.0001126898,-3.719165e-05,-3.718034e-05,1.645285e-05,6.320026e-10,-1.613809e-07,0.00015256120402897173
PART_003_R247G182B210A255,8022,0.0001126898,-3.718732e-05,-3.718796e-05,1.553576e-05,-1.499215e-08,-2.068039e-07,0.0001522742772612842
PART_003_R247G182B210A255,8023,0.0001126898,-3.718168e-05,-3.718906e-05,1.492193e-05,2.321451e-09,-1.868182e-07,0.00015208768302344168
PART_000_R31G119B180A255,8024,0.0001126898,-3.718959e-05,-3.717997e-05,1.457597e-05,-2.272433e-09,-1.104243e-07,0.0001519861937808081
PART_000_R31G119B180A255,8025,0.0001126898,-3.718688e-05,-3.718398e-05,1.446381e-05,1.67606e-14,-1.753572e-14,0.00015195456548919056
PART_000_R31G119B180A255,8026,0.0001126898,-3.718959e-05,-3.717997e-05,1.457597e-05,2.272463e-09,1.104243e-07,0.00015198619378080944
PART_000_R31G119B180A255,8027,0.0001126898,-3.718168e-05,-3.718906e-05,1.492193e-05,-2.321424e-09,1.868182e-07,0.00015208768302344043
PART_002_R214G39B40A255,8028,0.0001126898,-3.718732e-05,-3.718796e-05,1.553576e-05,1.499217e-08,2.068038e-07,0.00015227427726088267
PART_002_R214G39B40A255,8029,0.0001126898,-3.719165e-05,-3.718034e-05,1.645285e-05,-6.319897e-10,1.613809e-07,0.00015256120402897157
PART_002_R214G39B40A255,8030,0.0001126898,-3.719212e-05,-3.719484e-05,1.772536e-05,7.865454e-09,5.84324e-08,0.00015299533724636254
PART_003_R247G182B210A255,8031,5.634489e-05,-1.860135e-05,-1.858592e-05,1.962261e-05,-1.039641e-09,-2.573127e-08,8.228563159454346e-05
PART_003_R247G182B210A255,8032,5.634489e-05,-1.859424e-05,-1.859629e-05,1.832412e-05,-1.521464e-08,-6.642291e-08,8.13840333625941e-05
PART_003_R247G182B210A255,8033,5.634489e-05,-1.859227e-05,-1.859342e-05,1.735703e-05,-1.058745e-09,-8.711315e-08,8.074333637304276e-05
PART_003_R247G182B210A255,8034,5.634489e-05,-1.859388e-05,-1.859232e-05,1.66989e-05,-1.182451e-08,-7.935245e-08,8.032609439395378e-05
PART_003_R247G182B210A255,8035,5.634489e-05,-1.859118e-05,-1.859421e-05,1.631658e-05,2.03664e-10,-4.673575e-08,8.008957831092958e-05
PART_000_R31G119B180A255,8036,5.634489e-05,-1.859476e-05,-1.859003e-05,1.619261e-05,1.890041e-14,-8.996242e-15,8.001373979378292e-05
PART_000_R31G119B180A255,8037,5.634489e-05,-1.859118e-05,-1.859421e-05,1.631658e-05,-2.03628e-10,4.673573e-08,8.00895783108943e-05
PART_002_R214G39B40A255,8038,5.634489e-05,-1.859388e-05,-1.859232e-05,1.66989e-05,1.182455e-08,7.935243e-08,8.032609439391218e-05
PART_002_R214G39B40A255,8039,5.634489e-05,-1.859227e-05,-1.859342e-05,1.735703e-05,1.058769e-09,8.711314e-08,8.074333637301135e-05
PART_002_R214G39B40A255,8040,5.634489e-05,-1.859424e-05,-1.859629e-05,1.832412e-05,1.521466e-08,6.64229e-08,8.138403336258084e-05
PART_002_R214G39B40A255,8041,5.634489e-05,-1.860135e-05,-1.858592e-05,1.962261e-05,1.039646e-09,2.573127e-08,8.228563159454365e-05
PART_003_R247G182B210A255,8042,5.920655e-14,-1.886685e-14,-1.638034e-14,2.025233e-05,-6.11295e-09,-8.117456e-17,3.50780661295798e-05
PART_003_R247G182B210A255,8043,6.031753e-14,-8.576473e-15,-2.48637e-14,1.894418e-05,-2.573308e-09,-5.006143e-16,3.281228257044825e-05
PART_003_R247G182B210A255,8044,5.241109e-14,4.496403e-15,-1.635105e-14,1.796588e-05,-1.62687e-08,-5.56139e-16,3.111782972083688e-05
PART_003_R247G182B210A255,8045,5.200235e-14,1.489087e-14,-2.423004e-14,1.72913e-05,-9.979514e-10,-4.544425e-16,2.9949410178795193e-05
PART_003_R247G182B210A255,8046,4.690996e-14,2.08375e-14,-1.636515e-14,1.690023e-05,-6.758849e-09,-2.135279e-16,2.9272059360503143e-05
PART_003_R247G182B210A255,8047,4.921649e-14,2.262773e-14,-2.409404e-14,1.677112e-05,1.998661e-14,-3.532498e-17,2.9048431939834554e-05
PART_002_R214G39B40A255,8048,4.678712e-14,2.113587e-14,-1.637994e-14,1.690023e-05,6.758886e-09,2.074464e-16,2.9272059360528768e-05
PART_002_R214G39B40A255,8049,5.13669e-14,1.661171e-14,-2.423064e-14,1.72913e-05,9.979846e-10,4.029912e-16,2.9949410178798513e-05
PART_002_R214G39B40A255,8050,5.072537e-14,9.277301e-15,-1.631748e-14,1.796588e-05,1.626873e-08,4.802152e-16,3.111782972088393e-05
PART_002_R214G39B40A255,8051,5.720999e-14,3.816392e-16,-2.473654e-14,1.894418e-05,2.573325e-09,4.251902e-16,3.281228257045225e-05
PART_002_R214G39B40A255,8052,5.511086e-14,-6.487866e-15,-1.634554e-14,2.025233e-05,6.112955e-09,2.295595e-16,3.507806612958241e-05
PART_003_R247G182B210A255,8053,-5.634489e-05,1.860135e-05,1.858592e-05,1.962261e-05,-1.039641e-09,2.573127e-08,8.228563159454346e-05
PART_003_R247G182B210A255,8054,-5.634489e-05,1.859424e-05,1.859629e-05,1.832412e-05,-1.521464e-08,6.642291e-08,8.13840333625941e-05
PART_003_R247G182B210A255,8055,-5.634489e-05,1.859227e-05,1.859342e-05,1.735703e-05,-1.058745e-09,8.711315e-08,8.074333637304276e-05
PART_003_R247G182B210A255,8056,-5.634489e-05,1.859388e-05,1.859232e-05,1.66989e-05,-1.182451e-08,7.935244e-08,8.032609439392416e-05
PART_003_R247G182B210A255,8057,-5.634489e-05,1.859118e-05,1.859421e-05,1.631658e-05,2.036641e-10,4.673575e-08,8.008957831092958e-05
PART_001_R158G218B229A255,8058,-5.634489e-05,1.859476e-05,1.859003e-05,1.619261e-05,1.881428e-14,8.913369e-15,8.001373979378292e-05
PART_001_R158G218B229A255,8059,-5.634489e-05,1.859118e-05,1.859421e-05,1.631658e-05,-2.03628e-10,-4.673573e-08,8.00895783108943e-05
PART_002_R214G39B40A255,8060,-5.634489e-05,1.859388e-05,1.859232e-05,1.66989e-05,1.182455e-08,-7.935243e-08,8.032609439391218e-05
PART_002_R214G39B40A255,8061,-5.634489e-05,1.859227e-05,1.859342e-05,1.735703e-05,1.058769e-09,-8.711314e-08,8.074333637301135e-05
PART_002_R214G39B40A255,8062,-5.634489e-05,1.859424e-05,1.859629e-05,1.832412e-05,1.521466e-08,-6.64229e-08,8.138403336258084e-05
PART_002_R214G39B40A255,8063,-5.634489e-05,1.860135e-05,1.858592e-05,1.962261e-05,1.039646e-09,-2.573127e-08,8.228563159454365e-05
PART_003_R247G182B210A255,8064,-0.0001126898,3.719212e-05,3.719484e-05,1.772536e-05,-7.86545e-09,5.84324e-08,0.00015299533724636195
PART_003_R247G182B210A255,8065,-0.0001126898,3.719165e-05,3.718034e-05,1.645285e-05,6.320025e-10,1.613809e-07,0.00015256120402897173
PART_003_R247G182B210A255,8066,-0.0001126898,3.718732e-05,3.718796e-05,1.553576e-05,-1.499215e-08,2.068039e-07,0.0001522742772612842
PART_003_R247G182B210A255,8067,-0.0001126898,3.718168e-05,3.718906e-05,1.492193e-05,2.321451e-09,1.868182e-07,0.00015208768302344168
PART_001_R158G218B229A255,8068,-0.0001126898,3.718959e-05,3.717997e-05,1.457597e-05,-2.272432e-09,1.104243e-07,0.00015198619378080806
PART_001_R158G218B229A255,8069,-0.0001126898,3.718688e-05,3.718398e-05,1.446381e-05,1.667251e-14,1.731775e-14,0.00015195456548919056
PART_001_R158G218B229A255,8070,-0.0001126898,3.718959e-05,3.717997e-05,1.457597e-05,2.272463e-09,-1.104243e-07,0.00015198619378080944
PART_001_R158G218B229A255,8071,-0.0001126898,3.718168e-05,3.718906e-05,1.492193e-05,-2.321424e-09,-1.868182e-07,0.00015208768302344043
PART_002_R214G39B40A255,8072,-0.0001126898,3.718732e-05,3.718796e-05,1.553576e-05,1.499217e-08,-2.068038e-07,0.00015227427726088267
PART_002_R214G39B40A255,8073,-0.0001126898,3.719165e-05,3.718034e-05,1.645285e-05,-6.319898e-10,-1.613809e-07,0.00015256120402897157
PART_002_R214G39B40A255,8074,-0.0001126898,3.719212e-05,3.719484e-05,1.772536e-05,7.865454e-09,-5.84324e-08,0.00015299533724636254
PART_003_R247G182B210A255,8075,-0.0001690347,5.580696e-05,5.575224e-05,1.452033e-05,1.975261e-09,1.261996e-07,0.0002262167974993183
PART_003_R247G182B210A255,8076,-0.0001690347,5.578148e-05,5.578882e-05,1.331918e-05,-1.976179e-08,3.183523e-07,0.00022600104397589002
PART_003_R247G182B210A255,8077,-0.0001690347,5.577108e-05,5.578438e-05,1.24938e-05,7.832042e-09,4.05989e-07,0.00022585262583312907
PART_001_R158G218B229A255,8078,-0.0001690347,5.578452e-05,5.576973e-05,1.198339e-05,2.100353e-09,3.623545e-07,0.00022576881017348358
PART_001_R158G218B229A255,8079,-0.0001690347,5.578441e-05,5.577195e-05,1.170197e-05,1.703416e-09,2.069264e-07,0.00022572498288910274
PART_001_R158G218B229A255,8080,-0.0001690347,5.578524e-05,5.576772e-05,1.161084e-05,1.266414e-14,2.488992e-14,0.00022570888706411628
PART_001_R158G218B229A255,8081,-0.0001690347,5.578441e-05,5.577195e-05,1.170197e-05,-1.703392e-09,-2.069263e-07,0.0002257249828888272
PART_001_R158G218B229A255,8082,-0.0001690347,5.578452e-05,5.576973e-05,1.198339e-05,-2.100333e-09,-3.623545e-07,0.00022576881017348304
PART_001_R158G218B229A255,8083,-0.0001690347,5.577108e-05,5.578438e-05,1.24938e-05,-7.832027e-09,-4.05989e-07,0.0002258526258331275
PART_002_R214G39B40A255,8084,-0.0001690347,5.578148e-05,5.578882e-05,1.331918e-05,1.976179e-08,-3.183523e-07,0.00022600104397589002
PART_002_R214G39B40A255,8085,-0.0001690347,5.580696e-05,5.575224e-05,1.452033e-05,-1.975259e-09,-1.261996e-07,0.00022621679749931827
PART_003_R247G182B210A255,8086,-0.0002253796,7.43814e-05,7.440222e-05,9.932605e-06,-1.853849e-08,2.312779e-07,0.0003002649330244516
PART_003_R247G182B210A255,8087,-0.0002253796,7.436457e-05,7.437285e-05,8.856098e-06,1.806744e-08,6.334122e-07,0.00030014254184799295
PART_001_R158G218B229A255,8088,-0.0002253796,7.437989e-05,7.435588e-05,8.266722e-06,1.291575e-08,7.743506e-07,0.00030009227019546194
PART_001_R158G218B229A255,8089,-0.0002253796,7.43853e-05,7.435634e-05,7.924963e-06,3.794901e-09,6.40763e-07,0.00030006659562455807
PART_001_R158G218B229A255,8090,-0.0002253796,7.438026e-05,7.435603e-05,7.736566e-06,3.166269e-09,3.580884e-07,0.0003000477614402484
PART_001_R158G218B229A255,8091,-0.0002253796,7.438757e-05,7.435475e-05,7.679059e-06,8.349255e-15,3.15898e-14,0.0003000457011353743
PART_001_R158G218B229A255,8092,-0.0002253796,7.438026e-05,7.435603e-05,7.736566e-06,-3.166254e-09,-3.580883e-07,0.00030004776143988983
PART_001_R158G218B229A255,8093,-0.0002253796,7.43853e-05,7.435634e-05,7.924963e-06,-3.794888e-09,-6.407629e-07,0.0003000665956239169
PART_001_R158G218B229A255,8094,-0.0002253796,7.437989e-05,7.435588e-05,8.266722e-06,-1.291575e-08,-7.743506e-07,0.00030009227019546194
PART_001_R158G218B229A255,8095,-0.0002253796,7.436457e-05,7.437285e-05,8.856098e-06,-1.806744e-08,-6.334122e-07,0.00030014254184799295
PART_002_R214G39B40A255,8096,-0.0002253796,7.43814e-05,7.440222e-05,9.932605e-06,1.853849e-08,-2.312779e-07,0.0003002649330244516
PART_003_R247G182B210A255,8097,-0.0002817245,9.302459e-05,9.288352e-05,3.648021e-06,2.852495e-08,6.234949e-07,0.00037473340837558815
PART_001_R158G218B229A255,8098,-0.0002817245,9.297119e-05,9.292991e-05,3.134943e-06,1.756357e-08,1.347983e-06,0.00037472167014107003
PART_001_R158G218B229A255,8099,-0.0002817245,9.299789e-05,9.292863e-05,2.93875e-06,3.437559e-09,1.372503e-06,0.0003747298776120224
PART_001_R158G218B229A255,8100,-0.0002817245,9.297379e-05,9.294354e-05,2.809206e-06,4.106805e-09,1.070266e-06,0.00037471934323476713
PART_001_R158G218B229A255,8101,-0.0002817245,9.29898e-05,9.293854e-05,2.747208e-06,5.785903e-10,5.776147e-07,0.00037472022065759234
PART_001_R158G218B229A255,8102,-0.0002817245,9.297464e-05,9.294587e-05,2.724423e-06,3.018221e-15,3.706342e-14,0.0003747144695528096
PART_001_R158G218B229A255,8103,-0.0002817245,9.29898e-05,9.293854e-05,2.747208e-06,-5.785853e-10,-5.776146e-07,0.0003747202206571299
PART_001_R158G218B229A255,8104,-0.0002817245,9.297379e-05,9.294354e-05,2.809206e-06,-4.106801e-09,-1.070266e-06,0.000374719343234767
PART_001_R158G218B229A255,8105,-0.0002817245,9.299789e-05,9.292863e-05,2.93875e-06,-3.437557e-09,-1.372503e-06,0.00037472987761202236
PART_001_R158G218B229A255,8106,-0.0002817245,9.297119e-05,9.292991e-05,3.134943e-06,-1.756357e-08,-1.347983e-06,0.00037472167014107003
PART_001_R158G218B229A255,8107,-0.0002817245,9.302459e-05,9.288352e-05,3.648021e-06,-2.852495e-08,-6.234949e-07,0.00037473340837558815
PART_003_R247G182B210A255,8108,0.0002771805,-9.152419e-05,-9.138541e-05,3.64802e-06,2.806454e-08,-6.234948e-07,0.00036869105169629436
PART_000_R31G119B180A255,8109,0.0002771805,-9.147165e-05,-9.143102e-05,3.134943e-06,1.728048e-08,-1.347983e-06,0.00036867921922282854
PART_000_R31G119B180A255,8110,0.0002771805,-9.149792e-05,-9.142979e-05,2.93875e-06,3.381988e-09,-1.372503e-06,0.00036868716283197975
PART_000_R31G119B180A255,8111,0.0002771805,-9.147421e-05,-9.144443e-05,2.809206e-06,4.040643e-09,-1.070267e-06,0.0003686765912465209
PART_000_R31G119B180A255,8112,0.0002771805,-9.148996e-05,-9.143955e-05,2.747208e-06,5.692239e-10,-5.776146e-07,0.00036867732275273907
PART_000_R31G119B180A255,8113,0.0002771805,-9.147505e-05,-9.144673e-05,2.724423e-06,3.976079e-15,-4.293863e-14,0.0003686715916160312
PART_000_R31G119B180A255,8114,0.0002771805,-9.148996e-05,-9.143955e-05,2.747208e-06,-5.692156e-10,5.776145e-07,0.000368677322752269
PART_000_R31G119B180A255,8115,0.0002771805,-9.147421e-05,-9.144443e-05,2.809206e-06,-4.040637e-09,1.070266e-06,0.00036867659123781166
PART_000_R31G119B180A255,8116,0.0002771805,-9.149792e-05,-9.142979e-05,2.93875e-06,-3.381983e-09,1.372503e-06,0.00036868716283197965
PART_000_R31G119B180A255,8117,0.0002771805,-9.147165e-05,-9.143102e-05,3.134943e-06,-1.728048e-08,1.347983e-06,0.00036867921922282854
PART_000_R31G119B180A255,8118,0.0002771805,-9.152419e-05,-9.138541e-05,3.64802e-06,-2.806454e-08,6.234947e-07,0.000368691051695787
PART_003_R247G182B210A255,8119,0.0002217444,-7.31817e-05,-7.32022e-05,9.932606e-06,-1.82394e-08,-2.312777e-07,0.0002954379500309911
PART_003_R247G182B210A255,8120,0.0002217444,-7.316514e-05,-7.317327e-05,8.856098e-06,1.777603e-08,-6.334126e-07,0.0002953142909876743
PART_000_R31G119B180A255,8121,0.0002217444,-7.318021e-05,-7.31566e-05,8.266722e-06,1.270743e-08,-7.743503e-07,0.00029526323575500496
PART_000_R31G119B180A255,8122,0.0002217444,-7.318553e-05,-7.315703e-05,7.924963e-06,3.733703e-09,-6.407633e-07,0.000295237033261997
PART_000_R31G119B180A255,8123,0.0002217444,-7.318058e-05,-7.315675e-05,7.736566e-06,3.115199e-09,-3.580883e-07,0.000295217994717155
PART_000_R31G119B180A255,8124,0.0002217444,-7.318777e-05,-7.315546e-05,7.679059e-06,1.199888e-14,-3.839187e-14,0.00029521578637974077
PART_000_R31G119B180A255,8125,0.0002217444,-7.318058e-05,-7.315675e-05,7.736566e-06,-3.115176e-09,3.580882e-07,0.0002952179947167904
PART_000_R31G119B180A255,8126,0.0002217444,-7.318553e-05,-7.315703e-05,7.924963e-06,-3.733684e-09,6.407632e-07,0.0002952370332613452
PART_000_R31G119B180A255,8127,0.0002217444,-7.318021e-05,-7.31566e-05,8.266722e-06,-1.270742e-08,7.743503e-07,0.00029526323575500366
PART_000_R31G119B180A255,8128,0.0002217444,-7.316514e-05,-7.317327e-05,8.856098e-06,-1.777602e-08,6.334125e-07,0.000295314290987029
PART_002_R214G39B40A255,8129,0.0002217444,-7.31817e-05,-7.32022e-05,9.932606e-06,1.82394e-08,2.312777e-07,0.0002954379500309911
PART_003_R247G182B210A255,8130,0.0001663083,-5.490684e-05,-5.485302e-05,1.452033e-05,1.943361e-09,-1.261995e-07,0.000222613573268063
PART_003_R247G182B210A255,8131,0.0001663083,-5.488178e-05,-5.488899e-05,1.331918e-05,-1.944306e-08,-3.183525e-07,0.00022239413924275301
PART_003_R247G182B210A255,8132,0.0001663083,-5.487154e-05,-5.488465e-05,1.24938e-05,7.705737e-09,-4.059888e-07,0.00022224356286779695
PART_000_R31G119B180A255,8133,0.0001663083,-5.488477e-05,-5.487021e-05,1.198339e-05,2.066471e-09,-3.623547e-07,0.00022215839547537323
PART_000_R31G119B180A255,8134,0.0001663083,-5.488466e-05,-5.487241e-05,1.170197e-05,1.675953e-09,-2.069263e-07,0.00022211382860914838
PART_000_R31G119B180A255,8135,0.0001663083,-5.488548e-05,-5.486823e-05,1.161084e-05,1.859531e-14,-3.125302e-14,0.00022209751874359762
PART_000_R31G119B180A255,8136,0.0001663083,-5.488466e-05,-5.487241e-05,1.170197e-05,-1.675917e-09,2.069262e-07,0.0002221138286088681
PART_000_R31G119B180A255,8137,0.0001663083,-5.488477e-05,-5.487021e-05,1.198339e-05,-2.066442e-09,3.623547e-07,0.00022215839547537244
PART_000_R31G119B180A255,8138,0.0001663083,-5.487154e-05,-5.488465e-05,1.24938e-05,-7.705715e-09,4.059887e-07,0.00022224356286724663
PART_002_R214G39B40A255,8139,0.0001663083,-5.488178e-05,-5.488899e-05,1.331918e-05,1.944308e-08,3.183525e-07,0.00022239413924275827
PART_002_R214G39B40A255,8140,0.0001663083,-5.490684e-05,-5.485302e-05,1.452033e-05,-1.943357e-09,1.261995e-07,0.0002226135732680629
PART_003_R247G182B210A255,8141,0.0001108722,-3.659225e-05,-3.659493e-05,1.772536e-05,-7.738553e-09,-5.843232e-08,0.00015062780224700675
PART_003_R247G182B210A255,8142,0.0001108722,-3.659178e-05,-3.658065e-05,1.645285e-05,6.218254e-10,-1.613811e-07,0.00015018705403371395
PART_003_R247G182B210A255,8143,0.0001108722,-3.658752e-05,-3.658816e-05,1.553576e-05,-1.475034e-08,-2.068037e-07,0.00014989553652284044
PART_003_R247G182B210A255,8144,0.0001108722,-3.658197e-05,-3.658923e-05,1.492193e-05,2.284014e-09,-1.868184e-07,0.0001497060437128017
PART_000_R31G119B180A255,8145,0.0001108722,-3.658975e-05,-3.65803e-05,1.457597e-05,-2.235772e-09,-1.104243e-07,0.00014960296311094352
PART_000_R31G119B180A255,8146,0.0001108722,-3.65871e-05,-3.658424e-05,1.446381e-05,2.424056e-14,-2.197876e-14,0.00014957081543610004
PART_000_R31G119B180A255,8147,0.0001108722,-3.658975e-05,-3.65803e-05,1.457597e-05,2.235817e-09,1.104242e-07,0.0001496029631107241
PART_000_R31G119B180A255,8148,0.0001108722,-3.658197e-05,-3.658923e-05,1.492193e-05,-2.283974e-09,1.868183e-07,0.00014970604371242552
PART_002_R214G39B40A255,8149,0.0001108722,-3.658752e-05,-3.658816e-05,1.553576e-05,1.475037e-08,2.068037e-07,0.0001498955365228493
PART_002_R214G39B40A255,8150,0.0001108722,-3.659178e-05,-3.658065e-05,1.645285e-05,-6.218072e-10,1.613811e-07,0.00015018705403371373
PART_002_R214G39B40A255,8151,0.0001108722,-3.659225e-05,-3.659493e-05,1.772536e-05,7.738559e-09,5.843232e-08,0.00015062780224700767
PART_003_R247G182B210A255,8152,5.54361e-05,-1.830133e-05,-1.828615e-05,1.962261e-05,-1.022893e-09,-2.573125e-08,8.118640242255356e-05
PART_003_R247G182B210A255,8153,5.54361e-05,-1.829433e-05,-1.829635e-05,1.832412e-05,-1.496926e-08,-6.642299e-08,8.027240669828043e-05
PART_003_R247G182B210A255,8154,5.54361e-05,-1.82924e-05,-1.829353e-05,1.735703e-05,-1.041654e-09,-8.711307e-08,7.96228438785668e-05
PART_003_R247G182B210A255,8155,5.54361e-05,-1.829398e-05,-1.829245e-05,1.66989e-05,-1.163379e-08,-7.935252e-08,7.919969048081818e-05
PART_003_R247G182B210A255,8156,5.54361e-05,-1.829133e-05,-1.829431e-05,1.631658e-05,2.003897e-10,-4.673571e-08,7.895981606181803e-05
PART_000_R31G119B180A255,8157,5.54361e-05,-1.829484e-05,-1.829019e-05,1.619261e-05,2.73539e-14,-1.137387e-14,7.888289131282778e-05
PART_000_R31G119B180A255,8158,5.54361e-05,-1.829133e-05,-1.829431e-05,1.631658e-05,-2.003365e-10,4.673569e-08,7.895981606178212e-05
PART_002_R214G39B40A255,8159,5.54361e-05,-1.829398e-05,-1.829245e-05,1.66989e-05,1.163384e-08,7.93525e-08,7.91996904807801e-05
PART_002_R214G39B40A255,8160,5.54361e-05,-1.82924e-05,-1.829353e-05,1.735703e-05,1.04169e-09,8.711305e-08,7.962284387850258e-05
PART_002_R214G39B40A255,8161,5.54361e-05,-1.829433e-05,-1.829635e-05,1.832412e-05,1.496928e-08,6.642298e-08,8.02724066982668e-05
PART_002_R214G39B40A255,8162,5.54361e-05,-1.830133e-05,-1.828615e-05,1.962261e-05,1.022901e-09,2.573125e-08,8.118640242255386e-05
PART_003_R247G182B210A255,8163,6.595581e-14,-2.241263e-14,-2.554377e-14,2.025233e-05,-6.014326e-09,-1.383467e-16,3.507806607843499e-05
PART_003_R247G182B210A255,8164,6.399005e-14,-3.446549e-14,-1.563083e-14,1.894418e-05,-2.531786e-09,-9.391647e-17,3.281228256075796e-05
PART_003_R247G182B210A255,8165,7.280591e-14,-5.076495e-14,-2.484304e-14,1.796588e-05,-1.60063e-08,-1.114378e-16,3.111782931260018e-05
PART_003_R247G182B210A255,8166,7.298502e-14,-6.35117e-14,-1.550217e-14,1.72913e-05,-9.818514e-10,-7.897566e-17,2.994941017719876e-05
PART_003_R247G182B210A255,8167,7.87327e-14,-7.063794e-14,-2.459223e-14,1.690023e-05,-6.649823e-09,-1.402344e-16,2.9272059285590723e-05
PART_003_R247G182B210A255,8168,7.593752e-14,-7.271267e-14,-1.553173e-14,1.677111e-05,2.88143e-14,3.789943e-18,2.9048414619326475e-05
PART_002_R214G39B40A255,8169,7.877217e-14,-7.083223e-14,-2.455828e-14,1.690023e-05,6.649878e-09,7.98606e-17,2.9272059285628205e-05
PART_002_R214G39B40A255,8170,7.353829e-14,-6.523254e-14,-1.548351e-14,1.72913e-05,9.818997e-10,1.645942e-16,2.994941017720351e-05
PART_002_R214G39B40A255,8171,7.456568e-14,-5.622586e-14,-2.482366e-14,1.796588e-05,1.600633e-08,1.938621e-16,3.111782931264647e-05
PART_002_R214G39B40A255,8172,6.740257e-14,-4.5422e-14,-1.558225e-14,1.894418e-05,2.53181e-09,1.399154e-16,3.2812282560763514e-05
PART_002_R214G39B40A255,8173,7.046262e-14,-3.74839e-14,-2.542546e-14,2.025233e-05,6.014335e-09,-1.361944e-17,3.507806607843963e-05
PART_003_R247G182B210A255,8174,-5.54361e-05,1.830133e-05,1.828615e-05,1.962261e-05,-1.022893e-09,2.573125e-08,8.118640242255356e-05
PART_003_R247G182B210A255,8175,-5.54361e-05,1.829433e-05,1.829635e-05,1.832412e-05,-1.496926e-08,6.642299e-08,8.027240669828043e-05
PART_003_R247G182B210A255,8176,-5.54361e-05,1.82924e-05,1.829353e-05,1.735703e-05,-1.041654e-09,8.711307e-08,7.96228438785668e-05
PART_003_R247G182B210A255,8177,-5.54361e-05,1.829398e-05,1.829244e-05,1.66989e-05,-1.163379e-08,7.935252e-08,7.919968582631689e-05
PART_003_R247G182B210A255,8178,-5.54361e-05,1.829133e-05,1.829431e-05,1.631658e-05,2.003898e-10,4.673571e-08,7.895981606181803e-05
PART_001_R158G218B229A255,8179,-5.54361e-05,1.829484e-05,1.829019e-05,1.619261e-05,2.720616e-14,1.139663e-14,7.888289131282778e-05
PART_001_R158G218B229A255,8180,-5.54361e-05,1.829133e-05,1.829431e-05,1.631658e-05,-2.003364e-10,-4.673569e-08,7.89598160617821e-05
PART_002_R214G39B40A255,8181,-5.54361e-05,1.829398e-05,1.829244e-05,1.66989e-05,1.163384e-08,-7.93525e-08,7.919968582627881e-05
PART_002_R214G39B40A255,8182,-5.54361e-05,1.82924e-05,1.829353e-05,1.735703e-05,1.04169e-09,-8.711305e-08,7.962284387850258e-05
PART_002_R214G39B40A255,8183,-5.54361e-05,1.829433e-05,1.829635e-05,1.832412e-05,1.496928e-08,-6.642298e-08,8.02724066982668e-05
PART_002_R214G39B40A255,8184,-5.54361e-05,1.830133e-05,1.828615e-05,1.962261e-05,1.022901e-09,-2.573124e-08,8.118640242254435e-05
PART_003_R247G182B210A255,8185,-0.0001108722,3.659225e-05,3.659493e-05,1.772536e-05,-7.738553e-09,5.843232e-08,0.00015062780224700675
PART_003_R247G182B210A255,8186,-0.0001108722,3.659178e-05,3.658065e-05,1.645285e-05,6.218254e-10,1.613811e-07,0.00015018705403371395
PART_003_R247G182B210A255,8187,-0.0001108722,3.658752e-05,3.658816e-05,1.553576e-05,-1.475034e-08,2.068037e-07,0.00014989553652284044
PART_003_R247G182B210A255,8188,-0.0001108722,3.658197e-05,3.658923e-05,1.492193e-05,2.284014e-09,1.868184e-07,0.0001497060437128017
PART_001_R158G218B229A255,8189,-0.0001108722,3.658975e-05,3.65803e-05,1.457597e-05,-2.235772e-09,1.104243e-07,0.00014960296311094352
PART_001_R158G218B229A255,8190,-0.0001108722,3.65871e-05,3.658424e-05,1.446381e-05,2.421493e-14,2.220301e-14,0.00014957081543610004
PART_001_R158G218B229A255,8191,-0.0001108722,3.658975e-05,3.65803e-05,1.457597e-05,2.235817e-09,-1.104242e-07,0.0001496029631107241
PART_001_R158G218B229A255,8192,-0.0001108722,3.658197e-05,3.658923e-05,1.492193e-05,-2.283974e-09,-1.868183e-07,0.00014970604371242552
PART_002_R214G39B40A255,8193,-0.0001108722,3.658752e-05,3.658816e-05,1.553576e-05,1.475037e-08,-2.068037e-07,0.0001498955365228493
PART_002_R214G39B40A255,8194,-0.0001108722,3.659178e-05,3.658065e-05,1.645285e-05,-6.218072e-10,-1.613811e-07,0.00015018705403371373
PART_002_R214G39B40A255,8195,-0.0001108722,3.659225e-05,3.659493e-05,1.772536e-05,7.738559e-09,-5.843232e-08,0.00015062780224700767
PART_003_R247G182B210A255,8196,-0.0001663083,5.490684e-05,5.485302e-05,1.452033e-05,1.943361e-09,1.261995e-07,0.000222613573268063
PART_003_R247G182B210A255,8197,-0.0001663083,5.488178e-05,5.488899e-05,1.331918e-05,-1.944306e-08,3.183525e-07,0.00022239413924275301
PART_003_R247G182B210A255,8198,-0.0001663083,5.487154e-05,5.488465e-05,1.24938e-05,7.705737e-09,4.059888e-07,0.00022224356286779695
PART_001_R158G218B229A255,8199,-0.0001663083,5.488477e-05,5.487021e-05,1.198339e-05,2.066472e-09,3.623547e-07,0.00022215839547537326
PART_001_R158G218B229A255,8200,-0.0001663083,5.488466e-05,5.487241e-05,1.170197e-05,1.675953e-09,2.069263e-07,0.00022211382860914838
PART_001_R158G218B229A255,8201,-0.0001663083,5.488548e-05,5.486823e-05,1.161084e-05,1.854245e-14,3.169839e-14,0.00022209751874359762
PART_001_R158G218B229A255,8202,-0.0001663083,5.488466e-05,5.487241e-05,1.170197e-05,-1.675917e-09,-2.069262e-07,0.0002221138286088681
PART_001_R158G218B229A255,8203,-0.0001663083,5.488477e-05,5.487021e-05,1.198339e-05,-2.066442e-09,-3.623547e-07,0.00022215839547537244
PART_001_R158G218B229A255,8204,-0.0001663083,5.487154e-05,5.488465e-05,1.24938e-05,-7.705715e-09,-4.059887e-07,0.00022224356286724663
PART_002_R214G39B40A255,8205,-0.0001663083,5.488178e-05,5.488899e-05,1.331918e-05,1.944308e-08,-3.183525e-07,0.00022239413924275827
PART_002_R214G39B40A255,8206,-0.0001663083,5.490684e-05,5.485302e-05,1.452033e-05,-1.943357e-09,-1.261995e-07,0.0002226135732680629
PART_003_R247G182B210A255,8207,-0.0002217444,7.31817e-05,7.32022e-05,9.932606e-06,-1.82394e-08,2.312777e-07,0.0002954379500309911
PART_003_R247G182B210A255,8208,-0.0002217444,7.316514e-05,7.317327e-05,8.856098e-06,1.777603e-08,6.334126e-07,0.0002953142909876743
PART_001_R158G218B229A255,8209,-0.0002217444,7.318021e-05,7.31566e-05,8.266722e-06,1.270743e-08,7.743503e-07,0.00029526323575500496
PART_001_R158G218B229A255,8210,-0.0002217444,7.318553e-05,7.315703e-05,7.924963e-06,3.733703e-09,6.407633e-07,0.000295237033261997
PART_001_R158G218B229A255,8211,-0.0002217444,7.318058e-05,7.315675e-05,7.736566e-06,3.115199e-09,3.580883e-07,0.000295217994717155
PART_001_R158G218B229A255,8212,-0.0002217444,7.318777e-05,7.315546e-05,7.679059e-06,1.205522e-14,3.887708e-14,0.00029521578637974077
PART_001_R158G218B229A255,8213,-0.0002217444,7.318058e-05,7.315675e-05,7.736566e-06,-3.115177e-09,-3.580882e-07,0.0002952179947167904
PART_001_R158G218B229A255,8214,-0.0002217444,7.318553e-05,7.315703e-05,7.924963e-06,-3.733684e-09,-6.407632e-07,0.0002952370332613452
PART_001_R158G218B229A255,8215,-0.0002217444,7.318021e-05,7.31566e-05,8.266722e-06,-1.270742e-08,-7.743503e-07,0.00029526323575500366
PART_001_R158G218B229A255,8216,-0.0002217444,7.316514e-05,7.317327e-05,8.856098e-06,-1.777602e-08,-6.334125e-07,0.000295314290987029
PART_002_R214G39B40A255,8217,-0.0002217444,7.31817e-05,7.32022e-05,9.932606e-06,1.82394e-08,-2.312777e-07,0.0002954379500309911
PART_003_R247G182B210A255,8218,-0.0002771805,9.152419e-05,9.138541e-05,3.64802e-06,2.806454e-08,6.234948e-07,0.00036869105169629436
PART_001_R158G218B229A255,8219,-0.0002771805,9.147165e-05,9.143102e-05,3.134943e-06,1.728048e-08,1.347983e-06,0.00036867921922282854
PART_001_R158G218B229A255,8220,-0.0002771805,9.149792e-05,9.142979e-05,2.93875e-06,3.381989e-09,1.372503e-06,0.00036868716283197975
PART_001_R158G218B229A255,8221,-0.0002771805,9.147421e-05,9.144443e-05,2.809206e-06,4.040642e-09,1.070267e-06,0.00036867659124652084
PART_001_R158G218B229A255,8222,-0.0002771805,9.148996e-05,9.143955e-05,2.747208e-06,5.692243e-10,5.776146e-07,0.00036867732275273907
PART_001_R158G218B229A255,8223,-0.0002771805,9.147505e-05,9.144673e-05,2.724423e-06,3.95128e-15,4.321153e-14,0.0003686715916160312
PART_001_R158G218B229A255,8224,-0.0002771805,9.148996e-05,9.143955e-05,2.747208e-06,-5.692159e-10,-5.776145e-07,0.000368677322752269
PART_001_R158G218B229A255,8225,-0.0002771805,9.147421e-05,9.144443e-05,2.809206e-06,-4.040637e-09,-1.070266e-06,0.00036867659123781166
PART_001_R158G218B229A255,8226,-0.0002771805,9.149792e-05,9.142979e-05,2.93875e-06,-3.381985e-09,-1.372503e-06,0.00036868716283197965
PART_001_R158G218B229A255,8227,-0.0002771805,9.147165e-05,9.143102e-05,3.134943e-06,-1.728048e-08,-1.347983e-06,0.00036867921922282854
PART_001_R158G218B229A255,8228,-0.0002771805,9.152419e-05,9.138541e-05,3.64802e-06,-2.806454e-08,-6.234947e-07,0.000368691051695787
PART_003_R247G182B210A255,8229,0.0002726366,-9.002379e-05,-8.988728e-05,3.64802e-06,2.760473e-08,-6.234949e-07,0.00036264881498991396
PART_000_R31G119B180A255,8230,0.0002726366,-8.997211e-05,-8.993217e-05,3.134943e-06,1.699703e-08,-1.347983e-06,0.00036263691375152643
PART_000_R31G119B180A255,8231,0.0002726366,-8.999796e-05,-8.993093e-05,2.93875e-06,3.32665e-09,-1.372503e-06,0.0003626445660508372
PART_000_R31G119B180A255,8232,0.0002726366,-8.997464e-05,-8.994536e-05,2.809206e-06,3.974341e-09,-1.070266e-06,0.0003626339839906328
PART_000_R31G119B180A255,8233,0.0002726366,-8.999013e-05,-8.994053e-05,2.747208e-06,5.599232e-10,-5.776147e-07,0.00036263453208071095
PART_000_R31G119B180A255,8234,0.0002726366,-8.997545e-05,-8.994762e-05,2.724423e-06,6.383271e-15,-5.125822e-14,0.0003626288399016392
PART_000_R31G119B180A255,8235,0.0002726366,-8.999013e-05,-8.994053e-05,2.747208e-06,-5.599119e-10,5.776146e-07,0.0003626345320802331
PART_000_R31G119B180A255,8236,0.0002726366,-8.997464e-05,-8.994536e-05,2.809206e-06,-3.974332e-09,1.070266e-06,0.00036263398399063253
PART_000_R31G119B180A255,8237,0.0002726366,-8.999796e-05,-8.993093e-05,2.93875e-06,-3.326644e-09,1.372503e-06,0.00036264456605083703
PART_000_R31G119B180A255,8238,0.0002726366,-8.997211e-05,-8.993217e-05,3.134943e-06,-1.699703e-08,1.347983e-06,0.00036263691375152643
PART_000_R31G119B180A255,8239,0.0002726366,-9.002379e-05,-8.988728e-05,3.64802e-06,-2.760473e-08,6.234948e-07,0.0003626488149893982
PART_003_R247G182B210A255,8240,0.0002181093,-7.1982e-05,-7.200215e-05,9.932606e-06,-1.794046e-08,-2.312779e-07,0.00029061132032534906
PART_003_R247G182B210A255,8241,0.0002181093,-7.196571e-05,-7.197372e-05,8.856098e-06,1.748462e-08,-6.334123e-07,0.0002904863696585578
PART_000_R31G119B180A255,8242,0.0002181093,-7.198054e-05,-7.19573e-05,8.266722e-06,1.249912e-08,-7.743506e-07,0.0002904344840520089
PART_000_R31G119B180A255,8243,0.0002181093,-7.198577e-05,-7.195775e-05,7.924963e-06,3.672494e-09,-6.40763e-07,0.00029040776306315597
PART_000_R31G119B180A255,8244,0.0002181093,-7.19809e-05,-7.195745e-05,7.736566e-06,3.064139e-09,-3.580884e-07,0.00029038848141970617
PART_000_R31G119B180A255,8245,0.0002181093,-7.198797e-05,-7.19562e-05,7.679059e-06,1.795818e-14,-4.706422e-14,0.00029038614726238984
PART_000_R31G119B180A255,8246,0.0002181093,-7.19809e-05,-7.195745e-05,7.736566e-06,-3.064107e-09,3.580883e-07,0.0002903884814193352
PART_000_R31G119B180A255,8247,0.0002181093,-7.198577e-05,-7.195775e-05,7.924963e-06,-3.672465e-09,6.40763e-07,0.0002904077630631549
PART_000_R31G119B180A255,8248,0.0002181093,-7.198054e-05,-7.19573e-05,8.266722e-06,-1.24991e-08,7.743505e-07,0.00029043448405120646
PART_000_R31G119B180A255,8249,0.0002181093,-7.196571e-05,-7.197372e-05,8.856098e-06,-1.748461e-08,6.334123e-07,0.000290486369658556
PART_002_R214G39B40A255,8250,0.0002181093,-7.1982e-05,-7.200215e-05,9.932606e-06,1.794046e-08,2.312779e-07,0.00029061132032534906
PART_003_R247G182B210A255,8251,0.0001635819,-5.400673e-05,-5.395378e-05,1.452033e-05,1.91154e-09,-1.261996e-07,0.00021901109819122563
PART_003_R247G182B210A255,8252,0.0001635819,-5.398208e-05,-5.398918e-05,1.331918e-05,-1.912431e-08,-3.183524e-07,0.00021878788119476605
PART_003_R247G182B210A255,8253,0.0001635819,-5.397201e-05,-5.398489e-05,1.24938e-05,7.579406e-09,-4.05989e-07,0.00021863505159376857
PART_000_R31G119B180A255,8254,0.0001635819,-5.398502e-05,-5.397071e-05,1.198339e-05,2.03261e-09,-3.623546e-07,0.0002185485079406321
PART_000_R31G119B180A255,8255,0.0001635819,-5.398491e-05,-5.397285e-05,1.170197e-05,1.648482e-09,-2.069264e-07,0.00021850315758059727
PART_000_R31G119B180A255,8256,0.0001635819,-5.398572e-05,-5.396876e-05,1.161084e-05,2.731915e-14,-3.89078e-14,0.00021848664588433684
PART_000_R31G119B180A255,8257,0.0001635819,-5.398491e-05,-5.397285e-05,1.170197e-05,-1.64843e-09,2.069263e-07,0.000218503157580312
PART_000_R31G119B180A255,8258,0.0001635819,-5.398502e-05,-5.397071e-05,1.198339e-05,-2.032566e-09,3.623545e-07,0.00021854850794013347
PART_000_R31G119B180A255,8259,0.0001635819,-5.397201e-05,-5.398489e-05,1.24938e-05,-7.579375e-09,4.059889e-07,0.00021863505159320826
PART_002_R214G39B40A255,8260,0.0001635819,-5.398208e-05,-5.398918e-05,1.331918e-05,1.912433e-08,3.183523e-07,0.00021878788119433478
PART_002_R214G39B40A255,8261,0.0001635819,-5.400673e-05,-5.395378e-05,1.452033e-05,-1.911534e-09,1.261996e-07,0.0002190110981912255
PART_003_R247G182B210A255,8262,0.0001090546,-3.599238e-05,-3.599501e-05,1.772536e-05,-7.611715e-09,-5.843239e-08,0.00014826187461998018
PART_003_R247G182B210A255,8263,0.0001090546,-3.599192e-05,-3.598097e-05,1.645285e-05,6.116255e-10,-1.61381e-07,0.00014781431519507893
PART_003_R247G182B210A255,8264,0.0001090546,-3.598773e-05,-3.598835e-05,1.553576e-05,-1.450852e-08,-2.068038e-07,0.0001475180526909071
PART_003_R247G182B210A255,8265,0.0001090546,-3.598227e-05,-3.598941e-05,1.492193e-05,2.246582e-09,-1.868183e-07,0.00014732557814845336
PART_000_R31G119B180A255,8266,0.0001090546,-3.598992e-05,-3.598062e-05,1.457597e-05,-2.19911e-09,-1.104243e-07,0.00014722084517449776
PART_000_R31G119B180A255,8267,0.0001090546,-3.598731e-05,-3.59845e-05,1.446381e-05,3.529024e-14,-2.774154e-14,0.00014718815677806894
PART_000_R31G119B180A255,8268,0.0001090546,-3.598992e-05,-3.598062e-05,1.457597e-05,2.199176e-09,1.104243e-07,0.00014722084517450074
PART_000_R31G119B180A255,8269,0.0001090546,-3.598227e-05,-3.598941e-05,1.492193e-05,-2.246523e-09,1.868182e-07,0.00014732557814807026
PART_002_R214G39B40A255,8270,0.0001090546,-3.598773e-05,-3.598835e-05,1.553576e-05,1.450857e-08,2.068038e-07,0.00014751805269092185
PART_002_R214G39B40A255,8271,0.0001090546,-3.599192e-05,-3.598097e-05,1.645285e-05,-6.115975e-10,1.613809e-07,0.00014781431519475104
PART_002_R214G39B40A255,8272,0.0001090546,-3.599238e-05,-3.599501e-05,1.772536e-05,7.611724e-09,5.843238e-08,0.00014826187461996975
PART_003_R247G182B210A255,8273,5.452731e-05,-1.800131e-05,-1.798638e-05,1.962261e-05,-1.006103e-09,-2.573127e-08,8.00903274352184e-05
PART_003_R247G182B210A255,8274,5.452732e-05,-1.799442e-05,-1.799641e-05,1.832412e-05,-1.472384e-08,-6.642293e-08,7.91636349756931e-05
PART_003_R247G182B210A255,8275,5.452731e-05,-1.799252e-05,-1.799364e-05,1.735703e-05,-1.024576e-09,-8.711314e-08,7.850496294631538e-05
PART_003_R247G182B210A255,8276,5.452732e-05,-1.799408e-05,-1.799257e-05,1.66989e-05,-1.144306e-08,-7.935246e-08,7.80757518044219e-05
PART_003_R247G182B210A255,8277,5.452731e-05,-1.799147e-05,-1.79944e-05,1.631658e-05,1.971151e-10,-4.673575e-08,7.78324151160392e-05
PART_000_R31G119B180A255,8278,5.452732e-05,-1.799493e-05,-1.799035e-05,1.619261e-05,3.982591e-14,-1.443085e-14,7.775439839629782e-05
PART_000_R31G119B180A255,8279,5.452731e-05,-1.799147e-05,-1.79944e-05,1.631658e-05,-1.97039e-10,4.673572e-08,7.783241511598458e-05
PART_002_R214G39B40A255,8280,5.452732e-05,-1.799408e-05,-1.799257e-05,1.66989e-05,1.144313e-08,7.935244e-08,7.80757518043917e-05
PART_002_R214G39B40A255,8281,5.452731e-05,-1.799252e-05,-1.799364e-05,1.735703e-05,1.024628e-09,8.711312e-08,7.850496294625083e-05
PART_002_R214G39B40A255,8282,5.452732e-05,-1.799442e-05,-1.799641e-05,1.832412e-05,1.472387e-08,6.642291e-08,7.916363497565951e-05
PART_002_R214G39B40A255,8283,5.452731e-05,-1.800131e-05,-1.798638e-05,1.962261e-05,1.006114e-09,2.573127e-08,8.009032743521882e-05
PART_003_R247G182B210A255,8284,5.613804e-14,-1.715295e-14,-1.462709e-14,2.025233e-05,-5.915747e-09,-1.035379e-16,3.5078066028144824e-05
PART_003_R247G182B210A255,8285,5.717627e-14,-1.713907e-15,-2.594112e-14,1.894418e-05,-2.490286e-09,-5.871319e-16,3.281228255123031e-05
PART_003_R247G182B210A255,8286,4.583584e-14,1.790235e-14,-1.451687e-14,1.796588e-05,-1.574389e-08,-5.910541e-16,3.111782891098633e-05
PART_003_R247G182B210A255,8287,4.489074e-14,3.372302e-14,-2.525753e-14,1.72913e-05,-9.657411e-10,-4.248567e-16,2.9949410175627297e-05
PART_003_R247G182B210A255,8288,3.774964e-14,4.268114e-14,-1.477837e-14,1.690023e-05,-6.540799e-09,-1.742176e-16,2.9272059211897867e-05
PART_003_R247G182B210A255,8289,4.08407e-14,4.517914e-14,-2.515421e-14,1.677112e-05,4.174123e-14,-2.528171e-17,2.9048431939834554e-05
PART_002_R214G39B40A255,8290,3.757671e-14,4.284767e-14,-1.471223e-14,1.690023e-05,6.540878e-09,1.78213e-16,2.9272059211950823e-05
PART_002_R214G39B40A255,8291,4.398673e-14,3.585326e-14,-2.522092e-14,1.72913e-05,9.658112e-10,3.766222e-16,2.9949410175634076e-05
PART_002_R214G39B40A255,8292,4.338999e-14,2.500083e-14,-1.458754e-14,1.796588e-05,1.574395e-08,4.966976e-16,3.11178289110774e-05
PART_002_R214G39B40A255,8293,5.261557e-14,1.174755e-14,-2.579241e-14,1.894418e-05,2.490322e-09,4.993784e-16,3.281228255123851e-05
PART_002_R214G39B40A255,8294,5.007897e-14,1.339207e-15,-1.44655e-14,2.025233e-05,5.91576e-09,3.2352e-16,3.5078066028151397e-05
PART_003_R247G182B210A255,8295,-5.452731e-05,1.800131e-05,1.798638e-05,1.962261e-05,-1.006103e-09,2.573127e-08,8.00903274352184e-05
PART_003_R247G182B210A255,8296,-5.452732e-05,1.799442e-05,1.799641e-05,1.832412e-05,-1.472384e-08,6.642292e-08,7.916363497566794e-05
PART_003_R247G182B210A255,8297,-5.452731e-05,1.799252e-05,1.799364e-05,1.735703e-05,-1.024576e-09,8.711314e-08,7.850496294631538e-05
PART_003_R247G182B210A255,8298,-5.452732e-05,1.799408e-05,1.799257e-05,1.66989e-05,-1.144306e-08,7.935246e-08,7.80757518044219e-05
PART_003_R247G182B210A255,8299,-5.452731e-05,1.799147e-05,1.79944e-05,1.631658e-05,1.971151e-10,4.673575e-08,7.78324151160392e-05
PART_001_R158G218B229A255,8300,-5.452732e-05,1.799493e-05,1.799035e-05,1.619261e-05,3.968749e-14,1.435492e-14,7.775439839629782e-05
PART_001_R158G218B229A255,8301,-5.452731e-05,1.799147e-05,1.79944e-05,1.631658e-05,-1.97039e-10,-4.673572e-08,7.783241511598458e-05
PART_002_R214G39B40A255,8302,-5.452732e-05,1.799408e-05,1.799257e-05,1.66989e-05,1.144313e-08,-7.935244e-08,7.80757518043917e-05
PART_002_R214G39B40A255,8303,-5.452731e-05,1.799252e-05,1.799364e-05,1.735703e-05,1.024628e-09,-8.711312e-08,7.850496294625083e-05
PART_002_R214G39B40A255,8304,-5.452732e-05,1.799442e-05,1.799641e-05,1.832412e-05,1.472387e-08,-6.642291e-08,7.916363497565951e-05
PART_002_R214G39B40A255,8305,-5.452731e-05,1.800131e-05,1.798638e-05,1.962261e-05,1.006114e-09,-2.573127e-08,8.009032743521882e-05
PART_003_R247G182B210A255,8306,-0.0001090546,3.599238e-05,3.599501e-05,1.772536e-05,-7.611715e-09,5.843239e-08,0.00014826187461998018
PART_003_R247G182B210A255,8307,-0.0001090546,3.599192e-05,3.598097e-05,1.645285e-05,6.116255e-10,1.61381e-07,0.00014781431519507893
PART_003_R247G182B210A255,8308,-0.0001090546,3.598773e-05,3.598835e-05,1.553576e-05,-1.450852e-08,2.068038e-07,0.0001475180526909071
PART_003_R247G182B210A255,8309,-0.0001090546,3.598227e-05,3.598941e-05,1.492193e-05,2.246582e-09,1.868183e-07,0.00014732557814845336
PART_001_R158G218B229A255,8310,-0.0001090546,3.598992e-05,3.598062e-05,1.457597e-05,-2.19911e-09,1.104243e-07,0.00014722084517449776
PART_001_R158G218B229A255,8311,-0.0001090546,3.598731e-05,3.59845e-05,1.446381e-05,3.520779e-14,2.739417e-14,0.00014718815677806894
PART_001_R158G218B229A255,8312,-0.0001090546,3.598992e-05,3.598062e-05,1.457597e-05,2.199176e-09,-1.104243e-07,0.00014722084517450074
PART_001_R158G218B229A255,8313,-0.0001090546,3.598227e-05,3.598941e-05,1.492193e-05,-2.246523e-09,-1.868182e-07,0.00014732557814807026
PART_002_R214G39B40A255,8314,-0.0001090546,3.598773e-05,3.598835e-05,1.553576e-05,1.450857e-08,-2.068038e-07,0.00014751805269092185
PART_002_R214G39B40A255,8315,-0.0001090546,3.599192e-05,3.598097e-05,1.645285e-05,-6.115975e-10,-1.613809e-07,0.00014781431519475104
PART_002_R214G39B40A255,8316,-0.0001090546,3.599238e-05,3.599501e-05,1.772536e-05,7.611724e-09,-5.843238e-08,0.00014826187461996975
PART_003_R247G182B210A255,8317,-0.0001635819,5.400673e-05,5.395378e-05,1.452033e-05,1.911539e-09,1.261996e-07,0.00021901109819122563
PART_003_R247G182B210A255,8318,-0.0001635819,5.398208e-05,5.398918e-05,1.331918e-05,-1.912431e-08,3.183524e-07,0.00021878788119476605
PART_003_R247G182B210A255,8319,-0.0001635819,5.397201e-05,5.398489e-05,1.24938e-05,7.579407e-09,4.05989e-07,0.00021863505159376868
PART_001_R158G218B229A255,8320,-0.0001635819,5.398502e-05,5.397071e-05,1.198339e-05,2.03261e-09,3.623546e-07,0.0002185485079406321
PART_001_R158G218B229A255,8321,-0.0001635819,5.398491e-05,5.397285e-05,1.170197e-05,1.648483e-09,2.069264e-07,0.0002185031575805973
PART_001_R158G218B229A255,8322,-0.0001635819,5.398572e-05,5.396876e-05,1.161084e-05,2.719616e-14,3.826156e-14,0.00021848664588433684
PART_001_R158G218B229A255,8323,-0.0001635819,5.398491e-05,5.397285e-05,1.170197e-05,-1.64843e-09,-2.069263e-07,0.000218503157580312
PART_001_R158G218B229A255,8324,-0.0001635819,5.398502e-05,5.397071e-05,1.198339e-05,-2.032566e-09,-3.623545e-07,0.00021854850794013347
PART_001_R158G218B229A255,8325,-0.0001635819,5.397201e-05,5.398489e-05,1.24938e-05,-7.579375e-09,-4.059889e-07,0.00021863505159320826
PART_002_R214G39B40A255,8326,-0.0001635819,5.398208e-05,5.398918e-05,1.331918e-05,1.912433e-08,-3.183523e-07,0.00021878788119433478
PART_002_R214G39B40A255,8327,-0.0001635819,5.400673e-05,5.395378e-05,1.452033e-05,-1.911535e-09,-1.261996e-07,0.00021901109819122552
PART_003_R247G182B210A255,8328,-0.0002181093,7.1982e-05,7.200215e-05,9.932606e-06,-1.794046e-08,2.312779e-07,0.00029061132032534906
PART_003_R247G182B210A255,8329,-0.0002181093,7.196571e-05,7.197372e-05,8.856098e-06,1.748462e-08,6.334123e-07,0.0002904863696585578
PART_001_R158G218B229A255,8330,-0.0002181093,7.198054e-05,7.19573e-05,8.266722e-06,1.249912e-08,7.743506e-07,0.0002904344840520089
PART_001_R158G218B229A255,8331,-0.0002181093,7.198577e-05,7.195775e-05,7.924963e-06,3.672494e-09,6.40763e-07,0.00029040776306315597
PART_001_R158G218B229A255,8332,-0.0002181093,7.19809e-05,7.195745e-05,7.736566e-06,3.064139e-09,3.580884e-07,0.00029038848141970617
PART_001_R158G218B229A255,8333,-0.0002181093,7.198797e-05,7.19562e-05,7.679059e-06,1.796108e-14,4.635237e-14,0.00029038614726238984
PART_001_R158G218B229A255,8334,-0.0002181093,7.19809e-05,7.195745e-05,7.736566e-06,-3.064107e-09,-3.580883e-07,0.0002903884814193352
PART_001_R158G218B229A255,8335,-0.0002181093,7.198577e-05,7.195775e-05,7.924963e-06,-3.672465e-09,-6.40763e-07,0.0002904077630631549
PART_001_R158G218B229A255,8336,-0.0002181093,7.198054e-05,7.19573e-05,8.266722e-06,-1.24991e-08,-7.743505e-07,0.00029043448405120646
PART_001_R158G218B229A255,8337,-0.0002181093,7.196571e-05,7.197372e-05,8.856098e-06,-1.748461e-08,-6.334123e-07,0.000290486369658556
PART_002_R214G39B40A255,8338,-0.0002181093,7.1982e-05,7.200215e-05,9.932606e-06,1.794046e-08,-2.312779e-07,0.00029061132032534906
PART_003_R247G182B210A255,8339,-0.0002726366,9.002379e-05,8.988728e-05,3.64802e-06,2.760473e-08,6.234949e-07,0.00036264881498991396
PART_001_R158G218B229A255,8340,-0.0002726366,8.997211e-05,8.993217e-05,3.134943e-06,1.699704e-08,1.347983e-06,0.0003626369137515278
PART_001_R158G218B229A255,8341,-0.0002726366,8.999796e-05,8.993093e-05,2.93875e-06,3.326648e-09,1.372503e-06,0.00036264456605083714
PART_001_R158G218B229A255,8342,-0.0002726366,8.997464e-05,8.994536e-05,2.809206e-06,3.974343e-09,1.070266e-06,0.00036263398399063285
PART_001_R158G218B229A255,8343,-0.0002726366,8.999013e-05,8.994053e-05,2.747208e-06,5.599226e-10,5.776147e-07,0.00036263453208071095
PART_001_R158G218B229A255,8344,-0.0002726366,8.997545e-05,8.994762e-05,2.724423e-06,6.437448e-15,5.083539e-14,0.0003626288399016392
PART_001_R158G218B229A255,8345,-0.0002726366,8.999013e-05,8.994053e-05,2.747208e-06,-5.599115e-10,-5.776146e-07,0.0003626345320802331
PART_001_R158G218B229A255,8346,-0.0002726366,8.997464e-05,8.994536e-05,2.809206e-06,-3.974333e-09,-1.070266e-06,0.00036263398399063253
PART_001_R158G218B229A255,8347,-0.0002726366,8.999796e-05,8.993093e-05,2.93875e-06,-3.326643e-09,-1.372503e-06,0.00036264456605083703
PART_001_R158G218B229A255,8348,-0.0002726366,8.997211e-05,8.993217e-05,3.134943e-06,-1.699703e-08,-1.347983e-06,0.00036263691375152643
PART_001_R158G218B229A255,8349,-0.0002726366,9.002379e-05,8.988728e-05,3.64802e-06,-2.760473e-08,-6.234948e-07,0.0003626488149893982
PART_003_R247G182B210A255,8350,0.0002680926,-8.85234e-05,-8.838917e-05,3.64802e-06,2.714444e-08,-6.234948e-07,0.00035660652476578837
PART_000_R31G119B180A255,8351,0.0002680926,-8.847258e-05,-8.843329e-05,3.134943e-06,1.671388e-08,-1.347983e-06,0.0003565945250583921
PART_000_R31G119B180A255,8352,0.0002680926,-8.849799e-05,-8.843209e-05,2.93875e-06,3.271123e-09,-1.372503e-06,0.0003566018984522101
PART_000_R31G119B180A255,8353,0.0002680926,-8.847506e-05,-8.844626e-05,2.809206e-06,3.908156e-09,-1.070267e-06,0.00035659127753484636
PART_000_R31G119B180A255,8354,0.0002680926,-8.849029e-05,-8.844153e-05,2.747208e-06,5.505704e-10,-5.776146e-07,0.00035659166452505143
PART_000_R31G119B180A255,8355,0.0002680926,-8.847586e-05,-8.844848e-05,2.724423e-06,8.58755e-15,-6.302302e-14,0.000356585995257876
PART_000_R31G119B180A255,8356,0.0002680926,-8.849029e-05,-8.844153e-05,2.747208e-06,-5.50553e-10,5.776145e-07,0.00035659166452456544
PART_000_R31G119B180A255,8357,0.0002680926,-8.847506e-05,-8.844626e-05,2.809206e-06,-3.908144e-09,1.070266e-06,0.00035659127752584184
PART_000_R31G119B180A255,8358,0.0002680926,-8.849799e-05,-8.843209e-05,2.93875e-06,-3.271113e-09,1.372503e-06,0.0003566018984522098
PART_000_R31G119B180A255,8359,0.0002680926,-8.847258e-05,-8.843329e-05,3.134943e-06,-1.671388e-08,1.347983e-06,0.0003565945250583921
PART_000_R31G119B180A255,8360,0.0002680926,-8.85234e-05,-8.838917e-05,3.64802e-06,-2.714443e-08,6.234948e-07,0.0003566065247657861
PART_003_R247G182B210A255,8361,0.0002144741,-7.07823e-05,-7.080213e-05,9.932606e-06,-1.76414e-08,-2.312778e-07,0.0002857848879076252
PART_003_R247G182B210A255,8362,0.0002144741,-7.076629e-05,-7.077415e-05,8.856098e-06,1.719321e-08,-6.334125e-07,0.00028565856905571514
PART_000_R31G119B180A255,8363,0.0002144741,-7.078086e-05,-7.075802e-05,8.266722e-06,1.22908e-08,-7.743504e-07,0.00028560583483128264
PART_000_R31G119B180A255,8364,0.0002144741,-7.078601e-05,-7.075844e-05,7.924963e-06,3.611296e-09,-6.407632e-07,0.0002855785590398869
PART_000_R31G119B180A255,8365,0.0002144741,-7.078122e-05,-7.075817e-05,7.736566e-06,3.013075e-09,-3.580883e-07,0.00028555905002962807
PART_000_R31G119B180A255,8366,0.0002144741,-7.078817e-05,-7.075693e-05,7.679059e-06,2.518209e-14,-6.012203e-14,0.0002855565721701256
PART_000_R31G119B180A255,8367,0.0002144741,-7.078122e-05,-7.075817e-05,7.736566e-06,-3.013027e-09,3.580882e-07,0.00028555905002925034
PART_000_R31G119B180A255,8368,0.0002144741,-7.078601e-05,-7.075844e-05,7.924963e-06,-3.611257e-09,6.407631e-07,0.0002855785590392123
PART_000_R31G119B180A255,8369,0.0002144741,-7.078086e-05,-7.075802e-05,8.266722e-06,-1.229077e-08,7.743503e-07,0.00028560583483046536
PART_000_R31G119B180A255,8370,0.0002144741,-7.076629e-05,-7.077415e-05,8.856098e-06,-1.71932e-08,6.334125e-07,0.00028565856905571335
PART_002_R214G39B40A255,8371,0.0002144741,-7.07823e-05,-7.080213e-05,9.932606e-06,1.76414e-08,2.312777e-07,0.00028578488790738247
PART_003_R247G182B210A255,8372,0.0001608556,-5.310662e-05,-5.305456e-05,1.452033e-05,1.879654e-09,-1.261996e-07,0.00021540952431111748
PART_003_R247G182B210A255,8373,0.0001608556,-5.308238e-05,-5.308935e-05,1.331918e-05,-1.880558e-08,-3.183525e-07,0.0002151823813798225
PART_003_R247G182B210A255,8374,0.0001608556,-5.307248e-05,-5.308515e-05,1.24938e-05,7.453101e-09,-4.059888e-07,0.00021502723968016754
PART_000_R31G119B180A255,8375,0.0001608556,-5.308527e-05,-5.307119e-05,1.198339e-05,1.998737e-09,-3.623547e-07,0.00021493925325449673
PART_000_R31G119B180A255,8376,0.0001608556,-5.308516e-05,-5.307331e-05,1.170197e-05,1.621023e-09,-2.069263e-07,0.0002148931141307251
PART_000_R31G119B180A255,8377,0.0001608556,-5.308596e-05,-5.306928e-05,1.161084e-05,3.864994e-14,-5.092331e-14,0.00021487637758663
PART_000_R31G119B180A255,8378,0.0001608556,-5.308516e-05,-5.307331e-05,1.170197e-05,-1.620948e-09,2.069262e-07,0.00021489311413043453
PART_000_R31G119B180A255,8379,0.0001608556,-5.308527e-05,-5.307119e-05,1.198339e-05,-1.998674e-09,3.623546e-07,0.00021493925325398921
PART_000_R31G119B180A255,8380,0.0001608556,-5.307248e-05,-5.308515e-05,1.24938e-05,-7.453054e-09,4.059888e-07,0.00021502723968016267
PART_002_R214G39B40A255,8381,0.0001608556,-5.308238e-05,-5.308935e-05,1.331918e-05,1.88056e-08,3.183525e-07,0.00021518238137982774
PART_002_R214G39B40A255,8382,0.0001608556,-5.310662e-05,-5.305456e-05,1.452033e-05,-1.879644e-09,1.261995e-07,0.00021540952431094146
PART_003_R247G182B210A255,8383,0.0001072371,-3.53925e-05,-3.53951e-05,1.772536e-05,-7.484832e-09,-5.843234e-08,0.00014589773545998583
PART_003_R247G182B210A255,8384,0.0001072371,-3.539205e-05,-3.538128e-05,1.645285e-05,6.01447e-10,-1.613811e-07,0.00014544313452961928
PART_003_R247G182B210A255,8385,0.0001072371,-3.538793e-05,-3.538855e-05,1.553576e-05,-1.426671e-08,-2.068037e-07,0.00014514198579551247
PART_003_R247G182B210A255,8386,0.0001072371,-3.538256e-05,-3.538959e-05,1.492193e-05,2.20915e-09,-1.868184e-07,0.000144946427299557
PART_000_R31G119B180A255,8387,0.0001072371,-3.539009e-05,-3.538094e-05,1.457597e-05,-2.162442e-09,-1.104243e-07,0.00014483999334147788
PART_000_R31G119B180A255,8388,0.0001072371,-3.538752e-05,-3.538475e-05,1.446381e-05,4.973831e-14,-3.670514e-14,0.00014480674213160173
PART_000_R31G119B180A255,8389,0.0001072371,-3.539009e-05,-3.538094e-05,1.457597e-05,2.162538e-09,1.104242e-07,0.00014483999334125348
PART_000_R31G119B180A255,8390,0.0001072371,-3.538256e-05,-3.538959e-05,1.492193e-05,-2.209068e-09,1.868183e-07,0.00014494642729916658
PART_002_R214G39B40A255,8391,0.0001072371,-3.538793e-05,-3.538855e-05,1.553576e-05,1.426677e-08,2.068037e-07,0.00014514198579553017
PART_002_R214G39B40A255,8392,0.0001072371,-3.539205e-05,-3.538128e-05,1.645285e-05,-6.014083e-10,1.61381e-07,0.00014544313452928591
PART_002_R214G39B40A255,8393,0.0001072371,-3.53925e-05,-3.53951e-05,1.772536e-05,7.484845e-09,5.843233e-08,0.0001458977354599758
PART_003_R247G182B210A255,8394,5.361853e-05,-1.770129e-05,-1.768661e-05,1.962261e-05,-9.893472e-10,-2.573125e-08,7.899754695078577e-05
PART_003_R247G182B210A255,8395,5.361853e-05,-1.769452e-05,-1.769647e-05,1.832412e-05,-1.447845e-08,-6.642298e-08,7.805782568576363e-05
PART_003_R247G182B210A255,8396,5.361853e-05,-1.769265e-05,-1.769375e-05,1.735703e-05,-1.007482e-09,-8.711309e-08,7.73898254092843e-05
PART_003_R247G182B210A255,8397,5.361853e-05,-1.769418e-05,-1.769269e-05,1.66989e-05,-1.125233e-08,-7.935252e-08,7.695437224595092e-05
PART_003_R247G182B210A255,8398,5.361853e-05,-1.769161e-05,-1.769449e-05,1.631658e-05,1.938482e-10,-4.673572e-08,7.670749865431478e-05
PART_000_R31G119B180A255,8399,5.361853e-05,-1.769501e-05,-1.769051e-05,1.619261e-05,5.61871e-14,-1.91839e-14,7.66283364851926e-05
PART_000_R31G119B180A255,8400,5.361853e-05,-1.769161e-05,-1.769449e-05,1.631658e-05,-1.937391e-10,4.673569e-08,7.670749865425912e-05
PART_002_R214G39B40A255,8401,5.361853e-05,-1.769418e-05,-1.769269e-05,1.66989e-05,1.125243e-08,7.935248e-08,7.695437224587106e-05
PART_002_R214G39B40A255,8402,5.361853e-05,-1.769265e-05,-1.769375e-05,1.735703e-05,1.007557e-09,8.711306e-08,7.738982540918592e-05
PART_002_R214G39B40A255,8403,5.361853e-05,-1.769452e-05,-1.769647e-05,1.832412e-05,1.44785e-08,6.642296e-08,7.805782568574039e-05
PART_002_R214G39B40A255,8404,5.361853e-05,-1.770129e-05,-1.768661e-05,1.962261e-05,9.893649e-10,2.573125e-08,7.899754695078644e-05
PART_003_R247G182B210A255,8405,6.541816e-14,-2.128853e-14,-2.703387e-14,2.025233e-05,-5.817135e-09,-1.144282e-16,3.507806597866934e-05
PART_003_R247G182B210A255,8406,6.340924e-14,-4.018313e-14,-1.365419e-14,1.894418e-05,-2.448765e-09,1.625956e-16,3.281228254185542e-05
PART_003_R247G182B210A255,8407,7.625432e-14,-6.498274e-14,-2.622691e-14,1.796588e-05,-1.548148e-08,2.670737e-16,3.111782851601102e-05
PART_003_R247G182B210A255,8408,7.717362e-14,-8.393286e-14,-1.380749e-14,1.72913e-05,-9.496328e-10,1.574151e-16,2.9949410174082017e-05
PART_003_R247G182B210A255,8409,8.540087e-14,-9.429957e-14,-2.620068e-14,1.690023e-05,-6.431767e-09,4.977017e-17,2.927205913941792e-05
PART_003_R247G182B210A255,8410,8.176641e-14,-9.75886e-14,-1.403404e-14,1.677112e-05,5.868391e-14,8.394838e-18,2.9048431939834554e-05
PART_002_R214G39B40A255,8411,8.553791e-14,-9.472284e-14,-2.614347e-14,1.690023e-05,6.43188e-09,-8.229942e-17,2.927205913949241e-05
PART_002_R214G39B40A255,8412,7.801279e-14,-8.645862e-14,-1.380375e-14,1.72913e-05,9.497317e-10,-1.669642e-16,2.9949410174091426e-05
PART_002_R214G39B40A255,8413,7.879342e-14,-7.278206e-14,-2.618397e-14,1.796588e-05,1.548156e-08,-9.223088e-17,3.1117828516130425e-05
PART_002_R214G39B40A255,8414,6.846726e-14,-5.639239e-14,-1.367239e-14,1.894418e-05,2.448814e-09,-1.088886e-16,3.281228254186639e-05
PART_002_R214G39B40A255,8415,7.231097e-14,-4.411749e-14,-2.684217e-14,2.025233e-05,5.817153e-09,-1.189277e-16,3.507806597867829e-05
PART_003_R247G182B210A255,8416,-5.361853e-05,1.770129e-05,1.768661e-05,1.962261e-05,-9.893472e-10,2.573125e-08,7.899754695078577e-05
PART_003_R247G182B210A255,8417,-5.361853e-05,1.769452e-05,1.769647e-05,1.832412e-05,-1.447845e-08,6.642298e-08,7.805782568576363e-05
PART_003_R247G182B210A255,8418,-5.361853e-05,1.769265e-05,1.769374e-05,1.735703e-05,-1.007482e-09,8.711308e-08,7.738982080183789e-05
PART_003_R247G182B210A255,8419,-5.361853e-05,1.769418e-05,1.769269e-05,1.66989e-05,-1.125233e-08,7.935252e-08,7.695437224595092e-05
PART_003_R247G182B210A255,8420,-5.361853e-05,1.769161e-05,1.769449e-05,1.631658e-05,1.938483e-10,4.673572e-08,7.670749865431478e-05
PART_001_R158G218B229A255,8421,-5.361853e-05,1.769501e-05,1.769051e-05,1.619261e-05,5.608682e-14,1.92527e-14,7.66283364851926e-05
PART_001_R158G218B229A255,8422,-5.361853e-05,1.769161e-05,1.769449e-05,1.631658e-05,-1.93739e-10,-4.673569e-08,7.670749865425912e-05
PART_002_R214G39B40A255,8423,-5.361853e-05,1.769418e-05,1.769269e-05,1.66989e-05,1.125243e-08,-7.935248e-08,7.695437224587106e-05
PART_002_R214G39B40A255,8424,-5.361853e-05,1.769265e-05,1.769374e-05,1.735703e-05,1.007557e-09,-8.711306e-08,7.738982080177328e-05
PART_002_R214G39B40A255,8425,-5.361853e-05,1.769452e-05,1.769647e-05,1.832412e-05,1.44785e-08,-6.642296e-08,7.805782568574039e-05
PART_002_R214G39B40A255,8426,-5.361853e-05,1.770129e-05,1.768661e-05,1.962261e-05,9.893651e-10,-2.573125e-08,7.899754695078645e-05
PART_003_R247G182B210A255,8427,-0.0001072371,3.53925e-05,3.53951e-05,1.772536e-05,-7.484832e-09,5.843234e-08,0.00014589773545998583
PART_003_R247G182B210A255,8428,-0.0001072371,3.539205e-05,3.538128e-05,1.645285e-05,6.01447e-10,1.613811e-07,0.00014544313452961928
PART_003_R247G182B210A255,8429,-0.0001072371,3.538793e-05,3.538855e-05,1.553576e-05,-1.426671e-08,2.068037e-07,0.00014514198579551247
PART_003_R247G182B210A255,8430,-0.0001072371,3.538256e-05,3.538959e-05,1.492193e-05,2.20915e-09,1.868184e-07,0.000144946427299557
PART_001_R158G218B229A255,8431,-0.0001072371,3.539009e-05,3.538094e-05,1.457597e-05,-2.162442e-09,1.104243e-07,0.00014483999334147788
PART_001_R158G218B229A255,8432,-0.0001072371,3.538752e-05,3.538475e-05,1.446381e-05,4.97517e-14,3.708904e-14,0.00014480674213160173
PART_001_R158G218B229A255,8433,-0.0001072371,3.539009e-05,3.538094e-05,1.457597e-05,2.162538e-09,-1.104242e-07,0.00014483999334125348
PART_001_R158G218B229A255,8434,-0.0001072371,3.538256e-05,3.538959e-05,1.492193e-05,-2.209068e-09,-1.868183e-07,0.00014494642729916658
PART_002_R214G39B40A255,8435,-0.0001072371,3.538793e-05,3.538855e-05,1.553576e-05,1.426677e-08,-2.068037e-07,0.00014514198579553017
PART_002_R214G39B40A255,8436,-0.0001072371,3.539205e-05,3.538128e-05,1.645285e-05,-6.014083e-10,-1.61381e-07,0.00014544313452928591
PART_002_R214G39B40A255,8437,-0.0001072371,3.53925e-05,3.53951e-05,1.772536e-05,7.484845e-09,-5.843233e-08,0.0001458977354599758
PART_003_R247G182B210A255,8438,-0.0001608556,5.310662e-05,5.305456e-05,1.452033e-05,1.879655e-09,1.261996e-07,0.0002154095243111175
PART_003_R247G182B210A255,8439,-0.0001608556,5.308238e-05,5.308935e-05,1.331918e-05,-1.880558e-08,3.183525e-07,0.0002151823813798225
PART_003_R247G182B210A255,8440,-0.0001608556,5.307248e-05,5.308515e-05,1.24938e-05,7.453101e-09,4.059888e-07,0.00021502723968016754
PART_001_R158G218B229A255,8441,-0.0001608556,5.308527e-05,5.307119e-05,1.198339e-05,1.998737e-09,3.623547e-07,0.00021493925325449673
PART_001_R158G218B229A255,8442,-0.0001608556,5.308516e-05,5.307331e-05,1.170197e-05,1.621023e-09,2.069263e-07,0.0002148931141307251
PART_001_R158G218B229A255,8443,-0.0001608556,5.308596e-05,5.306928e-05,1.161084e-05,3.881081e-14,5.172969e-14,0.00021487637758663
PART_001_R158G218B229A255,8444,-0.0001608556,5.308516e-05,5.307331e-05,1.170197e-05,-1.620948e-09,-2.069262e-07,0.00021489311413043453
PART_001_R158G218B229A255,8445,-0.0001608556,5.308527e-05,5.307119e-05,1.198339e-05,-1.998674e-09,-3.623546e-07,0.00021493925325398921
PART_001_R158G218B229A255,8446,-0.0001608556,5.307248e-05,5.308515e-05,1.24938e-05,-7.453054e-09,-4.059888e-07,0.00021502723968016267
PART_002_R214G39B40A255,8447,-0.0001608556,5.308238e-05,5.308935e-05,1.331918e-05,1.88056e-08,-3.183525e-07,0.00021518238137982774
PART_002_R214G39B40A255,8448,-0.0001608556,5.310662e-05,5.305456e-05,1.452033e-05,-1.879645e-09,-1.261995e-07,0.0002154095243109415
PART_003_R247G182B210A255,8449,-0.0002144741,7.07823e-05,7.080213e-05,9.932606e-06,-1.76414e-08,2.312778e-07,0.0002857848879076252
PART_003_R247G182B210A255,8450,-0.0002144741,7.076629e-05,7.077415e-05,8.856098e-06,1.719321e-08,6.334125e-07,0.00028565856905571514
PART_001_R158G218B229A255,8451,-0.0002144741,7.078086e-05,7.075802e-05,8.266722e-06,1.22908e-08,7.743504e-07,0.00028560583483128264
PART_001_R158G218B229A255,8452,-0.0002144741,7.078601e-05,7.075844e-05,7.924963e-06,3.611296e-09,6.407632e-07,0.0002855785590398869
PART_001_R158G218B229A255,8453,-0.0002144741,7.078122e-05,7.075817e-05,7.736566e-06,3.013075e-09,3.580883e-07,0.00028555905002962807
PART_001_R158G218B229A255,8454,-0.0002144741,7.078817e-05,7.075693e-05,7.679059e-06,2.511742e-14,6.096269e-14,0.0002855565721701256
PART_001_R158G218B229A255,8455,-0.0002144741,7.078122e-05,7.075817e-05,7.736566e-06,-3.013027e-09,-3.580882e-07,0.00028555905002925034
PART_001_R158G218B229A255,8456,-0.0002144741,7.078601e-05,7.075844e-05,7.924963e-06,-3.611257e-09,-6.407631e-07,0.0002855785590392123
PART_001_R158G218B229A255,8457,-0.0002144741,7.078086e-05,7.075802e-05,8.266722e-06,-1.229077e-08,-7.743503e-07,0.00028560583483046536
PART_001_R158G218B229A255,8458,-0.0002144741,7.076629e-05,7.077415e-05,8.856098e-06,-1.71932e-08,-6.334125e-07,0.00028565856905571335
PART_002_R214G39B40A255,8459,-0.0002144741,7.07823e-05,7.080213e-05,9.932606e-06,1.76414e-08,-2.312777e-07,0.00028578488790738247
PART_003_R247G182B210A255,8460,-0.0002680926,8.85234e-05,8.838917e-05,3.64802e-06,2.714444e-08,6.234948e-07,0.00035660652476578837
PART_001_R158G218B229A255,8461,-0.0002680926,8.847258e-05,8.843329e-05,3.134943e-06,1.671388e-08,1.347983e-06,0.0003565945250583921
PART_001_R158G218B229A255,8462,-0.0002680926,8.849799e-05,8.843209e-05,2.93875e-06,3.271125e-09,1.372503e-06,0.0003566018984522101
PART_001_R158G218B229A255,8463,-0.0002680926,8.847506e-05,8.844626e-05,2.809206e-06,3.908155e-09,1.070267e-06,0.00035659127753484636
PART_001_R158G218B229A255,8464,-0.0002680926,8.849029e-05,8.844153e-05,2.747208e-06,5.50571e-10,5.776146e-07,0.00035659166452505143
PART_001_R158G218B229A255,8465,-0.0002680926,8.847586e-05,8.844848e-05,2.724423e-06,8.523959e-15,6.359055e-14,0.000356585995257876
PART_001_R158G218B229A255,8466,-0.0002680926,8.849029e-05,8.844153e-05,2.747208e-06,-5.505536e-10,-5.776145e-07,0.00035659166452456544
PART_001_R158G218B229A255,8467,-0.0002680926,8.847506e-05,8.844626e-05,2.809206e-06,-3.908143e-09,-1.070266e-06,0.0003565912775258418
PART_001_R158G218B229A255,8468,-0.0002680926,8.849799e-05,8.843209e-05,2.93875e-06,-3.271116e-09,-1.372503e-06,0.0003566018984522099
PART_001_R158G218B229A255,8469,-0.0002680926,8.847258e-05,8.843329e-05,3.134943e-06,-1.671388e-08,-1.347983e-06,0.0003565945250583921
PART_001_R158G218B229A255,8470,-0.0002680926,8.85234e-05,8.838917e-05,3.64802e-06,-2.714444e-08,-6.234948e-07,0.00035660652476578837
PART_003_R247G182B210A255,8471,0.0002635487,-8.7023e-05,-8.689104e-05,3.64802e-06,2.668454e-08,-6.234948e-07,0.0003505643526316555
PART_000_R31G119B180A255,8472,0.0002635487,-8.697304e-05,-8.693443e-05,3.134943e-06,1.643049e-08,-1.347983e-06,0.00035055226949230544
PART_000_R31G119B180A255,8473,0.0002635487,-8.699803e-05,-8.693323e-05,2.93875e-06,3.215751e-09,-1.372503e-06,0.00035055935127135696
PART_000_R31G119B180A255,8474,0.0002635487,-8.697548e-05,-8.694718e-05,2.809206e-06,3.841878e-09,-1.070266e-06,0.0003505487028909565
PART_000_R31G119B180A255,8475,0.0002635487,-8.699046e-05,-8.694251e-05,2.747208e-06,5.412611e-10,-5.776147e-07,0.0003505489110131078
PART_000_R31G119B180A255,8476,0.0002635487,-8.697627e-05,-8.694936e-05,2.724423e-06,1.311747e-14,-8.114522e-14,0.0003505432785445402
PART_000_R31G119B180A255,8477,0.0002635487,-8.699046e-05,-8.694251e-05,2.747208e-06,-5.412382e-10,5.776146e-07,0.00035054891101261333
PART_000_R31G119B180A255,8478,0.0002635487,-8.697548e-05,-8.694718e-05,2.809206e-06,-3.841858e-09,1.070266e-06,0.00035054870289095584
PART_000_R31G119B180A255,8479,0.0002635487,-8.699803e-05,-8.693323e-05,2.93875e-06,-3.215739e-09,1.372503e-06,0.0003505593512713566
PART_000_R31G119B180A255,8480,0.0002635487,-8.697304e-05,-8.693443e-05,3.134943e-06,-1.643048e-08,1.347983e-06,0.00035055226949230403
PART_000_R31G119B180A255,8481,0.0002635487,-8.7023e-05,-8.689104e-05,3.64802e-06,-2.668454e-08,6.234948e-07,0.0003505643526316555
PART_003_R247G182B210A255,8482,0.0002108389,-6.95826e-05,-6.960208e-05,9.932606e-06,-1.734243e-08,-2.312778e-07,0.000280958737199853
PART_003_R247G182B210A255,8483,0.000210839,-6.956686e-05,-6.957459e-05,8.856098e-06,1.690181e-08,-6.334124e-07,0.0002808311055164048
PART_000_R31G119B180A255,8484,0.0002108389,-6.958119e-05,-6.955873e-05,8.266722e-06,1.208249e-08,-7.743506e-07,0.00028077739317336253
PART_000_R31G119B180A255,8485,0.000210839,-6.958624e-05,-6.955915e-05,7.924963e-06,3.550093e-09,-6.407631e-07,0.00028074965027349304
PART_000_R31G119B180A255,8486,0.0002108389,-6.958154e-05,-6.955887e-05,7.736566e-06,2.962018e-09,-3.580884e-07,0.00028072978933663605
PART_000_R31G119B180A255,8487,0.000210839,-6.958837e-05,-6.955766e-05,7.679059e-06,3.643049e-14,-7.810899e-14,0.0002807272746012841
PART_000_R31G119B180A255,8488,0.0002108389,-6.958154e-05,-6.955887e-05,7.736566e-06,-2.961952e-09,3.580882e-07,0.00028072978933586866
PART_000_R31G119B180A255,8489,0.000210839,-6.958624e-05,-6.955915e-05,7.924963e-06,-3.550035e-09,6.40763e-07,0.00028074965027280615
PART_000_R31G119B180A255,8490,0.0002108389,-6.958119e-05,-6.955873e-05,8.266722e-06,-1.208245e-08,7.743505e-07,0.00028077739317253
PART_000_R31G119B180A255,8491,0.000210839,-6.956686e-05,-6.957459e-05,8.856098e-06,-1.690179e-08,6.334123e-07,0.0002808311055157245
PART_002_R214G39B40A255,8492,0.0002108389,-6.95826e-05,-6.960208e-05,9.932606e-06,1.734244e-08,2.312778e-07,0.0002809587371998548
PART_003_R247G182B210A255,8493,0.0001581292,-5.220651e-05,-5.215532e-05,1.452033e-05,1.847818e-09,-1.261996e-07,0.00021180867351412315
PART_003_R247G182B210A255,8494,0.0001581292,-5.218268e-05,-5.218954e-05,1.331918e-05,-1.848682e-08,-3.183524e-07,0.00021157749500678777
PART_003_R247G182B210A255,8495,0.0001581292,-5.217294e-05,-5.218539e-05,1.24938e-05,7.326778e-09,-4.05989e-07,0.0002114199334566031
PART_000_R31G119B180A255,8496,0.0001581292,-5.218552e-05,-5.217168e-05,1.198339e-05,1.964879e-09,-3.623546e-07,0.00021133047510079128
PART_000_R31G119B180A255,8497,0.0001581292,-5.218541e-05,-5.217376e-05,1.170197e-05,1.593561e-09,-2.069264e-07,0.00021128351075943943
PART_000_R31G119B180A255,8498,0.0001581292,-5.218619e-05,-5.21698e-05,1.161084e-05,5.544551e-14,-6.633752e-14,0.0002112665408595476
PART_000_R31G119B180A255,8499,0.0001581292,-5.218541e-05,-5.217376e-05,1.170197e-05,-1.593456e-09,2.069263e-07,0.00021128351075914325
PART_000_R31G119B180A255,8500,0.0001581292,-5.218552e-05,-5.217168e-05,1.198339e-05,-1.964789e-09,3.623545e-07,0.00021133047510027441
PART_000_R31G119B180A255,8501,0.0001581292,-5.217294e-05,-5.218539e-05,1.24938e-05,-7.326713e-09,4.059889e-07,0.00021141993345602026
PART_002_R214G39B40A255,8502,0.0001581292,-5.218268e-05,-5.218954e-05,1.331918e-05,1.848686e-08,3.183523e-07,0.00021157749500634685
PART_002_R214G39B40A255,8503,0.0001581292,-5.220651e-05,-5.215532e-05,1.452033e-05,-1.847807e-09,1.261996e-07,0.00021180867351412288
PART_003_R247G182B210A255,8504,0.0001054195,-3.479263e-05,-3.479518e-05,1.772536e-05,-7.357983e-09,-5.843238e-08,0.00014353527271513625
PART_003_R247G182B210A255,8505,0.0001054195,-3.479219e-05,-3.47816e-05,1.645285e-05,5.912549e-10,-1.61381e-07,0.00014307340855275948
PART_003_R247G182B210A255,8506,0.0001054195,-3.478814e-05,-3.478874e-05,1.553576e-05,-1.402488e-08,-2.068038e-07,0.0001427672050898709
PART_003_R247G182B210A255,8507,0.0001054195,-3.478286e-05,-3.478977e-05,1.492193e-05,2.171726e-09,-1.868183e-07,0.0001425684652992408
PART_000_R31G119B180A255,8508,0.0001054195,-3.479026e-05,-3.478126e-05,1.457597e-05,-2.125772e-09,-1.104243e-07,0.00014246026916609104
PART_000_R31G119B180A255,8509,0.0001054195,-3.478773e-05,-3.478502e-05,1.446381e-05,7.054883e-14,-4.811755e-14,0.00014242644694428068
PART_000_R31G119B180A255,8510,0.0001054195,-3.479026e-05,-3.478126e-05,1.457597e-05,2.125905e-09,1.104242e-07,0.00014246026916586444
PART_000_R31G119B180A255,8511,0.0001054195,-3.478286e-05,-3.478977e-05,1.492193e-05,-2.171609e-09,1.868182e-07,0.00014256846529884232
PART_002_R214G39B40A255,8512,0.0001054195,-3.478814e-05,-3.478874e-05,1.553576e-05,1.402497e-08,2.068038e-07,0.0001427672050898974
PART_002_R214G39B40A255,8513,0.0001054195,-3.479219e-05,-3.47816e-05,1.645285e-05,-5.911973e-10,1.61381e-07,0.00014307340855275878
PART_002_R214G39B40A255,8514,0.0001054195,-3.479263e-05,-3.479518e-05,1.772536e-05,7.358002e-09,5.843237e-08,0.00014353527271512696
PART_003_R247G182B210A255,8515,5.270974e-05,-1.740127e-05,-1.738683e-05,1.962261e-05,-9.725642e-10,-2.573127e-08,7.790817664095349e-05
PART_003_R247G182B210A255,8516,5.270974e-05,-1.739461e-05,-1.739653e-05,1.832412e-05,-1.423303e-08,-6.642294e-08,7.69551067703918e-05
PART_003_R247G182B210A255,8517,5.270974e-05,-1.739277e-05,-1.739385e-05,1.735703e-05,-9.903956e-10,-8.711314e-08,7.627751870951317e-05
PART_003_R247G182B210A255,8518,5.270974e-05,-1.739428e-05,-1.739282e-05,1.66989e-05,-1.106159e-08,-7.935248e-08,7.583567967373515e-05
PART_003_R247G182B210A255,8519,5.270974e-05,-1.739175e-05,-1.739459e-05,1.631658e-05,1.905842e-10,-4.673575e-08,7.558516321346705e-05
PART_000_R31G119B180A255,8520,5.270974e-05,-1.73951e-05,-1.739067e-05,1.619261e-05,7.972758e-14,-2.529068e-14,7.550483363630171e-05
PART_000_R31G119B180A255,8521,5.270974e-05,-1.739175e-05,-1.739459e-05,1.631658e-05,-1.90432e-10,4.67357e-08,7.558516321337314e-05
PART_002_R214G39B40A255,8522,5.270974e-05,-1.739428e-05,-1.739282e-05,1.66989e-05,1.106173e-08,7.935244e-08,7.583567967367084e-05
PART_002_R214G39B40A255,8523,5.270974e-05,-1.739277e-05,-1.739385e-05,1.735703e-05,9.904995e-10,8.71131e-08,7.627751870938016e-05
PART_002_R214G39B40A255,8524,5.270974e-05,-1.739461e-05,-1.739653e-05,1.832412e-05,1.42331e-08,6.642292e-08,7.695510677037886e-05
PART_002_R214G39B40A255,8525,5.270974e-05,-1.740127e-05,-1.738683e-05,1.962261e-05,9.725865e-10,2.573126e-08,7.790817664094441e-05
PART_003_R247G182B210A255,8526,5.177683e-14,-1.450923e-14,-1.249015e-14,2.025233e-05,-5.718547e-09,1.940214e-17,3.507806593003724e-05
PART_003_R247G182B210A255,8527,5.240773e-14,9.027501e-15,-2.760011e-14,1.894418e-05,-2.407255e-09,-3.72022e-16,3.281228253264058e-05
PART_003_R247G182B210A255,8528,3.627903e-14,3.925332e-14,-1.271447e-14,1.796588e-05,-1.521907e-08,-3.313741e-16,3.111782812767425e-05
PART_003_R247G182B210A255,8529,3.463907e-14,6.25125e-14,-2.729899e-14,1.72913e-05,-9.335134e-10,-5.733524e-17,2.9949410172561695e-05
PART_003_R247G182B210A255,8530,2.497698e-14,7.533557e-14,-1.343218e-14,1.690023e-05,-6.322732e-09,4.963444e-17,2.9272059068154394e-05
PART_003_R247G182B210A255,8531,2.91581e-14,7.923523e-14,-2.744338e-14,1.677112e-05,8.316043e-14,-2.628439e-17,2.9048431939834554e-05
PART_002_R214G39B40A255,8532,2.470756e-14,7.591844e-14,-1.346216e-14,1.690023e-05,6.32289e-09,-6.427498e-17,2.9272059068256776e-05
PART_002_R214G39B40A255,8533,3.34652e-14,6.557949e-14,-2.722352e-14,1.72913e-05,9.336545e-10,-4.927487e-17,2.994941017257489e-05
PART_002_R214G39B40A255,8534,3.284796e-14,4.9169e-14,-1.274726e-14,1.796588e-05,1.521918e-08,1.048771e-16,3.111782812783565e-05
PART_002_R214G39B40A255,8535,4.569598e-14,2.915723e-14,-2.746619e-14,1.894418e-05,2.407329e-09,2.675447e-16,3.281228253265686e-05
PART_002_R214G39B40A255,8536,4.264156e-14,1.375289e-14,-1.247233e-14,2.025233e-05,5.718572e-09,2.456531e-16,3.507806593004947e-05
PART_003_R247G182B210A255,8537,-5.270974e-05,1.740127e-05,1.738683e-05,1.962261e-05,-9.725646e-10,2.573127e-08,7.79081766409535e-05
PART_003_R247G182B210A255,8538,-5.270974e-05,1.739461e-05,1.739653e-05,1.832412e-05,-1.423303e-08,6.642294e-08,7.69551067703918e-05
PART_003_R247G182B210A255,8539,-5.270974e-05,1.739277e-05,1.739385e-05,1.735703e-05,-9.903956e-10,8.711314e-08,7.627751870951317e-05
PART_003_R247G182B210A255,8540,-5.270974e-05,1.739428e-05,1.739282e-05,1.66989e-05,-1.106159e-08,7.935248e-08,7.583567967373515e-05
PART_003_R247G182B210A255,8541,-5.270974e-05,1.739175e-05,1.739459e-05,1.631658e-05,1.905842e-10,4.673575e-08,7.558516321346705e-05
PART_001_R158G218B229A255,8542,-5.270974e-05,1.73951e-05,1.739067e-05,1.619261e-05,7.979005e-14,2.511554e-14,7.550483363630171e-05
PART_001_R158G218B229A255,8543,-5.270974e-05,1.739175e-05,1.739459e-05,1.631658e-05,-1.90432e-10,-4.67357e-08,7.558516321337314e-05
PART_002_R214G39B40A255,8544,-5.270974e-05,1.739428e-05,1.739282e-05,1.66989e-05,1.106173e-08,-7.935244e-08,7.583567967367084e-05
PART_002_R214G39B40A255,8545,-5.270974e-05,1.739277e-05,1.739385e-05,1.735703e-05,9.904995e-10,-8.71131e-08,7.627751870938016e-05
PART_002_R214G39B40A255,8546,-5.270974e-05,1.739461e-05,1.739653e-05,1.832412e-05,1.42331e-08,-6.642292e-08,7.695510677037886e-05
PART_002_R214G39B40A255,8547,-5.270974e-05,1.740127e-05,1.738683e-05,1.962261e-05,9.725867e-10,-2.573126e-08,7.790817664094443e-05
PART_003_R247G182B210A255,8548,-0.0001054195,3.479263e-05,3.479518e-05,1.772536e-05,-7.357983e-09,5.843238e-08,0.00014353527271513625
PART_003_R247G182B210A255,8549,-0.0001054195,3.479219e-05,3.47816e-05,1.645285e-05,5.912547e-10,1.61381e-07,0.00014307340855275948
PART_003_R247G182B210A255,8550,-0.0001054195,3.478814e-05,3.478874e-05,1.553576e-05,-1.402488e-08,2.068038e-07,0.0001427672050898709
PART_003_R247G182B210A255,8551,-0.0001054195,3.478286e-05,3.478977e-05,1.492193e-05,2.171726e-09,1.868183e-07,0.0001425684652992408
PART_001_R158G218B229A255,8552,-0.0001054195,3.479026e-05,3.478126e-05,1.457597e-05,-2.125772e-09,1.104243e-07,0.00014246026916609104
PART_001_R158G218B229A255,8553,-0.0001054195,3.478773e-05,3.478502e-05,1.446381e-05,7.055609e-14,4.751074e-14,0.00014242644694428068
PART_001_R158G218B229A255,8554,-0.0001054195,3.479026e-05,3.478126e-05,1.457597e-05,2.125905e-09,-1.104242e-07,0.00014246026916586444
PART_001_R158G218B229A255,8555,-0.0001054195,3.478286e-05,3.478977e-05,1.492193e-05,-2.171609e-09,-1.868182e-07,0.00014256846529884232
PART_002_R214G39B40A255,8556,-0.0001054195,3.478814e-05,3.478874e-05,1.553576e-05,1.402497e-08,-2.068038e-07,0.0001427672050898974
PART_002_R214G39B40A255,8557,-0.0001054195,3.479219e-05,3.47816e-05,1.645285e-05,-5.911973e-10,-1.613809e-07,0.00014307340855242037
PART_002_R214G39B40A255,8558,-0.0001054195,3.479263e-05,3.479518e-05,1.772536e-05,7.358002e-09,-5.843237e-08,0.00014353527271512696
PART_003_R247G182B210A255,8559,-0.0001581292,5.220651e-05,5.215532e-05,1.452033e-05,1.847818e-09,1.261996e-07,0.00021180867351412315
PART_003_R247G182B210A255,8560,-0.0001581292,5.218268e-05,5.218954e-05,1.331918e-05,-1.848682e-08,3.183524e-07,0.00021157749500678777
PART_003_R247G182B210A255,8561,-0.0001581292,5.217294e-05,5.218539e-05,1.24938e-05,7.326779e-09,4.05989e-07,0.0002114199334566032
PART_001_R158G218B229A255,8562,-0.0001581292,5.218552e-05,5.217168e-05,1.198339e-05,1.964879e-09,3.623546e-07,0.00021133047510079128
PART_001_R158G218B229A255,8563,-0.0001581292,5.218541e-05,5.217376e-05,1.170197e-05,1.593561e-09,2.069264e-07,0.00021128351075943943
PART_001_R158G218B229A255,8564,-0.0001581292,5.218619e-05,5.21698e-05,1.161084e-05,5.537075e-14,6.52291e-14,0.0002112665408595476
PART_001_R158G218B229A255,8565,-0.0001581292,5.218541e-05,5.217376e-05,1.170197e-05,-1.593456e-09,-2.069263e-07,0.00021128351075914325
PART_001_R158G218B229A255,8566,-0.0001581292,5.218552e-05,5.217168e-05,1.198339e-05,-1.964789e-09,-3.623545e-07,0.00021133047510027441
PART_001_R158G218B229A255,8567,-0.0001581292,5.217294e-05,5.218539e-05,1.24938e-05,-7.326714e-09,-4.059889e-07,0.00021141993345602037
PART_002_R214G39B40A255,8568,-0.0001581292,5.218268e-05,5.218954e-05,1.331918e-05,1.848686e-08,-3.183523e-07,0.00021157749500634685
PART_002_R214G39B40A255,8569,-0.0001581292,5.220651e-05,5.215532e-05,1.452033e-05,-1.847807e-09,-1.261996e-07,0.00021180867351412288
PART_003_R247G182B210A255,8570,-0.0002108389,6.95826e-05,6.960208e-05,9.932606e-06,-1.734243e-08,2.312779e-07,0.00028095873720009994
PART_003_R247G182B210A255,8571,-0.000210839,6.956686e-05,6.957459e-05,8.856098e-06,1.690181e-08,6.334123e-07,0.0002808311055157281
PART_001_R158G218B229A255,8572,-0.0002108389,6.958119e-05,6.955873e-05,8.266722e-06,1.208249e-08,7.743506e-07,0.00028077739317336253
PART_001_R158G218B229A255,8573,-0.000210839,6.958625e-05,6.955915e-05,7.924963e-06,3.550093e-09,6.407631e-07,0.00028074965526819805
PART_001_R158G218B229A255,8574,-0.0002108389,6.958154e-05,6.955887e-05,7.736566e-06,2.962018e-09,3.580884e-07,0.00028072978933663605
PART_001_R158G218B229A255,8575,-0.000210839,6.958837e-05,6.955766e-05,7.679059e-06,3.64524e-14,7.698292e-14,0.0002807272746012841
PART_001_R158G218B229A255,8576,-0.0002108389,6.958154e-05,6.955887e-05,7.736566e-06,-2.961952e-09,-3.580882e-07,0.00028072978933586866
PART_001_R158G218B229A255,8577,-0.000210839,6.958624e-05,6.955915e-05,7.924963e-06,-3.550036e-09,-6.40763e-07,0.0002807496502728062
PART_001_R158G218B229A255,8578,-0.0002108389,6.958119e-05,6.955873e-05,8.266722e-06,-1.208245e-08,-7.743505e-07,0.00028077739317253
PART_001_R158G218B229A255,8579,-0.000210839,6.956686e-05,6.957459e-05,8.856098e-06,-1.690179e-08,-6.334123e-07,0.0002808311055157245
PART_002_R214G39B40A255,8580,-0.0002108389,6.95826e-05,6.960208e-05,9.932606e-06,1.734244e-08,-2.312778e-07,0.0002809587371998548
PART_003_R247G182B210A255,8581,-0.0002635487,8.7023e-05,8.689104e-05,3.64802e-06,2.668453e-08,6.234948e-07,0.00035056435263165325
PART_001_R158G218B229A255,8582,-0.0002635487,8.697304e-05,8.693443e-05,3.134943e-06,1.64305e-08,1.347983e-06,0.00035055226949230685
PART_001_R158G218B229A255,8583,-0.0002635487,8.699803e-05,8.693323e-05,2.93875e-06,3.215748e-09,1.372503e-06,0.00035055935127135685
PART_001_R158G218B229A255,8584,-0.0002635487,8.697548e-05,8.694718e-05,2.809206e-06,3.84188e-09,1.070266e-06,0.00035054870289095654
PART_001_R158G218B229A255,8585,-0.0002635487,8.699046e-05,8.694251e-05,2.747208e-06,5.412604e-10,5.776147e-07,0.0003505489110131078
PART_001_R158G218B229A255,8586,-0.0002635487,8.697627e-05,8.694936e-05,2.724423e-06,1.314202e-14,8.037421e-14,0.0003505432785445402
PART_001_R158G218B229A255,8587,-0.0002635487,8.699046e-05,8.694251e-05,2.747208e-06,-5.412376e-10,-5.776146e-07,0.00035054891101261333
PART_001_R158G218B229A255,8588,-0.0002635487,8.697548e-05,8.694718e-05,2.809206e-06,-3.84186e-09,-1.070266e-06,0.00035054870289095595
PART_001_R158G218B229A255,8589,-0.0002635487,8.699803e-05,8.693323e-05,2.93875e-06,-3.215737e-09,-1.372503e-06,0.0003505593512713566
PART_001_R158G218B229A255,8590,-0.0002635487,8.697304e-05,8.693443e-05,3.134943e-06,-1.643049e-08,-1.347983e-06,0.00035055226949230544
PART_001_R158G218B229A255,8591,-0.0002635487,8.7023e-05,8.689104e-05,3.64802e-06,-2.668453e-08,-6.234948e-07,0.00035056435263165325
PART_003_R247G182B210A255,8592,0.0002590047,-8.55226e-05,-8.539292e-05,3.64802e-06,2.622432e-08,-6.234948e-07,0.00034452212035242577
PART_000_R31G119B180A255,8593,0.0002590047,-8.547351e-05,-8.543555e-05,3.134943e-06,1.61473e-08,-1.347983e-06,0.0003445099385684898
PART_000_R31G119B180A255,8594,0.0002590047,-8.549806e-05,-8.543439e-05,2.93875e-06,3.160254e-09,-1.372503e-06,0.0003445167358617886
PART_000_R31G119B180A255,8595,0.0002590047,-8.547591e-05,-8.544808e-05,2.809206e-06,3.775676e-09,-1.070267e-06,0.00034450604627100093
PART_000_R31G119B180A255,8596,0.0002590047,-8.549062e-05,-8.544351e-05,2.747208e-06,5.319194e-10,-5.776147e-07,0.0003445060825576072
PART_000_R31G119B180A255,8597,0.0002590047,-8.547668e-05,-8.545023e-05,2.724423e-06,1.702661e-14,-1.04524e-13,0.00034450047572660137
PART_000_R31G119B180A255,8598,0.0002590047,-8.549062e-05,-8.544351e-05,2.747208e-06,-5.318844e-10,5.776145e-07,0.00034450608255660105
PART_000_R31G119B180A255,8599,0.0002590047,-8.54759e-05,-8.544808e-05,2.809206e-06,-3.77565e-09,1.070266e-06,0.0003445060412616454
PART_000_R31G119B180A255,8600,0.0002590047,-8.549806e-05,-8.543439e-05,2.93875e-06,-3.160235e-09,1.372503e-06,0.0003445167358617881
PART_000_R31G119B180A255,8601,0.0002590047,-8.547351e-05,-8.543555e-05,3.134943e-06,-1.614729e-08,1.347983e-06,0.00034450993856848834
PART_000_R31G119B180A255,8602,0.0002590047,-8.55226e-05,-8.539292e-05,3.64802e-06,-2.622431e-08,6.234948e-07,0.0003445221203524235
PART_003_R247G182B210A255,8603,0.0002072038,-6.83829e-05,-6.840205e-05,9.932606e-06,-1.704339e-08,-2.312778e-07,0.00027613300852028714
PART_003_R247G182B210A255,8604,0.0002072038,-6.836743e-05,-6.837503e-05,8.856098e-06,1.66104e-08,-6.334125e-07,0.0002760037917856915
PART_000_R31G119B180A255,8605,0.0002072038,-6.838151e-05,-6.835944e-05,8.266722e-06,1.187418e-08,-7.743504e-07,0.0002759492648360918
PART_000_R31G119B180A255,8606,0.0002072038,-6.838648e-05,-6.835985e-05,7.924963e-06,3.488899e-09,-6.407632e-07,0.0002759208420092358
PART_000_R31G119B180A255,8607,0.0002072038,-6.838186e-05,-6.835959e-05,7.736566e-06,2.910962e-09,-3.580884e-07,0.000275900828684303
PART_000_R31G119B180A255,8608,0.0002072038,-6.838857e-05,-6.835839e-05,7.679059e-06,4.988604e-14,-1.036435e-13,0.00027589806410466006
PART_000_R31G119B180A255,8609,0.0002072038,-6.838186e-05,-6.835959e-05,7.736566e-06,-2.910866e-09,3.580882e-07,0.00027590082868352126
PART_000_R31G119B180A255,8610,0.0002072038,-6.838648e-05,-6.835985e-05,7.924963e-06,-3.48882e-09,6.407631e-07,0.00027592084200853617
PART_000_R31G119B180A255,8611,0.0002072038,-6.838151e-05,-6.835944e-05,8.266722e-06,-1.187412e-08,7.743503e-07,0.0002759492648352422
PART_000_R31G119B180A255,8612,0.0002072038,-6.836743e-05,-6.837503e-05,8.856098e-06,-1.661037e-08,6.334124e-07,0.0002760037917849976
PART_002_R214G39B40A255,8613,0.0002072038,-6.83829e-05,-6.840205e-05,9.932606e-06,1.70434e-08,2.312777e-07,0.0002761330085200377
PART_003_R247G182B210A255,8614,0.0001554028,-5.13064e-05,-5.12561e-05,1.452033e-05,1.815946e-09,-1.261996e-07,0.00020820870817717205
PART_003_R247G182B210A255,8615,0.0001554028,-5.128297e-05,-5.128972e-05,1.331918e-05,-1.816808e-08,-3.183525e-07,0.00020797333818977918
PART_003_R247G182B210A255,8616,0.0001554028,-5.127341e-05,-5.128565e-05,1.24938e-05,7.200477e-09,-4.059889e-07,0.00020781329456609235
PART_000_R31G119B180A255,8617,0.0001554028,-5.128577e-05,-5.127217e-05,1.198339e-05,1.931016e-09,-3.623547e-07,0.00020772229781778725
PART_000_R31G119B180A255,8618,0.0001554028,-5.128567e-05,-5.127422e-05,1.170197e-05,1.566111e-09,-2.069264e-07,0.0002076744903633274
PART_000_R31G119B180A255,8619,0.0001554028,-5.128643e-05,-5.127032e-05,1.161084e-05,7.658179e-14,-8.967266e-14,0.00020765727319443084
PART_000_R31G119B180A255,8620,0.0001554028,-5.128567e-05,-5.127422e-05,1.170197e-05,-1.565962e-09,2.069262e-07,0.00020767449036272618
PART_000_R31G119B180A255,8621,0.0001554028,-5.128577e-05,-5.127217e-05,1.198339e-05,-1.930891e-09,3.623546e-07,0.00020772229781726044
PART_000_R31G119B180A255,8622,0.0001554028,-5.127341e-05,-5.128565e-05,1.24938e-05,-7.200382e-09,4.059888e-07,0.0002078132945654964
PART_002_R214G39B40A255,8623,0.0001554028,-5.128297e-05,-5.128972e-05,1.331918e-05,1.816814e-08,3.183524e-07,0.0002079733381893357
PART_002_R214G39B40A255,8624,0.0001554028,-5.13064e-05,-5.12561e-05,1.452033e-05,-1.815927e-09,1.261995e-07,0.00020820870817698972
PART_003_R247G182B210A255,8625,0.0001036019,-3.419276e-05,-3.419526e-05,1.772536e-05,-7.231105e-09,-5.843235e-08,0.00014117467329053613
PART_003_R247G182B210A255,8626,0.0001036019,-3.419232e-05,-3.418192e-05,1.645285e-05,5.81077e-10,-1.613811e-07,0.00014070529864095084
PART_003_R247G182B210A255,8627,0.0001036019,-3.418834e-05,-3.418894e-05,1.553576e-05,-1.378306e-08,-2.068038e-07,0.00014039387915236088
PART_003_R247G182B210A255,8628,0.0001036019,-3.418316e-05,-3.418994e-05,1.492193e-05,2.134305e-09,-1.868184e-07,0.00014019184601703127
PART_000_R31G119B180A255,8629,0.0001036019,-3.419043e-05,-3.418159e-05,1.457597e-05,-2.089092e-09,-1.104243e-07,0.00014008183857578045
PART_000_R31G119B180A255,8630,0.0001036019,-3.418794e-05,-3.418527e-05,1.446381e-05,9.74246e-14,-6.530635e-14,0.00014004741166701365
PART_000_R31G119B180A255,8631,0.0001036019,-3.419043e-05,-3.418159e-05,1.457597e-05,2.089279e-09,1.104242e-07,0.0001400818385755523
PART_000_R31G119B180A255,8632,0.0001036019,-3.418316e-05,-3.418994e-05,1.492193e-05,-2.134143e-09,1.868183e-07,0.0001401918460166241
PART_002_R214G39B40A255,8633,0.0001036019,-3.418834e-05,-3.418894e-05,1.553576e-05,1.378318e-08,2.068037e-07,0.00014039387915195433
PART_002_R214G39B40A255,8634,0.0001036019,-3.419232e-05,-3.418192e-05,1.645285e-05,-5.809994e-10,1.61381e-07,0.0001407052986406058
PART_002_R214G39B40A255,8635,0.0001036019,-3.419276e-05,-3.419526e-05,1.772536e-05,7.231132e-09,5.843233e-08,0.00014117467329051545
PART_003_R247G182B210A255,8636,5.180095e-05,-1.710124e-05,-1.708706e-05,1.962261e-05,-9.55798e-10,-2.573126e-08,7.682237573444649e-05
PART_003_R247G182B210A255,8637,5.180095e-05,-1.70947e-05,-1.709659e-05,1.832412e-05,-1.398763e-08,-6.642298e-08,7.585561778533278e-05
PART_003_R247G182B210A255,8638,5.180095e-05,-1.70929e-05,-1.709396e-05,1.735703e-05,-9.732932e-10,-8.71131e-08,7.51681969759038e-05
PART_003_R247G182B210A255,8639,5.180095e-05,-1.709438e-05,-1.709294e-05,1.66989e-05,-1.087085e-08,-7.935252e-08,7.471978531306638e-05
PART_003_R247G182B210A255,8640,5.180095e-05,-1.70919e-05,-1.709468e-05,1.631658e-05,1.873312e-10,-4.673574e-08,7.446553036443478e-05
PART_000_R31G119B180A255,8641,5.180095e-05,-1.709518e-05,-1.709083e-05,1.619261e-05,1.099906e-13,-3.432565e-14,7.438399630007922e-05
PART_000_R31G119B180A255,8642,5.180095e-05,-1.70919e-05,-1.709468e-05,1.631658e-05,-1.871172e-10,4.673568e-08,7.44655303643202e-05
PART_002_R214G39B40A255,8643,5.180095e-05,-1.709438e-05,-1.709294e-05,1.66989e-05,1.087103e-08,7.935246e-08,7.471978531295377e-05
PART_002_R214G39B40A255,8644,5.180095e-05,-1.70929e-05,-1.709396e-05,1.735703e-05,9.734413e-10,8.711306e-08,7.516819697577049e-05
PART_002_R214G39B40A255,8645,5.180095e-05,-1.70947e-05,-1.709659e-05,1.832412e-05,1.398772e-08,6.642295e-08,7.585561778530376e-05
PART_002_R214G39B40A255,8646,5.180095e-05,-1.710124e-05,-1.708706e-05,1.962261e-05,9.558336e-10,2.573125e-08,7.682237573443778e-05
PART_003_R247G182B210A255,8647,6.350877e-14,-1.807582e-14,-2.907739e-14,2.025233e-05,-5.619937e-09,1.462961e-16,3.507806588222583e-05
PART_003_R247G182B210A255,8648,6.209464e-14,-4.738571e-14,-1.141695e-14,1.894418e-05,-2.365732e-09,1.067675e-15,3.281228252358046e-05
PART_003_R247G182B210A255,8649,8.134791e-14,-8.518186e-14,-2.861005e-14,1.796588e-05,-1.495664e-08,1.386683e-15,3.1117827745947184e-05
PART_003_R247G182B210A255,8650,8.42372e-14,-1.14124e-13,-1.254522e-14,1.72913e-05,-9.173922e-10,1.186346e-15,2.9949410171067234e-05
PART_003_R247G182B210A255,8651,9.621514e-14,-1.297573e-13,-2.921895e-14,1.690023e-05,-6.213684e-09,6.089516e-16,2.9272058998101018e-05
PART_003_R247G182B210A255,8652,9.160066e-14,-1.343509e-13,-1.326926e-14,1.677112e-05,1.147893e-13,1.309852e-17,2.9048431939834554e-05
PART_002_R214G39B40A255,8653,9.636541e-14,-1.300279e-13,-2.91931e-14,1.690023e-05,6.213907e-09,-6.635667e-16,2.927205899824303e-05
PART_002_R214G39B40A255,8654,8.532964e-14,-1.173159e-13,-1.256866e-14,1.72913e-05,9.175865e-10,-1.084546e-15,2.994941017108509e-05
PART_002_R214G39B40A255,8655,8.509155e-14,-9.67143e-14,-2.846923e-14,1.796588e-05,1.49568e-08,-1.207648e-15,3.111782774617789e-05
PART_002_R214G39B40A255,8656,6.978814e-14,-7.17898e-14,-1.152784e-14,1.894418e-05,2.365831e-09,-9.034691e-16,3.2812282523601875e-05
PART_002_R214G39B40A255,8657,7.409871e-14,-5.290213e-14,-2.886599e-14,2.025233e-05,5.619972e-09,-4.735058e-16,3.507806588224265e-05
PART_003_R247G182B210A255,8658,-5.180095e-05,1.710124e-05,1.708706e-05,1.962261e-05,-9.55798e-10,2.573126e-08,7.682237573444649e-05
PART_003_R247G182B210A255,8659,-5.180095e-05,1.70947e-05,1.709659e-05,1.832412e-05,-1.398763e-08,6.642298e-08,7.585561778533278e-05
PART_003_R247G182B210A255,8660,-5.180095e-05,1.70929e-05,1.709396e-05,1.735703e-05,-9.732934e-10,8.71131e-08,7.51681969759038e-05
PART_003_R247G182B210A255,8661,-5.180095e-05,1.709438e-05,1.709294e-05,1.66989e-05,-1.087085e-08,7.935252e-08,7.471978531306638e-05
PART_003_R247G182B210A255,8662,-5.180095e-05,1.70919e-05,1.709468e-05,1.631658e-05,1.873311e-10,4.673574e-08,7.446553036443478e-05
PART_001_R158G218B229A255,8663,-5.180095e-05,1.709518e-05,1.709083e-05,1.619261e-05,1.100722e-13,3.45401e-14,7.438399630007922e-05
PART_001_R158G218B229A255,8664,-5.180095e-05,1.70919e-05,1.709468e-05,1.631658e-05,-1.871172e-10,-4.673568e-08,7.44655303643202e-05
PART_002_R214G39B40A255,8665,-5.180095e-05,1.709438e-05,1.709294e-05,1.66989e-05,1.087103e-08,-7.935246e-08,7.471978531295377e-05
PART_002_R214G39B40A255,8666,-5.180095e-05,1.70929e-05,1.709396e-05,1.735703e-05,9.734415e-10,-8.711306e-08,7.516819697577049e-05
PART_002_R214G39B40A255,8667,-5.180095e-05,1.70947e-05,1.709659e-05,1.832412e-05,1.398772e-08,-6.642295e-08,7.585561778530376e-05
PART_002_R214G39B40A255,8668,-5.180095e-05,1.710124e-05,1.708706e-05,1.962261e-05,9.558336e-10,-2.573125e-08,7.682237573443778e-05
PART_003_R247G182B210A255,8669,-0.0001036019,3.419276e-05,3.419526e-05,1.772536e-05,-7.231105e-09,5.843235e-08,0.00014117467329053613
PART_003_R247G182B210A255,8670,-0.0001036019,3.419232e-05,3.418192e-05,1.645285e-05,5.810769e-10,1.613811e-07,0.00014070529864095084
PART_003_R247G182B210A255,8671,-0.0001036019,3.418834e-05,3.418894e-05,1.553576e-05,-1.378306e-08,2.068038e-07,0.00014039387915236088
PART_003_R247G182B210A255,8672,-0.0001036019,3.418315e-05,3.418994e-05,1.492193e-05,2.134305e-09,1.868184e-07,0.00014019184110311236
PART_001_R158G218B229A255,8673,-0.0001036019,3.419043e-05,3.418159e-05,1.457597e-05,-2.089092e-09,1.104243e-07,0.00014008183857578045
PART_001_R158G218B229A255,8674,-0.0001036019,3.418794e-05,3.418527e-05,1.446381e-05,9.735526e-14,6.604066e-14,0.00014004741166701365
PART_001_R158G218B229A255,8675,-0.0001036019,3.419043e-05,3.418159e-05,1.457597e-05,2.089279e-09,-1.104242e-07,0.0001400818385755523
PART_001_R158G218B229A255,8676,-0.0001036019,3.418315e-05,3.418994e-05,1.492193e-05,-2.134143e-09,-1.868183e-07,0.00014019184110270518
PART_002_R214G39B40A255,8677,-0.0001036019,3.418834e-05,3.418894e-05,1.553576e-05,1.378318e-08,-2.068037e-07,0.00014039387915195433
PART_002_R214G39B40A255,8678,-0.0001036019,3.419232e-05,3.418192e-05,1.645285e-05,-5.809994e-10,-1.61381e-07,0.0001407052986406058
PART_002_R214G39B40A255,8679,-0.0001036019,3.419276e-05,3.419526e-05,1.772536e-05,7.231132e-09,-5.843233e-08,0.00014117467329051545
PART_003_R247G182B210A255,8680,-0.0001554028,5.13064e-05,5.12561e-05,1.452033e-05,1.815947e-09,1.261996e-07,0.00020820870817717208
PART_003_R247G182B210A255,8681,-0.0001554028,5.128297e-05,5.128972e-05,1.331918e-05,-1.816808e-08,3.183525e-07,0.00020797333818977918
PART_003_R247G182B210A255,8682,-0.0001554028,5.127341e-05,5.128565e-05,1.24938e-05,7.200476e-09,4.059889e-07,0.00020781329456609227
PART_001_R158G218B229A255,8683,-0.0001554028,5.128577e-05,5.127217e-05,1.198339e-05,1.931016e-09,3.623547e-07,0.00020772229781778725
PART_001_R158G218B229A255,8684,-0.0001554028,5.128567e-05,5.127422e-05,1.170197e-05,1.56611e-09,2.069263e-07,0.00020767449036302843
PART_001_R158G218B229A255,8685,-0.0001554028,5.128643e-05,5.127032e-05,1.161084e-05,7.649292e-14,9.103946e-14,0.00020765727319443084
PART_001_R158G218B229A255,8686,-0.0001554028,5.128567e-05,5.127421e-05,1.170197e-05,-1.565962e-09,-2.069262e-07,0.00020767448538701726
PART_001_R158G218B229A255,8687,-0.0001554028,5.128577e-05,5.127217e-05,1.198339e-05,-1.930892e-09,-3.623546e-07,0.00020772229781726046
PART_001_R158G218B229A255,8688,-0.0001554028,5.127341e-05,5.128565e-05,1.24938e-05,-7.200382e-09,-4.059888e-07,0.0002078132945654964
PART_002_R214G39B40A255,8689,-0.0001554028,5.128297e-05,5.128972e-05,1.331918e-05,1.816814e-08,-3.183524e-07,0.0002079733381893357
PART_002_R214G39B40A255,8690,-0.0001554028,5.13064e-05,5.12561e-05,1.452033e-05,-1.815927e-09,-1.261995e-07,0.00020820870817698972
PART_003_R247G182B210A255,8691,-0.0002072038,6.83829e-05,6.840205e-05,9.932606e-06,-1.704339e-08,2.312778e-07,0.00027613300852028714
PART_003_R247G182B210A255,8692,-0.0002072038,6.836743e-05,6.837503e-05,8.856098e-06,1.66104e-08,6.334125e-07,0.0002760037917856915
PART_001_R158G218B229A255,8693,-0.0002072038,6.838151e-05,6.835944e-05,8.266722e-06,1.187418e-08,7.743504e-07,0.0002759492648360918
PART_001_R158G218B229A255,8694,-0.0002072038,6.838648e-05,6.835985e-05,7.924963e-06,3.488899e-09,6.407633e-07,0.0002759208420099325
PART_001_R158G218B229A255,8695,-0.0002072038,6.838186e-05,6.835959e-05,7.736566e-06,2.910963e-09,3.580884e-07,0.000275900828684303
PART_001_R158G218B229A255,8696,-0.0002072038,6.838857e-05,6.835839e-05,7.679059e-06,4.974225e-14,1.0509e-13,0.00027589806410466006
PART_001_R158G218B229A255,8697,-0.0002072038,6.838186e-05,6.835959e-05,7.736566e-06,-2.910866e-09,-3.580882e-07,0.00027590082868352126
PART_001_R158G218B229A255,8698,-0.0002072038,6.838648e-05,6.835985e-05,7.924963e-06,-3.48882e-09,-6.407631e-07,0.00027592084200853617
PART_001_R158G218B229A255,8699,-0.0002072038,6.838151e-05,6.835944e-05,8.266722e-06,-1.187412e-08,-7.743503e-07,0.0002759492648352422
PART_001_R158G218B229A255,8700,-0.0002072038,6.836743e-05,6.837503e-05,8.856098e-06,-1.661037e-08,-6.334124e-07,0.0002760037917849976
PART_002_R214G39B40A255,8701,-0.0002072038,6.83829e-05,6.840205e-05,9.932606e-06,1.70434e-08,-2.312777e-07,0.0002761330085200377
PART_003_R247G182B210A255,8702,-0.0002590047,8.55226e-05,8.539292e-05,3.64802e-06,2.622433e-08,6.234948e-07,0.00034452212035242805
PART_001_R158G218B229A255,8703,-0.0002590047,8.547351e-05,8.543555e-05,3.134943e-06,1.614729e-08,1.347983e-06,0.00034450993856848834
PART_001_R158G218B229A255,8704,-0.0002590047,8.549806e-05,8.543439e-05,2.93875e-06,3.160258e-09,1.372503e-06,0.00034451673586178877
PART_001_R158G218B229A255,8705,-0.0002590047,8.547591e-05,8.544808e-05,2.809206e-06,3.775674e-09,1.070267e-06,0.0003445060462710009
PART_001_R158G218B229A255,8706,-0.0002590047,8.549062e-05,8.544351e-05,2.747208e-06,5.319203e-10,5.776147e-07,0.0003445060825576072
PART_001_R158G218B229A255,8707,-0.0002590047,8.547668e-05,8.545023e-05,2.724423e-06,1.706344e-14,1.054958e-13,0.00034450047572660137
PART_001_R158G218B229A255,8708,-0.0002590047,8.549062e-05,8.544351e-05,2.747208e-06,-5.318853e-10,-5.776145e-07,0.00034450608255660105
PART_001_R158G218B229A255,8709,-0.0002590047,8.547591e-05,8.544808e-05,2.809206e-06,-3.775649e-09,-1.070266e-06,0.00034450604626168005
PART_001_R158G218B229A255,8710,-0.0002590047,8.549806e-05,8.543439e-05,2.93875e-06,-3.160238e-09,-1.372503e-06,0.0003445167358617882
PART_001_R158G218B229A255,8711,-0.0002590047,8.547351e-05,8.543555e-05,3.134943e-06,-1.614728e-08,-1.347983e-06,0.000344509938568487
PART_001_R158G218B229A255,8712,-0.0002590047,8.55226e-05,8.539292e-05,3.64802e-06,-2.622432e-08,-6.234948e-07,0.00034452212035242577
PART_003_R247G182B210A255,8713,0.0002544608,-8.402221e-05,-8.389479e-05,3.64802e-06,2.576436e-08,-6.234948e-07,0.0003384800247693312
PART_000_R31G119B180A255,8714,0.0002544608,-8.397397e-05,-8.393669e-05,3.134943e-06,1.586394e-08,-1.347983e-06,0.00033846774383811535
PART_000_R31G119B180A255,8715,0.0002544608,-8.399809e-05,-8.393554e-05,2.93875e-06,3.104859e-09,-1.372503e-06,0.0003384742436375744
PART_000_R31G119B180A255,8716,0.0002544608,-8.397633e-05,-8.3949e-05,2.809206e-06,3.709416e-09,-1.070266e-06,0.0003384635188422317
PART_000_R31G119B180A255,8717,0.0002544608,-8.399079e-05,-8.39445e-05,2.747208e-06,5.226055e-10,-5.776148e-07,0.00033846337521948775
PART_000_R31G119B180A255,8718,0.0002544608,-8.397709e-05,-8.395111e-05,2.724423e-06,2.569404e-14,-1.416749e-13,0.0003384577977950561
PART_000_R31G119B180A255,8719,0.0002544608,-8.399079e-05,-8.39445e-05,2.747208e-06,-5.225609e-10,5.776145e-07,0.0003384633752179516
PART_000_R31G119B180A255,8720,0.0002544608,-8.397633e-05,-8.3949e-05,2.809206e-06,-3.709376e-09,1.070266e-06,0.0003384635188422304
PART_000_R31G119B180A255,8721,0.0002544608,-8.399809e-05,-8.393554e-05,2.93875e-06,-3.104836e-09,1.372503e-06,0.0003384742436375737
PART_000_R31G119B180A255,8722,0.0002544608,-8.397397e-05,-8.393669e-05,3.134943e-06,-1.586393e-08,1.347983e-06,0.00033846774383811394
PART_000_R31G119B180A255,8723,0.0002544608,-8.402221e-05,-8.389479e-05,3.64802e-06,-2.576436e-08,6.234948e-07,0.0003384800247693312
PART_003_R247G182B210A255,8724,0.0002035686,-6.71832e-05,-6.720201e-05,9.932606e-06,-1.674441e-08,-2.312778e-07,0.0002713075039390837
PART_003_R247G182B210A255,8725,0.0002035686,-6.7168e-05,-6.717547e-05,8.856098e-06,1.6319e-08,-6.334124e-07,0.000271176741048812
PART_000_R31G119B180A255,8726,0.0002035686,-6.718184e-05,-6.716015e-05,8.266722e-06,1.166587e-08,-7.743506e-07,0.0002711212717518023
PART_000_R31G119B180A255,8727,0.0002035686,-6.718672e-05,-6.716056e-05,7.924963e-06,3.427705e-09,-6.407632e-07,0.000271092249828013
PART_000_R31G119B180A255,8728,0.0002035686,-6.718217e-05,-6.716029e-05,7.736566e-06,2.859912e-09,-3.580884e-07,0.00027107195350006374
PART_000_R31G119B180A255,8729,0.0002035686,-6.718877e-05,-6.715912e-05,7.679059e-06,7.080609e-14,-1.390534e-13,0.00027106905056423414
PART_000_R31G119B180A255,8730,0.0002035686,-6.718217e-05,-6.716029e-05,7.736566e-06,-2.859782e-09,3.580882e-07,0.000271071953499267
PART_000_R31G119B180A255,8731,0.0002035686,-6.718672e-05,-6.716056e-05,7.924963e-06,-3.427592e-09,6.407629e-07,0.0002710922498258814
PART_000_R31G119B180A255,8732,0.0002035686,-6.718184e-05,-6.716015e-05,8.266722e-06,-1.16658e-08,7.743504e-07,0.0002711212717500796
PART_000_R31G119B180A255,8733,0.0002035686,-6.7168e-05,-6.717547e-05,8.856098e-06,-1.631895e-08,6.334123e-07,0.0002711767410481022
PART_002_R214G39B40A255,8734,0.0002035686,-6.71832e-05,-6.720201e-05,9.932606e-06,1.674442e-08,2.312778e-07,0.00027130750393908554
PART_003_R247G182B210A255,8735,0.0001526765,-5.040628e-05,-5.035686e-05,1.452033e-05,1.784102e-09,-1.261996e-07,0.0002046097489426398
PART_003_R247G182B210A255,8736,0.0001526765,-5.038327e-05,-5.03899e-05,1.331918e-05,-1.784933e-08,-3.183524e-07,0.00020437006432168486
PART_003_R247G182B210A255,8737,0.0001526765,-5.037388e-05,-5.03859e-05,1.24938e-05,7.074164e-09,-4.05989e-07,0.00020420743711933745
PART_000_R31G119B180A255,8738,0.0001526765,-5.038602e-05,-5.037266e-05,1.198339e-05,1.897168e-09,-3.623547e-07,0.00020411485275019227
PART_000_R31G119B180A255,8739,0.0001526765,-5.038592e-05,-5.037466e-05,1.170197e-05,1.538661e-09,-2.069264e-07,0.00020406615796977456
PART_000_R31G119B180A255,8740,0.0001526765,-5.038667e-05,-5.037084e-05,1.161084e-05,1.071526e-13,-1.192393e-13,0.0002040486990587627
PART_000_R31G119B180A255,8741,0.0001526765,-5.038592e-05,-5.037466e-05,1.170197e-05,-1.538459e-09,2.069262e-07,0.00020406615796916158
PART_000_R31G119B180A255,8742,0.0001526765,-5.038602e-05,-5.037266e-05,1.198339e-05,-1.896993e-09,3.623545e-07,0.00020411485274912224
PART_000_R31G119B180A255,8743,0.0001526765,-5.037388e-05,-5.03859e-05,1.24938e-05,-7.074036e-09,4.059888e-07,0.00020420743711813125
PART_002_R214G39B40A255,8744,0.0001526765,-5.038327e-05,-5.03899e-05,1.331918e-05,1.784941e-08,3.183523e-07,0.0002043700643212385
PART_002_R214G39B40A255,8745,0.0001526765,-5.040628e-05,-5.035686e-05,1.452033e-05,-1.78408e-09,1.261996e-07,0.0002046097489426392
PART_003_R247G182B210A255,8746,0.0001017843,-3.359288e-05,-3.359534e-05,1.772536e-05,-7.104247e-09,-5.843238e-08,0.00013881602736894494
PART_003_R247G182B210A255,8747,0.0001017843,-3.359246e-05,-3.358224e-05,1.645285e-05,5.708972e-10,-1.61381e-07,0.0001383388978338542
PART_003_R247G182B210A255,8748,0.0001017843,-3.358855e-05,-3.358913e-05,1.553576e-05,-1.354122e-08,-2.068038e-07,0.00013802208302867228
PART_003_R247G182B210A255,8749,0.0001017843,-3.358345e-05,-3.359012e-05,1.492193e-05,2.096896e-09,-1.868183e-07,0.00013781664409149268
PART_000_R31G119B180A255,8750,0.0001017843,-3.359059e-05,-3.358191e-05,1.457597e-05,-2.052405e-09,-1.104244e-07,0.00013770475359047504
PART_000_R31G119B180A255,8751,0.0001017843,-3.358815e-05,-3.358553e-05,1.446381e-05,1.35645e-13,-8.702509e-14,0.0001376697168922643
PART_000_R31G119B180A255,8752,0.0001017843,-3.359059e-05,-3.358191e-05,1.457597e-05,2.052661e-09,1.104242e-07,0.00013770475359000533
PART_000_R31G119B180A255,8753,0.0001017843,-3.358345e-05,-3.359012e-05,1.492193e-05,-2.096669e-09,1.868182e-07,0.00013781664409107564
PART_002_R214G39B40A255,8754,0.0001017843,-3.358855e-05,-3.358913e-05,1.553576e-05,1.35414e-08,2.068037e-07,0.00013802208302827573
PART_002_R214G39B40A255,8755,0.0001017843,-3.359246e-05,-3.358224e-05,1.645285e-05,-5.70784e-10,1.613809e-07,0.00013833889783350283
PART_002_R214G39B40A255,8756,0.0001017843,-3.359288e-05,-3.359534e-05,1.772536e-05,7.104285e-09,5.843236e-08,0.00013881602736892553
PART_003_R247G182B210A255,8757,5.089216e-05,-1.680122e-05,-1.678729e-05,1.962261e-05,-9.390188e-10,-2.573127e-08,7.57403022152819e-05
PART_003_R247G182B210A255,8758,5.089216e-05,-1.67948e-05,-1.679665e-05,1.832412e-05,-1.374221e-08,-6.642295e-08,7.475950576504079e-05
PART_003_R247G182B210A255,8759,5.089216e-05,-1.679302e-05,-1.679406e-05,1.735703e-05,-9.561933e-10,-8.711314e-08,7.406197557049298e-05
PART_003_R247G182B210A255,8760,5.089216e-05,-1.679447e-05,-1.679307e-05,1.66989e-05,-1.068009e-08,-7.93525e-08,7.360682127164328e-05
PART_003_R247G182B210A255,8761,5.089216e-05,-1.679204e-05,-1.679477e-05,1.631658e-05,1.840847e-10,-4.673577e-08,7.334871925566495e-05
PART_000_R31G119B180A255,8762,5.089216e-05,-1.679527e-05,-1.679099e-05,1.619261e-05,1.531916e-13,-4.585493e-14,7.326595629594415e-05
PART_000_R31G119B180A255,8763,5.089216e-05,-1.679204e-05,-1.679477e-05,1.631658e-05,-1.837931e-10,4.673568e-08,7.334871925549071e-05
PART_002_R214G39B40A255,8764,5.089216e-05,-1.679447e-05,-1.679307e-05,1.66989e-05,1.068035e-08,7.935242e-08,7.360682127149771e-05
PART_002_R214G39B40A255,8765,5.089216e-05,-1.679302e-05,-1.679406e-05,1.735703e-05,9.563945e-10,8.711308e-08,7.406197557028904e-05
PART_002_R214G39B40A255,8766,5.089216e-05,-1.67948e-05,-1.679665e-05,1.832412e-05,1.374234e-08,6.642291e-08,7.475950576500587e-05
PART_002_R214G39B40A255,8767,5.089216e-05,-1.680122e-05,-1.678729e-05,1.962261e-05,9.390624e-10,2.573125e-08,7.574030221526314e-05
PART_003_R247G182B210A255,8768,4.387614e-14,-9.145462e-15,-9.844756e-15,2.025233e-05,-5.521341e-09,4.848578e-16,3.507806583525265e-05
PART_003_R247G182B210A255,8769,4.414047e-14,2.654821e-14,-3.005326e-14,1.894418e-05,-2.324209e-09,6.094669e-16,3.281228251467798e-05
PART_003_R247G182B210A255,8770,2.192474e-14,7.204654e-14,-1.095687e-14,1.796588e-05,-1.469422e-08,1.044654e-15,3.1117827370873826e-05
PART_003_R247G182B210A255,8771,1.951445e-14,1.067063e-13,-3.09328e-14,1.72913e-05,-9.012559e-10,1.276401e-15,2.9949410169597445e-05
PART_003_R247G182B210A255,8772,6.653423e-15,1.254691e-13,-1.306378e-14,1.690023e-05,-6.104631e-09,8.819512e-16,2.9272058929263227e-05
PART_003_R247G182B210A255,8773,1.239297e-14,1.310965e-13,-3.180753e-14,1.677112e-05,1.594821e-13,-4.736269e-17,2.9048431939834554e-05
PART_002_R214G39B40A255,8774,6.321549e-15,1.260728e-13,-1.307441e-14,1.690023e-05,6.104934e-09,-8.917652e-16,2.9272058929452803e-05
PART_002_R214G39B40A255,8775,1.78902e-14,1.107933e-13,-3.084456e-14,1.72913e-05,9.01527e-10,-1.417662e-15,2.994941016962192e-05
PART_002_R214G39B40A255,8776,1.700701e-14,8.620882e-14,-1.104892e-14,1.796588e-05,1.469443e-08,-1.273444e-15,3.111782737117132e-05
PART_002_R214G39B40A255,8777,3.423282e-14,5.648954e-14,-2.978478e-14,1.894418e-05,2.324352e-09,-8.004504e-16,3.281228251470837e-05
PART_002_R214G39B40A255,8778,3.016261e-14,3.369527e-14,-9.862769e-15,2.025233e-05,5.521391e-09,-4.320884e-17,3.507806583527626e-05
PART_003_R247G182B210A255,8779,-5.089216e-05,1.680122e-05,1.678729e-05,1.962261e-05,-9.390193e-10,2.573127e-08,7.574030221528192e-05
PART_003_R247G182B210A255,8780,-5.089216e-05,1.67948e-05,1.679665e-05,1.832412e-05,-1.374221e-08,6.642296e-08,7.475950576506745e-05
PART_003_R247G182B210A255,8781,-5.089216e-05,1.679302e-05,1.679406e-05,1.735703e-05,-9.561931e-10,8.711315e-08,7.406197557052826e-05
PART_003_R247G182B210A255,8782,-5.089216e-05,1.679447e-05,1.679307e-05,1.66989e-05,-1.068009e-08,7.935251e-08,7.360682127167561e-05
PART_003_R247G182B210A255,8783,-5.089216e-05,1.679204e-05,1.679477e-05,1.631658e-05,1.840849e-10,4.673577e-08,7.334871925566495e-05
PART_001_R158G218B229A255,8784,-5.089216e-05,1.679527e-05,1.679099e-05,1.619261e-05,1.531602e-13,4.556814e-14,7.326595629594415e-05
PART_001_R158G218B229A255,8785,-5.089216e-05,1.679204e-05,1.679477e-05,1.631658e-05,-1.837931e-10,-4.673568e-08,7.334871925549071e-05
PART_002_R214G39B40A255,8786,-5.089216e-05,1.679447e-05,1.679307e-05,1.66989e-05,1.068035e-08,-7.935243e-08,7.360682127153006e-05
PART_002_R214G39B40A255,8787,-5.089216e-05,1.679302e-05,1.679406e-05,1.735703e-05,9.563943e-10,-8.711309e-08,7.406197557032433e-05
PART_002_R214G39B40A255,8788,-5.089216e-05,1.67948e-05,1.679665e-05,1.832412e-05,1.374234e-08,-6.642292e-08,7.475950576503252e-05
PART_002_R214G39B40A255,8789,-5.089216e-05,1.680122e-05,1.678729e-05,1.962261e-05,9.390626e-10,-2.573126e-08,7.574030221527333e-05
PART_003_R247G182B210A255,8790,-0.0001017843,3.359288e-05,3.359534e-05,1.772536e-05,-7.104247e-09,5.843239e-08,0.00013881602736895757
PART_003_R247G182B210A255,8791,-0.0001017843,3.359246e-05,3.358224e-05,1.645285e-05,5.70897e-10,1.61381e-07,0.0001383388978338542
PART_003_R247G182B210A255,8792,-0.0001017843,3.358855e-05,3.358913e-05,1.553576e-05,-1.354122e-08,2.068038e-07,0.00013802208302867228
PART_003_R247G182B210A255,8793,-0.0001017843,3.358345e-05,3.359012e-05,1.492193e-05,2.096895e-09,1.868183e-07,0.00013781664409149262
PART_001_R158G218B229A255,8794,-0.0001017843,3.359059e-05,3.358191e-05,1.457597e-05,-2.052405e-09,1.104244e-07,0.00013770475359047504
PART_001_R158G218B229A255,8795,-0.0001017843,3.358815e-05,3.358553e-05,1.446381e-05,1.355624e-13,8.612328e-14,0.0001376697168922643
PART_001_R158G218B229A255,8796,-0.0001017843,3.359059e-05,3.358191e-05,1.457597e-05,2.052661e-09,-1.104242e-07,0.00013770475359000533
PART_001_R158G218B229A255,8797,-0.0001017843,3.358345e-05,3.359012e-05,1.492193e-05,-2.096669e-09,-1.868182e-07,0.00013781664409107564
PART_002_R214G39B40A255,8798,-0.0001017843,3.358855e-05,3.358913e-05,1.553576e-05,1.35414e-08,-2.068037e-07,0.00013802208302827573
PART_002_R214G39B40A255,8799,-0.0001017843,3.359246e-05,3.358224e-05,1.645285e-05,-5.70784e-10,-1.613809e-07,0.00013833889783350283
PART_002_R214G39B40A255,8800,-0.0001017843,3.359288e-05,3.359534e-05,1.772536e-05,7.104286e-09,-5.843236e-08,0.00013881602736892567
PART_003_R247G182B210A255,8801,-0.0001526765,5.040628e-05,5.035686e-05,1.452033e-05,1.784101e-09,1.261996e-07,0.00020460974894263978
PART_003_R247G182B210A255,8802,-0.0001526765,5.038327e-05,5.03899e-05,1.331918e-05,-1.784933e-08,3.183524e-07,0.00020437006432168486
PART_003_R247G182B210A255,8803,-0.0001526765,5.037388e-05,5.03859e-05,1.24938e-05,7.074165e-09,4.05989e-07,0.00020420743711933753
PART_001_R158G218B229A255,8804,-0.0001526765,5.038602e-05,5.037266e-05,1.198339e-05,1.897168e-09,3.623547e-07,0.00020411485275019227
PART_001_R158G218B229A255,8805,-0.0001526765,5.038592e-05,5.037466e-05,1.170197e-05,1.538662e-09,2.069264e-07,0.00020406615796977458
PART_001_R158G218B229A255,8806,-0.0001526765,5.038667e-05,5.037084e-05,1.161084e-05,1.073192e-13,1.174432e-13,0.0002040486990587627
PART_001_R158G218B229A255,8807,-0.0001526765,5.038592e-05,5.037466e-05,1.170197e-05,-1.538459e-09,-2.069262e-07,0.00020406615796916158
PART_001_R158G218B229A255,8808,-0.0001526765,5.038602e-05,5.037266e-05,1.198339e-05,-1.896993e-09,-3.623545e-07,0.00020411485274912224
PART_001_R158G218B229A255,8809,-0.0001526765,5.037388e-05,5.03859e-05,1.24938e-05,-7.074037e-09,-4.059888e-07,0.00020420743711813138
PART_002_R214G39B40A255,8810,-0.0001526765,5.038327e-05,5.03899e-05,1.331918e-05,1.784941e-08,-3.183523e-07,0.0002043700643212385
PART_002_R214G39B40A255,8811,-0.0001526765,5.040628e-05,5.035686e-05,1.452033e-05,-1.78408e-09,-1.261996e-07,0.0002046097489426392
PART_003_R247G182B210A255,8812,-0.0002035686,6.71832e-05,6.720201e-05,9.932606e-06,-1.674441e-08,2.312779e-07,0.0002713075039393394
PART_003_R247G182B210A255,8813,-0.0002035686,6.7168e-05,6.717547e-05,8.856098e-06,1.6319e-08,6.334124e-07,0.000271176741048812
PART_001_R158G218B229A255,8814,-0.0002035686,6.718184e-05,6.716015e-05,8.266722e-06,1.166587e-08,7.743506e-07,0.0002711212717518023
PART_001_R158G218B229A255,8815,-0.0002035686,6.718672e-05,6.716056e-05,7.924963e-06,3.427706e-09,6.407632e-07,0.00027109224982801305
PART_001_R158G218B229A255,8816,-0.0002035686,6.718217e-05,6.716029e-05,7.736566e-06,2.859912e-09,3.580884e-07,0.00027107195350006374
PART_001_R158G218B229A255,8817,-0.0002035686,6.718877e-05,6.715912e-05,7.679059e-06,7.101119e-14,1.371584e-13,0.00027106905056423414
PART_001_R158G218B229A255,8818,-0.0002035686,6.718217e-05,6.716029e-05,7.736566e-06,-2.859782e-09,-3.580882e-07,0.000271071953499267
PART_001_R158G218B229A255,8819,-0.0002035686,6.718672e-05,6.716056e-05,7.924963e-06,-3.427593e-09,-6.407629e-07,0.00027109224982588146
PART_001_R158G218B229A255,8820,-0.0002035686,6.718184e-05,6.716015e-05,8.266722e-06,-1.16658e-08,-7.743504e-07,0.0002711212717500796
PART_001_R158G218B229A255,8821,-0.0002035686,6.7168e-05,6.717547e-05,8.856098e-06,-1.631895e-08,-6.334123e-07,0.0002711767410481022
PART_002_R214G39B40A255,8822,-0.0002035686,6.71832e-05,6.720201e-05,9.932606e-06,1.674442e-08,-2.312778e-07,0.00027130750393908554
PART_003_R247G182B210A255,8823,-0.0002544608,8.402221e-05,8.389479e-05,3.64802e-06,2.576435e-08,6.234949e-07,0.00033848002476988157
PART_001_R158G218B229A255,8824,-0.0002544608,8.397397e-05,8.393669e-05,3.134943e-06,1.586395e-08,1.347983e-06,0.00033846774383811676
PART_001_R158G218B229A255,8825,-0.0002544608,8.399809e-05,8.393554e-05,2.93875e-06,3.104855e-09,1.372503e-06,0.00033847424363757427
PART_001_R158G218B229A255,8826,-0.0002544608,8.397633e-05,8.3949e-05,2.809206e-06,3.709418e-09,1.070266e-06,0.00033846351884223177
PART_001_R158G218B229A255,8827,-0.0002544608,8.399079e-05,8.39445e-05,2.747208e-06,5.226044e-10,5.776148e-07,0.00033846337521948775
PART_001_R158G218B229A255,8828,-0.0002544608,8.397709e-05,8.395111e-05,2.724423e-06,2.572283e-14,1.40412e-13,0.0003384577977950561
PART_001_R158G218B229A255,8829,-0.0002544608,8.399079e-05,8.39445e-05,2.747208e-06,-5.225599e-10,-5.776145e-07,0.0003384633752179516
PART_001_R158G218B229A255,8830,-0.0002544608,8.397633e-05,8.3949e-05,2.809206e-06,-3.709378e-09,-1.070266e-06,0.00033846351884223047
PART_001_R158G218B229A255,8831,-0.0002544608,8.399809e-05,8.393554e-05,2.93875e-06,-3.104832e-09,-1.372503e-06,0.0003384742436375736
PART_001_R158G218B229A255,8832,-0.0002544608,8.397397e-05,8.393669e-05,3.134943e-06,-1.586393e-08,-1.347983e-06,0.00033846774383811394
PART_001_R158G218B229A255,8833,-0.0002544608,8.402221e-05,8.389479e-05,3.64802e-06,-2.576435e-08,-6.234948e-07,0.00033848002476932895
PART_003_R247G182B210A255,8834,0.0002499169,-8.252181e-05,-8.239668e-05,3.64802e-06,2.530419e-08,-6.234948e-07,0.0003324379728854134
PART_000_R31G119B180A255,8835,0.0002499169,-8.247444e-05,-8.243781e-05,3.134943e-06,1.558071e-08,-1.347983e-06,0.0003324255770237731
PART_000_R31G119B180A255,8836,0.0002499169,-8.249813e-05,-8.243669e-05,2.93875e-06,3.049386e-09,-1.372503e-06,0.00033243178614773003
PART_000_R31G119B180A255,8837,0.0002499169,-8.247675e-05,-8.24499e-05,2.809206e-06,3.643204e-09,-1.070267e-06,0.00033242100697905135
PART_000_R31G119B180A255,8838,0.0002499169,-8.249095e-05,-8.244549e-05,2.747208e-06,5.132743e-10,-5.776148e-07,0.0003324206851568067
PART_000_R31G119B180A255,8839,0.0002499169,-8.24775e-05,-8.245197e-05,2.724423e-06,3.259165e-14,-1.859909e-13,0.00033241513084719486
PART_000_R31G119B180A255,8840,0.0002499169,-8.249095e-05,-8.244549e-05,2.747208e-06,-5.132072e-10,5.776144e-07,0.00033242068515472125
PART_000_R31G119B180A255,8841,0.0002499169,-8.247675e-05,-8.24499e-05,2.809206e-06,-3.643154e-09,1.070266e-06,0.00033242100696939084
PART_000_R31G119B180A255,8842,0.0002499169,-8.249813e-05,-8.243669e-05,2.93875e-06,-3.049347e-09,1.372503e-06,0.00033243178614772895
PART_000_R31G119B180A255,8843,0.0002499169,-8.247444e-05,-8.243781e-05,3.134943e-06,-1.55807e-08,1.347983e-06,0.0003324255770237717
PART_000_R31G119B180A255,8844,0.0002499169,-8.252181e-05,-8.239668e-05,3.64802e-06,-2.530418e-08,6.234948e-07,0.0003324379728854111
PART_003_R247G182B210A255,8845,0.0001999335,-6.59835e-05,-6.600198e-05,9.932606e-06,-1.644538e-08,-2.312778e-07,0.00026648245090838156
PART_003_R247G182B210A255,8846,0.0001999335,-6.596857e-05,-6.59759e-05,8.856098e-06,1.602759e-08,-6.334125e-07,0.00026635006244861306
PART_000_R31G119B180A255,8847,0.0001999335,-6.598216e-05,-6.596087e-05,8.266722e-06,1.145757e-08,-7.743505e-07,0.00026629362115884866
PART_000_R31G119B180A255,8848,0.0001999335,-6.598696e-05,-6.596126e-05,7.924963e-06,3.366518e-09,-6.407633e-07,0.0002662639750956819
PART_000_R31G119B180A255,8849,0.0001999335,-6.598249e-05,-6.5961e-05,7.736566e-06,2.808869e-09,-3.580884e-07,0.0002662433994127705
PART_000_R31G119B180A255,8850,0.0001999335,-6.598897e-05,-6.595985e-05,7.679059e-06,9.457027e-14,-1.869838e-13,0.0002662403445722029
PART_000_R31G119B180A255,8851,0.0001999335,-6.598249e-05,-6.5961e-05,7.736566e-06,-2.808685e-09,3.580881e-07,0.0002662433994115542
PART_000_R31G119B180A255,8852,0.0001999335,-6.598696e-05,-6.596126e-05,7.924963e-06,-3.366368e-09,6.40763e-07,0.00026626397509351037
PART_000_R31G119B180A255,8853,0.0001999335,-6.598216e-05,-6.596087e-05,8.266722e-06,-1.145746e-08,7.743503e-07,0.00026629362115708976
PART_000_R31G119B180A255,8854,0.0001999335,-6.596857e-05,-6.59759e-05,8.856098e-06,-1.602754e-08,6.334124e-07,0.00026635006244789066
PART_002_R214G39B40A255,8855,0.0001999335,-6.59835e-05,-6.600198e-05,9.932606e-06,1.644539e-08,2.312777e-07,0.00026648245090812303
PART_003_R247G182B210A255,8856,0.0001499501,-4.950617e-05,-4.945764e-05,1.452033e-05,1.752242e-09,-1.261996e-07,0.00020101167658334072
PART_003_R247G182B210A255,8857,0.0001499501,-4.948357e-05,-4.949008e-05,1.331918e-05,-1.753058e-08,-3.183525e-07,0.00020076751161421602
PART_003_R247G182B210A255,8858,0.0001499501,-4.947434e-05,-4.948615e-05,1.24938e-05,6.947873e-09,-4.059889e-07,0.000200602199271408
PART_000_R31G119B180A255,8859,0.0001499501,-4.948627e-05,-4.947314e-05,1.198339e-05,1.86332e-09,-3.623548e-07,0.00020050797009777722
PART_000_R31G119B180A255,8860,0.0001499501,-4.948617e-05,-4.947512e-05,1.170197e-05,1.511228e-09,-2.069264e-07,0.0002004583720150672
PART_000_R31G119B180A255,8861,0.0001499501,-4.948691e-05,-4.947136e-05,1.161084e-05,1.449378e-13,-1.628711e-13,0.00020044065149204114
PART_000_R31G119B180A255,8862,0.0001499501,-4.948617e-05,-4.947512e-05,1.170197e-05,-1.510947e-09,2.069261e-07,0.0002004583720141318
PART_000_R31G119B180A255,8863,0.0001499501,-4.948627e-05,-4.947314e-05,1.198339e-05,-1.863083e-09,3.623545e-07,0.00020050797009614414
PART_000_R31G119B180A255,8864,0.0001499501,-4.947434e-05,-4.948615e-05,1.24938e-05,-6.947691e-09,4.059887e-07,0.00020060219927017477
PART_002_R214G39B40A255,8865,0.0001499501,-4.948357e-05,-4.949008e-05,1.331918e-05,1.753069e-08,3.183524e-07,0.00020076751161376914
PART_002_R214G39B40A255,8866,0.0001499501,-4.950617e-05,-4.945764e-05,1.452033e-05,-1.752203e-09,1.261995e-07,0.00020101167658315137
PART_003_R247G182B210A255,8867,9.996674e-05,-3.299301e-05,-3.299543e-05,1.772536e-05,-6.97737e-09,-5.843236e-08,0.0001364594901022859
PART_003_R247G182B210A255,8868,9.996674e-05,-3.299259e-05,-3.298255e-05,1.645285e-05,5.60724e-10,-1.613811e-07,0.00013597431954257518
PART_003_R247G182B210A255,8869,9.996674e-05,-3.298875e-05,-3.298932e-05,1.553576e-05,-1.329938e-08,-2.068038e-07,0.0001356519312670583
PART_003_R247G182B210A255,8870,9.996674e-05,-3.298375e-05,-3.299029e-05,1.492193e-05,2.059492e-09,-1.868184e-07,0.00013544297335432083
PART_000_R31G119B180A255,8871,9.996674e-05,-3.299076e-05,-3.298223e-05,1.457597e-05,-2.015703e-09,-1.104244e-07,0.00013532913968799224
PART_000_R31G119B180A255,8872,9.996674e-05,-3.298837e-05,-3.298579e-05,1.446381e-05,1.831574e-13,-1.189031e-13,0.00013529347233600368
PART_000_R31G119B180A255,8873,9.996674e-05,-3.299076e-05,-3.298223e-05,1.457597e-05,2.016058e-09,1.104241e-07,0.00013532913968727374
PART_000_R31G119B180A255,8874,9.996674e-05,-3.298375e-05,-3.299029e-05,1.492193e-05,-2.059186e-09,1.868182e-07,0.00013544297335347927
PART_002_R214G39B40A255,8875,9.996674e-05,-3.298875e-05,-3.298932e-05,1.553576e-05,1.329962e-08,2.068036e-07,0.0001356519312662142
PART_002_R214G39B40A255,8876,9.996674e-05,-3.299259e-05,-3.298255e-05,1.645285e-05,-5.605754e-10,1.61381e-07,0.00013597431954221728
PART_002_R214G39B40A255,8877,9.996674e-05,-3.299301e-05,-3.299543e-05,1.772536e-05,6.977423e-09,5.843232e-08,0.00013645949010224263
PART_003_R247G182B210A255,8878,4.998337e-05,-1.65012e-05,-1.648751e-05,1.962261e-05,-9.222419e-10,-2.573126e-08,7.46621089992696e-05
PART_003_R247G182B210A255,8879,4.998337e-05,-1.649489e-05,-1.649671e-05,1.832412e-05,-1.349679e-08,-6.642298e-08,7.366691218059325e-05
PART_003_R247G182B210A255,8880,4.998337e-05,-1.649314e-05,-1.649417e-05,1.735703e-05,-9.390733e-10,-8.711313e-08,7.29590096810999e-05
PART_003_R247G182B210A255,8881,4.998337e-05,-1.649457e-05,-1.649319e-05,1.66989e-05,-1.048933e-08,-7.935254e-08,7.24969225083089e-05
PART_003_R247G182B210A255,8882,4.998337e-05,-1.649218e-05,-1.649487e-05,1.631658e-05,1.80856e-10,-4.673577e-08,7.223487022035839e-05
PART_000_R31G119B180A255,8883,4.998337e-05,-1.649535e-05,-1.649115e-05,1.619261e-05,2.067289e-13,-6.255715e-14,7.215083419954824e-05
PART_000_R31G119B180A255,8884,4.998337e-05,-1.649218e-05,-1.649487e-05,1.631658e-05,-1.804539e-10,4.673565e-08,7.223487022012246e-05
PART_002_R214G39B40A255,8885,4.998337e-05,-1.649457e-05,-1.649319e-05,1.66989e-05,1.048968e-08,7.935243e-08,7.24969225080996e-05
PART_002_R214G39B40A255,8886,4.998337e-05,-1.649314e-05,-1.649417e-05,1.735703e-05,9.393545e-10,8.711304e-08,7.295900968078839e-05
PART_002_R214G39B40A255,8887,4.998337e-05,-1.649489e-05,-1.649671e-05,1.832412e-05,1.349697e-08,6.642293e-08,7.366691218055693e-05
PART_002_R214G39B40A255,8888,4.998337e-05,-1.65012e-05,-1.648751e-05,1.962261e-05,9.223104e-10,2.573124e-08,7.466210899925145e-05
PART_003_R247G182B210A255,8889,5.737327e-14,-1.069977e-14,-3.125602e-14,2.025233e-05,-5.422731e-09,8.234922e-16,3.5078065789104374e-05
PART_003_R247G182B210A255,8890,5.853738e-14,-5.644096e-14,-8.667908e-15,1.894418e-05,-2.282679e-09,3.351641e-15,3.2812282505931677e-05
PART_003_R247G182B210A255,8891,8.800805e-14,-1.14575e-13,-3.219106e-14,1.796588e-05,-1.443178e-08,4.325009e-15,3.111782700241168e-05
PART_003_R247G182B210A255,8892,9.503032e-14,-1.583456e-13,-1.206555e-14,1.72913e-05,-8.851134e-10,3.621459e-15,2.9949410168153183e-05
PART_003_R247G182B210A255,8893,1.128978e-13,-1.815492e-13,-3.468722e-14,1.690023e-05,-5.995559e-09,1.985506e-15,2.9272058861632592e-05
PART_003_R247G182B210A255,8894,1.073312e-13,-1.885297e-13,-1.397007e-14,1.677112e-05,2.152355e-13,7.283425e-17,2.9048431939834557e-05
PART_002_R214G39B40A255,8895,1.131934e-13,-1.821321e-13,-3.470684e-14,1.690023e-05,5.995977e-09,-2.084182e-15,2.9272058861889453e-05
PART_002_R214G39B40A255,8896,9.673718e-14,-1.631612e-13,-1.202888e-14,1.72913e-05,8.854792e-10,-3.460842e-15,2.9949410168185624e-05
PART_002_R214G39B40A255,8897,9.359809e-14,-1.314365e-13,-3.204906e-14,1.796588e-05,1.443207e-08,-4.017599e-15,3.1117827002815174e-05
PART_002_R214G39B40A255,8898,7.020697e-14,-9.313383e-14,-8.821691e-15,1.894418e-05,2.282867e-09,-3.094449e-15,3.281228250597092e-05
PART_002_R214G39B40A255,8899,7.366536e-14,-6.361578e-14,-3.101332e-14,2.025233e-05,5.422799e-09,-1.414194e-15,3.507806578913591e-05
PART_003_R247G182B210A255,8900,-4.998337e-05,1.65012e-05,1.648751e-05,1.962261e-05,-9.222419e-10,2.573127e-08,7.466210899927994e-05
PART_003_R247G182B210A255,8901,-4.998337e-05,1.649489e-05,1.649671e-05,1.832412e-05,-1.349679e-08,6.642299e-08,7.36669121806203e-05
PART_003_R247G182B210A255,8902,-4.998337e-05,1.649314e-05,1.649417e-05,1.735703e-05,-9.390737e-10,8.711313e-08,7.295900968109993e-05
PART_003_R247G182B210A255,8903,-4.998337e-05,1.649457e-05,1.649319e-05,1.66989e-05,-1.048933e-08,7.935254e-08,7.24969225083089e-05
PART_003_R247G182B210A255,8904,-4.998337e-05,1.649218e-05,1.649487e-05,1.631658e-05,1.808558e-10,4.673577e-08,7.223487022035839e-05
PART_001_R158G218B229A255,8905,-4.998337e-05,1.649535e-05,1.649115e-05,1.619261e-05,2.068982e-13,6.296536e-14,7.215083419954824e-05
PART_001_R158G218B229A255,8906,-4.998337e-05,1.649218e-05,1.649487e-05,1.631658e-05,-1.804539e-10,-4.673565e-08,7.223487022012246e-05
PART_002_R214G39B40A255,8907,-4.998337e-05,1.649457e-05,1.649319e-05,1.66989e-05,1.048968e-08,-7.935244e-08,7.249692250813244e-05
PART_002_R214G39B40A255,8908,-4.998337e-05,1.649314e-05,1.649417e-05,1.735703e-05,9.393548e-10,-8.711305e-08,7.295900968082422e-05
PART_002_R214G39B40A255,8909,-4.998337e-05,1.649489e-05,1.649671e-05,1.832412e-05,1.349697e-08,-6.642293e-08,7.366691218055693e-05
PART_002_R214G39B40A255,8910,-4.998337e-05,1.65012e-05,1.648751e-05,1.962261e-05,9.223106e-10,-2.573125e-08,7.46621089992618e-05
PART_003_R247G182B210A255,8911,-9.996674e-05,3.299301e-05,3.299543e-05,1.772536e-05,-6.977371e-09,5.843236e-08,0.00013645949010228605
PART_003_R247G182B210A255,8912,-9.996674e-05,3.299259e-05,3.298255e-05,1.645285e-05,5.607239e-10,1.613811e-07,0.00013597431954257518
PART_003_R247G182B210A255,8913,-9.996674e-05,3.298875e-05,3.298932e-05,1.553576e-05,-1.329938e-08,2.068038e-07,0.0001356519312670583
PART_003_R247G182B210A255,8914,-9.996674e-05,3.298375e-05,3.299029e-05,1.492193e-05,2.059492e-09,1.868184e-07,0.00013544297335432083
PART_001_R158G218B229A255,8915,-9.996674e-05,3.299076e-05,3.298223e-05,1.457597e-05,-2.015703e-09,1.104244e-07,0.00013532913968799224
PART_001_R158G218B229A255,8916,-9.996674e-05,3.298837e-05,3.298579e-05,1.446381e-05,1.832646e-13,1.200464e-13,0.00013529347233600368
PART_001_R158G218B229A255,8917,-9.996674e-05,3.299076e-05,3.298223e-05,1.457597e-05,2.016058e-09,-1.104241e-07,0.00013532913968727374
PART_001_R158G218B229A255,8918,-9.996674e-05,3.298375e-05,3.299029e-05,1.492193e-05,-2.059186e-09,-1.868182e-07,0.00013544297335347927
PART_002_R214G39B40A255,8919,-9.996674e-05,3.298875e-05,3.298932e-05,1.553576e-05,1.329962e-08,-2.068037e-07,0.00013565193126667153
PART_002_R214G39B40A255,8920,-9.996674e-05,3.299259e-05,3.298255e-05,1.645285e-05,-5.605753e-10,-1.61381e-07,0.00013597431954221728
PART_002_R214G39B40A255,8921,-9.996674e-05,3.299301e-05,3.299543e-05,1.772536e-05,6.977423e-09,-5.843233e-08,0.00013645949010225548
PART_003_R247G182B210A255,8922,-0.0001499501,4.950617e-05,4.945764e-05,1.452033e-05,1.752244e-09,1.261996e-07,0.00020101167658334078
PART_003_R247G182B210A255,8923,-0.0001499501,4.948357e-05,4.949008e-05,1.331918e-05,-1.753058e-08,3.183525e-07,0.00020076751161421602
PART_003_R247G182B210A255,8924,-0.0001499501,4.947434e-05,4.948615e-05,1.24938e-05,6.947872e-09,4.059889e-07,0.0002006021992714079
PART_001_R158G218B229A255,8925,-0.0001499501,4.948627e-05,4.947314e-05,1.198339e-05,1.863321e-09,3.623548e-07,0.00020050797009777725
PART_001_R158G218B229A255,8926,-0.0001499501,4.948617e-05,4.947512e-05,1.170197e-05,1.511228e-09,2.069264e-07,0.0002004583720150672
PART_001_R158G218B229A255,8927,-0.0001499501,4.948691e-05,4.947136e-05,1.161084e-05,1.450241e-13,1.650326e-13,0.00020044065149204114
PART_001_R158G218B229A255,8928,-0.0001499501,4.948617e-05,4.947512e-05,1.170197e-05,-1.510947e-09,-2.069261e-07,0.0002004583720141318
PART_001_R158G218B229A255,8929,-0.0001499501,4.948627e-05,4.947314e-05,1.198339e-05,-1.863084e-09,-3.623545e-07,0.00020050797009614417
PART_001_R158G218B229A255,8930,-0.0001499501,4.947434e-05,4.948615e-05,1.24938e-05,-6.947691e-09,-4.059887e-07,0.00020060219927017477
PART_002_R214G39B40A255,8931,-0.0001499501,4.948357e-05,4.949008e-05,1.331918e-05,1.753069e-08,-3.183524e-07,0.00020076751161376914
PART_002_R214G39B40A255,8932,-0.0001499501,4.950617e-05,4.945764e-05,1.452033e-05,-1.752204e-09,-1.261995e-07,0.0002010116765831514
PART_003_R247G182B210A255,8933,-0.0001999335,6.59835e-05,6.600198e-05,9.932606e-06,-1.644538e-08,2.312778e-07,0.00026648245090838156
PART_003_R247G182B210A255,8934,-0.0001999335,6.596857e-05,6.59759e-05,8.856098e-06,1.602759e-08,6.334125e-07,0.00026635006244861306
PART_001_R158G218B229A255,8935,-0.0001999335,6.598216e-05,6.596087e-05,8.266722e-06,1.145757e-08,7.743505e-07,0.00026629362115884866
PART_001_R158G218B229A255,8936,-0.0001999335,6.598696e-05,6.596126e-05,7.924963e-06,3.366518e-09,6.407633e-07,0.0002662639750956819
PART_001_R158G218B229A255,8937,-0.0001999335,6.598249e-05,6.5961e-05,7.736566e-06,2.80887e-09,3.580884e-07,0.00026624339941277054
PART_001_R158G218B229A255,8938,-0.0001999335,6.598897e-05,6.595985e-05,7.679059e-06,9.480925e-14,1.893478e-13,0.0002662403445722029
PART_001_R158G218B229A255,8939,-0.0001999335,6.598249e-05,6.5961e-05,7.736566e-06,-2.808686e-09,-3.580881e-07,0.0002662433994115542
PART_001_R158G218B229A255,8940,-0.0001999335,6.598696e-05,6.596126e-05,7.924963e-06,-3.366368e-09,-6.40763e-07,0.00026626397509351037
PART_001_R158G218B229A255,8941,-0.0001999335,6.598216e-05,6.596087e-05,8.266722e-06,-1.145746e-08,-7.743503e-07,0.00026629362115708976
PART_001_R158G218B229A255,8942,-0.0001999335,6.596857e-05,6.59759e-05,8.856098e-06,-1.602754e-08,-6.334124e-07,0.00026635006244789066
PART_002_R214G39B40A255,8943,-0.0001999335,6.59835e-05,6.600198e-05,9.932606e-06,1.64454e-08,-2.312777e-07,0.00026648245090812487
PART_003_R247G182B210A255,8944,-0.0002499169,8.252181e-05,8.239668e-05,3.64802e-06,2.53042e-08,6.234948e-07,0.0003324379728854157
PART_001_R158G218B229A255,8945,-0.0002499169,8.247444e-05,8.243781e-05,3.134943e-06,1.558071e-08,1.347983e-06,0.0003324255770237731
PART_001_R158G218B229A255,8946,-0.0002499169,8.249813e-05,8.243669e-05,2.93875e-06,3.049391e-09,1.372503e-06,0.00033243178614773014
PART_001_R158G218B229A255,8947,-0.0002499169,8.247675e-05,8.24499e-05,2.809206e-06,3.643201e-09,1.070267e-06,0.00033242100697905124
PART_001_R158G218B229A255,8948,-0.0002499169,8.249095e-05,8.244549e-05,2.747208e-06,5.13276e-10,5.776148e-07,0.0003324206851568067
PART_001_R158G218B229A255,8949,-0.0002499169,8.24775e-05,8.245198e-05,2.724423e-06,3.245798e-14,1.876055e-13,0.0003324151358461152
PART_001_R158G218B229A255,8950,-0.0002499169,8.249095e-05,8.244549e-05,2.747208e-06,-5.132085e-10,-5.776144e-07,0.00033242068515472125
PART_001_R158G218B229A255,8951,-0.0002499169,8.247675e-05,8.24499e-05,2.809206e-06,-3.643151e-09,-1.070266e-06,0.00033242100696939073
PART_001_R158G218B229A255,8952,-0.0002499169,8.249813e-05,8.243669e-05,2.93875e-06,-3.049352e-09,-1.372503e-06,0.00033243178614772906
PART_001_R158G218B229A255,8953,-0.0002499169,8.247444e-05,8.243781e-05,3.134943e-06,-1.558069e-08,-1.347983e-06,0.0003324255770237703
PART_001_R158G218B229A255,8954,-0.0002499169,8.252181e-05,8.239668e-05,3.64802e-06,-2.530419e-08,-6.234948e-07,0.0003324379728854134
PART_003_R247G182B210A255,8955,0.0002453729,-8.102141e-05,-8.089855e-05,3.64802e-06,2.484418e-08,-6.234949e-07,0.00032639585188718487
PART_000_R31G119B180A255,8956,0.0002453729,-8.09749e-05,-8.093895e-05,3.134943e-06,1.529739e-08,-1.347983e-06,0.00032638334996321045
PART_000_R31G119B180A255,8957,0.0002453729,-8.099816e-05,-8.093784e-05,2.93875e-06,2.993976e-09,-1.372503e-06,0.0003263892550570882
PART_000_R31G119B180A255,8958,0.0002453729,-8.097717e-05,-8.095082e-05,2.809206e-06,3.576959e-09,-1.070267e-06,0.00032637843207965195
PART_000_R31G119B180A255,8959,0.0002453729,-8.099112e-05,-8.094648e-05,2.747208e-06,5.039597e-10,-5.776148e-07,0.0003263779236194698
PART_000_R31G119B180A255,8960,0.0002453729,-8.097791e-05,-8.095285e-05,2.724423e-06,4.840547e-14,-2.589455e-13,0.00032637239605458346
PART_000_R31G119B180A255,8961,0.0002453729,-8.099112e-05,-8.094648e-05,2.747208e-06,-5.038761e-10,5.776144e-07,0.0003263779236173457
PART_000_R31G119B180A255,8962,0.0002453729,-8.097717e-05,-8.095082e-05,2.809206e-06,-3.576883e-09,1.070266e-06,0.0003263784320698118
PART_000_R31G119B180A255,8963,0.0002453729,-8.099816e-05,-8.093784e-05,2.93875e-06,-2.993932e-09,1.372503e-06,0.000326389255057087
PART_000_R31G119B180A255,8964,0.0002453729,-8.09749e-05,-8.093895e-05,3.134943e-06,-1.529736e-08,1.347983e-06,0.0003263833499632063
PART_000_R31G119B180A255,8965,0.0002453729,-8.102141e-05,-8.089855e-05,3.64802e-06,-2.484419e-08,6.234948e-07,0.00032639585188661403
PART_003_R247G182B210A255,8966,0.0001962983,-6.47838e-05,-6.480194e-05,9.932606e-06,-1.614639e-08,-2.312779e-07,0.0002616576590416113
PART_003_R247G182B210A255,8967,0.0001962983,-6.476914e-05,-6.477634e-05,8.856098e-06,1.57362e-08,-6.334125e-07,0.0002615235816479804
PART_000_R31G119B180A255,8968,0.0001962983,-6.478248e-05,-6.476157e-05,8.266722e-06,1.124927e-08,-7.743506e-07,0.00026146611680597534
PART_000_R31G119B180A255,8969,0.0001962983,-6.478719e-05,-6.476197e-05,7.924963e-06,3.30534e-09,-6.407633e-07,0.0002614358353971018
PART_000_R31G119B180A255,8970,0.0001962983,-6.478281e-05,-6.476171e-05,7.736566e-06,2.757831e-09,-3.580885e-07,0.0002614149683892959
PART_000_R31G119B180A255,8971,0.0001962983,-6.478917e-05,-6.476058e-05,7.679059e-06,1.325835e-13,-2.538752e-13,0.00026141175788207797
PART_000_R31G119B180A255,8972,0.0001962983,-6.478281e-05,-6.476171e-05,7.736566e-06,-2.757588e-09,3.580881e-07,0.00026141496838764445
PART_000_R31G119B180A255,8973,0.0001962983,-6.478719e-05,-6.476197e-05,7.924963e-06,-3.305127e-09,6.407629e-07,0.0002614358353941526
PART_000_R31G119B180A255,8974,0.0001962983,-6.478248e-05,-6.476157e-05,8.266722e-06,-1.124913e-08,7.743503e-07,0.0002614661168032919
PART_000_R31G119B180A255,8975,0.0001962983,-6.476914e-05,-6.477634e-05,8.856098e-06,-1.573611e-08,6.334122e-07,0.0002615235816457843
PART_002_R214G39B40A255,8976,0.0001962983,-6.47838e-05,-6.480194e-05,9.932606e-06,1.614641e-08,2.312778e-07,0.00026165765904134986
PART_003_R247G182B210A255,8977,0.0001472237,-4.860606e-05,-4.855841e-05,1.452033e-05,1.720392e-09,-1.261996e-07,0.00019741462362737763
PART_003_R247G182B210A255,8978,0.0001472238,-4.858387e-05,-4.859026e-05,1.331918e-05,-1.721182e-08,-3.183525e-07,0.00019716592373930267
PART_003_R247G182B210A255,8979,0.0001472238,-4.857481e-05,-4.85864e-05,1.24938e-05,6.821575e-09,-4.05989e-07,0.00019699782956742476
PART_000_R31G119B180A255,8980,0.0001472238,-4.858652e-05,-4.857363e-05,1.198339e-05,1.829491e-09,-3.623548e-07,0.00019690189539552523
PART_000_R31G119B180A255,8981,0.0001472237,-4.858642e-05,-4.857557e-05,1.170197e-05,1.4838e-09,-2.069265e-07,0.00019685125206691422
PART_000_R31G119B180A255,8982,0.0001472238,-4.858715e-05,-4.857189e-05,1.161084e-05,1.994449e-13,-2.17244e-13,0.00019683336890423308
PART_000_R31G119B180A255,8983,0.0001472237,-4.858642e-05,-4.857557e-05,1.170197e-05,-1.483424e-09,2.069261e-07,0.0001968512520656443
PART_000_R31G119B180A255,8984,0.0001472238,-4.858652e-05,-4.857363e-05,1.198339e-05,-1.829164e-09,3.623544e-07,0.0001969018953933078
PART_000_R31G119B180A255,8985,0.0001472237,-4.857481e-05,-4.85864e-05,1.24938e-05,-6.821334e-09,4.059887e-07,0.00019699773017135117
PART_002_R214G39B40A255,8986,0.0001472238,-4.858387e-05,-4.859026e-05,1.331918e-05,1.721196e-08,3.183523e-07,0.00019716592373837056
PART_002_R214G39B40A255,8987,0.0001472237,-4.860606e-05,-4.855841e-05,1.452033e-05,-1.720349e-09,1.261995e-07,0.00019741462362718473
PART_003_R247G182B210A255,8988,9.814917e-05,-3.239314e-05,-3.239551e-05,1.772536e-05,-6.850505e-09,-5.843239e-08,0.00013410510667471748
PART_003_R247G182B210A255,8989,9.814917e-05,-3.239273e-05,-3.238287e-05,1.645285e-05,5.50562e-10,-1.613811e-07,0.0001336116295894589
PART_003_R247G182B210A255,8990,9.814917e-05,-3.238896e-05,-3.238952e-05,1.553576e-05,-1.305753e-08,-2.068039e-07,0.00013328347540844112
PART_003_R247G182B210A255,8991,9.814917e-05,-3.238404e-05,-3.239047e-05,1.492193e-05,2.022108e-09,-1.868184e-07,0.00013307086451652176
PART_000_R31G119B180A255,8992,9.814917e-05,-3.239093e-05,-3.238256e-05,1.457597e-05,-1.978991e-09,-1.104244e-07,0.0001329550241779007
PART_000_R31G119B180A255,8993,9.814917e-05,-3.238858e-05,-3.238605e-05,1.446381e-05,2.504757e-13,-1.584909e-13,0.00013291869439662802
PART_000_R31G119B180A255,8994,9.814917e-05,-3.239093e-05,-3.238256e-05,1.457597e-05,1.979465e-09,1.104241e-07,0.00013295502417717437
PART_000_R31G119B180A255,8995,9.814917e-05,-3.238404e-05,-3.239047e-05,1.492193e-05,-2.021687e-09,1.868181e-07,0.00013307086451523907
PART_002_R214G39B40A255,8996,9.814917e-05,-3.238896e-05,-3.238952e-05,1.553576e-05,1.305785e-08,2.068037e-07,0.00013328347540760422
PART_002_R214G39B40A255,8997,9.814917e-05,-3.239273e-05,-3.238287e-05,1.645285e-05,-5.503486e-10,1.613809e-07,0.00013361162958873155
PART_002_R214G39B40A255,8998,9.814917e-05,-3.239314e-05,-3.239551e-05,1.772536e-05,6.850578e-09,5.843234e-08,0.00013410510667466333
PART_003_R247G182B210A255,8999,4.907458e-05,-1.620118e-05,-1.618774e-05,1.962261e-05,-9.05465e-10,-2.573127e-08,7.358797575954558e-05
PART_003_R247G182B210A255,9000,4.907458e-05,-1.619498e-05,-1.619677e-05,1.832412e-05,-1.325135e-08,-6.642297e-08,7.257800067831134e-05
PART_003_R247G182B210A255,9001,4.907458e-05,-1.619327e-05,-1.619427e-05,1.735703e-05,-9.219531e-10,-8.711316e-08,7.185944442029264e-05
PART_003_R247G182B210A255,9002,4.907458e-05,-1.619467e-05,-1.619331e-05,1.66989e-05,-1.029855e-08,-7.935254e-08,7.139023198953279e-05
PART_003_R247G182B210A255,9003,4.907458e-05,-1.619232e-05,-1.619496e-05,1.631658e-05,1.776385e-10,-4.67358e-08,7.11241129904934e-05
PART_000_R31G119B180A255,9004,4.907458e-05,-1.619543e-05,-1.619131e-05,1.619261e-05,2.823496e-13,-8.350445e-14,7.103877227099015e-05
PART_000_R31G119B180A255,9005,4.907458e-05,-1.619232e-05,-1.619496e-05,1.631658e-05,-1.771013e-10,4.673564e-08,7.112411299017397e-05
PART_002_R214G39B40A255,9006,4.907458e-05,-1.619467e-05,-1.619331e-05,1.66989e-05,1.029903e-08,7.935239e-08,7.139023198924034e-05
PART_002_R214G39B40A255,9007,4.907458e-05,-1.619327e-05,-1.619427e-05,1.735703e-05,9.223269e-10,8.711304e-08,7.185944441987062e-05
PART_002_R214G39B40A255,9008,4.907458e-05,-1.619498e-05,-1.619677e-05,1.832412e-05,1.32516e-08,6.64229e-08,7.257800067825608e-05
PART_002_R214G39B40A255,9009,4.907458e-05,-1.620118e-05,-1.618774e-05,1.962261e-05,9.055467e-10,2.573125e-08,7.358797575952762e-05
PART_003_R247G182B210A255,9010,2.824455e-14,5.967449e-16,-5.577986e-15,2.025233e-05,-5.324127e-09,1.757279e-15,3.507806574379045e-05
PART_003_R247G182B210A255,9011,2.886059e-14,5.387357e-14,-3.269959e-14,1.894418e-05,-2.241135e-09,3.408509e-15,3.28122824973402e-05
PART_003_R247G182B210A255,9012,-6.845653e-16,1.227907e-13,-9.383947e-15,1.796588e-05,-1.416933e-08,4.449452e-15,3.1117826640575944e-05
PART_003_R247G182B210A255,9013,-3.637932e-15,1.74305e-13,-3.666696e-14,1.72913e-05,-8.689482e-10,4.425536e-15,2.994941016673305e-05
PART_003_R247G182B210A255,9014,-1.993295e-14,2.013806e-13,-1.429657e-14,1.690023e-05,-5.886475e-09,2.794497e-15,2.9272058795213978e-05
PART_003_R247G182B210A255,9015,-1.195116e-14,2.092077e-13,-3.914822e-14,1.677112e-05,2.936238e-13,-1.215362e-16,2.9048431939834557e-05
PART_002_R214G39B40A255,9016,-2.041856e-14,2.020883e-13,-1.437361e-14,1.690023e-05,5.887033e-09,-2.706738e-15,2.9272058795550622e-05
PART_002_R214G39B40A255,9017,-5.898168e-15,1.800782e-13,-3.657085e-14,1.72913e-05,8.694495e-10,-4.716462e-15,2.9949410166776697e-05
PART_002_R214G39B40A255,9018,-7.838999e-15,1.433992e-13,-9.441449e-15,1.796588e-05,1.416972e-08,-4.799234e-15,3.11178266411087e-05
PART_002_R214G39B40A255,9019,1.407967e-14,9.904577e-14,-3.240616e-14,1.894418e-05,2.241402e-09,-3.712921e-15,3.281228249739492e-05
PART_002_R214G39B40A255,9020,7.603944e-15,6.578071e-14,-5.718916e-15,2.025233e-05,5.32422e-09,-1.084913e-15,3.50780657438328e-05
PART_003_R247G182B210A255,9021,-4.907458e-05,1.620118e-05,1.618774e-05,1.962261e-05,-9.054657e-10,2.573128e-08,7.358797575955609e-05
PART_003_R247G182B210A255,9022,-4.907458e-05,1.619498e-05,1.619677e-05,1.832412e-05,-1.325135e-08,6.642298e-08,7.25780006783388e-05
PART_003_R247G182B210A255,9023,-4.907458e-05,1.619327e-05,1.619427e-05,1.735703e-05,-9.219529e-10,8.711318e-08,7.185944442036538e-05
PART_003_R247G182B210A255,9024,-4.907458e-05,1.619467e-05,1.619331e-05,1.66989e-05,-1.029855e-08,7.935255e-08,7.139023198956613e-05
PART_003_R247G182B210A255,9025,-4.907458e-05,1.619232e-05,1.619496e-05,1.631658e-05,1.776386e-10,4.673581e-08,7.112411299051311e-05
PART_001_R158G218B229A255,9026,-4.907458e-05,1.619543e-05,1.619131e-05,1.619261e-05,2.823658e-13,8.283337e-14,7.103877227099015e-05
PART_001_R158G218B229A255,9027,-4.907458e-05,1.619232e-05,1.619496e-05,1.631658e-05,-1.771014e-10,-4.673564e-08,7.112411299017397e-05
PART_002_R214G39B40A255,9028,-4.907458e-05,1.619467e-05,1.619331e-05,1.66989e-05,1.029903e-08,-7.93524e-08,7.139023198927368e-05
PART_002_R214G39B40A255,9029,-4.907458e-05,1.619327e-05,1.619427e-05,1.735703e-05,9.223268e-10,-8.711306e-08,7.185944441994336e-05
PART_002_R214G39B40A255,9030,-4.907458e-05,1.619498e-05,1.619677e-05,1.832412e-05,1.32516e-08,-6.642291e-08,7.257800067828354e-05
PART_002_R214G39B40A255,9031,-4.907458e-05,1.620118e-05,1.618774e-05,1.962261e-05,9.055469e-10,-2.573125e-08,7.358797575952763e-05
PART_003_R247G182B210A255,9032,-9.814917e-05,3.239314e-05,3.239551e-05,1.772536e-05,-6.850505e-09,5.843239e-08,0.00013410510667471748
PART_003_R247G182B210A255,9033,-9.814917e-05,3.239273e-05,3.238287e-05,1.645285e-05,5.505619e-10,1.613811e-07,0.0001336116295894589
PART_003_R247G182B210A255,9034,-9.814917e-05,3.238896e-05,3.238952e-05,1.553576e-05,-1.305753e-08,2.068039e-07,0.00013328347540844112
PART_003_R247G182B210A255,9035,-9.814917e-05,3.238404e-05,3.239047e-05,1.492193e-05,2.022108e-09,1.868184e-07,0.00013307086451652176
PART_001_R158G218B229A255,9036,-9.814917e-05,3.239093e-05,3.238256e-05,1.457597e-05,-1.978991e-09,1.104244e-07,0.0001329550241779007
PART_001_R158G218B229A255,9037,-9.814917e-05,3.238858e-05,3.238605e-05,1.446381e-05,2.50505e-13,1.569181e-13,0.00013291869439662802
PART_001_R158G218B229A255,9038,-9.814917e-05,3.239093e-05,3.238256e-05,1.457597e-05,1.979465e-09,-1.104241e-07,0.00013295502417717437
PART_001_R158G218B229A255,9039,-9.814917e-05,3.238404e-05,3.239047e-05,1.492193e-05,-2.021687e-09,-1.868181e-07,0.00013307086451523907
PART_002_R214G39B40A255,9040,-9.814917e-05,3.238896e-05,3.238952e-05,1.553576e-05,1.305785e-08,-2.068037e-07,0.00013328347540760422
PART_002_R214G39B40A255,9041,-9.814917e-05,3.239273e-05,3.238287e-05,1.645285e-05,-5.503483e-10,-1.613809e-07,0.00013361162958873155
PART_002_R214G39B40A255,9042,-9.814917e-05,3.239314e-05,3.239551e-05,1.772536e-05,6.850577e-09,-5.843234e-08,0.00013410510667466317
PART_003_R247G182B210A255,9043,-0.0001472237,4.860606e-05,4.855841e-05,1.452033e-05,1.720391e-09,1.261996e-07,0.0001974146236273776
PART_003_R247G182B210A255,9044,-0.0001472238,4.858387e-05,4.859026e-05,1.331918e-05,-1.721182e-08,3.183525e-07,0.00019716592373930267
PART_003_R247G182B210A255,9045,-0.0001472237,4.857481e-05,4.85864e-05,1.24938e-05,6.821576e-09,4.059891e-07,0.00019699773017384936
PART_001_R158G218B229A255,9046,-0.0001472238,4.858652e-05,4.857363e-05,1.198339e-05,1.829491e-09,3.623548e-07,0.00019690189539552523
PART_001_R158G218B229A255,9047,-0.0001472237,4.858642e-05,4.857557e-05,1.170197e-05,1.4838e-09,2.069265e-07,0.00019685125206691422
PART_001_R158G218B229A255,9048,-0.0001472238,4.858715e-05,4.857188e-05,1.161084e-05,1.993203e-13,2.14544e-13,0.0001968333639309802
PART_001_R158G218B229A255,9049,-0.0001472237,4.858642e-05,4.857557e-05,1.170197e-05,-1.483425e-09,-2.069261e-07,0.00019685125206564432
PART_001_R158G218B229A255,9050,-0.0001472238,4.858652e-05,4.857363e-05,1.198339e-05,-1.829163e-09,-3.623544e-07,0.00019690189539330776
PART_001_R158G218B229A255,9051,-0.0001472237,4.857481e-05,4.85864e-05,1.24938e-05,-6.821335e-09,-4.059888e-07,0.00019699773017196954
PART_002_R214G39B40A255,9052,-0.0001472238,4.858387e-05,4.859026e-05,1.331918e-05,1.721196e-08,-3.183523e-07,0.00019716592373837056
PART_002_R214G39B40A255,9053,-0.0001472237,4.860606e-05,4.855841e-05,1.452033e-05,-1.720349e-09,-1.261995e-07,0.00019741462362718473
PART_003_R247G182B210A255,9054,-0.0001962983,6.47838e-05,6.480194e-05,9.932606e-06,-1.614638e-08,2.312779e-07,0.0002616576590416094
PART_003_R247G182B210A255,9055,-0.0001962983,6.476914e-05,6.477634e-05,8.856098e-06,1.57362e-08,6.334125e-07,0.0002615235816479804
PART_001_R158G218B229A255,9056,-0.0001962983,6.478248e-05,6.476158e-05,8.266722e-06,1.124927e-08,7.743507e-07,0.00026146612179869544
PART_001_R158G218B229A255,9057,-0.0001962983,6.478719e-05,6.476197e-05,7.924963e-06,3.30534e-09,6.407633e-07,0.0002614358353971018
PART_001_R158G218B229A255,9058,-0.0001962983,6.478281e-05,6.476171e-05,7.736566e-06,2.757832e-09,3.580886e-07,0.00026141496838970687
PART_001_R158G218B229A255,9059,-0.0001962983,6.478917e-05,6.476058e-05,7.679059e-06,1.32488e-13,2.509886e-13,0.00026141175788207797
PART_001_R158G218B229A255,9060,-0.0001962983,6.478281e-05,6.476171e-05,7.736566e-06,-2.757588e-09,-3.580881e-07,0.00026141496838764445
PART_001_R158G218B229A255,9061,-0.0001962983,6.478719e-05,6.476197e-05,7.924963e-06,-3.305128e-09,-6.407629e-07,0.0002614358353941526
PART_001_R158G218B229A255,9062,-0.0001962983,6.478248e-05,6.476158e-05,8.266722e-06,-1.124913e-08,-7.743503e-07,0.0002614661217951235
PART_001_R158G218B229A255,9063,-0.0001962983,6.476914e-05,6.477634e-05,8.856098e-06,-1.573611e-08,-6.334122e-07,0.0002615235816457843
PART_002_R214G39B40A255,9064,-0.0001962983,6.47838e-05,6.480194e-05,9.932606e-06,1.614641e-08,-2.312778e-07,0.00026165765904134986
PART_003_R247G182B210A255,9065,-0.0002453729,8.102141e-05,8.089855e-05,3.64802e-06,2.484417e-08,6.234949e-07,0.00032639585188718254
PART_001_R158G218B229A255,9066,-0.0002453729,8.09749e-05,8.093895e-05,3.134943e-06,1.52974e-08,1.347983e-06,0.0003263833499632119
PART_001_R158G218B229A255,9067,-0.0002453729,8.099816e-05,8.093784e-05,2.93875e-06,2.99397e-09,1.372503e-06,0.00032638925505708803
PART_001_R158G218B229A255,9068,-0.0002453729,8.097717e-05,8.095082e-05,2.809206e-06,3.576963e-09,1.070267e-06,0.00032637843207965206
PART_001_R158G218B229A255,9069,-0.0002453729,8.099112e-05,8.094648e-05,2.747208e-06,5.03958e-10,5.776149e-07,0.0003263779236200007
PART_001_R158G218B229A255,9070,-0.0002453729,8.097791e-05,8.095285e-05,2.724423e-06,4.85888e-14,2.570765e-13,0.00032637239605458346
PART_001_R158G218B229A255,9071,-0.0002453729,8.099112e-05,8.094648e-05,2.747208e-06,-5.038748e-10,-5.776144e-07,0.0003263779236173457
PART_001_R158G218B229A255,9072,-0.0002453729,8.097717e-05,8.095082e-05,2.809206e-06,-3.576887e-09,-1.070266e-06,0.0003263784320698119
PART_001_R158G218B229A255,9073,-0.0002453729,8.099816e-05,8.093784e-05,2.93875e-06,-2.993927e-09,-1.372503e-06,0.00032638925505708684
PART_001_R158G218B229A255,9074,-0.0002453729,8.09749e-05,8.093895e-05,3.134943e-06,-1.529737e-08,-1.347983e-06,0.0003263833499632077
PART_001_R158G218B229A255,9075,-0.0002453729,8.102141e-05,8.089855e-05,3.64802e-06,-2.484417e-08,-6.234948e-07,0.0003263958518866095
PART_003_R247G182B210A255,9076,0.000240829,-7.952102e-05,-7.940043e-05,3.64802e-06,2.438405e-08,-6.234948e-07,0.0003203538840373883
PART_000_R31G119B180A255,9077,0.000240829,-7.947537e-05,-7.944007e-05,3.134943e-06,1.501414e-08,-1.347983e-06,0.00032034125459663124
PART_000_R31G119B180A255,9078,0.000240829,-7.94982e-05,-7.943899e-05,2.93875e-06,2.938523e-09,-1.372503e-06,0.00032034686211386456
PART_000_R31G119B180A255,9079,0.000240829,-7.94776e-05,-7.945173e-05,2.809206e-06,3.510743e-09,-1.070267e-06,0.0003203359856579589
PART_000_R31G119B180A255,9080,0.000240829,-7.949128e-05,-7.944747e-05,2.747208e-06,4.946413e-10,-5.776149e-07,0.0003203352819159413
PART_000_R31G119B180A255,9081,0.000240829,-7.947832e-05,-7.945372e-05,2.724423e-06,5.981455e-14,-3.396595e-13,0.0003203297796532804
PART_000_R31G119B180A255,9082,0.000240829,-7.949128e-05,-7.944747e-05,2.747208e-06,-4.94517e-10,5.776142e-07,0.00032033528191215415
PART_000_R31G119B180A255,9083,0.000240829,-7.94776e-05,-7.945173e-05,2.809206e-06,-3.510651e-09,1.070266e-06,0.0003203359856479326
PART_000_R31G119B180A255,9084,0.000240829,-7.94982e-05,-7.943899e-05,2.93875e-06,-2.93845e-09,1.372503e-06,0.00032034686211386256
PART_000_R31G119B180A255,9085,0.000240829,-7.947537e-05,-7.944007e-05,3.134943e-06,-1.501412e-08,1.347983e-06,0.0003203412545966285
PART_000_R31G119B180A255,9086,0.000240829,-7.952102e-05,-7.940043e-05,3.64802e-06,-2.438404e-08,6.234947e-07,0.00032035388403680215
PART_003_R247G182B210A255,9087,0.0001926632,-6.35841e-05,-6.360191e-05,9.932606e-06,-1.584736e-08,-2.312778e-07,0.0002568333585156562
PART_003_R247G182B210A255,9088,0.0001926632,-6.356971e-05,-6.357678e-05,8.856098e-06,1.544479e-08,-6.334126e-07,0.0002566975098228918
PART_000_R31G119B180A255,9089,0.0001926632,-6.358281e-05,-6.356229e-05,8.266722e-06,1.104098e-08,-7.743506e-07,0.0002566389978043205
PART_000_R31G119B180A255,9090,0.0001926632,-6.358743e-05,-6.356267e-05,7.924963e-06,3.244165e-09,-6.407634e-07,0.0002566080437228887
PART_000_R31G119B180A255,9091,0.0001926632,-6.358313e-05,-6.356242e-05,7.736566e-06,2.706809e-09,-3.580886e-07,0.00025658687275582236
PART_000_R31G119B180A255,9092,0.0001926632,-6.358937e-05,-6.356131e-05,7.679059e-06,1.73084e-13,-3.403442e-13,0.00025658350261314686
PART_000_R31G119B180A255,9093,0.0001926632,-6.358313e-05,-6.356242e-05,7.736566e-06,-2.706471e-09,3.580879e-07,0.0002565868727528809
PART_000_R31G119B180A255,9094,0.0001926632,-6.358743e-05,-6.356267e-05,7.924963e-06,-3.243889e-09,6.407628e-07,0.00025660804371838353
PART_000_R31G119B180A255,9095,0.0001926632,-6.358281e-05,-6.356229e-05,8.266722e-06,-1.104078e-08,7.743502e-07,0.00025663899780067396
PART_000_R31G119B180A255,9096,0.0001926632,-6.356971e-05,-6.357678e-05,8.856098e-06,-1.544469e-08,6.334123e-07,0.000256697509820653
PART_002_R214G39B40A255,9097,0.0001926632,-6.35841e-05,-6.360191e-05,9.932606e-06,1.584739e-08,2.312777e-07,0.00025683335851539157
PART_003_R247G182B210A255,9098,0.0001444974,-4.770595e-05,-4.765918e-05,1.452033e-05,1.688544e-09,-1.261996e-07,0.00019381875122256168
PART_003_R247G182B210A255,9099,0.0001444974,-4.768417e-05,-4.769044e-05,1.331918e-05,-1.689305e-08,-3.183526e-07,0.00019356515036105567
PART_003_R247G182B210A255,9100,0.0001444974,-4.767528e-05,-4.768666e-05,1.24938e-05,6.695303e-09,-4.05989e-07,0.00019339417189768364
PART_000_R31G119B180A255,9101,0.0001444974,-4.768677e-05,-4.767412e-05,1.198339e-05,1.795666e-09,-3.623549e-07,0.0001932964641410471
PART_000_R31G119B180A255,9102,0.0001444974,-4.768667e-05,-4.767602e-05,1.170197e-05,1.456395e-09,-2.069266e-07,0.0001932449401218599
PART_000_R31G119B180A255,9103,0.0001444974,-4.768738e-05,-4.76724e-05,1.161084e-05,2.638468e-13,-2.955555e-13,0.00019322666942366213
PART_000_R31G119B180A255,9104,0.0001444974,-4.768667e-05,-4.767602e-05,1.170197e-05,-1.455883e-09,2.06926e-07,0.00019324494011992087
PART_000_R31G119B180A255,9105,0.0001444974,-4.768677e-05,-4.767412e-05,1.198339e-05,-1.795233e-09,3.623544e-07,0.00019329646413822314
PART_000_R31G119B180A255,9106,0.0001444974,-4.767528e-05,-4.768666e-05,1.24938e-05,-6.694968e-09,4.059886e-07,0.00019339417189512972
PART_002_R214G39B40A255,9107,0.0001444974,-4.768417e-05,-4.769044e-05,1.331918e-05,1.689325e-08,3.183523e-07,0.00019356515035962783
PART_002_R214G39B40A255,9108,0.0001444974,-4.770595e-05,-4.765918e-05,1.452033e-05,-1.68847e-09,1.261995e-07,0.00019381875122236443
PART_003_R247G182B210A255,9109,9.633159e-05,-3.179327e-05,-3.17956e-05,1.772536e-05,-6.723625e-09,-5.843238e-08,0.00013175300310206062
PART_003_R247G182B210A255,9110,9.633159e-05,-3.179286e-05,-3.178319e-05,1.645285e-05,5.403979e-10,-1.613811e-07,0.00013125091530995814
PART_003_R247G182B210A255,9111,9.633159e-05,-3.178916e-05,-3.178971e-05,1.553576e-05,-1.281566e-08,-2.068039e-07,0.0001309167879223016
PART_003_R247G182B210A255,9112,9.633159e-05,-3.178434e-05,-3.179065e-05,1.492193e-05,1.984733e-09,-1.868185e-07,0.00013070040807567254
PART_000_R31G119B180A255,9113,9.633159e-05,-3.17911e-05,-3.178288e-05,1.457597e-05,-1.942254e-09,-1.104245e-07,0.00013058247925446602
PART_000_R31G119B180A255,9114,9.633159e-05,-3.178879e-05,-3.178631e-05,1.446381e-05,3.315487e-13,-2.151997e-13,0.00013054546885319575
PART_000_R31G119B180A255,9115,9.633159e-05,-3.17911e-05,-3.178288e-05,1.457597e-05,1.942897e-09,1.104241e-07,0.00013058247925347996
PART_000_R31G119B180A255,9116,9.633159e-05,-3.178434e-05,-3.179065e-05,1.492193e-05,-1.984176e-09,1.868181e-07,0.00013070040807393194
PART_002_R214G39B40A255,9117,9.633159e-05,-3.178916e-05,-3.178971e-05,1.553576e-05,1.28161e-08,2.068036e-07,0.0001309167879210091
PART_002_R214G39B40A255,9118,9.633159e-05,-3.179286e-05,-3.178319e-05,1.645285e-05,-5.401244e-10,1.613809e-07,0.00013125091530921703
PART_002_R214G39B40A255,9119,9.633159e-05,-3.179327e-05,-3.17956e-05,1.772536e-05,6.723724e-09,5.843231e-08,0.00013175300310198264
PART_003_R247G182B210A255,9120,4.81658e-05,-1.590116e-05,-1.588797e-05,1.962261e-05,-8.88674e-10,-2.573127e-08,7.251808707291989e-05
PART_003_R247G182B210A255,9121,4.816579e-05,-1.589507e-05,-1.589683e-05,1.832412e-05,-1.300591e-08,-6.6423e-08,7.149293950440052e-05
PART_003_R247G182B210A255,9122,4.81658e-05,-1.589339e-05,-1.589438e-05,1.735703e-05,-9.048039e-10,-8.711316e-08,7.076344736416496e-05
PART_003_R247G182B210A255,9123,4.816579e-05,-1.589477e-05,-1.589344e-05,1.66989e-05,-1.010775e-08,-7.935257e-08,7.028690581721908e-05
PART_003_R247G182B210A255,9124,4.816579e-05,-1.589246e-05,-1.589505e-05,1.631658e-05,1.744495e-10,-4.673582e-08,7.001659954703035e-05
PART_000_R31G119B180A255,9125,4.816579e-05,-1.589552e-05,-1.589147e-05,1.619261e-05,3.733208e-13,-1.129875e-13,6.992992108424978e-05
PART_000_R31G119B180A255,9126,4.816579e-05,-1.589246e-05,-1.589505e-05,1.631658e-05,-1.73722e-10,4.67356e-08,7.001659954658438e-05
PART_002_R214G39B40A255,9127,4.816579e-05,-1.589477e-05,-1.589344e-05,1.66989e-05,1.010839e-08,7.935238e-08,7.028690581685169e-05
PART_002_R214G39B40A255,9128,4.816579e-05,-1.589339e-05,-1.589438e-05,1.735703e-05,9.053175e-10,8.711301e-08,7.076343831097902e-05
PART_002_R214G39B40A255,9129,4.816579e-05,-1.589507e-05,-1.589683e-05,1.832412e-05,1.300625e-08,6.64229e-08,7.149293950430736e-05
PART_002_R214G39B40A255,9130,4.816579e-05,-1.590116e-05,-1.588797e-05,1.962261e-05,8.888011e-10,2.573124e-08,7.251807823918417e-05
PART_003_R247G182B210A255,9131,4.211074e-14,3.233525e-15,-3.2224e-14,2.025233e-05,-5.225512e-09,2.601087e-15,3.5078065699303133e-05
PART_003_R247G182B210A255,9132,4.977778e-14,-6.790402e-14,-4.436236e-15,1.894418e-05,-2.199593e-09,8.29056e-15,3.2812282488906924e-05
PART_003_R247G182B210A255,9133,9.594506e-14,-1.573602e-13,-3.682807e-14,1.796588e-05,-1.390686e-08,1.035049e-14,3.111782628535395e-05
PART_003_R247G182B210A255,9134,1.11331e-13,-2.241124e-13,-1.263509e-14,1.72913e-05,-8.527725e-10,8.751595e-15,2.99494101653382e-05
PART_003_R247G182B210A255,9135,1.382244e-13,-2.589456e-13,-4.307529e-14,1.690023e-05,-5.777362e-09,4.768144e-15,2.9272058729997713e-05
PART_003_R247G182B210A255,9136,1.318834e-13,-2.690209e-13,-1.678099e-14,1.677112e-05,3.88131e-13,6.539899e-17,2.904843193983456e-05
PART_002_R214G39B40A255,9137,1.385692e-13,-2.596812e-13,-4.29993e-14,1.690023e-05,5.778117e-09,-5.041767e-15,2.927205873044478e-05
PART_002_R214G39B40A255,9138,1.137164e-13,-2.306488e-13,-1.267183e-14,1.72913e-05,8.534347e-10,-8.374002e-15,2.9949410165394786e-05
PART_002_R214G39B40A255,9139,1.042768e-13,-1.822015e-13,-3.653397e-14,1.796588e-05,1.390739e-08,-9.959803e-15,3.111782628606455e-05
PART_002_R214G39B40A255,9140,6.732928e-14,-1.227629e-13,-4.724718e-15,1.894418e-05,2.199936e-09,-7.876187e-15,3.2812282488975907e-05
PART_002_R214G39B40A255,9141,6.678403e-14,-7.689682e-14,-3.180329e-14,2.025233e-05,5.225638e-09,-3.397443e-15,3.5078065699359444e-05
PART_003_R247G182B210A255,9142,-4.81658e-05,1.590116e-05,1.588797e-05,1.962261e-05,-8.886737e-10,2.573128e-08,7.251808707293053e-05
PART_003_R247G182B210A255,9143,-4.816579e-05,1.589508e-05,1.589683e-05,1.832412e-05,-1.300591e-08,6.642301e-08,7.149294398452869e-05
PART_003_R247G182B210A255,9144,-4.816579e-05,1.589339e-05,1.589438e-05,1.735703e-05,-9.048043e-10,8.711317e-08,7.076343831155024e-05
PART_003_R247G182B210A255,9145,-4.816579e-05,1.589477e-05,1.589344e-05,1.66989e-05,-1.010775e-08,7.935259e-08,7.028690581728683e-05
PART_003_R247G182B210A255,9146,-4.816579e-05,1.589246e-05,1.589505e-05,1.631658e-05,1.744495e-10,4.673582e-08,7.001659954703035e-05
PART_001_R158G218B229A255,9147,-4.816579e-05,1.589552e-05,1.589147e-05,1.619261e-05,3.732607e-13,1.13776e-13,6.992992108424978e-05
PART_001_R158G218B229A255,9148,-4.816579e-05,1.589246e-05,1.589505e-05,1.631658e-05,-1.737219e-10,-4.673561e-08,7.001659954660441e-05
PART_002_R214G39B40A255,9149,-4.816579e-05,1.589477e-05,1.589344e-05,1.66989e-05,1.010839e-08,-7.935239e-08,7.028690581688555e-05
PART_002_R214G39B40A255,9150,-4.816579e-05,1.589339e-05,1.589438e-05,1.735703e-05,9.053178e-10,-8.711302e-08,7.076343831101597e-05
PART_002_R214G39B40A255,9151,-4.816579e-05,1.589507e-05,1.589683e-05,1.832412e-05,1.300625e-08,-6.642291e-08,7.149293950433522e-05
PART_002_R214G39B40A255,9152,-4.816579e-05,1.590116e-05,1.588797e-05,1.962261e-05,8.888012e-10,-2.573124e-08,7.251807823918419e-05
PART_003_R247G182B210A255,9153,-9.633159e-05,3.179327e-05,3.17956e-05,1.772536e-05,-6.723627e-09,5.843238e-08,0.00013175300310206092
PART_003_R247G182B210A255,9154,-9.633159e-05,3.179286e-05,3.178319e-05,1.645285e-05,5.403977e-10,1.613811e-07,0.00013125091530995814
PART_003_R247G182B210A255,9155,-9.633159e-05,3.178916e-05,3.178971e-05,1.553576e-05,-1.281566e-08,2.068039e-07,0.0001309167879223016
PART_003_R247G182B210A255,9156,-9.633159e-05,3.178434e-05,3.179065e-05,1.492193e-05,1.984733e-09,1.868185e-07,0.00013070040807567254
PART_001_R158G218B229A255,9157,-9.633159e-05,3.17911e-05,3.178288e-05,1.457597e-05,-1.942254e-09,1.104245e-07,0.00013058247925446602
PART_001_R158G218B229A255,9158,-9.633159e-05,3.178879e-05,3.178631e-05,1.446381e-05,3.315149e-13,2.171328e-13,0.00013054546885319575
PART_001_R158G218B229A255,9159,-9.633159e-05,3.17911e-05,3.178288e-05,1.457597e-05,1.942897e-09,-1.104241e-07,0.00013058247925347996
PART_001_R158G218B229A255,9160,-9.633159e-05,3.178434e-05,3.179065e-05,1.492194e-05,-1.984177e-09,-1.868181e-07,0.00013070041149900195
PART_002_R214G39B40A255,9161,-9.633159e-05,3.178916e-05,3.178971e-05,1.553576e-05,1.28161e-08,-2.068036e-07,0.0001309167879210091
PART_002_R214G39B40A255,9162,-9.633159e-05,3.179286e-05,3.178319e-05,1.645285e-05,-5.401243e-10,-1.613809e-07,0.00013125091530921703
PART_002_R214G39B40A255,9163,-9.633159e-05,3.179327e-05,3.17956e-05,1.772536e-05,6.723725e-09,-5.843232e-08,0.00013175300310199611
PART_003_R247G182B210A255,9164,-0.0001444974,4.770595e-05,4.765918e-05,1.452033e-05,1.688547e-09,1.261996e-07,0.00019381875122256178
PART_003_R247G182B210A255,9165,-0.0001444974,4.768417e-05,4.769044e-05,1.331918e-05,-1.689305e-08,3.183526e-07,0.00019356515036105567
PART_003_R247G182B210A255,9166,-0.0001444974,4.767528e-05,4.768666e-05,1.24938e-05,6.695302e-09,4.05989e-07,0.00019339417189768353
PART_001_R158G218B229A255,9167,-0.0001444974,4.768677e-05,4.767412e-05,1.198339e-05,1.795667e-09,3.623549e-07,0.00019329646414104713
PART_001_R158G218B229A255,9168,-0.0001444974,4.768667e-05,4.767602e-05,1.170197e-05,1.456395e-09,2.069266e-07,0.0001932449401218599
PART_001_R158G218B229A255,9169,-0.0001444974,4.768738e-05,4.76724e-05,1.161084e-05,2.638679e-13,2.988355e-13,0.00019322666942366213
PART_001_R158G218B229A255,9170,-0.0001444974,4.768667e-05,4.767602e-05,1.170197e-05,-1.455883e-09,-2.06926e-07,0.00019324494011992087
PART_001_R158G218B229A255,9171,-0.0001444974,4.768677e-05,4.767412e-05,1.198339e-05,-1.795234e-09,-3.623544e-07,0.00019329646413822316
PART_001_R158G218B229A255,9172,-0.0001444974,4.767528e-05,4.768666e-05,1.24938e-05,-6.694967e-09,-4.059886e-07,0.0001933941718951296
PART_002_R214G39B40A255,9173,-0.0001444974,4.768417e-05,4.769044e-05,1.331918e-05,1.689325e-08,-3.183523e-07,0.00019356515035962783
PART_002_R214G39B40A255,9174,-0.0001444974,4.770595e-05,4.765918e-05,1.452033e-05,-1.688471e-09,-1.261995e-07,0.00019381875122236443
PART_003_R247G182B210A255,9175,-0.0001926632,6.35841e-05,6.360191e-05,9.932606e-06,-1.584736e-08,2.312778e-07,0.0002568333585156562
PART_003_R247G182B210A255,9176,-0.0001926632,6.356971e-05,6.357678e-05,8.856098e-06,1.544479e-08,6.334126e-07,0.0002566975098228918
PART_001_R158G218B229A255,9177,-0.0001926632,6.358281e-05,6.356229e-05,8.266722e-06,1.104098e-08,7.743506e-07,0.0002566389978043205
PART_001_R158G218B229A255,9178,-0.0001926632,6.358743e-05,6.356267e-05,7.924963e-06,3.244165e-09,6.407634e-07,0.0002566080437228887
PART_001_R158G218B229A255,9179,-0.0001926632,6.358313e-05,6.356242e-05,7.736566e-06,2.70681e-09,3.580886e-07,0.00025658687275582236
PART_001_R158G218B229A255,9180,-0.0001926632,6.358937e-05,6.356131e-05,7.679059e-06,1.731174e-13,3.437481e-13,0.00025658350261314686
PART_001_R158G218B229A255,9181,-0.0001926632,6.358313e-05,6.356242e-05,7.736566e-06,-2.706471e-09,-3.580879e-07,0.0002565868727528809
PART_001_R158G218B229A255,9182,-0.0001926632,6.358743e-05,6.356267e-05,7.924963e-06,-3.243889e-09,-6.407629e-07,0.00025660804371913266
PART_001_R158G218B229A255,9183,-0.0001926632,6.358281e-05,6.356229e-05,8.266722e-06,-1.104078e-08,-7.743502e-07,0.00025663899780067396
PART_001_R158G218B229A255,9184,-0.0001926632,6.356971e-05,6.357678e-05,8.856098e-06,-1.544469e-08,-6.334123e-07,0.000256697509820653
PART_002_R214G39B40A255,9185,-0.0001926632,6.35841e-05,6.360191e-05,9.932606e-06,1.584739e-08,-2.312777e-07,0.00025683335851539157
PART_003_R247G182B210A255,9186,-0.000240829,7.952102e-05,7.940043e-05,3.64802e-06,2.438407e-08,6.234948e-07,0.00032035388403739293
PART_001_R158G218B229A255,9187,-0.000240829,7.947537e-05,7.944007e-05,3.134943e-06,1.501413e-08,1.347984e-06,0.00032034125460925374
PART_001_R158G218B229A255,9188,-0.000240829,7.94982e-05,7.943899e-05,2.93875e-06,2.938531e-09,1.372503e-06,0.00032034686211386483
PART_001_R158G218B229A255,9189,-0.000240829,7.94776e-05,7.945173e-05,2.809206e-06,3.510739e-09,1.070267e-06,0.0003203359856579587
PART_001_R158G218B229A255,9190,-0.000240829,7.949128e-05,7.944747e-05,2.747208e-06,4.946436e-10,5.776149e-07,0.00032033528191594137
PART_001_R158G218B229A255,9191,-0.000240829,7.947832e-05,7.945372e-05,2.724423e-06,5.97395e-14,3.418062e-13,0.0003203297796532804
PART_001_R158G218B229A255,9192,-0.000240829,7.949128e-05,7.944747e-05,2.747208e-06,-4.945191e-10,-5.776142e-07,0.00032033528191215415
PART_001_R158G218B229A255,9193,-0.000240829,7.94776e-05,7.945173e-05,2.809206e-06,-3.510646e-09,-1.070266e-06,0.00032033598564793246
PART_001_R158G218B229A255,9194,-0.000240829,7.94982e-05,7.943899e-05,2.93875e-06,-2.938457e-09,-1.372503e-06,0.0003203468621138628
PART_001_R158G218B229A255,9195,-0.000240829,7.947537e-05,7.944007e-05,3.134943e-06,-1.501411e-08,-1.347983e-06,0.00032034125459662707
PART_001_R158G218B229A255,9196,-0.000240829,7.952102e-05,7.940043e-05,3.64802e-06,-2.438405e-08,-6.234947e-07,0.0003203538840368045
PART_003_R247G182B210A255,9197,0.000236285,-7.802062e-05,-7.790231e-05,3.64802e-06,2.392401e-08,-6.234949e-07,0.0003143118568674196
PART_000_R31G119B180A255,9198,0.000236285,-7.797583e-05,-7.794121e-05,3.134943e-06,1.473083e-08,-1.347983e-06,0.0003142991030678188
PART_000_R31G119B180A255,9199,0.000236285,-7.799823e-05,-7.794014e-05,2.93875e-06,2.883101e-09,-1.372503e-06,0.00031430439925958666
PART_000_R31G119B180A255,9200,0.000236285,-7.797802e-05,-7.795264e-05,2.809206e-06,3.444514e-09,-1.070267e-06,0.00031429346438196327
PART_000_R31G119B180A255,9201,0.000236285,-7.799145e-05,-7.794846e-05,2.747208e-06,4.853277e-10,-5.77615e-07,0.0003142925715022775
PART_000_R31G119B180A255,9202,0.000236285,-7.797873e-05,-7.79546e-05,2.724423e-06,8.76957e-14,-4.771973e-13,0.0003142870930121275
PART_000_R31G119B180A255,9203,0.000236285,-7.799145e-05,-7.794846e-05,2.747208e-06,-4.851775e-10,5.776142e-07,0.000314292571497866
PART_000_R31G119B180A255,9204,0.000236285,-7.797802e-05,-7.795264e-05,2.809206e-06,-3.444375e-09,1.070266e-06,0.00031429346437174277
PART_000_R31G119B180A255,9205,0.000236285,-7.799823e-05,-7.794014e-05,2.93875e-06,-2.883021e-09,1.372503e-06,0.00031430439925958444
PART_000_R31G119B180A255,9206,0.000236285,-7.797583e-05,-7.794121e-05,3.134943e-06,-1.473079e-08,1.347983e-06,0.00031429910306781316
PART_000_R31G119B180A255,9207,0.000236285,-7.802062e-05,-7.790231e-05,3.64802e-06,-2.392402e-08,6.234947e-07,0.0003143118568662316
PART_003_R247G182B210A255,9208,0.000189028,-6.23844e-05,-6.240187e-05,9.932606e-06,-1.554835e-08,-2.312779e-07,0.0002520093619949411
PART_003_R247G182B210A255,9209,0.000189028,-6.237029e-05,-6.237722e-05,8.856098e-06,1.515341e-08,-6.334126e-07,0.00025187167008597556
PART_000_R31G119B180A255,9210,0.000189028,-6.238313e-05,-6.2363e-05,8.266721e-06,1.083269e-08,-7.743508e-07,0.00025181205496331647
PART_000_R31G119B180A255,9211,0.000189028,-6.238767e-05,-6.236338e-05,7.924963e-06,3.183011e-09,-6.407635e-07,0.0002517804196210783
PART_000_R31G119B180A255,9212,0.000189028,-6.238345e-05,-6.236313e-05,7.736566e-06,2.655791e-09,-3.580887e-07,0.0002517589263312601
PART_000_R31G119B180A255,9213,0.000189028,-6.238957e-05,-6.236204e-05,7.679059e-06,2.382804e-13,-4.61776e-13,0.0002517553923519417
PART_000_R31G119B180A255,9214,0.000189028,-6.238345e-05,-6.236313e-05,7.736566e-06,-2.655353e-09,3.580878e-07,0.0002517589263274059
PART_000_R31G119B180A255,9215,0.000189028,-6.238767e-05,-6.236338e-05,7.924963e-06,-3.182625e-09,6.407627e-07,0.00025178041961495585
PART_000_R31G119B180A255,9216,0.000189028,-6.238313e-05,-6.2363e-05,8.266722e-06,-1.083243e-08,7.743501e-07,0.000251812055055312
PART_000_R31G119B180A255,9217,0.000189028,-6.237029e-05,-6.237722e-05,8.856098e-06,-1.515326e-08,6.334122e-07,0.00025187167008293074
PART_002_R214G39B40A255,9218,0.000189028,-6.23844e-05,-6.240187e-05,9.932606e-06,1.554839e-08,2.312777e-07,0.00025200936199439787
PART_003_R247G182B210A255,9219,0.000141771,-4.680583e-05,-4.675995e-05,1.452033e-05,1.656692e-09,-1.261996e-07,0.00019022391739747293
PART_003_R247G182B210A255,9220,0.000141771,-4.678447e-05,-4.679062e-05,1.331918e-05,-1.657428e-08,-3.183526e-07,0.0001899653427806113
PART_003_R247G182B210A255,9221,0.000141771,-4.677574e-05,-4.678691e-05,1.24938e-05,6.569026e-09,-4.059891e-07,0.00018979135671232916
PART_000_R31G119B180A255,9222,0.000141771,-4.678702e-05,-4.677461e-05,1.198339e-05,1.761868e-09,-3.623549e-07,0.00018969181815647665
PART_000_R31G119B180A255,9223,0.000141771,-4.678692e-05,-4.677647e-05,1.170197e-05,1.428998e-09,-2.069267e-07,0.0001896392776863781
PART_000_R31G119B180A255,9224,0.000141771,-4.678762e-05,-4.677293e-05,1.161084e-05,3.56363e-13,-3.917476e-13,0.0001896207221863937
PART_000_R31G119B180A255,9225,0.000141771,-4.678692e-05,-4.677647e-05,1.170197e-05,-1.428329e-09,2.069259e-07,0.0001896392776837442
PART_000_R31G119B180A255,9226,0.000141771,-4.678702e-05,-4.677461e-05,1.198339e-05,-1.76128e-09,3.623542e-07,0.00018969181815244878
PART_000_R31G119B180A255,9227,0.000141771,-4.677574e-05,-4.678691e-05,1.24938e-05,-6.568591e-09,4.059886e-07,0.00018979135670907528
PART_002_R214G39B40A255,9228,0.000141771,-4.678447e-05,-4.679062e-05,1.331918e-05,1.657455e-08,3.183522e-07,0.00018996534277867095
PART_002_R214G39B40A255,9229,0.000141771,-4.680583e-05,-4.675995e-05,1.452033e-05,-1.656614e-09,1.261995e-07,0.0001902239173972719
PART_003_R247G182B210A255,9230,9.451401e-05,-3.119339e-05,-3.119568e-05,1.772536e-05,-6.596747e-09,-5.843241e-08,0.00012940329912691456
PART_003_R247G182B210A255,9231,9.451401e-05,-3.1193e-05,-3.118351e-05,1.645285e-05,5.302636e-10,-1.613811e-07,0.0001288923056100117
PART_003_R247G182B210A255,9232,9.451401e-05,-3.118937e-05,-3.11899e-05,1.553576e-05,-1.257378e-08,-2.06804e-07,0.00012855199205307003
PART_003_R247G182B210A255,9233,9.451401e-05,-3.118463e-05,-3.119082e-05,1.492193e-05,1.947388e-09,-1.868185e-07,0.00012833169098221524
PART_000_R31G119B180A255,9234,9.451401e-05,-3.119127e-05,-3.11832e-05,1.457597e-05,-1.905502e-09,-1.104245e-07,0.00012821160766217626
PART_000_R31G119B180A255,9235,9.451401e-05,-3.1189e-05,-3.118656e-05,1.446381e-05,4.450894e-13,-2.843709e-13,0.00012817388740620143
PART_000_R31G119B180A255,9236,9.451401e-05,-3.119127e-05,-3.11832e-05,1.457597e-05,1.906345e-09,1.10424e-07,0.00012821160766092197
PART_000_R31G119B180A255,9237,9.451401e-05,-3.118463e-05,-3.119082e-05,1.492194e-05,-1.946637e-09,1.86818e-07,0.0001283316944682866
PART_002_R214G39B40A255,9238,9.451401e-05,-3.118936e-05,-3.11899e-05,1.553576e-05,1.257436e-08,2.068036e-07,0.00012855198716212678
PART_002_R214G39B40A255,9239,9.451401e-05,-3.1193e-05,-3.118351e-05,1.645285e-05,-5.298759e-10,1.613809e-07,0.00012889230560925567
PART_002_R214G39B40A255,9240,9.451401e-05,-3.119339e-05,-3.119568e-05,1.772536e-05,6.596878e-09,5.843231e-08,0.00012940329912679914
PART_003_R247G182B210A255,9241,4.725701e-05,-1.560113e-05,-1.558819e-05,1.962261e-05,-8.71895e-10,-2.573128e-08,7.145260670951629e-05
PART_003_R247G182B210A255,9242,4.725701e-05,-1.559517e-05,-1.559689e-05,1.832412e-05,-1.276046e-08,-6.6423e-08,7.041192005134078e-05
PART_003_R247G182B210A255,9243,4.725701e-05,-1.559352e-05,-1.559449e-05,1.735703e-05,-8.876531e-10,-8.71132e-08,6.967117285499956e-05
PART_003_R247G182B210A255,9244,4.725701e-05,-1.559487e-05,-1.559356e-05,1.66989e-05,-9.916922e-09,-7.935259e-08,6.918710468327422e-05
PART_003_R247G182B210A255,9245,4.725701e-05,-1.559261e-05,-1.559515e-05,1.631658e-05,1.712765e-10,-4.673586e-08,6.89125045266085e-05
PART_000_R31G119B180A255,9246,4.725701e-05,-1.55956e-05,-1.559164e-05,1.619261e-05,5.004829e-13,-1.4938e-13,6.882444012844856e-05
PART_000_R31G119B180A255,9247,4.725701e-05,-1.559261e-05,-1.559515e-05,1.631658e-05,-1.703253e-10,4.673557e-08,6.89125045260114e-05
PART_002_R214G39B40A255,9248,4.725701e-05,-1.559487e-05,-1.559356e-05,1.66989e-05,9.917776e-09,7.935233e-08,6.918710468274686e-05
PART_002_R214G39B40A255,9249,4.725701e-05,-1.559352e-05,-1.559449e-05,1.735703e-05,8.883198e-10,8.711299e-08,6.967117285423733e-05
PART_002_R214G39B40A255,9250,4.725701e-05,-1.559517e-05,-1.559689e-05,1.832412e-05,1.276091e-08,6.642286e-08,7.041192005118922e-05
PART_002_R214G39B40A255,9251,4.725701e-05,-1.560113e-05,-1.558819e-05,1.962261e-05,8.720412e-10,2.573123e-08,7.145260670946764e-05
PART_003_R247G182B210A255,9252,-1.42822e-15,1.58068e-14,2.519876e-15,2.025233e-05,-5.126894e-09,4.310878e-15,3.5078065655646215e-05
PART_003_R247G182B210A255,9253,1.473105e-15,9.575674e-14,-3.42382e-14,1.894418e-05,-2.158016e-09,9.218996e-15,3.281228248062453e-05
PART_003_R247G182B210A255,9254,-3.622113e-14,1.991324e-13,-6.961047e-15,1.796588e-05,-1.364438e-08,1.140829e-14,3.111782593676037e-05
PART_003_R247G182B210A255,9255,-3.921581e-14,2.759459e-13,-4.422966e-14,1.72913e-05,-8.365605e-10,1.056688e-14,2.9949410163966512e-05
PART_003_R247G182B210A255,9256,-5.915602e-14,3.15234e-13,-1.722547e-14,1.690023e-05,-5.668232e-09,6.460396e-15,2.9272058665991743e-05
PART_003_R247G182B210A255,9257,-4.795426e-14,3.259892e-13,-4.946705e-14,1.677112e-05,5.195492e-13,-2.16218e-16,2.9048431939834568e-05
PART_002_R214G39B40A255,9258,-5.958461e-14,3.157336e-13,-1.715766e-14,1.690023e-05,5.66922e-09,-6.160198e-15,2.9272058666565736e-05
PART_002_R214G39B40A255,9259,-4.217861e-14,2.836481e-13,-4.414512e-14,1.72913e-05,8.374516e-10,-1.108264e-14,2.9949410164041224e-05
PART_002_R214G39B40A255,9260,-4.670927e-14,2.291639e-13,-7.076377e-15,1.796588e-05,1.364508e-08,-1.190185e-14,3.11178259376812e-05
PART_002_R214G39B40A255,9261,-2.060895e-14,1.632305e-13,-3.375249e-14,1.894418e-05,2.158497e-09,-9.833609e-15,3.2812282480719436e-05
PART_002_R214G39B40A255,9262,-3.255664e-14,1.147832e-13,2.325607e-15,2.025233e-05,5.127061e-09,-3.333585e-15,3.507806565571944e-05
PART_003_R247G182B210A255,9263,-4.725701e-05,1.560113e-05,1.558819e-05,1.962261e-05,-8.718958e-10,2.573129e-08,7.145260670952713e-05
PART_003_R247G182B210A255,9264,-4.725701e-05,1.559517e-05,1.559689e-05,1.832412e-05,-1.276046e-08,6.642302e-08,7.041192005139737e-05
PART_003_R247G182B210A255,9265,-4.725701e-05,1.559352e-05,1.559449e-05,1.735703e-05,-8.876526e-10,8.711323e-08,6.967117285511206e-05
PART_003_R247G182B210A255,9266,-4.725701e-05,1.559487e-05,1.559356e-05,1.66989e-05,-9.916922e-09,7.935261e-08,6.918710468334304e-05
PART_003_R247G182B210A255,9267,-4.725701e-05,1.559261e-05,1.559515e-05,1.631658e-05,1.712767e-10,4.673587e-08,6.891250452662884e-05
PART_001_R158G218B229A255,9268,-4.725701e-05,1.55956e-05,1.559164e-05,1.619261e-05,5.002565e-13,1.481918e-13,6.882444012844856e-05
PART_001_R158G218B229A255,9269,-4.725701e-05,1.559261e-05,1.559515e-05,1.631658e-05,-1.703252e-10,-4.673558e-08,6.891250452603175e-05
PART_002_R214G39B40A255,9270,-4.725701e-05,1.559487e-05,1.559356e-05,1.66989e-05,9.917776e-09,-7.935236e-08,6.918710468285008e-05
PART_002_R214G39B40A255,9271,-4.725701e-05,1.559352e-05,1.559449e-05,1.735703e-05,8.883195e-10,-8.711302e-08,6.967117285434986e-05
PART_002_R214G39B40A255,9272,-4.725701e-05,1.559517e-05,1.559689e-05,1.832412e-05,1.276091e-08,-6.642288e-08,7.041192005124583e-05
PART_002_R214G39B40A255,9273,-4.725701e-05,1.560113e-05,1.558819e-05,1.962261e-05,8.720413e-10,-2.573124e-08,7.145260670947844e-05
PART_003_R247G182B210A255,9274,-9.451401e-05,3.119339e-05,3.119568e-05,1.772536e-05,-6.596745e-09,5.843242e-08,0.0001294032991269278
PART_003_R247G182B210A255,9275,-9.451401e-05,3.1193e-05,3.118351e-05,1.645285e-05,5.302634e-10,1.613811e-07,0.0001288923056100117
PART_003_R247G182B210A255,9276,-9.451401e-05,3.118937e-05,3.11899e-05,1.553576e-05,-1.257378e-08,2.06804e-07,0.00012855199205307003
PART_003_R247G182B210A255,9277,-9.451401e-05,3.118463e-05,3.119082e-05,1.492193e-05,1.947389e-09,1.868185e-07,0.0001283316909822153
PART_001_R158G218B229A255,9278,-9.451401e-05,3.119127e-05,3.11832e-05,1.457597e-05,-1.905502e-09,1.104246e-07,0.00012821160766243465
PART_001_R158G218B229A255,9279,-9.451401e-05,3.1189e-05,3.118656e-05,1.446381e-05,4.451784e-13,2.818517e-13,0.00012817388740620143
PART_001_R158G218B229A255,9280,-9.451401e-05,3.119127e-05,3.11832e-05,1.457597e-05,1.906344e-09,-1.10424e-07,0.00012821160766092192
PART_001_R158G218B229A255,9281,-9.451401e-05,3.118463e-05,3.119082e-05,1.492194e-05,-1.946637e-09,-1.86818e-07,0.0001283316944682866
PART_002_R214G39B40A255,9282,-9.451401e-05,3.118937e-05,3.11899e-05,1.553576e-05,1.257436e-08,-2.068036e-07,0.00012855199205130978
PART_002_R214G39B40A255,9283,-9.451401e-05,3.1193e-05,3.118351e-05,1.645285e-05,-5.298754e-10,-1.613809e-07,0.00012889230560925565
PART_002_R214G39B40A255,9284,-9.451401e-05,3.119339e-05,3.119568e-05,1.772536e-05,6.596878e-09,-5.843232e-08,0.0001294032991268127
PART_003_R247G182B210A255,9285,-0.000141771,4.680583e-05,4.675995e-05,1.452033e-05,1.656689e-09,1.261996e-07,0.00019022391739747287
PART_003_R247G182B210A255,9286,-0.000141771,4.678447e-05,4.679062e-05,1.331918e-05,-1.657428e-08,3.183526e-07,0.0001899653427806113
PART_003_R247G182B210A255,9287,-0.000141771,4.677574e-05,4.678691e-05,1.24938e-05,6.569028e-09,4.059892e-07,0.0001897913567129711
PART_001_R158G218B229A255,9288,-0.000141771,4.678702e-05,4.677461e-05,1.198339e-05,1.761868e-09,3.623549e-07,0.00018969181815647665
PART_001_R158G218B229A255,9289,-0.000141771,4.678692e-05,4.677647e-05,1.170197e-05,1.428999e-09,2.069267e-07,0.00018963927768637811
PART_001_R158G218B229A255,9290,-0.000141771,4.678762e-05,4.677293e-05,1.161084e-05,3.562925e-13,3.877738e-13,0.0001896207221863937
PART_001_R158G218B229A255,9291,-0.000141771,4.678692e-05,4.677647e-05,1.170197e-05,-1.428329e-09,-2.069259e-07,0.0001896392776837442
PART_001_R158G218B229A255,9292,-0.000141771,4.678702e-05,4.677461e-05,1.198339e-05,-1.761279e-09,-3.623543e-07,0.0001896918181530218
PART_001_R158G218B229A255,9293,-0.000141771,4.677574e-05,4.678691e-05,1.24938e-05,-6.568593e-09,-4.059886e-07,0.0001897913567090755
PART_002_R214G39B40A255,9294,-0.000141771,4.678447e-05,4.679062e-05,1.331918e-05,1.657455e-08,-3.183522e-07,0.00018996534277867095
PART_002_R214G39B40A255,9295,-0.000141771,4.680583e-05,4.675995e-05,1.452033e-05,-1.656613e-09,-1.261995e-07,0.00019022391739727184
PART_003_R247G182B210A255,9296,-0.000189028,6.23844e-05,6.240187e-05,9.932606e-06,-1.554835e-08,2.312779e-07,0.0002520093619949411
PART_003_R247G182B210A255,9297,-0.000189028,6.237029e-05,6.237722e-05,8.856098e-06,1.515341e-08,6.334126e-07,0.00025187167008597556
PART_001_R158G218B229A255,9298,-0.000189028,6.238313e-05,6.2363e-05,8.266721e-06,1.083269e-08,7.743508e-07,0.00025181205496331647
PART_001_R158G218B229A255,9299,-0.000189028,6.238767e-05,6.236338e-05,7.924963e-06,3.183011e-09,6.407635e-07,0.0002517804196210783
PART_001_R158G218B229A255,9300,-0.000189028,6.238345e-05,6.236313e-05,7.736566e-06,2.655791e-09,3.580888e-07,0.0002517589263316868
PART_001_R158G218B229A255,9301,-0.000189028,6.238957e-05,6.236204e-05,7.679059e-06,2.384495e-13,4.578703e-13,0.0002517553923519417
PART_001_R158G218B229A255,9302,-0.000189028,6.238345e-05,6.236313e-05,7.736566e-06,-2.655354e-09,-3.580879e-07,0.0002517589263278326
PART_001_R158G218B229A255,9303,-0.000189028,6.238767e-05,6.236338e-05,7.924963e-06,-3.182626e-09,-6.407627e-07,0.00025178041961495585
PART_001_R158G218B229A255,9304,-0.000189028,6.238313e-05,6.2363e-05,8.266722e-06,-1.083243e-08,-7.743502e-07,0.00025181205505623455
PART_001_R158G218B229A255,9305,-0.000189028,6.237029e-05,6.237722e-05,8.856098e-06,-1.515326e-08,-6.334122e-07,0.00025187167008293074
PART_002_R214G39B40A255,9306,-0.000189028,6.23844e-05,6.240187e-05,9.932606e-06,1.554839e-08,-2.312777e-07,0.00025200936199439787
PART_003_R247G182B210A255,9307,-0.000236285,7.802062e-05,7.790231e-05,3.64802e-06,2.392399e-08,6.234949e-07,0.000314311856867415
PART_001_R158G218B229A255,9308,-0.000236285,7.797583e-05,7.794121e-05,3.134943e-06,1.473085e-08,1.347984e-06,0.00031429910308068817
PART_001_R158G218B229A255,9309,-0.000236285,7.799823e-05,7.794014e-05,2.93875e-06,2.883092e-09,1.372504e-06,0.0003143043992726868
PART_001_R158G218B229A255,9310,-0.000236285,7.797802e-05,7.795264e-05,2.809206e-06,3.44452e-09,1.070267e-06,0.0003142934643819635
PART_001_R158G218B229A255,9311,-0.000236285,7.799144e-05,7.794846e-05,2.747208e-06,4.853252e-10,5.776151e-07,0.0003142925665024015
PART_001_R158G218B229A255,9312,-0.000236285,7.797873e-05,7.79546e-05,2.724423e-06,8.789978e-14,4.749801e-13,0.0003142870930121275
PART_001_R158G218B229A255,9313,-0.000236285,7.799144e-05,7.794846e-05,2.747208e-06,-4.851753e-10,-5.776142e-07,0.00031429256649743867
PART_001_R158G218B229A255,9314,-0.000236285,7.797802e-05,7.795264e-05,2.809206e-06,-3.44438e-09,-1.070266e-06,0.00031429346437174293
PART_001_R158G218B229A255,9315,-0.000236285,7.799823e-05,7.794014e-05,2.93875e-06,-2.883013e-09,-1.372503e-06,0.0003143043992595842
PART_001_R158G218B229A255,9316,-0.000236285,7.797583e-05,7.794121e-05,3.134943e-06,-1.47308e-08,-1.347983e-06,0.0003142991030678145
PART_001_R158G218B229A255,9317,-0.000236285,7.802062e-05,7.790231e-05,3.64802e-06,-2.3924e-08,-6.234948e-07,0.0003143118568668222
PART_003_R247G182B210A255,9318,0.0002317411,-7.652022e-05,-7.640419e-05,3.64802e-06,2.346392e-08,-6.234949e-07,0.00030826997802128333
PART_000_R31G119B180A255,9319,0.0002317411,-7.64763e-05,-7.644234e-05,3.134943e-06,1.444758e-08,-1.347984e-06,0.0003082570926430855
PART_000_R31G119B180A255,9320,0.0002317411,-7.649826e-05,-7.64413e-05,2.93875e-06,2.827672e-09,-1.372504e-06,0.00030826207853719266
PART_000_R31G119B180A255,9321,0.0002317411,-7.647844e-05,-7.645355e-05,2.809206e-06,3.378298e-09,-1.070267e-06,0.0003082510749966932
PART_000_R31G119B180A255,9322,0.0002317411,-7.649161e-05,-7.644945e-05,2.747208e-06,4.760278e-10,-5.776152e-07,0.00030824998390004745
PART_000_R31G119B180A255,9323,0.0002317411,-7.647914e-05,-7.645547e-05,2.724423e-06,1.050935e-13,-6.178787e-13,0.00030824452756682394
PART_000_R31G119B180A255,9324,0.0002317411,-7.649161e-05,-7.644945e-05,2.747208e-06,-4.758061e-10,5.776139e-07,0.0003082499838927384
PART_000_R31G119B180A255,9325,0.0002317411,-7.647844e-05,-7.645355e-05,2.809206e-06,-3.378134e-09,1.070266e-06,0.00030825107498627164
PART_000_R31G119B180A255,9326,0.0002317411,-7.649826e-05,-7.64413e-05,2.93875e-06,-2.827537e-09,1.372503e-06,0.00030826207852383176
PART_000_R31G119B180A255,9327,0.0002317411,-7.64763e-05,-7.644234e-05,3.134943e-06,-1.444753e-08,1.347983e-06,0.00030825709262995973
PART_000_R31G119B180A255,9328,0.0002317411,-7.652022e-05,-7.640419e-05,3.64802e-06,-2.346389e-08,6.234947e-07,0.0003082699780200629
PART_003_R247G182B210A255,9329,0.0001853929,-6.11847e-05,-6.120184e-05,9.932606e-06,-1.524934e-08,-2.312779e-07,0.000247185902930336
PART_003_R247G182B210A255,9330,0.0001853929,-6.117086e-05,-6.117766e-05,8.856098e-06,1.486201e-08,-6.334127e-07,0.0002470462712491043
PART_000_R31G119B180A255,9331,0.0001853929,-6.118346e-05,-6.116371e-05,8.266721e-06,1.062442e-08,-7.743508e-07,0.00024698551990389415
PART_000_R31G119B180A255,9332,0.0001853929,-6.118791e-05,-6.116408e-05,7.924963e-06,3.121854e-09,-6.407636e-07,0.000246953168204597
PART_000_R31G119B180A255,9333,0.0001853929,-6.118377e-05,-6.116384e-05,7.736566e-06,2.604802e-09,-3.580889e-07,0.0002469313434463387
PART_000_R31G119B180A255,9334,0.0001853929,-6.118977e-05,-6.116277e-05,7.679059e-06,3.038948e-13,-6.115764e-13,0.00024692764118789003
PART_000_R31G119B180A255,9335,0.0001853929,-6.118377e-05,-6.116384e-05,7.736566e-06,-2.604203e-09,3.580877e-07,0.00024693134344109917
PART_000_R31G119B180A255,9336,0.0001853929,-6.118791e-05,-6.116408e-05,7.924963e-06,-3.121365e-09,6.407626e-07,0.00024695316819679444
PART_000_R31G119B180A255,9337,0.0001853929,-6.118346e-05,-6.116371e-05,8.266722e-06,-1.062406e-08,7.7435e-07,0.0002469855199967346
PART_000_R31G119B180A255,9338,0.0001853929,-6.117086e-05,-6.117766e-05,8.856098e-06,-1.486183e-08,6.334121e-07,0.0002470462712444567
PART_002_R214G39B40A255,9339,0.0001853929,-6.11847e-05,-6.120184e-05,9.932606e-06,1.52494e-08,2.312777e-07,0.0002471859029297857
PART_003_R247G182B210A255,9340,0.0001390447,-4.590572e-05,-4.586072e-05,1.452033e-05,1.624862e-09,-1.261996e-07,0.000186630396375137
PART_003_R247G182B210A255,9341,0.0001390447,-4.588477e-05,-4.58908e-05,1.331918e-05,-1.625549e-08,-3.183527e-07,0.00018636665619474628
PART_003_R247G182B210A255,9342,0.0001390447,-4.587621e-05,-4.588716e-05,1.24938e-05,6.442788e-09,-4.059892e-07,0.00018618954772122736
PART_000_R31G119B180A255,9343,0.0001390447,-4.588727e-05,-4.58751e-05,1.198339e-05,1.728079e-09,-3.623551e-07,0.00018608810245258951
PART_000_R31G119B180A255,9344,0.0001390447,-4.588717e-05,-4.587693e-05,1.170197e-05,1.401639e-09,-2.069268e-07,0.00018603451215256768
PART_000_R31G119B180A255,9345,0.0001390447,-4.588786e-05,-4.587345e-05,1.161084e-05,4.607451e-13,-5.269495e-13,0.00018601564959467497
PART_000_R31G119B180A255,9346,0.0001390447,-4.588717e-05,-4.587693e-05,1.170197e-05,-1.400741e-09,2.069258e-07,0.00018603451214921048
PART_000_R31G119B180A255,9347,0.0001390447,-4.588726e-05,-4.58751e-05,1.198339e-05,-1.727316e-09,3.623541e-07,0.00018608809747746395
PART_000_R31G119B180A255,9348,0.0001390447,-4.587621e-05,-4.588716e-05,1.24938e-05,-6.442191e-09,4.059885e-07,0.00018618954771658632
PART_002_R214G39B40A255,9349,0.0001390447,-4.588477e-05,-4.58908e-05,1.331918e-05,1.625585e-08,3.183522e-07,0.00018636665619227818
PART_002_R214G39B40A255,9350,0.0001390447,-4.590572e-05,-4.586072e-05,1.452033e-05,-1.624725e-09,1.261995e-07,0.00018663039637493057
PART_003_R247G182B210A255,9351,9.269644e-05,-3.059352e-05,-3.059576e-05,1.772536e-05,-6.469867e-09,-5.843241e-08,0.00012705615270948336
PART_003_R247G182B210A255,9352,9.269644e-05,-3.059313e-05,-3.058382e-05,1.645285e-05,5.201147e-10,-1.613812e-07,0.00012653591301847275
PART_003_R247G182B210A255,9353,9.269644e-05,-3.058957e-05,-3.05901e-05,1.553576e-05,-1.233188e-08,-2.06804e-07,0.000126189198744695
PART_003_R247G182B210A255,9354,9.269644e-05,-3.058493e-05,-3.0591e-05,1.492193e-05,1.910055e-09,-1.868186e-07,0.00012596484129758292
PART_000_R31G119B180A255,9355,9.269644e-05,-3.059143e-05,-3.058353e-05,1.457597e-05,-1.86871e-09,-1.104246e-07,0.00012584251377396148
PART_000_R31G119B180A255,9356,9.269644e-05,-3.058921e-05,-3.058682e-05,1.446381e-05,5.759542e-13,-3.813569e-13,0.00012580406292357732
PART_000_R31G119B180A255,9357,9.269644e-05,-3.059143e-05,-3.058353e-05,1.457597e-05,1.869832e-09,1.104239e-07,0.00012584251377216878
PART_000_R31G119B180A255,9358,9.269643e-05,-3.058493e-05,-3.0591e-05,1.492194e-05,-1.909084e-09,1.868179e-07,0.0001259648350610502
PART_002_R214G39B40A255,9359,9.269644e-05,-3.058957e-05,-3.05901e-05,1.553576e-05,1.233265e-08,2.068035e-07,0.0001261891987424625
PART_002_R214G39B40A255,9360,9.269643e-05,-3.059313e-05,-3.058382e-05,1.645285e-05,-5.196314e-10,1.613808e-07,0.0001265359032738593
PART_002_R214G39B40A255,9361,9.269644e-05,-3.059352e-05,-3.059576e-05,1.772536e-05,6.470043e-09,5.843228e-08,0.00012705615270933087
PART_003_R247G182B210A255,9362,4.634822e-05,-1.530111e-05,-1.528842e-05,1.962261e-05,-8.550842e-10,-2.573128e-08,7.039176215022193e-05
PART_003_R247G182B210A255,9363,4.634822e-05,-1.529526e-05,-1.529695e-05,1.832412e-05,-1.251499e-08,-6.642303e-08,6.933510390922168e-05
PART_003_R247G182B210A255,9364,4.634822e-05,-1.529364e-05,-1.529459e-05,1.735703e-05,-8.704556e-10,-8.711321e-08,6.858279452310871e-05
PART_003_R247G182B210A255,9365,4.634822e-05,-1.529497e-05,-1.529368e-05,1.66989e-05,-9.726078e-09,-7.935264e-08,6.809098555072693e-05
PART_003_R247G182B210A255,9366,4.634822e-05,-1.529275e-05,-1.529524e-05,1.631658e-05,1.681488e-10,-4.67359e-08,6.781195747258274e-05
PART_000_R31G119B180A255,9367,4.634822e-05,-1.529569e-05,-1.52918e-05,1.619261e-05,6.467267e-13,-1.995798e-13,6.772247570966822e-05
PART_000_R31G119B180A255,9368,4.634822e-05,-1.529275e-05,-1.529524e-05,1.631658e-05,-1.668845e-10,4.673551e-08,6.781195747176701e-05
PART_002_R214G39B40A255,9369,4.634822e-05,-1.529497e-05,-1.529368e-05,1.66989e-05,9.727183e-09,7.935229e-08,6.809098554997681e-05
PART_002_R214G39B40A255,9370,4.634822e-05,-1.529364e-05,-1.529459e-05,1.735703e-05,8.713571e-10,8.711294e-08,6.85827945221142e-05
PART_002_R214G39B40A255,9371,4.634822e-05,-1.529526e-05,-1.529695e-05,1.832412e-05,1.251558e-08,6.642284e-08,6.933510390899511e-05
PART_002_R214G39B40A255,9372,4.634822e-05,-1.530111e-05,-1.528842e-05,1.962261e-05,8.553116e-10,2.573122e-08,7.039176215016443e-05
PART_003_R247G182B210A255,9373,1.057834e-14,2.509104e-14,-2.851886e-14,2.025233e-05,-5.028275e-09,5.97604e-15,3.507806561282062e-05
PART_003_R247G182B210A255,9374,3.271645e-14,-8.613943e-14,3.681679e-15,1.894418e-05,-2.116455e-09,1.735763e-14,3.281228247250327e-05
PART_003_R247G182B210A255,9375,1.058648e-13,-2.23932e-13,-4.07688e-14,1.796588e-05,-1.338186e-08,2.087627e-14,3.111782559475727e-05
PART_003_R247G182B210A255,9376,1.361448e-13,-3.253231e-13,-1.281956e-14,1.72913e-05,-8.203357e-10,1.738323e-14,2.9949410162620103e-05
PART_003_R247G182B210A255,9377,1.765243e-13,-3.773371e-13,-5.318031e-14,1.690023e-05,-5.559056e-09,9.416362e-15,2.9272058603180116e-05
PART_003_R247G182B210A255,9378,1.699311e-13,-3.916312e-13,-2.041517e-14,1.677112e-05,6.71294e-13,3.021323e-16,2.904843193983458e-05
PART_002_R214G39B40A255,9379,1.769202e-13,-3.777811e-13,-5.314185e-14,1.690023e-05,5.560368e-09,-9.998502e-15,2.927205860392769e-05
PART_002_R214G39B40A255,9380,1.393023e-13,-3.342465e-13,-1.278945e-14,1.72913e-05,8.214856e-10,-1.671581e-14,2.994941016271466e-05
PART_002_R214G39B40A255,9381,1.18191e-13,-2.599726e-13,-4.04359e-14,1.796588e-05,1.33828e-08,-2.038569e-14,3.1117825595970034e-05
PART_002_R214G39B40A255,9382,5.933329e-14,-1.686984e-13,3.256091e-15,1.894418e-05,2.117056e-09,-1.659943e-14,3.2812282472619585e-05
PART_002_R214G39B40A255,9383,4.840312e-14,-9.72139e-14,-2.780828e-14,2.025233e-05,5.028498e-09,-7.209766e-15,3.507806561291652e-05
PART_003_R247G182B210A255,9384,-4.634822e-05,1.530111e-05,1.528842e-05,1.962261e-05,-8.550836e-10,2.57313e-08,7.039176215024385e-05
PART_003_R247G182B210A255,9385,-4.634822e-05,1.529526e-05,1.529695e-05,1.832412e-05,-1.251499e-08,6.642306e-08,6.93351039093079e-05
PART_003_R247G182B210A255,9386,-4.634822e-05,1.529364e-05,1.529459e-05,1.735703e-05,-8.704562e-10,8.711325e-08,6.858279452326115e-05
PART_003_R247G182B210A255,9387,-4.634822e-05,1.529497e-05,1.529368e-05,1.66989e-05,-9.726078e-09,7.935267e-08,6.809098555083182e-05
PART_003_R247G182B210A255,9388,-4.634822e-05,1.529275e-05,1.529524e-05,1.631658e-05,1.681487e-10,4.673591e-08,6.78119574726034e-05
PART_001_R158G218B229A255,9389,-4.634822e-05,1.529569e-05,1.52918e-05,1.619261e-05,6.467284e-13,2.010823e-13,6.772247570966822e-05
PART_001_R158G218B229A255,9390,-4.634822e-05,1.529275e-05,1.529524e-05,1.631658e-05,-1.668845e-10,-4.673553e-08,6.781195747180836e-05
PART_002_R214G39B40A255,9391,-4.634822e-05,1.529497e-05,1.529368e-05,1.66989e-05,9.727183e-09,-7.935232e-08,6.80909855500817e-05
PART_002_R214G39B40A255,9392,-4.634822e-05,1.529364e-05,1.529459e-05,1.735703e-05,8.713574e-10,-8.711297e-08,6.858279452222853e-05
PART_002_R214G39B40A255,9393,-4.634822e-05,1.529526e-05,1.529695e-05,1.832412e-05,1.251558e-08,-6.642287e-08,6.933510390908133e-05
PART_002_R214G39B40A255,9394,-4.634822e-05,1.530111e-05,1.528842e-05,1.962261e-05,8.553116e-10,-2.573123e-08,7.039176215017539e-05
PART_003_R247G182B210A255,9395,-9.269644e-05,3.059352e-05,3.059576e-05,1.772536e-05,-6.469869e-09,5.843241e-08,0.00012705615270948366
PART_003_R247G182B210A255,9396,-9.269644e-05,3.059313e-05,3.058382e-05,1.645285e-05,5.201147e-10,1.613812e-07,0.00012653591301847275
PART_003_R247G182B210A255,9397,-9.269644e-05,3.058957e-05,3.05901e-05,1.553576e-05,-1.233188e-08,2.06804e-07,0.000126189198744695
PART_003_R247G182B210A255,9398,-9.269644e-05,3.058493e-05,3.0591e-05,1.492193e-05,1.910055e-09,1.868186e-07,0.00012596484129758292
PART_001_R158G218B229A255,9399,-9.269644e-05,3.059143e-05,3.058353e-05,1.457597e-05,-1.86871e-09,1.104246e-07,0.00012584251377396148
PART_001_R158G218B229A255,9400,-9.269643e-05,3.058921e-05,3.058682e-05,1.446381e-05,5.757665e-13,3.844974e-13,0.00012580405312385764
PART_001_R158G218B229A255,9401,-9.269643e-05,3.059143e-05,3.058353e-05,1.457597e-05,1.869832e-09,-1.104239e-07,0.00012584250397548592
PART_001_R158G218B229A255,9402,-9.269643e-05,3.058493e-05,3.0591e-05,1.492194e-05,-1.909084e-09,-1.86818e-07,0.00012596483506149513
PART_002_R214G39B40A255,9403,-9.269643e-05,3.058957e-05,3.05901e-05,1.553576e-05,1.233265e-08,-2.068035e-07,0.00012618918897250788
PART_002_R214G39B40A255,9404,-9.269643e-05,3.059313e-05,3.058382e-05,1.645285e-05,-5.196315e-10,-1.613809e-07,0.0001265359032742419
PART_002_R214G39B40A255,9405,-9.269643e-05,3.059352e-05,3.059576e-05,1.772536e-05,6.470044e-09,-5.843229e-08,0.00012705614300567624
PART_003_R247G182B210A255,9406,-0.0001390447,4.590572e-05,4.586072e-05,1.452033e-05,1.624866e-09,1.261996e-07,0.00018663039637513708
PART_003_R247G182B210A255,9407,-0.0001390447,4.588477e-05,4.58908e-05,1.331918e-05,-1.625549e-08,3.183527e-07,0.00018636665619474628
PART_003_R247G182B210A255,9408,-0.0001390447,4.587621e-05,4.588716e-05,1.24938e-05,6.442786e-09,4.059892e-07,0.00018618954772122717
PART_001_R158G218B229A255,9409,-0.0001390447,4.588727e-05,4.58751e-05,1.198339e-05,1.72808e-09,3.623551e-07,0.00018608810245258954
PART_001_R158G218B229A255,9410,-0.0001390447,4.588717e-05,4.587693e-05,1.170197e-05,1.401639e-09,2.069268e-07,0.00018603451215256768
PART_001_R158G218B229A255,9411,-0.0001390447,4.588786e-05,4.587345e-05,1.161084e-05,4.606636e-13,5.31531e-13,0.00018601564959467497
PART_001_R158G218B229A255,9412,-0.0001390447,4.588717e-05,4.587693e-05,1.170197e-05,-1.400741e-09,-2.069258e-07,0.00018603451214921048
PART_001_R158G218B229A255,9413,-0.0001390447,4.588727e-05,4.58751e-05,1.198339e-05,-1.727318e-09,-3.623542e-07,0.00018608810244731083
PART_001_R158G218B229A255,9414,-0.0001390447,4.587621e-05,4.588716e-05,1.24938e-05,-6.442189e-09,-4.059885e-07,0.00018618954771658613
PART_002_R214G39B40A255,9415,-0.0001390447,4.588477e-05,4.58908e-05,1.331918e-05,1.625585e-08,-3.183522e-07,0.00018636665619227818
PART_002_R214G39B40A255,9416,-0.0001390447,4.590572e-05,4.586072e-05,1.452033e-05,-1.624726e-09,-1.261995e-07,0.00018663039637493057
PART_003_R247G182B210A255,9417,-0.0001853929,6.11847e-05,6.120184e-05,9.932606e-06,-1.524935e-08,2.312779e-07,0.00024718590293033784
PART_003_R247G182B210A255,9418,-0.0001853929,6.117086e-05,6.117766e-05,8.856098e-06,1.486201e-08,6.334127e-07,0.0002470462712491043
PART_001_R158G218B229A255,9419,-0.0001853929,6.118346e-05,6.116371e-05,8.266721e-06,1.062443e-08,7.743508e-07,0.00024698551990389546
PART_001_R158G218B229A255,9420,-0.0001853929,6.11879e-05,6.116408e-05,7.924963e-06,3.121854e-09,6.407637e-07,0.00024695316321243213
PART_001_R158G218B229A255,9421,-0.0001853929,6.118377e-05,6.116384e-05,7.736566e-06,2.604803e-09,3.580889e-07,0.00024693134344633874
PART_001_R158G218B229A255,9422,-0.0001853929,6.118977e-05,6.116277e-05,7.679059e-06,3.037487e-13,6.156877e-13,0.00024692764118789003
PART_001_R158G218B229A255,9423,-0.0001853929,6.118377e-05,6.116384e-05,7.736566e-06,-2.604204e-09,-3.580877e-07,0.0002469313434410992
PART_001_R158G218B229A255,9424,-0.0001853929,6.11879e-05,6.116408e-05,7.924963e-06,-3.121366e-09,-6.407626e-07,0.00024695316320385115
PART_001_R158G218B229A255,9425,-0.0001853929,6.118346e-05,6.116371e-05,8.266722e-06,-1.062406e-08,-7.7435e-07,0.0002469855199967346
PART_001_R158G218B229A255,9426,-0.0001853929,6.117086e-05,6.117766e-05,8.856098e-06,-1.486183e-08,-6.334122e-07,0.0002470462712452259
PART_002_R214G39B40A255,9427,-0.0001853929,6.11847e-05,6.120183e-05,9.932606e-06,1.52494e-08,-2.312777e-07,0.00024718589794139705
PART_003_R247G182B210A255,9428,-0.0002317411,7.652022e-05,7.640419e-05,3.64802e-06,2.346395e-08,6.234949e-07,0.00030826997802129016
PART_001_R158G218B229A255,9429,-0.0002317411,7.64763e-05,7.644234e-05,3.134943e-06,1.444756e-08,1.347984e-06,0.0003082570926430827
PART_001_R158G218B229A255,9430,-0.0002317411,7.649826e-05,7.644129e-05,2.93875e-06,2.827684e-09,1.372504e-06,0.0003082620735394094
PART_001_R158G218B229A255,9431,-0.0002317411,7.647844e-05,7.645355e-05,2.809206e-06,3.378291e-09,1.070267e-06,0.00030825107499669294
PART_001_R158G218B229A255,9432,-0.0002317411,7.649161e-05,7.644945e-05,2.747208e-06,4.760312e-10,5.776152e-07,0.00030824998390004745
PART_001_R158G218B229A255,9433,-0.0002317411,7.647914e-05,7.645547e-05,2.724423e-06,1.050298e-13,6.198399e-13,0.00030824452756682394
PART_001_R158G218B229A255,9434,-0.0002317411,7.649161e-05,7.644945e-05,2.747208e-06,-4.758092e-10,-5.77614e-07,0.00030824998389330057
PART_001_R158G218B229A255,9435,-0.0002317411,7.647844e-05,7.645355e-05,2.809206e-06,-3.378128e-09,-1.070266e-06,0.0003082510749862714
PART_001_R158G218B229A255,9436,-0.0002317411,7.649826e-05,7.644129e-05,2.93875e-06,-2.827548e-09,-1.372503e-06,0.0003082620735260485
PART_001_R158G218B229A255,9437,-0.0002317411,7.64763e-05,7.644234e-05,3.134943e-06,-1.444751e-08,-1.347983e-06,0.0003082570926299569
PART_001_R158G218B229A255,9438,-0.0002317411,7.652022e-05,7.640419e-05,3.64802e-06,-2.346391e-08,-6.234947e-07,0.0003082699780200675
PART_003_R247G182B210A255,9439,0.0002271971,-7.501983e-05,-7.490607e-05,3.64802e-06,2.300384e-08,-6.234949e-07,0.00030222805544318323
PART_000_R31G119B180A255,9440,0.0002271971,-7.497676e-05,-7.494347e-05,3.134943e-06,1.416429e-08,-1.347984e-06,0.00030221502079651527
PART_000_R31G119B180A255,9441,0.0002271971,-7.49983e-05,-7.494245e-05,2.93875e-06,2.77224e-09,-1.372504e-06,0.00030221969718521993
PART_000_R31G119B180A255,9442,0.0002271971,-7.497886e-05,-7.495446e-05,2.809206e-06,3.312091e-09,-1.070267e-06,0.0003022086194438746
PART_000_R31G119B180A255,9443,0.0002271971,-7.499177e-05,-7.495044e-05,2.747208e-06,4.667173e-10,-5.776154e-07,0.0003022073258025671
PART_000_R31G119B180A255,9444,0.0002271971,-7.497955e-05,-7.495634e-05,2.724423e-06,1.531665e-13,-8.679629e-13,0.00030220188991124614
PART_000_R31G119B180A255,9445,0.0002271971,-7.499177e-05,-7.495044e-05,2.747208e-06,-4.664589e-10,5.776138e-07,0.00030220732579339153
PART_000_R31G119B180A255,9446,0.0002271971,-7.497886e-05,-7.495446e-05,2.809206e-06,-3.311845e-09,1.070266e-06,0.00030220861943324205
PART_000_R31G119B180A255,9447,0.0002271971,-7.49983e-05,-7.494245e-05,2.93875e-06,-2.7721e-09,1.372503e-06,0.00030221969717159183
PART_000_R31G119B180A255,9448,0.0002271971,-7.497676e-05,-7.494347e-05,3.134943e-06,-1.41642e-08,1.347983e-06,0.0003022150207831216
PART_000_R31G119B180A255,9449,0.0002271971,-7.501983e-05,-7.490607e-05,3.64802e-06,-2.300386e-08,6.234947e-07,0.00030222805544195
PART_003_R247G182B210A255,9450,0.0001817577,-5.9985e-05,-6.00018e-05,9.932605e-06,-1.495032e-08,-2.312779e-07,0.0002423627975331308
PART_003_R247G182B210A255,9451,0.0001817577,-5.997143e-05,-5.99781e-05,8.856098e-06,1.457066e-08,-6.334127e-07,0.00024222113936557576
PART_000_R31G119B180A255,9452,0.0001817577,-5.998378e-05,-5.996442e-05,8.266721e-06,1.041616e-08,-7.74351e-07,0.00024215920099084713
PART_000_R31G119B180A255,9453,0.0001817577,-5.998814e-05,-5.996478e-05,7.924962e-06,3.060738e-09,-6.407638e-07,0.00024212610629819258
PART_000_R31G119B180A255,9454,0.0001817577,-5.998408e-05,-5.996455e-05,7.736566e-06,2.553812e-09,-3.580891e-07,0.0002421039351712802
PART_000_R31G119B180A255,9455,0.0001817577,-5.998997e-05,-5.99635e-05,7.679059e-06,4.118716e-13,-8.233113e-13,0.0002421000649145748
PART_000_R31G119B180A255,9456,0.0001817577,-5.998408e-05,-5.996455e-05,7.736566e-06,-2.553058e-09,3.580875e-07,0.0002421039351641568
PART_000_R31G119B180A255,9457,0.0001817577,-5.998814e-05,-5.996478e-05,7.924963e-06,-3.060067e-09,6.407624e-07,0.0002421261063852444
PART_000_R31G119B180A255,9458,0.0001817577,-5.998378e-05,-5.996442e-05,8.266722e-06,-1.041569e-08,7.743499e-07,0.00024215920108264675
PART_000_R31G119B180A255,9459,0.0001817577,-5.997143e-05,-5.99781e-05,8.856099e-06,-1.457038e-08,6.33412e-07,0.0002422211394697198
PART_002_R214G39B40A255,9460,0.0001817577,-5.9985e-05,-6.00018e-05,9.932606e-06,1.495039e-08,2.312777e-07,0.00024236279765551836
PART_003_R247G182B210A255,9461,0.0001363183,-4.500561e-05,-4.496149e-05,1.452033e-05,1.592999e-09,-1.261997e-07,0.00018303805617954366
PART_003_R247G182B210A255,9462,0.0001363183,-4.498507e-05,-4.499098e-05,1.331918e-05,-1.59367e-08,-3.183527e-07,0.00018276895246753186
PART_003_R247G182B210A255,9463,0.0001363183,-4.497668e-05,-4.498741e-05,1.24938e-05,6.316538e-09,-4.059893e-07,0.0001825885946613857
PART_000_R31G119B180A255,9464,0.0001363183,-4.498752e-05,-4.497559e-05,1.198339e-05,1.694328e-09,-3.623552e-07,0.00018248516747923968
PART_000_R31G119B180A255,9465,0.0001363183,-4.498743e-05,-4.497738e-05,1.170197e-05,1.374288e-09,-2.06927e-07,0.00018243048669810535
PART_000_R31G119B180A255,9466,0.0001363183,-4.49881e-05,-4.497397e-05,1.161084e-05,6.109776e-13,-6.896462e-13,0.00018241130402938768
PART_000_R31G119B180A255,9467,0.0001363183,-4.498743e-05,-4.497738e-05,1.170197e-05,-1.373142e-09,2.069256e-07,0.0001824304866933155
PART_000_R31G119B180A255,9468,0.0001363183,-4.498752e-05,-4.497559e-05,1.198339e-05,-1.693312e-09,3.62354e-07,0.000182485167472063
PART_000_R31G119B180A255,9469,0.0001363183,-4.497667e-05,-4.498741e-05,1.24938e-05,-6.315785e-09,4.059884e-07,0.0001825885896910224
PART_002_R214G39B40A255,9470,0.0001363183,-4.498506e-05,-4.499098e-05,1.331918e-05,1.593718e-08,3.183521e-07,0.00018276894750477788
PART_002_R214G39B40A255,9471,0.0001363183,-4.500561e-05,-4.496149e-05,1.452033e-05,-1.592862e-09,1.261994e-07,0.00018303805617891954
PART_003_R247G182B210A255,9472,9.087886e-05,-2.999365e-05,-2.999584e-05,1.772536e-05,-6.342971e-09,-5.843244e-08,0.00012471168315130655
PART_003_R247G182B210A255,9473,9.087886e-05,-2.999327e-05,-2.998414e-05,1.645285e-05,5.100239e-10,-1.613812e-07,0.00012418186374575763
PART_003_R247G182B210A255,9474,9.087886e-05,-2.998977e-05,-2.999029e-05,1.553576e-05,-1.208995e-08,-2.068041e-07,0.00012382849764361879
PART_003_R247G182B210A255,9475,9.087886e-05,-2.998522e-05,-2.999118e-05,1.492193e-05,1.872772e-09,-1.868187e-07,0.00012359993090071424
PART_000_R31G119B180A255,9476,9.087886e-05,-2.99916e-05,-2.998385e-05,1.457597e-05,-1.831902e-09,-1.104247e-07,0.00012347527975203177
PART_000_R31G119B180A255,9477,9.087886e-05,-2.998942e-05,-2.998708e-05,1.446381e-05,7.58902e-13,-4.969434e-13,0.00012343607123935493
PART_000_R31G119B180A255,9478,9.087886e-05,-2.99916e-05,-2.998385e-05,1.457597e-05,1.833335e-09,1.104238e-07,0.00012347527974968095
PART_000_R31G119B180A255,9479,9.087886e-05,-2.998522e-05,-2.999118e-05,1.492194e-05,-1.871484e-09,1.868178e-07,0.0001235999345184056
PART_002_R214G39B40A255,9480,9.087886e-05,-2.998977e-05,-2.999029e-05,1.553576e-05,1.209095e-08,2.068034e-07,0.00012382849764040453
PART_002_R214G39B40A255,9481,9.087886e-05,-2.999326e-05,-2.998414e-05,1.645285e-05,-5.093464e-10,1.613808e-07,0.00012418185887708407
PART_002_R214G39B40A255,9482,9.087886e-05,-2.999365e-05,-2.999584e-05,1.772536e-05,6.343201e-09,5.843227e-08,0.00012471168315110267
PART_003_R247G182B210A255,9483,4.543943e-05,-1.500109e-05,-1.498865e-05,1.962261e-05,-8.383095e-10,-2.573129e-08,6.933575694111692e-05
PART_003_R247G182B210A255,9484,4.543943e-05,-1.499535e-05,-1.499701e-05,1.832412e-05,-1.226951e-08,-6.642304e-08,6.826270407144267e-05
PART_003_R247G182B210A255,9485,4.543943e-05,-1.499377e-05,-1.49947e-05,1.735703e-05,-8.532638e-10,-8.711326e-08,6.749851928441082e-05
PART_003_R247G182B210A255,9486,4.543943e-05,-1.499507e-05,-1.499381e-05,1.66989e-05,-9.535184e-09,-7.935268e-08,6.69987432068712e-05
PART_003_R247G182B210A255,9487,4.543943e-05,-1.499289e-05,-1.499533e-05,1.631658e-05,1.650381e-10,-4.673596e-08,6.671515317315538e-05
PART_000_R31G119B180A255,9488,4.543943e-05,-1.499577e-05,-1.499196e-05,1.619261e-05,8.502964e-13,-2.597959e-13,6.66242073970145e-05
PART_000_R31G119B180A255,9489,4.543943e-05,-1.499289e-05,-1.499533e-05,1.631658e-05,-1.634251e-10,4.673545e-08,6.671515317207167e-05
PART_002_R214G39B40A255,9490,4.543943e-05,-1.499507e-05,-1.499381e-05,1.66989e-05,9.536643e-09,7.935223e-08,6.699874320589526e-05
PART_002_R214G39B40A255,9491,4.543943e-05,-1.499377e-05,-1.49947e-05,1.735703e-05,8.544037e-10,8.711289e-08,6.749851928302153e-05
PART_002_R214G39B40A255,9492,4.543943e-05,-1.499535e-05,-1.499701e-05,1.832412e-05,1.227028e-08,6.64228e-08,6.826270407115728e-05
PART_002_R214G39B40A255,9493,4.543943e-05,-1.500109e-05,-1.498865e-05,1.962261e-05,8.385598e-10,2.573121e-08,6.933575694103694e-05
PART_003_R247G182B210A255,9494,-5.143108e-14,3.196055e-14,1.919534e-14,2.025233e-05,-4.929639e-09,8.7902e-15,3.507806557081964e-05
PART_003_R247G182B210A255,9495,-4.255309e-14,1.521561e-13,-3.104584e-14,1.894418e-05,-2.074827e-09,1.876284e-14,3.281228246452723e-05
PART_003_R247G182B210A255,9496,-8.948994e-14,3.085726e-13,-6.886979e-16,1.796588e-05,-1.311933e-08,2.236378e-14,3.1117825259385636e-05
PART_003_R247G182B210A255,9497,-9.24239e-14,4.230782e-13,-5.044729e-14,1.72913e-05,-8.04053e-10,1.963996e-14,2.9949410161295397e-05
PART_003_R247G182B210A255,9498,-1.16495e-13,4.801159e-13,-1.813904e-14,1.690023e-05,-5.449861e-09,1.18781e-14,2.9272058541579462e-05
PART_003_R247G182B210A255,9499,-1.013549e-13,4.95548e-13,-5.937748e-14,1.677112e-05,8.81511e-13,-4.689726e-16,2.9048431939834598e-05
PART_002_R214G39B40A255,9500,-1.170716e-13,4.806294e-13,-1.810675e-14,1.690023e-05,5.451535e-09,-1.101132e-14,2.92720585425146e-05
PART_002_R214G39B40A255,9501,-9.626935e-14,4.332229e-13,-5.035221e-14,1.72913e-05,8.055729e-10,-2.061177e-14,2.9949410161417926e-05
PART_002_R214G39B40A255,9502,-1.047348e-13,3.518158e-13,-9.199066e-16,1.796588e-05,1.312053e-08,-2.28197e-14,3.111782526090348e-05
PART_002_R214G39B40A255,9503,-7.559264e-14,2.532557e-13,-3.029271e-14,1.894418e-05,2.07566e-09,-1.985293e-14,3.2812282464685285e-05
PART_002_R214G39B40A255,9504,-9.860374e-14,1.827982e-13,1.863139e-14,2.025233e-05,4.929927e-09,-7.256645e-15,3.5078065570941064e-05
PART_003_R247G182B210A255,9505,-4.543943e-05,1.500109e-05,1.498865e-05,1.962261e-05,-8.383108e-10,2.573131e-08,6.933575694113924e-05
PART_003_R247G182B210A255,9506,-4.543943e-05,1.499535e-05,1.499701e-05,1.832412e-05,-1.226951e-08,6.642309e-08,6.826270407158863e-05
PART_003_R247G182B210A255,9507,-4.543943e-05,1.499377e-05,1.49947e-05,1.735703e-05,-8.53263e-10,8.711332e-08,6.74985192846431e-05
PART_003_R247G182B210A255,9508,-4.543943e-05,1.499507e-05,1.499381e-05,1.66989e-05,-9.535184e-09,7.935272e-08,6.699874320701333e-05
PART_003_R247G182B210A255,9509,-4.543943e-05,1.499289e-05,1.499533e-05,1.631658e-05,1.650384e-10,4.673599e-08,6.671515317321844e-05
PART_001_R158G218B229A255,9510,-4.543943e-05,1.499577e-05,1.499196e-05,1.619261e-05,8.50327e-13,2.576301e-13,6.66242073970145e-05
PART_001_R158G218B229A255,9511,-4.543943e-05,1.499289e-05,1.499533e-05,1.631658e-05,-1.634255e-10,-4.673548e-08,6.671515317213471e-05
PART_002_R214G39B40A255,9512,-4.543943e-05,1.499507e-05,1.499381e-05,1.66989e-05,9.536643e-09,-7.935227e-08,6.699874320603739e-05
PART_002_R214G39B40A255,9513,-4.543943e-05,1.499377e-05,1.49947e-05,1.735703e-05,8.54403e-10,-8.711295e-08,6.74985192832538e-05
PART_002_R214G39B40A255,9514,-4.543943e-05,1.499535e-05,1.499701e-05,1.832412e-05,1.227028e-08,-6.642285e-08,6.826270407130324e-05
PART_002_R214G39B40A255,9515,-4.543943e-05,1.500109e-05,1.498865e-05,1.962261e-05,8.385599e-10,-2.573123e-08,6.93357569410592e-05
PART_003_R247G182B210A255,9516,-9.087886e-05,2.999365e-05,2.999584e-05,1.772536e-05,-6.342969e-09,5.843246e-08,0.00012471168315133434
PART_003_R247G182B210A255,9517,-9.087886e-05,2.999327e-05,2.998414e-05,1.645285e-05,5.100241e-10,1.613812e-07,0.00012418186374575763
PART_003_R247G182B210A255,9518,-9.087886e-05,2.998977e-05,2.999029e-05,1.553576e-05,-1.208995e-08,2.068041e-07,0.00012382849764361879
PART_003_R247G182B210A255,9519,-9.087886e-05,2.998522e-05,2.999118e-05,1.492193e-05,1.872773e-09,1.868187e-07,0.0001235999309007143
PART_001_R158G218B229A255,9520,-9.087886e-05,2.99916e-05,2.998385e-05,1.457597e-05,-1.831901e-09,1.104248e-07,0.0001234752797523
PART_001_R158G218B229A255,9521,-9.087886e-05,2.998942e-05,2.998708e-05,1.446381e-05,7.590127e-13,4.929498e-13,0.00012343607123935493
PART_001_R158G218B229A255,9522,-9.087886e-05,2.99916e-05,2.998385e-05,1.457597e-05,1.833335e-09,-1.104238e-07,0.00012347527974968095
PART_001_R158G218B229A255,9523,-9.087886e-05,2.998522e-05,2.999118e-05,1.492194e-05,-1.871483e-09,-1.868179e-07,0.00012359993451885898
PART_002_R214G39B40A255,9524,-9.087886e-05,2.998977e-05,2.999029e-05,1.553576e-05,1.209095e-08,-2.068034e-07,0.00012382849764040453
PART_002_R214G39B40A255,9525,-9.087886e-05,2.999327e-05,2.998414e-05,1.645285e-05,-5.093464e-10,-1.613808e-07,0.00012418186374418981
PART_002_R214G39B40A255,9526,-9.087886e-05,2.999365e-05,2.999584e-05,1.772536e-05,6.343201e-09,-5.843229e-08,0.0001247116831511308
PART_003_R247G182B210A255,9527,-0.0001363183,4.500561e-05,4.496149e-05,1.452033e-05,1.592995e-09,1.261997e-07,0.00018303805617954355
PART_003_R247G182B210A255,9528,-0.0001363183,4.498506e-05,4.499098e-05,1.331918e-05,-1.59367e-08,3.183527e-07,0.0001827689475077876
PART_003_R247G182B210A255,9529,-0.0001363183,4.497667e-05,4.498741e-05,1.24938e-05,6.316541e-09,4.059894e-07,0.0001825885896977714
PART_001_R158G218B229A255,9530,-0.0001363183,4.498751e-05,4.497559e-05,1.198339e-05,1.694328e-09,3.623552e-07,0.0001824851625112265
PART_001_R158G218B229A255,9531,-0.0001363183,4.498743e-05,4.497738e-05,1.170197e-05,1.374289e-09,2.06927e-07,0.00018243048669810537
PART_001_R158G218B229A255,9532,-0.0001363183,4.49881e-05,4.497397e-05,1.161084e-05,6.111344e-13,6.844183e-13,0.00018241130402938768
PART_001_R158G218B229A255,9533,-0.0001363183,4.498742e-05,4.497738e-05,1.170197e-05,-1.373143e-09,-2.069256e-07,0.00018243048172386728
PART_001_R158G218B229A255,9534,-0.0001363183,4.498751e-05,4.497558e-05,1.198339e-05,-1.693312e-09,-3.62354e-07,0.0001824851575370169
PART_001_R158G218B229A255,9535,-0.0001363183,4.497667e-05,4.498741e-05,1.24938e-05,-6.315788e-09,-4.059884e-07,0.0001825885896910227
PART_002_R214G39B40A255,9536,-0.0001363183,4.498506e-05,4.499098e-05,1.331918e-05,1.593718e-08,-3.183521e-07,0.00018276894750477788
PART_002_R214G39B40A255,9537,-0.0001363183,4.500561e-05,4.496149e-05,1.452033e-05,-1.592861e-09,-1.261995e-07,0.00018303805617912635
PART_003_R247G182B210A255,9538,-0.0001817577,5.9985e-05,6.00018e-05,9.932605e-06,-1.495031e-08,2.31278e-07,0.00024236279753341524
PART_003_R247G182B210A255,9539,-0.0001817577,5.997143e-05,5.997809e-05,8.856098e-06,1.457066e-08,6.334127e-07,0.00024222113437545676
PART_001_R158G218B229A255,9540,-0.0001817577,5.998378e-05,5.996442e-05,8.266721e-06,1.041616e-08,7.743511e-07,0.00024215920099180643
PART_001_R158G218B229A255,9541,-0.0001817577,5.998814e-05,5.996478e-05,7.924963e-06,3.060739e-09,6.407638e-07,0.0002421261063963848
PART_001_R158G218B229A255,9542,-0.0001817577,5.998409e-05,5.996455e-05,7.736566e-06,2.553811e-09,3.580891e-07,0.00024210394016420432
PART_001_R158G218B229A255,9543,-0.0001817577,5.998998e-05,5.99635e-05,7.679059e-06,4.119314e-13,8.192208e-13,0.00024210006990784376
PART_001_R158G218B229A255,9544,-0.0001817577,5.998408e-05,5.996455e-05,7.736566e-06,-2.553058e-09,-3.580875e-07,0.0002421039351641568
PART_001_R158G218B229A255,9545,-0.0001817577,5.998814e-05,5.996478e-05,7.924963e-06,-3.060068e-09,-6.407624e-07,0.00024212610638524445
PART_001_R158G218B229A255,9546,-0.0001817577,5.998378e-05,5.996442e-05,8.266722e-06,-1.041569e-08,-7.7435e-07,0.00024215920108360605
PART_001_R158G218B229A255,9547,-0.0001817577,5.997143e-05,5.997809e-05,8.856099e-06,-1.457037e-08,-6.33412e-07,0.000242221134479599
PART_002_R214G39B40A255,9548,-0.0001817577,5.9985e-05,6.00018e-05,9.932606e-06,1.495039e-08,-2.312777e-07,0.00024236279765551836
PART_003_R247G182B210A255,9549,-0.0002271971,7.501983e-05,7.490607e-05,3.64802e-06,2.300381e-08,6.23495e-07,0.00030222805544379526
PART_001_R158G218B229A255,9550,-0.0002271971,7.497676e-05,7.494347e-05,3.134943e-06,1.416431e-08,1.347984e-06,0.0003022150207965181
PART_001_R158G218B229A255,9551,-0.0002271971,7.49983e-05,7.494245e-05,2.93875e-06,2.772227e-09,1.372504e-06,0.00030221969718521955
PART_001_R158G218B229A255,9552,-0.0002271971,7.497886e-05,7.495446e-05,2.809206e-06,3.3121e-09,1.070267e-06,0.0003022086194438749
PART_001_R158G218B229A255,9553,-0.0002271971,7.499177e-05,7.495045e-05,2.747208e-06,4.667136e-10,5.776154e-07,0.0003022073308008942
PART_001_R158G218B229A255,9554,-0.0002271971,7.497955e-05,7.495634e-05,2.724423e-06,1.531491e-13,8.668744e-13,0.00030220188991124614
PART_001_R158G218B229A255,9555,-0.0002271971,7.499177e-05,7.495045e-05,2.747208e-06,-4.664554e-10,-5.776138e-07,0.00030220733079171864
PART_001_R158G218B229A255,9556,-0.0002271971,7.497886e-05,7.495446e-05,2.809206e-06,-3.311853e-09,-1.070266e-06,0.0003022086194332423
PART_001_R158G218B229A255,9557,-0.0002271971,7.49983e-05,7.494245e-05,2.93875e-06,-2.772087e-09,-1.372503e-06,0.00030221969717159145
PART_001_R158G218B229A255,9558,-0.0002271971,7.497676e-05,7.494347e-05,3.134943e-06,-1.416422e-08,-1.347983e-06,0.0003022150207831244
PART_001_R158G218B229A255,9559,-0.0002271971,7.501983e-05,7.490607e-05,3.64802e-06,-2.300383e-08,-6.234947e-07,0.00030222805544194317
PART_003_R247G182B210A255,9560,0.0002226532,-7.351943e-05,-7.340795e-05,3.64802e-06,2.25438e-08,-6.23495e-07,0.0002961862822221683
PART_000_R31G119B180A255,9561,0.0002226532,-7.347723e-05,-7.34446e-05,3.134943e-06,1.388102e-08,-1.347984e-06,0.00029617310016990324
PART_000_R31G119B180A255,9562,0.0002226532,-7.349833e-05,-7.34436e-05,2.93875e-06,2.716842e-09,-1.372504e-06,0.00029617745258881225
PART_000_R31G119B180A255,9563,0.0002226532,-7.347929e-05,-7.345537e-05,2.809206e-06,3.245874e-09,-1.070267e-06,0.00029616630476409357
PART_000_R31G119B180A255,9564,0.0002226532,-7.349194e-05,-7.345144e-05,2.747208e-06,4.574446e-10,-5.776157e-07,0.0002961648089888531
PART_000_R31G119B180A255,9565,0.0002226532,-7.347995e-05,-7.345721e-05,2.724423e-06,1.763764e-13,-1.101284e-12,0.0002961593767218048
PART_000_R31G119B180A255,9566,0.0002226532,-7.349194e-05,-7.345144e-05,2.747208e-06,-4.570645e-10,5.776134e-07,0.0002961648089753941
PART_000_R31G119B180A255,9567,0.0002226532,-7.347929e-05,-7.345537e-05,2.809206e-06,-3.245596e-09,1.070265e-06,0.00029616630474240205
PART_000_R31G119B180A255,9568,0.0002226532,-7.349833e-05,-7.34436e-05,2.93875e-06,-2.716602e-09,1.372502e-06,0.0002961774525610013
PART_000_R31G119B180A255,9569,0.0002226532,-7.347723e-05,-7.34446e-05,3.134943e-06,-1.388094e-08,1.347983e-06,0.000296173100156238
PART_000_R31G119B180A255,9570,0.0002226532,-7.351943e-05,-7.340795e-05,3.64802e-06,-2.254373e-08,6.234946e-07,0.0002961862822196262
PART_003_R247G182B210A255,9571,0.0001781226,-5.87853e-05,-5.880176e-05,9.932605e-06,-1.465131e-08,-2.312779e-07,0.0002375402784708678
PART_003_R247G182B210A255,9572,0.0001781226,-5.8772e-05,-5.877853e-05,8.856098e-06,1.427926e-08,-6.334129e-07,0.00023739649141529698
PART_000_R31G119B180A255,9573,0.0001781226,-5.878411e-05,-5.876513e-05,8.266721e-06,1.020792e-08,-7.743511e-07,0.00023733332743984214
PART_000_R31G119B180A255,9574,0.0001781226,-5.878838e-05,-5.876549e-05,7.924962e-06,2.999606e-09,-6.40764e-07,0.0002372994667225121
PART_000_R31G119B180A255,9575,0.0001781226,-5.87844e-05,-5.876526e-05,7.736566e-06,2.502873e-09,-3.580893e-07,0.00023727692824716462
PART_000_R31G119B180A255,9576,0.0001781226,-5.879018e-05,-5.876423e-05,7.679059e-06,5.101009e-13,-1.070975e-12,0.00023727288499840506
PART_000_R31G119B180A255,9577,0.0001781226,-5.87844e-05,-5.876526e-05,7.736566e-06,-2.501858e-09,3.580872e-07,0.0002372769282376248
PART_000_R31G119B180A255,9578,0.0001781226,-5.878838e-05,-5.876549e-05,7.924963e-06,-2.99878e-09,6.407622e-07,0.00023729946680808893
PART_000_R31G119B180A255,9579,0.0001781226,-5.878411e-05,-5.876513e-05,8.266722e-06,-1.020728e-08,7.743496e-07,0.00023733332752957245
PART_000_R31G119B180A255,9580,0.0001781226,-5.8772e-05,-5.877853e-05,8.856099e-06,-1.427894e-08,6.334119e-07,0.00023739649151915005
PART_002_R214G39B40A255,9581,0.0001781226,-5.87853e-05,-5.880176e-05,9.932606e-06,1.465141e-08,2.312776e-07,0.00023754027859545324
PART_003_R247G182B210A255,9582,0.0001335919,-4.41055e-05,-4.406226e-05,1.452033e-05,1.561203e-09,-1.261997e-07,0.00017944707280201925
PART_003_R247G182B210A255,9583,0.0001335919,-4.408536e-05,-4.409116e-05,1.331918e-05,-1.561788e-08,-3.183528e-07,0.00017917239108674956
PART_003_R247G182B210A255,9584,0.0001335919,-4.407714e-05,-4.408766e-05,1.24938e-05,6.190353e-09,-4.059895e-07,0.00017898864957364345
PART_000_R31G119B180A255,9585,0.0001335919,-4.408776e-05,-4.407607e-05,1.198339e-05,1.660586e-09,-3.623554e-07,0.00017888315588507198
PART_000_R31G119B180A255,9586,0.0001335919,-4.408768e-05,-4.407783e-05,1.170197e-05,1.346995e-09,-2.069271e-07,0.00017882734653764767
PART_000_R31G119B180A255,9587,0.0001335919,-4.408834e-05,-4.407449e-05,1.161084e-05,7.694699e-13,-9.126761e-13,0.00017880783490516547
PART_000_R31G119B180A255,9588,0.0001335919,-4.408768e-05,-4.407783e-05,1.170197e-05,-1.345488e-09,2.069254e-07,0.00017882734653171226
PART_000_R31G119B180A255,9589,0.0001335919,-4.408776e-05,-4.407607e-05,1.198339e-05,-1.659304e-09,3.623538e-07,0.0001788831558753132
PART_000_R31G119B180A255,9590,0.0001335919,-4.407714e-05,-4.408766e-05,1.24938e-05,-6.189334e-09,4.059882e-07,0.0001789886495646916
PART_002_R214G39B40A255,9591,0.0001335919,-4.408536e-05,-4.409116e-05,1.331918e-05,1.56185e-08,3.18352e-07,0.00017917239108264737
PART_002_R214G39B40A255,9592,0.0001335919,-4.41055e-05,-4.406226e-05,1.452033e-05,-1.560958e-09,1.261994e-07,0.00017944707280137992
PART_003_R247G182B210A255,9593,8.906128e-05,-2.939377e-05,-2.939593e-05,1.772536e-05,-6.216084e-09,-5.843245e-08,0.000122370054582147
PART_003_R247G182B210A255,9594,8.906128e-05,-2.93934e-05,-2.938446e-05,1.645285e-05,4.998898e-10,-1.613813e-07,0.00012183028876628315
PART_003_R247G182B210A255,9595,8.906128e-05,-2.938998e-05,-2.939049e-05,1.553576e-05,-1.1848e-08,-2.068042e-07,0.00012147003600633295
PART_003_R247G182B210A255,9596,8.906128e-05,-2.938552e-05,-2.939135e-05,1.492193e-05,1.835494e-09,-1.868188e-07,0.0001212370888290659
PART_000_R31G119B180A255,9597,8.906128e-05,-2.939177e-05,-2.938417e-05,1.457597e-05,-1.79503e-09,-1.104249e-07,0.00012111002503445873
PART_000_R31G119B180A255,9598,8.906128e-05,-2.938964e-05,-2.938734e-05,1.446381e-05,9.560202e-13,-6.551154e-13,0.00012107003517042813
PART_000_R31G119B180A255,9599,8.906128e-05,-2.939177e-05,-2.938417e-05,1.457597e-05,1.796903e-09,1.104236e-07,0.00012111002503098615
PART_000_R31G119B180A255,9600,8.906128e-05,-2.938552e-05,-2.939135e-05,1.492194e-05,-1.833873e-09,1.868177e-07,0.0001212370925163255
PART_002_R214G39B40A255,9601,8.906128e-05,-2.938998e-05,-2.939049e-05,1.553577e-05,1.18493e-08,2.068033e-07,0.00012147003983905415
PART_002_R214G39B40A255,9602,8.906128e-05,-2.93934e-05,-2.938446e-05,1.645285e-05,-4.990735e-10,1.613807e-07,0.00012183028876388877
PART_002_R214G39B40A255,9603,8.906128e-05,-2.939377e-05,-2.939593e-05,1.772536e-05,6.216387e-09,5.843223e-08,0.00012237005458187803
PART_003_R247G182B210A255,9604,4.453064e-05,-1.470107e-05,-1.468888e-05,1.962261e-05,-8.214608e-10,-2.57313e-08,6.828481560006875e-05
PART_003_R247G182B210A255,9605,4.453064e-05,-1.469545e-05,-1.469707e-05,1.832412e-05,-1.202399e-08,-6.642308e-08,6.719493639186793e-05
PART_003_R247G182B210A255,9606,4.453064e-05,-1.469389e-05,-1.46948e-05,1.735703e-05,-8.359943e-10,-8.71133e-08,6.641852970679018e-05
PART_003_R247G182B210A255,9607,4.453064e-05,-1.469516e-05,-1.469393e-05,1.66989e-05,-9.344275e-09,-7.935275e-08,6.591055663224309e-05
PART_003_R247G182B210A255,9608,4.453064e-05,-1.469303e-05,-1.469543e-05,1.631658e-05,1.619979e-10,-4.673603e-08,6.56222838094982e-05
PART_000_R31G119B180A255,9609,4.453064e-05,-1.469586e-05,-1.469212e-05,1.619261e-05,1.069477e-12,-3.412751e-13,6.552983034438517e-05
PART_000_R31G119B180A255,9610,4.453064e-05,-1.469303e-05,-1.469543e-05,1.631658e-05,-1.598965e-10,4.673537e-08,6.56222838080726e-05
PART_002_R214G39B40A255,9611,4.453064e-05,-1.469516e-05,-1.469393e-05,1.66989e-05,9.346113e-09,7.935216e-08,6.591055663089392e-05
PART_002_R214G39B40A255,9612,4.453064e-05,-1.469389e-05,-1.46948e-05,1.735703e-05,8.375099e-10,8.711283e-08,6.641852970499814e-05
PART_002_R214G39B40A255,9613,4.453064e-05,-1.469545e-05,-1.469707e-05,1.832412e-05,1.202498e-08,6.642276e-08,6.719493639145044e-05
PART_002_R214G39B40A255,9614,4.453064e-05,-1.470107e-05,-1.468888e-05,1.962261e-05,8.218528e-10,2.573119e-08,6.828481559995855e-05
PART_003_R247G182B210A255,9615,-4.077782e-14,4.739265e-14,-1.396785e-14,2.025233e-05,-4.831009e-09,1.096415e-14,3.50780655296532e-05
PART_003_R247G182B210A255,9616,8.882977e-15,-1.253719e-13,2.070429e-14,1.894418e-05,-2.033246e-09,3.039893e-14,3.2812282456718364e-05
PART_003_R247G182B210A255,9617,1.230778e-13,-3.365919e-13,-3.875516e-14,1.796588e-05,-1.285675e-08,3.478551e-14,3.111782493059664e-05
PART_003_R247G182B210A255,9618,1.764417e-13,-4.892892e-13,-6.705269e-15,1.72913e-05,-7.877647e-10,2.835587e-14,2.994941015999681e-05
PART_003_R247G182B210A255,9619,2.35032e-13,-5.657835e-13,-5.796215e-14,1.690023e-05,-5.340595e-09,1.47161e-14,2.9272058481161954e-05
PART_003_R247G182B210A255,9620,2.2855e-13,-5.864337e-13,-1.750093e-14,1.677112e-05,1.108782e-12,7.037639e-16,2.9048431939834625e-05
PART_002_R214G39B40A255,9621,2.35585e-13,-5.659501e-13,-5.801328e-14,1.690023e-05,5.342773e-09,-1.607078e-14,2.9272058482354305e-05
PART_002_R214G39B40A255,9622,1.806493e-13,-5.011547e-13,-6.542242e-15,1.72913e-05,7.896729e-10,-2.691953e-14,2.994941016014757e-05
PART_002_R214G39B40A255,9623,1.411336e-13,-3.881201e-13,-3.851167e-14,1.796588e-05,1.285832e-08,-3.441446e-14,3.111782493254276e-05
PART_002_R214G39B40A255,9624,4.873966e-14,-2.488149e-13,2.001911e-14,1.894418e-05,2.034253e-09,-2.899998e-14,3.281228245690561e-05
PART_002_R214G39B40A255,9625,1.666701e-14,-1.386391e-13,-1.283845e-14,2.025233e-05,4.831388e-09,-1.291437e-14,3.5078065529809794e-05
PART_003_R247G182B210A255,9626,-4.453064e-05,1.470107e-05,1.468888e-05,1.962261e-05,-8.214593e-10,2.573133e-08,6.828481560010262e-05
PART_003_R247G182B210A255,9627,-4.453064e-05,1.469545e-05,1.469707e-05,1.832412e-05,-1.202399e-08,6.642313e-08,6.719493639201621e-05
PART_003_R247G182B210A255,9628,-4.453064e-05,1.469389e-05,1.46948e-05,1.735703e-05,-8.359945e-10,8.711336e-08,6.641852970702628e-05
PART_003_R247G182B210A255,9629,-4.453064e-05,1.469517e-05,1.469393e-05,1.66989e-05,-9.344275e-09,7.93528e-08,6.59105611254094e-05
PART_003_R247G182B210A255,9630,-4.453064e-05,1.469303e-05,1.469543e-05,1.631658e-05,1.61998e-10,4.673605e-08,6.562228380954093e-05
PART_001_R158G218B229A255,9631,-4.453064e-05,1.469586e-05,1.469212e-05,1.619261e-05,1.069469e-12,3.442025e-13,6.552983034438517e-05
PART_001_R158G218B229A255,9632,-4.453064e-05,1.469303e-05,1.469543e-05,1.631658e-05,-1.598966e-10,-4.67354e-08,6.56222838081367e-05
PART_002_R214G39B40A255,9633,-4.453064e-05,1.469517e-05,1.469393e-05,1.66989e-05,9.346112e-09,-7.935221e-08,6.591056112405981e-05
PART_002_R214G39B40A255,9634,-4.453064e-05,1.469389e-05,1.46948e-05,1.735703e-05,8.375101e-10,-8.711289e-08,6.641852970523422e-05
PART_002_R214G39B40A255,9635,-4.453064e-05,1.469545e-05,1.469707e-05,1.832412e-05,1.202498e-08,-6.642282e-08,6.719493639162837e-05
PART_002_R214G39B40A255,9636,-4.453064e-05,1.470107e-05,1.468888e-05,1.962261e-05,8.218526e-10,-2.573121e-08,6.828481559998115e-05
PART_003_R247G182B210A255,9637,-8.906128e-05,2.939377e-05,2.939593e-05,1.772536e-05,-6.216087e-09,5.843246e-08,0.00012237005458216177
PART_003_R247G182B210A255,9638,-8.906128e-05,2.93934e-05,2.938446e-05,1.645285e-05,4.998903e-10,1.613814e-07,0.00012183028876668055
PART_003_R247G182B210A255,9639,-8.906128e-05,2.938998e-05,2.939049e-05,1.553576e-05,-1.184799e-08,2.068042e-07,0.00012147003600633001
PART_003_R247G182B210A255,9640,-8.906128e-05,2.938552e-05,2.939135e-05,1.492193e-05,1.835494e-09,1.868189e-07,0.00012123708882952817
PART_001_R158G218B229A255,9641,-8.906128e-05,2.939177e-05,2.938417e-05,1.457597e-05,-1.79503e-09,1.104249e-07,0.00012111002503445873
PART_001_R158G218B229A255,9642,-8.906128e-05,2.938963e-05,2.938734e-05,1.446381e-05,9.554136e-13,6.60047e-13,0.00012107003027849875
PART_001_R158G218B229A255,9643,-8.906128e-05,2.939177e-05,2.938417e-05,1.457597e-05,1.796903e-09,-1.104237e-07,0.00012111002503125968
PART_001_R158G218B229A255,9644,-8.906128e-05,2.938552e-05,2.939135e-05,1.492194e-05,-1.833875e-09,-1.868177e-07,0.00012123709251632559
PART_002_R214G39B40A255,9645,-8.906128e-05,2.938998e-05,2.939049e-05,1.553577e-05,1.18493e-08,-2.068033e-07,0.00012147003983905415
PART_002_R214G39B40A255,9646,-8.906128e-05,2.93934e-05,2.938446e-05,1.645285e-05,-4.990747e-10,-1.613807e-07,0.00012183028876388878
PART_002_R214G39B40A255,9647,-8.906128e-05,2.939377e-05,2.939593e-05,1.772536e-05,6.216387e-09,-5.843225e-08,0.00012237005458190668
PART_003_R247G182B210A255,9648,-0.0001335919,4.41055e-05,4.406226e-05,1.452033e-05,1.561208e-09,1.261997e-07,0.00017944707280201938
PART_003_R247G182B210A255,9649,-0.0001335919,4.408536e-05,4.409116e-05,1.331918e-05,-1.561788e-08,3.183529e-07,0.00017917239108728258
PART_003_R247G182B210A255,9650,-0.0001335919,4.407714e-05,4.408766e-05,1.24938e-05,6.190351e-09,4.059895e-07,0.00017898864957364326
PART_001_R158G218B229A255,9651,-0.0001335919,4.408777e-05,4.407607e-05,1.198339e-05,1.660588e-09,3.623555e-07,0.00017888316085236755
PART_001_R158G218B229A255,9652,-0.0001335919,4.408768e-05,4.407783e-05,1.170197e-05,1.346995e-09,2.069272e-07,0.0001788273465379948
PART_001_R158G218B229A255,9653,-0.0001335919,4.408834e-05,4.407449e-05,1.161084e-05,7.688735e-13,9.181444e-13,0.00017880783490516547
PART_001_R158G218B229A255,9654,-0.0001335919,4.408768e-05,4.407783e-05,1.170197e-05,-1.345487e-09,-2.069254e-07,0.00017882734653171226
PART_001_R158G218B229A255,9655,-0.0001335919,4.408776e-05,4.407607e-05,1.198339e-05,-1.659307e-09,-3.623539e-07,0.00017888315587592096
PART_001_R158G218B229A255,9656,-0.0001335919,4.407714e-05,4.408766e-05,1.24938e-05,-6.189332e-09,-4.059882e-07,0.0001789886495646914
PART_002_R214G39B40A255,9657,-0.0001335919,4.408536e-05,4.409116e-05,1.331918e-05,1.56185e-08,-3.183521e-07,0.00017917239108318042
PART_002_R214G39B40A255,9658,-0.0001335919,4.41055e-05,4.406226e-05,1.452033e-05,-1.56096e-09,-1.261994e-07,0.00017944707280137997
PART_003_R247G182B210A255,9659,-0.0001781226,5.87853e-05,5.880176e-05,9.932605e-06,-1.465132e-08,2.31278e-07,0.00023754027847116174
PART_003_R247G182B210A255,9660,-0.0001781226,5.8772e-05,5.877853e-05,8.856098e-06,1.427926e-08,6.33413e-07,0.00023739649141609745
PART_001_R158G218B229A255,9661,-0.0001781226,5.878411e-05,5.876513e-05,8.266721e-06,1.020792e-08,7.743512e-07,0.00023733332744082096
PART_001_R158G218B229A255,9662,-0.0001781226,5.878838e-05,5.876549e-05,7.924962e-06,2.999606e-09,6.407641e-07,0.00023729946672332216
PART_001_R158G218B229A255,9663,-0.0001781226,5.87844e-05,5.876526e-05,7.736566e-06,2.502874e-09,3.580893e-07,0.00023727692824716465
PART_001_R158G218B229A255,9664,-0.0001781226,5.879017e-05,5.876423e-05,7.679059e-06,5.097987e-13,1.074231e-12,0.00023727288000544678
PART_001_R158G218B229A255,9665,-0.0001781226,5.87844e-05,5.876526e-05,7.736566e-06,-2.501859e-09,-3.580872e-07,0.00023727692823762484
PART_001_R158G218B229A255,9666,-0.0001781226,5.878838e-05,5.876549e-05,7.924963e-06,-2.99878e-09,-6.407623e-07,0.000237299466808899
PART_001_R158G218B229A255,9667,-0.0001781226,5.878411e-05,5.876513e-05,8.266722e-06,-1.020729e-08,-7.743497e-07,0.00023733332753055256
PART_001_R158G218B229A255,9668,-0.0001781226,5.8772e-05,5.877853e-05,8.856099e-06,-1.427894e-08,-6.33412e-07,0.0002373964915199505
PART_002_R214G39B40A255,9669,-0.0001781226,5.87853e-05,5.880176e-05,9.932606e-06,1.465141e-08,-2.312776e-07,0.00023754027859545324
PART_003_R247G182B210A255,9670,-0.0002226532,7.351943e-05,7.340795e-05,3.64802e-06,2.254384e-08,6.23495e-07,0.0002961862822221774
PART_001_R158G218B229A255,9671,-0.0002226532,7.347723e-05,7.34446e-05,3.134943e-06,1.388099e-08,1.347984e-06,0.00029617310016989907
PART_001_R158G218B229A255,9672,-0.0002226532,7.349833e-05,7.34436e-05,2.93875e-06,2.716859e-09,1.372504e-06,0.0002961774525888127
PART_001_R158G218B229A255,9673,-0.0002226532,7.347929e-05,7.345537e-05,2.809206e-06,3.245864e-09,1.070267e-06,0.00029616630476409324
PART_001_R158G218B229A255,9674,-0.0002226532,7.349194e-05,7.345143e-05,2.747208e-06,4.574494e-10,5.776157e-07,0.00029616480399055276
PART_001_R158G218B229A255,9675,-0.0002226532,7.347996e-05,7.345722e-05,2.724423e-06,1.763581e-13,1.100391e-12,0.00029615938672053526
PART_001_R158G218B229A255,9676,-0.0002226532,7.349194e-05,7.345143e-05,2.747208e-06,-4.570692e-10,-5.776135e-07,0.00029616480397767894
PART_001_R158G218B229A255,9677,-0.0002226532,7.347929e-05,7.345537e-05,2.809206e-06,-3.245587e-09,-1.070266e-06,0.00029616630475324293
PART_001_R158G218B229A255,9678,-0.0002226532,7.349833e-05,7.34436e-05,2.93875e-06,-2.716619e-09,-1.372502e-06,0.00029617745256100176
PART_001_R158G218B229A255,9679,-0.0002226532,7.347723e-05,7.34446e-05,3.134943e-06,-1.388091e-08,-1.347983e-06,0.0002961731001562338
PART_001_R158G218B229A255,9680,-0.0002226532,7.351943e-05,7.340795e-05,3.64802e-06,-2.254377e-08,-6.234946e-07,0.00029618628221963534
PART_003_R247G182B210A255,9681,0.0002181093,-7.201903e-05,-7.190983e-05,3.64802e-06,2.208367e-08,-6.23495e-07,0.00029014456677743357
PART_000_R31G119B180A255,9682,0.0002181093,-7.197769e-05,-7.194573e-05,3.134943e-06,1.359776e-08,-1.347984e-06,0.00029013122367065394
PART_000_R31G119B180A255,9683,0.0002181093,-7.199837e-05,-7.194475e-05,2.93875e-06,2.661395e-09,-1.372504e-06,0.00029013525737540843
PART_000_R31G119B180A255,9684,0.0002181093,-7.197971e-05,-7.195628e-05,2.809206e-06,3.179699e-09,-1.070268e-06,0.00029012402322523885
PART_000_R31G119B180A255,9685,0.0002181093,-7.19921e-05,-7.195243e-05,2.747208e-06,4.481352e-10,-5.77616e-07,0.0002901223154289403
PART_000_R31G119B180A255,9686,0.0002181093,-7.198036e-05,-7.195809e-05,2.724423e-06,2.560935e-13,-1.539691e-12,0.0002901169048507671
PART_000_R31G119B180A255,9687,0.0002181093,-7.19921e-05,-7.195243e-05,2.747208e-06,-4.47712e-10,5.776132e-07,0.0002901223154122145
PART_000_R31G119B180A255,9688,0.0002181093,-7.197971e-05,-7.195628e-05,2.809206e-06,-3.179281e-09,1.070265e-06,0.00029012402319202415
PART_000_R31G119B180A255,9689,0.0002181093,-7.199837e-05,-7.194475e-05,2.93875e-06,-2.661163e-09,1.372502e-06,0.0002901352573470187
PART_000_R31G119B180A255,9690,0.0002181093,-7.197769e-05,-7.194573e-05,3.134943e-06,-1.35976e-08,1.347983e-06,0.0002901312236566931
PART_000_R31G119B180A255,9691,0.0002181093,-7.201903e-05,-7.190982e-05,3.64802e-06,-2.20837e-08,6.234945e-07,0.0002901445617782606
PART_003_R247G182B210A255,9692,0.0001744874,-5.75856e-05,-5.760173e-05,9.932605e-06,-1.435227e-08,-2.31278e-07,0.00023271818136842638
PART_003_R247G182B210A255,9693,0.0001744874,-5.757257e-05,-5.757897e-05,8.856098e-06,1.398794e-08,-6.33413e-07,0.00023257216200482552
PART_000_R31G119B180A255,9694,0.0001744874,-5.758443e-05,-5.756585e-05,8.266721e-06,9.99968e-09,-7.743514e-07,0.00023250771582614688
PART_000_R31G119B180A255,9695,0.0001744874,-5.758862e-05,-5.756619e-05,7.924962e-06,2.938547e-09,-6.407643e-07,0.00023247305419702016
PART_000_R31G119B180A255,9696,0.0001744874,-5.758472e-05,-5.756597e-05,7.736566e-06,2.451916e-09,-3.580896e-07,0.00023245013646703788
PART_000_R31G119B180A255,9697,0.0001744874,-5.759038e-05,-5.756496e-05,7.679059e-06,6.800147e-13,-1.42456e-12,0.00023244590992339197
PART_000_R31G119B180A255,9698,0.0001744874,-5.758472e-05,-5.756597e-05,7.736566e-06,-2.450679e-09,3.580869e-07,0.00023245013645452074
PART_000_R31G119B180A255,9699,0.0001744874,-5.758862e-05,-5.756619e-05,7.924963e-06,-2.937427e-09,6.407618e-07,0.00023247305427857496
PART_000_R31G119B180A255,9700,0.0001744874,-5.758443e-05,-5.756584e-05,8.266722e-06,-9.998901e-09,7.743494e-07,0.00023250771092290048
PART_000_R31G119B180A255,9701,0.0001744874,-5.757257e-05,-5.757897e-05,8.856099e-06,-1.398745e-08,6.334117e-07,0.00023257216210835222
PART_002_R214G39B40A255,9702,0.0001744874,-5.75856e-05,-5.760173e-05,9.932606e-06,1.43524e-08,2.312776e-07,0.00023271818149530035
PART_003_R247G182B210A255,9703,0.0001308656,-4.320539e-05,-4.316303e-05,1.452033e-05,1.52932e-09,-1.261997e-07,0.00017585762833283432
PART_003_R247G182B210A255,9704,0.0001308656,-4.318566e-05,-4.319134e-05,1.331918e-05,-1.529906e-08,-3.183529e-07,0.00017557715160724792
PART_003_R247G182B210A255,9705,0.0001308656,-4.317761e-05,-4.318791e-05,1.24938e-05,6.064135e-09,-4.059897e-07,0.00017538988399222978
PART_000_R31G119B180A255,9706,0.0001308656,-4.318802e-05,-4.317656e-05,1.198339e-05,1.626903e-09,-3.623556e-07,0.00017528224933606397
PART_000_R31G119B180A255,9707,0.0001308656,-4.318793e-05,-4.317828e-05,1.170197e-05,1.3197e-09,-2.069274e-07,0.00017522525089076925
PART_000_R31G119B180A255,9708,0.0001308656,-4.318857e-05,-4.317501e-05,1.161084e-05,9.990677e-13,-1.1737e-12,0.00017520539067116087
PART_000_R31G119B180A255,9709,0.0001308656,-4.318793e-05,-4.317828e-05,1.170197e-05,-1.317832e-09,2.069251e-07,0.00017522525088257875
PART_000_R31G119B180A255,9710,0.0001308656,-4.318801e-05,-4.317656e-05,1.198339e-05,-1.625229e-09,3.623535e-07,0.0001752822443577141
PART_000_R31G119B180A255,9711,0.0001308656,-4.317761e-05,-4.318791e-05,1.24938e-05,-6.062891e-09,4.05988e-07,0.0001753898839802954
PART_002_R214G39B40A255,9712,0.0001308656,-4.318566e-05,-4.319134e-05,1.331918e-05,1.529987e-08,3.183518e-07,0.0001755771516014762
PART_002_R214G39B40A255,9713,0.0001308656,-4.320539e-05,-4.316303e-05,1.452033e-05,-1.529095e-09,1.261994e-07,0.0001758576283321826
PART_003_R247G182B210A255,9714,8.72437e-05,-2.87939e-05,-2.879601e-05,1.772536e-05,-6.089166e-09,-5.843249e-08,0.00012003143327161595
PART_003_R247G182B210A255,9715,8.72437e-05,-2.879353e-05,-2.878477e-05,1.645285e-05,4.898689e-10,-1.613814e-07,0.00011948133447795063
PART_003_R247G182B210A255,9716,8.72437e-05,-2.879018e-05,-2.879068e-05,1.553576e-05,-1.160602e-08,-2.068043e-07,0.0001191139267656465
PART_003_R247G182B210A255,9717,8.72437e-05,-2.878581e-05,-2.879153e-05,1.492193e-05,1.798297e-09,-1.86819e-07,0.00011887643841757836
PART_000_R31G119B180A255,9718,8.72437e-05,-2.879194e-05,-2.878449e-05,1.457597e-05,-1.758153e-09,-1.104251e-07,0.00011874686789510803
PART_000_R31G119B180A255,9719,8.72437e-05,-2.878985e-05,-2.87876e-05,1.446381e-05,1.232365e-12,-8.376539e-13,0.0001187060615736442
PART_000_R31G119B180A255,9720,8.72437e-05,-2.879194e-05,-2.878449e-05,1.457597e-05,1.760475e-09,1.104234e-07,0.00011874686789046868
PART_000_R31G119B180A255,9721,8.72437e-05,-2.878581e-05,-2.879153e-05,1.492194e-05,-1.796189e-09,1.868175e-07,0.00011887644217615323
PART_002_R214G39B40A255,9722,8.72437e-05,-2.879018e-05,-2.879068e-05,1.553577e-05,1.160765e-08,2.068031e-07,0.00011911393067270605
PART_002_R214G39B40A255,9723,8.72437e-05,-2.879353e-05,-2.878477e-05,1.645285e-05,-4.887346e-10,1.613806e-07,0.00011948133447469506
PART_002_R214G39B40A255,9724,8.72437e-05,-2.87939e-05,-2.879601e-05,1.772536e-05,6.08955e-09,5.84322e-08,0.00012003143327125086
PART_003_R247G182B210A255,9725,4.362185e-05,-1.440105e-05,-1.43891e-05,1.962261e-05,-8.046997e-10,-2.573132e-08,6.723917125782346e-05
PART_003_R247G182B210A255,9726,4.362185e-05,-1.439554e-05,-1.439713e-05,1.832412e-05,-1.177847e-08,-6.642311e-08,6.6132016196387e-05
PART_003_R247G182B210A255,9727,4.362185e-05,-1.439402e-05,-1.439491e-05,1.735703e-05,-8.187561e-10,-8.711337e-08,6.534305660332077e-05
PART_003_R247G182B210A255,9728,4.362185e-05,-1.439526e-05,-1.439406e-05,1.66989e-05,-9.153293e-09,-7.935282e-08,6.482664852704128e-05
PART_003_R247G182B210A255,9729,4.362185e-05,-1.439318e-05,-1.439552e-05,1.631658e-05,1.589618e-10,-4.673612e-08,6.453354451838551e-05
PART_000_R31G119B180A255,9730,4.362185e-05,-1.439594e-05,-1.439228e-05,1.619261e-05,1.375344e-12,-4.353731e-13,6.44395335225559e-05
PART_000_R31G119B180A255,9731,4.362185e-05,-1.439318e-05,-1.439552e-05,1.631658e-05,-1.563614e-10,4.673528e-08,6.453354451654145e-05
PART_002_R214G39B40A255,9732,4.362185e-05,-1.439526e-05,-1.439406e-05,1.66989e-05,9.155665e-09,7.935207e-08,6.482664852529201e-05
PART_002_R214G39B40A255,9733,4.362185e-05,-1.439402e-05,-1.439491e-05,1.735703e-05,8.206112e-10,8.711275e-08,6.53430566009109e-05
PART_002_R214G39B40A255,9734,4.362185e-05,-1.439554e-05,-1.439713e-05,1.832412e-05,1.177974e-08,6.64227e-08,6.613201619583021e-05
PART_002_R214G39B40A255,9735,4.362185e-05,-1.440105e-05,-1.43891e-05,1.962261e-05,8.051055e-10,2.573117e-08,6.723917125766582e-05
PART_003_R247G182B210A255,9736,-1.191801e-13,2.976785e-14,5.202843e-14,2.025232e-05,-4.732349e-09,1.441827e-14,3.507804816879898e-05
PART_003_R247G182B210A255,9737,-1.002126e-13,2.133987e-13,-1.601758e-14,1.894418e-05,-1.991539e-09,2.94939e-14,3.281228244904464e-05
PART_003_R247G182B210A255,9738,-1.605359e-13,4.516387e-13,1.730016e-14,1.796588e-05,-1.259415e-08,3.313995e-14,3.1117824608430496e-05
PART_003_R247G182B210A255,9739,-1.674225e-13,6.240009e-13,-4.477049e-14,1.72913e-05,-7.713857e-10,2.724277e-14,2.994941015871779e-05
PART_003_R247G182B210A255,9740,-1.990473e-13,7.080031e-13,-5.052287e-15,1.690023e-05,-5.231323e-09,1.656338e-14,2.9272058421964823e-05
PART_003_R247G182B210A255,9741,-1.800936e-13,7.298745e-13,-5.538298e-14,1.677112e-05,1.423627e-12,-1.093285e-15,2.904843193983467e-05
PART_002_R214G39B40A255,9742,-1.997978e-13,7.082807e-13,-4.894208e-15,1.690023e-05,5.234018e-09,-1.444656e-14,2.92720584234101e-05
PART_002_R214G39B40A255,9743,-1.724214e-13,6.375317e-13,-4.491764e-14,1.72913e-05,7.738554e-10,-2.935258e-14,2.9949410158908926e-05
PART_002_R214G39B40A255,9744,-1.827645e-13,5.138806e-13,1.711519e-14,1.796588e-05,1.259611e-08,-3.339147e-14,3.111782461081047e-05
PART_002_R214G39B40A255,9745,-1.493852e-13,3.644446e-13,-1.508041e-14,1.894418e-05,1.992919e-09,-3.138792e-14,3.2812282449296004e-05
PART_002_R214G39B40A255,9746,-1.906138e-13,2.589595e-13,5.107739e-14,2.025233e-05,4.732824e-09,-1.199634e-14,3.507806548949884e-05
PART_003_R247G182B210A255,9747,-4.362185e-05,1.440105e-05,1.43891e-05,1.962261e-05,-8.047009e-10,2.573135e-08,6.723917125785794e-05
PART_003_R247G182B210A255,9748,-4.362185e-05,1.439554e-05,1.439713e-05,1.832412e-05,-1.177847e-08,6.642319e-08,6.613201619662806e-05
PART_003_R247G182B210A255,9749,-4.362185e-05,1.439402e-05,1.439491e-05,1.735703e-05,-8.187543e-10,8.711346e-08,6.534305660368066e-05
PART_003_R247G182B210A255,9750,-4.362185e-05,1.439526e-05,1.439406e-05,1.66989e-05,-9.153292e-09,7.935288e-08,6.48266485272612e-05
PART_003_R247G182B210A255,9751,-4.362185e-05,1.439317e-05,1.439552e-05,1.631658e-05,1.589621e-10,4.673616e-08,6.453354002370288e-05
PART_001_R158G218B229A255,9752,-4.362185e-05,1.439594e-05,1.439228e-05,1.619261e-05,1.375336e-12,4.312974e-13,6.44395335225559e-05
PART_001_R158G218B229A255,9753,-4.362185e-05,1.439317e-05,1.439552e-05,1.631658e-05,-1.563619e-10,-4.673531e-08,6.453354002183709e-05
PART_002_R214G39B40A255,9754,-4.362185e-05,1.439526e-05,1.439406e-05,1.66989e-05,9.155665e-09,-7.935213e-08,6.482664852551234e-05
PART_002_R214G39B40A255,9755,-4.362185e-05,1.439402e-05,1.439491e-05,1.735703e-05,8.206094e-10,-8.711283e-08,6.534305660123078e-05
PART_002_R214G39B40A255,9756,-4.362185e-05,1.439554e-05,1.439713e-05,1.832412e-05,1.177974e-08,-6.642278e-08,6.613201619607127e-05
PART_002_R214G39B40A255,9757,-4.362185e-05,1.440105e-05,1.43891e-05,1.962261e-05,8.05105e-10,-2.57312e-08,6.723917125770025e-05
PART_003_R247G182B210A255,9758,-8.724371e-05,2.87939e-05,2.879601e-05,1.772536e-05,-6.089162e-09,5.843252e-08,0.00012003144293901477
PART_003_R247G182B210A255,9759,-8.72437e-05,2.879354e-05,2.878477e-05,1.645285e-05,4.898707e-10,1.613814e-07,0.00011948133933419025
PART_003_R247G182B210A255,9760,-8.72437e-05,2.879018e-05,2.879068e-05,1.553576e-05,-1.160602e-08,2.068044e-07,0.00011911392676616736
PART_003_R247G182B210A255,9761,-8.72437e-05,2.878582e-05,2.879153e-05,1.492193e-05,1.798298e-09,1.86819e-07,0.00011887644329759497
PART_001_R158G218B229A255,9762,-8.72437e-05,2.879194e-05,2.87845e-05,1.457597e-05,-1.758153e-09,1.104251e-07,0.00011874687278032097
PART_001_R158G218B229A255,9763,-8.72437e-05,2.878985e-05,2.87876e-05,1.446381e-05,1.232952e-12,8.315777e-13,0.0001187060615736442
PART_001_R158G218B229A255,9764,-8.72437e-05,2.879194e-05,2.87845e-05,1.457597e-05,1.760474e-09,-1.104235e-07,0.00011874687277596056
PART_001_R158G218B229A255,9765,-8.72437e-05,2.878582e-05,2.879153e-05,1.492194e-05,-1.796188e-09,-1.868176e-07,0.00011887644705664106
PART_002_R214G39B40A255,9766,-8.72437e-05,2.879018e-05,2.879068e-05,1.553577e-05,1.160765e-08,-2.068032e-07,0.00011911393067322692
PART_002_R214G39B40A255,9767,-8.72437e-05,2.879353e-05,2.878477e-05,1.645285e-05,-4.887355e-10,-1.613806e-07,0.00011948133447469507
PART_002_R214G39B40A255,9768,-8.72437e-05,2.87939e-05,2.879601e-05,1.772536e-05,6.089548e-09,-5.843223e-08,0.00012003143327129437
PART_003_R247G182B210A255,9769,-0.0001308656,4.320539e-05,4.316303e-05,1.452033e-05,1.529315e-09,1.261998e-07,0.00017585762833304948
PART_003_R247G182B210A255,9770,-0.0001308656,4.318566e-05,4.319134e-05,1.331918e-05,-1.529906e-08,3.18353e-07,0.0001755771516077919
PART_003_R247G182B210A255,9771,-0.0001308656,4.317761e-05,4.318792e-05,1.24938e-05,6.064139e-09,4.059898e-07,0.00017538988895512126
PART_001_R158G218B229A255,9772,-0.0001308656,4.318801e-05,4.317656e-05,1.198339e-05,1.626902e-09,3.623556e-07,0.00017528224437078442
PART_001_R158G218B229A255,9773,-0.0001308656,4.318793e-05,4.317829e-05,1.170197e-05,1.319701e-09,2.069275e-07,0.00017522525585713834
PART_001_R158G218B229A255,9774,-0.0001308656,4.318857e-05,4.317501e-05,1.161084e-05,9.997036e-13,1.168225e-12,0.00017520539067116087
PART_001_R158G218B229A255,9775,-0.0001308656,4.318793e-05,4.317829e-05,1.170197e-05,-1.317834e-09,-2.069252e-07,0.00017522525584894787
PART_001_R158G218B229A255,9776,-0.0001308656,4.318801e-05,4.317656e-05,1.198339e-05,-1.625227e-09,-3.623536e-07,0.0001752822443583342
PART_001_R158G218B229A255,9777,-0.0001308656,4.317761e-05,4.318792e-05,1.24938e-05,-6.062895e-09,-4.059881e-07,0.00017538988894318685
PART_002_R214G39B40A255,9778,-0.0001308656,4.318566e-05,4.319134e-05,1.331918e-05,1.529987e-08,-3.183519e-07,0.00017557715160202014
PART_002_R214G39B40A255,9779,-0.0001308656,4.320538e-05,4.316303e-05,1.452033e-05,-1.529095e-09,-1.261994e-07,0.0001758576233817763
PART_003_R247G182B210A255,9780,-0.0001744874,5.75856e-05,5.760173e-05,9.932605e-06,-1.435225e-08,2.312781e-07,0.00023271818136872083
PART_003_R247G182B210A255,9781,-0.0001744874,5.757257e-05,5.757897e-05,8.856098e-06,1.398794e-08,6.33413e-07,0.00023257216200482552
PART_001_R158G218B229A255,9782,-0.0001744874,5.758443e-05,5.756585e-05,8.266721e-06,9.99968e-09,7.743515e-07,0.000232507715827146
PART_001_R158G218B229A255,9783,-0.0001744874,5.758862e-05,5.756619e-05,7.924962e-06,2.938549e-09,6.407643e-07,0.00023247305419702024
PART_001_R158G218B229A255,9784,-0.0001744874,5.758472e-05,5.756597e-05,7.736566e-06,2.451915e-09,3.580897e-07,0.0002324501364675
PART_001_R158G218B229A255,9785,-0.0001744874,5.759038e-05,5.756496e-05,7.679059e-06,6.80269e-13,1.423275e-12,0.00023244590992339197
PART_001_R158G218B229A255,9786,-0.0001744874,5.758472e-05,5.756597e-05,7.736566e-06,-2.450679e-09,-3.58087e-07,0.00023245013645498288
PART_001_R158G218B229A255,9787,-0.0001744874,5.758862e-05,5.756619e-05,7.924963e-06,-2.937428e-09,-6.407619e-07,0.00023247305427940188
PART_001_R158G218B229A255,9788,-0.0001744874,5.758443e-05,5.756585e-05,8.266722e-06,-9.998901e-09,-7.743496e-07,0.00023250771591472587
PART_001_R158G218B229A255,9789,-0.0001744874,5.757257e-05,5.757897e-05,8.856099e-06,-1.398745e-08,-6.334117e-07,0.00023257216210835222
PART_002_R214G39B40A255,9790,-0.0001744874,5.75856e-05,5.760173e-05,9.932606e-06,1.43524e-08,-2.312776e-07,0.00023271818149530035
PART_003_R247G182B210A255,9791,-0.0002181093,7.201904e-05,7.190983e-05,3.64802e-06,2.208361e-08,6.234951e-07,0.00029014457177966674
PART_001_R158G218B229A255,9792,-0.0002181093,7.197769e-05,7.194573e-05,3.134943e-06,1.359779e-08,1.347984e-06,0.00029013122367065817
PART_001_R158G218B229A255,9793,-0.0002181093,7.199837e-05,7.194475e-05,2.93875e-06,2.661376e-09,1.372504e-06,0.00029013525737540795
PART_001_R158G218B229A255,9794,-0.0002181093,7.197971e-05,7.195628e-05,2.809206e-06,3.179711e-09,1.070268e-06,0.0002901240232252393
PART_001_R158G218B229A255,9795,-0.0002181093,7.19921e-05,7.195243e-05,2.747208e-06,4.481295e-10,5.77616e-07,0.00029012231542894026
PART_001_R158G218B229A255,9796,-0.0002181093,7.198036e-05,7.195809e-05,2.724423e-06,2.559658e-13,1.544249e-12,0.0002901169048507671
PART_001_R158G218B229A255,9797,-0.0002181093,7.19921e-05,7.195243e-05,2.747208e-06,-4.477061e-10,-5.776132e-07,0.00029012231541221444
PART_001_R158G218B229A255,9798,-0.0002181093,7.197971e-05,7.195628e-05,2.809206e-06,-3.179294e-09,-1.070265e-06,0.0002901240231920246
PART_001_R158G218B229A255,9799,-0.0002181093,7.199837e-05,7.194475e-05,2.93875e-06,-2.661143e-09,-1.372502e-06,0.00029013525734701817
PART_001_R158G218B229A255,9800,-0.0002181093,7.197769e-05,7.194573e-05,3.134943e-06,-1.359763e-08,-1.347983e-06,0.00029013122365669733
PART_001_R158G218B229A255,9801,-0.0002181093,7.201903e-05,7.190983e-05,3.648021e-06,-2.208366e-08,-6.234946e-07,0.00029014456681257197
PART_003_R247G182B210A255,9802,0.0002135653,-7.051864e-05,-7.041171e-05,3.64802e-06,2.162369e-08,-6.234951e-07,0.00028410281782336583
PART_000_R31G119B180A255,9803,0.0002135653,-7.047816e-05,-7.044686e-05,3.134943e-06,1.331448e-08,-1.347984e-06,0.000284089304454466
PART_000_R31G119B180A255,9804,0.0002135653,-7.04984e-05,-7.04459e-05,2.93875e-06,2.606046e-09,-1.372504e-06,0.0002840930043954655
PART_000_R31G119B180A255,9805,0.0002135653,-7.048013e-05,-7.045719e-05,2.809206e-06,3.113479e-09,-1.070268e-06,0.0002840816822550731
PART_000_R31G119B180A255,9806,0.0002135653,-7.049227e-05,-7.045342e-05,2.747208e-06,4.389044e-10,-5.776165e-07,0.00028407976225958056
PART_000_R31G119B180A255,9807,0.0002135653,-7.048077e-05,-7.045896e-05,2.724423e-06,2.794874e-13,-1.903212e-12,0.0002840743613129898
PART_000_R31G119B180A255,9808,0.0002135653,-7.049227e-05,-7.045342e-05,2.747208e-06,-4.382809e-10,5.776126e-07,0.00028407976223578823
PART_000_R31G119B180A255,9809,0.0002135653,-7.048013e-05,-7.045719e-05,2.809206e-06,-3.113033e-09,1.070265e-06,0.0002840816822211513
PART_000_R31G119B180A255,9810,0.0002135653,-7.04984e-05,-7.04459e-05,2.93875e-06,-2.605637e-09,1.372502e-06,0.00028409300436646717
PART_000_R31G119B180A255,9811,0.0002135653,-7.047816e-05,-7.044686e-05,3.134944e-06,-1.331434e-08,1.347982e-06,0.0002840893044590819
PART_000_R31G119B180A255,9812,0.0002135653,-7.051864e-05,-7.04117e-05,3.64802e-06,-2.162356e-08,6.234945e-07,0.00028410281282348197
PART_003_R247G182B210A255,9813,0.0001708523,-5.63859e-05,-5.640169e-05,9.932605e-06,-1.405327e-08,-2.312781e-07,0.00022789672851351332
PART_003_R247G182B210A255,9814,0.0001708523,-5.637314e-05,-5.637941e-05,8.856097e-06,1.369653e-08,-6.334132e-07,0.00022774837186655394
PART_000_R31G119B180A255,9815,0.0001708523,-5.638476e-05,-5.636656e-05,8.266721e-06,9.791489e-09,-7.743517e-07,0.00022768258877602562
PART_000_R31G119B180A255,9816,0.0001708523,-5.638886e-05,-5.63669e-05,7.924962e-06,2.877439e-09,-6.407646e-07,0.00022764709946598207
PART_000_R31G119B180A255,9817,0.0001708523,-5.638504e-05,-5.636668e-05,7.736566e-06,2.401046e-09,-3.5809e-07,0.00022762377954172372
PART_000_R31G119B180A255,9818,0.0001708523,-5.639058e-05,-5.636569e-05,7.679059e-06,8.116075e-13,-1.810755e-12,0.00022761936406268197
PART_000_R31G119B180A255,9819,0.0001708523,-5.638504e-05,-5.636668e-05,7.736566e-06,-2.399409e-09,3.580865e-07,0.00022762377952515375
PART_000_R31G119B180A255,9820,0.0001708523,-5.638885e-05,-5.63669e-05,7.924963e-06,-2.876111e-09,6.407615e-07,0.00022764709455262613
PART_000_R31G119B180A255,9821,0.0001708523,-5.638476e-05,-5.636656e-05,8.266722e-06,-9.790437e-09,7.743491e-07,0.00022768258885828632
PART_000_R31G119B180A255,9822,0.0001708523,-5.637314e-05,-5.637941e-05,8.856099e-06,-1.369601e-08,6.334115e-07,0.00022774837208558874
PART_002_R214G39B40A255,9823,0.0001708523,-5.63859e-05,-5.640169e-05,9.932607e-06,1.405344e-08,2.312775e-07,0.00022789672877322086
PART_003_R247G182B210A255,9824,0.0001281392,-4.230527e-05,-4.22638e-05,1.452033e-05,1.49758e-09,-1.261998e-07,0.0001722696098474551
PART_003_R247G182B210A255,9825,0.0001281392,-4.228596e-05,-4.229152e-05,1.331918e-05,-1.49802e-08,-3.183531e-07,0.00017198310714356226
PART_003_R247G182B210A255,9826,0.0001281392,-4.227807e-05,-4.228817e-05,1.24938e-05,5.938026e-09,-4.059899e-07,0.00017179216203071392
PART_000_R31G119B180A255,9827,0.0001281392,-4.228826e-05,-4.227705e-05,1.198339e-05,1.593214e-09,-3.623559e-07,0.00017168228672922312
PART_000_R31G119B180A255,9828,0.0001281392,-4.228818e-05,-4.227874e-05,1.170197e-05,1.292494e-09,-2.069277e-07,0.00017162406555079683
PART_000_R31G119B180A255,9829,0.0001281392,-4.228881e-05,-4.227553e-05,1.161084e-05,1.215881e-12,-1.521669e-12,0.00017160384116173658
PART_000_R31G119B180A255,9830,0.0001281392,-4.228818e-05,-4.227874e-05,1.170197e-05,-1.290091e-09,2.069248e-07,0.00017162406554025304
PART_000_R31G119B180A255,9831,0.0001281392,-4.228826e-05,-4.227705e-05,1.198339e-05,-1.59117e-09,3.623533e-07,0.00017168228671270348
PART_000_R31G119B180A255,9832,0.0001281392,-4.227807e-05,-4.228817e-05,1.24938e-05,-5.936369e-09,4.059878e-07,0.00017179216201565362
PART_002_R214G39B40A255,9833,0.0001281392,-4.228596e-05,-4.229152e-05,1.331918e-05,1.498122e-08,3.183517e-07,0.0001719831071360543
PART_002_R214G39B40A255,9834,0.0001281392,-4.230527e-05,-4.22638e-05,1.452033e-05,-1.49716e-09,1.261993e-07,0.0001722696098463453
PART_003_R247G182B210A255,9835,8.542613e-05,-2.819403e-05,-2.819609e-05,1.772536e-05,-5.962273e-09,-5.843251e-08,0.00011769600813667545
PART_003_R247G182B210A255,9836,8.542613e-05,-2.819367e-05,-2.818509e-05,1.645285e-05,4.797387e-10,-1.613815e-07,0.00011713518309968176
PART_003_R247G182B210A255,9837,8.542613e-05,-2.819039e-05,-2.819088e-05,1.553576e-05,-1.136399e-08,-2.068045e-07,0.00011676034214279508
PART_003_R247G182B210A255,9838,8.542613e-05,-2.818611e-05,-2.819171e-05,1.492193e-05,1.761074e-09,-1.868192e-07,0.00011651812749971959
PART_000_R31G119B180A255,9839,8.542613e-05,-2.819211e-05,-2.818482e-05,1.457597e-05,-1.721183e-09,-1.104253e-07,0.00011638595074717073
PART_000_R31G119B180A255,9840,8.542613e-05,-2.819006e-05,-2.818786e-05,1.446381e-05,1.499724e-12,-1.080937e-12,0.00011634429112976026
PART_000_R31G119B180A255,9841,8.542613e-05,-2.819211e-05,-2.818482e-05,1.457597e-05,1.724144e-09,1.104232e-07,0.00011638595074132493
PART_000_R31G119B180A255,9842,8.542613e-05,-2.818611e-05,-2.81917e-05,1.492194e-05,-1.758516e-09,1.868173e-07,0.0001165181264566418
PART_002_R214G39B40A255,9843,8.542613e-05,-2.819039e-05,-2.819088e-05,1.553577e-05,1.136609e-08,2.06803e-07,0.00011676034612714385
PART_002_R214G39B40A255,9844,8.542613e-05,-2.819367e-05,-2.818509e-05,1.645285e-05,-4.784323e-10,1.613805e-07,0.00011713518309553255
PART_002_R214G39B40A255,9845,8.542613e-05,-2.819403e-05,-2.819609e-05,1.772536e-05,5.962768e-09,5.843215e-08,0.00011769600813621449
PART_003_R247G182B210A255,9846,4.271306e-05,-1.410103e-05,-1.408933e-05,1.962261e-05,-7.877905e-10,-2.573134e-08,6.619908377288024e-05
PART_003_R247G182B210A255,9847,4.271306e-05,-1.409563e-05,-1.409719e-05,1.832412e-05,-1.153289e-08,-6.642318e-08,6.507418566504293e-05
PART_003_R247G182B210A255,9848,4.271306e-05,-1.409414e-05,-1.409502e-05,1.735703e-05,-8.013887e-10,-8.711345e-08,6.427231287575766e-05
PART_003_R247G182B210A255,9849,4.271306e-05,-1.409536e-05,-1.409418e-05,1.66989e-05,-8.962314e-09,-7.935293e-08,6.374722319924936e-05
PART_003_R247G182B210A255,9850,4.271306e-05,-1.409332e-05,-1.409561e-05,1.631658e-05,1.560293e-10,-4.673624e-08,6.344914343117111e-05
PART_000_R31G119B180A255,9851,4.271306e-05,-1.409603e-05,-1.409244e-05,1.619261e-05,1.669952e-12,-5.597876e-13,6.335353684459463e-05
PART_000_R31G119B180A255,9852,4.271306e-05,-1.409332e-05,-1.409561e-05,1.631658e-05,-1.527235e-10,4.673516e-08,6.344914342876044e-05
PART_002_R214G39B40A255,9853,4.271306e-05,-1.409536e-05,-1.409418e-05,1.66989e-05,8.965203e-09,7.935196e-08,6.374722319684569e-05
PART_002_R214G39B40A255,9854,4.271306e-05,-1.409414e-05,-1.409502e-05,1.735703e-05,8.038091e-10,8.711267e-08,6.427231287267677e-05
PART_002_R214G39B40A255,9855,4.271306e-05,-1.409563e-05,-1.409719e-05,1.832412e-05,1.153448e-08,6.642265e-08,6.507418566426541e-05
PART_002_R214G39B40A255,9856,4.271306e-05,-1.410102e-05,-1.408933e-05,1.962261e-05,7.884388e-10,2.573115e-08,6.619907948064496e-05
PART_003_R247G182B210A255,9857,-9.711264e-14,4.019007e-14,2.081133e-14,2.025232e-05,-4.633708e-09,1.547082e-14,3.507804812929234e-05
PART_003_R247G182B210A255,9858,-3.098325e-15,-2.232242e-13,5.523072e-14,1.894418e-05,-1.949952e-09,4.139499e-14,3.281228244155134e-05
PART_003_R247G182B210A255,9859,1.662917e-13,-5.423301e-13,-1.869073e-14,1.796588e-05,-1.23315e-08,4.329482e-14,3.111782429285308e-05
PART_003_R247G182B210A255,9860,2.488277e-13,-7.69329e-13,2.184816e-14,1.72913e-05,-7.550343e-10,3.322757e-14,2.9949410157467734e-05
PART_003_R247G182B210A255,9861,3.270507e-13,-8.801571e-13,-3.697955e-14,1.690023e-05,-5.121948e-09,1.518621e-14,2.927205836393736e-05
PART_003_R247G182B210A255,9862,3.197449e-13,-9.090784e-13,1.338921e-14,1.677112e-05,1.72851e-12,1.685476e-15,2.9048431939834727e-05
PART_002_R214G39B40A255,9863,3.279189e-13,-8.80046e-13,-3.735679e-14,1.690023e-05,5.125368e-09,-1.831612e-14,2.9272058365733227e-05
PART_002_R214G39B40A255,9864,2.543182e-13,-7.85122e-13,2.237578e-14,1.72913e-05,7.580258e-10,-3.014893e-14,2.9949410157694433e-05
PART_002_R214G39B40A255,9865,1.931101e-13,-6.168399e-13,-1.86177e-14,1.796588e-05,1.233399e-08,-4.327462e-14,3.111782429581362e-05
PART_002_R214G39B40A255,9866,5.673999e-14,-4.08229e-13,5.439275e-14,1.894418e-05,1.951546e-09,-3.876743e-14,3.281228244183564e-05
PART_002_R214G39B40A255,9867,-9.447738e-15,-2.431666e-13,2.251101e-14,2.025233e-05,4.634322e-09,-1.847844e-14,3.50780654500433e-05
PART_003_R247G182B210A255,9868,-4.271306e-05,1.410103e-05,1.408933e-05,1.962261e-05,-7.877874e-10,2.573137e-08,6.619908377291513e-05
PART_003_R247G182B210A255,9869,-4.271306e-05,1.409563e-05,1.409719e-05,1.832412e-05,-1.153289e-08,6.642324e-08,6.507418566522666e-05
PART_003_R247G182B210A255,9870,-4.271306e-05,1.409414e-05,1.409502e-05,1.735703e-05,-8.013877e-10,8.711351e-08,6.42723128760016e-05
PART_003_R247G182B210A255,9871,-4.271306e-05,1.409536e-05,1.409418e-05,1.66989e-05,-8.962314e-09,7.9353e-08,6.374722319951077e-05
PART_003_R247G182B210A255,9872,-4.271306e-05,1.409332e-05,1.409561e-05,1.631658e-05,1.560297e-10,4.673626e-08,6.34491434312153e-05
PART_001_R158G218B229A255,9873,-4.271306e-05,1.409603e-05,1.409244e-05,1.619261e-05,1.669771e-12,5.65357e-13,6.335353684459463e-05
PART_001_R158G218B229A255,9874,-4.271306e-05,1.409332e-05,1.409561e-05,1.631658e-05,-1.527237e-10,-4.67352e-08,6.344914342884883e-05
PART_002_R214G39B40A255,9875,-4.271306e-05,1.409536e-05,1.409418e-05,1.66989e-05,8.965202e-09,-7.935201e-08,6.3747223197032e-05
PART_002_R214G39B40A255,9876,-4.271306e-05,1.409414e-05,1.409502e-05,1.735703e-05,8.038085e-10,-8.711274e-08,6.427231287296137e-05
PART_002_R214G39B40A255,9877,-4.271306e-05,1.409563e-05,1.409719e-05,1.832412e-05,1.153447e-08,-6.642271e-08,6.507418566444383e-05
PART_002_R214G39B40A255,9878,-4.271306e-05,1.410103e-05,1.408933e-05,1.962261e-05,7.88438e-10,-2.573118e-08,6.61990837727168e-05
PART_003_R247G182B210A255,9879,-8.542613e-05,2.819403e-05,2.819609e-05,1.772536e-05,-5.962276e-09,5.843254e-08,0.00011769600813672059
PART_003_R247G182B210A255,9880,-8.542613e-05,2.819367e-05,2.818509e-05,1.645285e-05,4.797414e-10,1.613816e-07,0.00011713518310009513
PART_003_R247G182B210A255,9881,-8.542613e-05,2.819039e-05,2.819088e-05,1.553576e-05,-1.136398e-08,2.068045e-07,0.00011676034214279215
PART_003_R247G182B210A255,9882,-8.542613e-05,2.818611e-05,2.819171e-05,1.492193e-05,1.761075e-09,1.868193e-07,0.00011651812750020064
PART_001_R158G218B229A255,9883,-8.542613e-05,2.819211e-05,2.818482e-05,1.457597e-05,-1.721182e-09,1.104253e-07,0.0001163859507471707
PART_001_R158G218B229A255,9884,-8.542613e-05,2.819006e-05,2.818786e-05,1.446381e-05,1.498585e-12,1.088111e-12,0.00011634429112976026
PART_001_R158G218B229A255,9885,-8.542613e-05,2.81921e-05,2.818482e-05,1.457597e-05,1.724144e-09,-1.104232e-07,0.00011638594585991435
PART_001_R158G218B229A255,9886,-8.542613e-05,2.818611e-05,2.819171e-05,1.492194e-05,-1.758518e-09,-1.868174e-07,0.00011651813133290623
PART_002_R214G39B40A255,9887,-8.542613e-05,2.819039e-05,2.819087e-05,1.553577e-05,1.136608e-08,-2.06803e-07,0.00011676034126172657
PART_002_R214G39B40A255,9888,-8.542613e-05,2.819367e-05,2.818509e-05,1.645285e-05,-4.784364e-10,-1.613806e-07,0.00011713518309594591
PART_002_R214G39B40A255,9889,-8.542612e-05,2.819403e-05,2.819609e-05,1.772536e-05,5.962769e-09,-5.843219e-08,0.00011769599848248973
PART_003_R247G182B210A255,9890,-0.0001281392,4.230527e-05,4.22638e-05,1.452033e-05,1.497589e-09,1.261998e-07,0.00017226960984745535
PART_003_R247G182B210A255,9891,-0.0001281392,4.228596e-05,4.229152e-05,1.331918e-05,-1.49802e-08,3.183532e-07,0.00017198310714411756
PART_003_R247G182B210A255,9892,-0.0001281392,4.227808e-05,4.228817e-05,1.24938e-05,5.938024e-09,4.059899e-07,0.00017179216699040383
PART_001_R158G218B229A255,9893,-0.0001281392,4.228827e-05,4.227705e-05,1.198339e-05,1.593216e-09,3.62356e-07,0.00017168229169363803
PART_001_R158G218B229A255,9894,-0.0001281392,4.228818e-05,4.227874e-05,1.170197e-05,1.292493e-09,2.069277e-07,0.0001716240655507968
PART_001_R158G218B229A255,9895,-0.0001281392,4.228881e-05,4.227553e-05,1.161084e-05,1.214681e-12,1.526001e-12,0.00017160384116173658
PART_001_R158G218B229A255,9896,-0.0001281392,4.228818e-05,4.227874e-05,1.170197e-05,-1.290088e-09,-2.069248e-07,0.00017162406554025296
PART_001_R158G218B229A255,9897,-0.0001281392,4.228826e-05,4.227705e-05,1.198339e-05,-1.591174e-09,-3.623533e-07,0.00017168228671270361
PART_001_R158G218B229A255,9898,-0.0001281392,4.227807e-05,4.228816e-05,1.24938e-05,-5.936366e-09,-4.059878e-07,0.00017179215705508173
PART_002_R214G39B40A255,9899,-0.0001281392,4.228596e-05,4.229152e-05,1.331918e-05,1.498121e-08,-3.183518e-07,0.00017198310713660702
PART_002_R214G39B40A255,9900,-0.0001281392,4.230527e-05,4.22638e-05,1.452033e-05,-1.497163e-09,-1.261993e-07,0.00017226960984634537
PART_003_R247G182B210A255,9901,-0.0001708523,5.63859e-05,5.640169e-05,9.932605e-06,-1.405328e-08,2.312781e-07,0.00022789672851351517
PART_003_R247G182B210A255,9902,-0.0001708523,5.637314e-05,5.637941e-05,8.856097e-06,1.369654e-08,6.334134e-07,0.00022774837186822445
PART_001_R158G218B229A255,9903,-0.0001708523,5.638476e-05,5.636656e-05,8.266721e-06,9.791491e-09,7.743517e-07,0.00022768258877602587
PART_001_R158G218B229A255,9904,-0.0001708523,5.638885e-05,5.63669e-05,7.924962e-06,2.877437e-09,6.407648e-07,0.00022764709447610466
PART_001_R158G218B229A255,9905,-0.0001708523,5.638504e-05,5.636667e-05,7.736566e-06,2.401047e-09,3.580901e-07,0.00022762377455149102
PART_001_R158G218B229A255,9906,-0.0001708523,5.639058e-05,5.636569e-05,7.679059e-06,8.108223e-13,1.807744e-12,0.00022761936406268197
PART_001_R158G218B229A255,9907,-0.0001708523,5.638504e-05,5.636667e-05,7.736566e-06,-2.399409e-09,-3.580865e-07,0.00022762377453444907
PART_001_R158G218B229A255,9908,-0.0001708523,5.638885e-05,5.63669e-05,7.924963e-06,-2.876111e-09,-6.407616e-07,0.00022764709455347053
PART_001_R158G218B229A255,9909,-0.0001708523,5.638475e-05,5.636655e-05,8.266722e-06,-9.790439e-09,-7.743491e-07,0.00022768257887825422
PART_001_R158G218B229A255,9910,-0.0001708523,5.637314e-05,5.637941e-05,8.856099e-06,-1.369602e-08,-6.334117e-07,0.00022774837208725925
PART_002_R214G39B40A255,9911,-0.0001708522,5.63859e-05,5.640169e-05,9.932607e-06,1.405345e-08,-2.312775e-07,0.00022789662905871782
PART_003_R247G182B210A255,9912,-0.0002135653,7.051864e-05,7.04117e-05,3.64802e-06,2.162376e-08,6.234952e-07,0.0002841028128281363
PART_001_R158G218B229A255,9913,-0.0002135653,7.047816e-05,7.044686e-05,3.134943e-06,1.331444e-08,1.347984e-06,0.00028408930445446035
PART_001_R158G218B229A255,9914,-0.0002135653,7.04984e-05,7.04459e-05,2.93875e-06,2.60607e-09,1.372505e-06,0.0002840930044099597
PART_001_R158G218B229A255,9915,-0.0002135653,7.048013e-05,7.045719e-05,2.809206e-06,3.113463e-09,1.070268e-06,0.0002840816822550726
PART_001_R158G218B229A255,9916,-0.0002135653,7.049227e-05,7.045342e-05,2.747208e-06,4.389105e-10,5.776165e-07,0.00028407976225958056
PART_001_R158G218B229A255,9917,-0.0002135653,7.048077e-05,7.045896e-05,2.724423e-06,2.797918e-13,1.891958e-12,0.0002840743613129898
PART_001_R158G218B229A255,9918,-0.0002135653,7.049227e-05,7.045342e-05,2.747208e-06,-4.382877e-10,-5.776126e-07,0.0002840797622357883
PART_001_R158G218B229A255,9919,-0.0002135653,7.048013e-05,7.045719e-05,2.809206e-06,-3.113017e-09,-1.070265e-06,0.0002840816822211508
PART_001_R158G218B229A255,9920,-0.0002135653,7.04984e-05,7.04459e-05,2.93875e-06,-2.605661e-09,-1.372502e-06,0.00028409300436646787
PART_001_R158G218B229A255,9921,-0.0002135653,7.047816e-05,7.044686e-05,3.134944e-06,-1.33143e-08,-1.347983e-06,0.00028408930447331105
PART_001_R158G218B229A255,9922,-0.0002135653,7.051864e-05,7.04117e-05,3.64802e-06,-2.162362e-08,-6.234945e-07,0.0002841028128234957
PART_003_R247G182B210A255,9923,0.0002090214,-6.901824e-05,-6.891358e-05,3.64802e-06,2.116347e-08,-6.234952e-07,0.0002780612243167944
PART_000_R31G119B180A255,9924,0.0002090214,-6.897862e-05,-6.894799e-05,3.134943e-06,1.303125e-08,-1.347984e-06,0.00027804753588632584
PART_000_R31G119B180A255,9925,0.0002090214,-6.899844e-05,-6.894705e-05,2.93875e-06,2.550567e-09,-1.372505e-06,0.0002780509067043459
PART_000_R31G119B180A255,9926,0.0002090214,-6.898056e-05,-6.89581e-05,2.809206e-06,3.047351e-09,-1.070269e-06,0.0002780394894873371
PART_000_R31G119B180A255,9927,0.0002090214,-6.899243e-05,-6.895441e-05,2.747208e-06,4.295836e-10,-5.77617e-07,0.0002780373417566571
PART_000_R31G119B180A255,9928,0.0002090214,-6.898118e-05,-6.895983e-05,2.724423e-06,4.072915e-13,-2.642392e-12,0.00027803195325257977
PART_000_R31G119B180A255,9929,0.0002090214,-6.899243e-05,-6.895441e-05,2.747208e-06,-4.289339e-10,5.776122e-07,0.00027803734172673856
PART_000_R31G119B180A255,9930,0.0002090214,-6.898056e-05,-6.89581e-05,2.809206e-06,-3.046674e-09,1.070264e-06,0.0002780394894295749
PART_000_R31G119B180A255,9931,0.0002090214,-6.899843e-05,-6.894705e-05,2.93875e-06,-2.550204e-09,1.372501e-06,0.00027805090164473664
PART_000_R31G119B180A255,9932,0.0002090214,-6.897862e-05,-6.894799e-05,3.134944e-06,-1.303097e-08,1.347982e-06,0.0002780475358910228
PART_000_R31G119B180A255,9933,0.0002090214,-6.901824e-05,-6.891358e-05,3.648021e-06,-2.116355e-08,6.234944e-07,0.00027806122435078965
PART_003_R247G182B210A255,9934,0.0001672171,-5.51862e-05,-5.520166e-05,9.932604e-06,-1.375419e-08,-2.312782e-07,0.00022307576593599913
PART_003_R247G182B210A255,9935,0.0001672171,-5.517372e-05,-5.517985e-05,8.856097e-06,1.34053e-08,-6.334134e-07,0.00022292495520355774
PART_000_R31G119B180A255,9936,0.0001672171,-5.518508e-05,-5.516727e-05,8.266721e-06,9.583273e-09,-7.74352e-07,0.000222857766680848
PART_000_R31G119B180A255,9937,0.0001672171,-5.518909e-05,-5.51676e-05,7.924962e-06,2.816459e-09,-6.407651e-07,0.0002228214108535239
PART_000_R31G119B180A255,9938,0.0001672171,-5.518536e-05,-5.516738e-05,7.736566e-06,2.350114e-09,-3.580905e-07,0.00022279767459402702
PART_000_R31G119B180A255,9939,0.0001672171,-5.519078e-05,-5.516642e-05,7.679059e-06,1.061227e-12,-2.370574e-12,0.00022279306915818468
PART_000_R31G119B180A255,9940,0.0001672171,-5.518536e-05,-5.516738e-05,7.736566e-06,-2.348205e-09,3.58086e-07,0.00022279767457226895
PART_000_R31G119B180A255,9941,0.0001672171,-5.518909e-05,-5.51676e-05,7.924963e-06,-2.814684e-09,6.40761e-07,0.000222821410924785
PART_000_R31G119B180A255,9942,0.0001672171,-5.518508e-05,-5.516727e-05,8.266723e-06,-9.582036e-09,7.743488e-07,0.00022285776686989687
PART_000_R31G119B180A255,9943,0.0001672171,-5.517371e-05,-5.517985e-05,8.856099e-06,-1.340447e-08,6.334112e-07,0.0002229249504351337
PART_002_R214G39B40A255,9944,0.0001672171,-5.51862e-05,-5.520165e-05,9.932607e-06,1.375442e-08,2.312774e-07,0.0002230757613486645
PART_003_R247G182B210A255,9945,0.0001254128,-4.140516e-05,-4.136457e-05,1.452033e-05,1.46565e-09,-1.261999e-07,0.0001686832238864573
PART_003_R247G182B210A255,9946,0.0001254128,-4.138626e-05,-4.13917e-05,1.331918e-05,-1.466136e-08,-3.183533e-07,0.00016839043972957044
PART_003_R247G182B210A255,9947,0.0001254128,-4.137854e-05,-4.138842e-05,1.24938e-05,5.811827e-09,-4.059902e-07,0.0001681956562929872
PART_000_R31G119B180A255,9948,0.0001254128,-4.138852e-05,-4.137754e-05,1.198339e-05,1.559611e-09,-3.623562e-07,0.00016808345491698375
PART_000_R31G119B180A255,9949,0.0001254128,-4.138843e-05,-4.137919e-05,1.170197e-05,1.265246e-09,-2.069281e-07,0.00016802394454269384
PART_000_R31G119B180A255,9950,0.0001254128,-4.138905e-05,-4.137605e-05,1.161084e-05,1.538768e-12,-1.912313e-12,0.00016800334438602503
PART_000_R31G119B180A255,9951,0.0001254128,-4.138843e-05,-4.137919e-05,1.170197e-05,-1.262386e-09,2.069244e-07,0.00016802394452895933
PART_000_R31G119B180A255,9952,0.0001254128,-4.138851e-05,-4.137754e-05,1.198339e-05,-1.557006e-09,3.623529e-07,0.00016808344993338227
PART_000_R31G119B180A255,9953,0.0001254128,-4.137854e-05,-4.138842e-05,1.24938e-05,-5.809889e-09,4.059875e-07,0.00016819565627323467
PART_002_R214G39B40A255,9954,0.0001254128,-4.138626e-05,-4.13917e-05,1.331919e-05,1.466265e-08,3.183515e-07,0.00016839044209260952
PART_002_R214G39B40A255,9955,0.0001254128,-4.140516e-05,-4.136457e-05,1.452033e-05,-1.465304e-09,1.261992e-07,0.00016868322388487717
PART_003_R247G182B210A255,9956,8.360855e-05,-2.759416e-05,-2.759618e-05,1.772536e-05,-5.835323e-09,-5.843258e-08,0.00011536395819986283
PART_003_R247G182B210A255,9957,8.360855e-05,-2.75938e-05,-2.758541e-05,1.645285e-05,4.698209e-10,-1.613816e-07,0.00011479197132330401
PART_003_R247G182B210A255,9958,8.360855e-05,-2.759059e-05,-2.759107e-05,1.553576e-05,-1.112195e-08,-2.068047e-07,0.00011440939779814917
PART_003_R247G182B210A255,9959,8.360855e-05,-2.758641e-05,-2.759188e-05,1.492193e-05,1.723978e-09,-1.868194e-07,0.00011416227088626676
PART_000_R31G119B180A255,9960,8.360855e-05,-2.759227e-05,-2.758514e-05,1.457597e-05,-1.684249e-09,-1.104256e-07,0.00011402737764210353
PART_000_R31G119B180A255,9961,8.360855e-05,-2.759027e-05,-2.758811e-05,1.446381e-05,1.880385e-12,-1.347485e-12,0.00011398483576228513
PART_000_R31G119B180A255,9962,8.360855e-05,-2.759227e-05,-2.758514e-05,1.457597e-05,1.687774e-09,1.104229e-07,0.00011402737763441584
PART_000_R31G119B180A255,9963,8.360855e-05,-2.75864e-05,-2.759188e-05,1.492194e-05,-1.72073e-09,1.868171e-07,0.00011416226992627202
PART_002_R214G39B40A255,9964,8.360855e-05,-2.759059e-05,-2.759107e-05,1.553577e-05,1.112448e-08,2.068028e-07,0.00011440940186231343
PART_002_R214G39B40A255,9965,8.360855e-05,-2.75938e-05,-2.758541e-05,1.645285e-05,-4.680165e-10,1.613803e-07,0.00011479197131779907
PART_002_R214G39B40A255,9966,8.360855e-05,-2.759415e-05,-2.759618e-05,1.772537e-05,5.83593e-09,5.843211e-08,0.00011536395798910192
PART_003_R247G182B210A255,9967,4.180428e-05,-1.3801e-05,-1.378956e-05,1.962261e-05,-7.710699e-10,-2.573136e-08,6.516481894456094e-05
PART_003_R247G182B210A255,9968,4.180428e-05,-1.379573e-05,-1.379725e-05,1.832412e-05,-1.128733e-08,-6.642324e-08,6.402171011462277e-05
PART_003_R247G182B210A255,9969,4.180428e-05,-1.379427e-05,-1.379512e-05,1.735703e-05,-7.84125e-10,-8.711355e-08,6.320655235821313e-05
PART_003_R247G182B210A255,9970,4.180428e-05,-1.379546e-05,-1.37943e-05,1.66989e-05,-8.771235e-09,-7.935305e-08,6.26725258695397e-05
PART_003_R247G182B210A255,9971,4.180428e-05,-1.379346e-05,-1.379571e-05,1.631658e-05,1.530502e-10,-4.673638e-08,6.236932494994812e-05
PART_000_R31G119B180A255,9972,4.180428e-05,-1.379611e-05,-1.37926e-05,1.619261e-05,2.086437e-12,-6.949154e-13,6.227206499659069e-05
PART_000_R31G119B180A255,9973,4.180427e-05,-1.379346e-05,-1.379571e-05,1.631658e-05,-1.491272e-10,4.673502e-08,6.236931603240572e-05
PART_002_R214G39B40A255,9974,4.180427e-05,-1.379546e-05,-1.37943e-05,1.66989e-05,8.774864e-09,7.935184e-08,6.267251699509083e-05
PART_002_R214G39B40A255,9975,4.180427e-05,-1.379427e-05,-1.379512e-05,1.735703e-05,7.869582e-10,8.711256e-08,6.320654355783141e-05
PART_002_R214G39B40A255,9976,4.180427e-05,-1.379573e-05,-1.379725e-05,1.832412e-05,1.128931e-08,6.642257e-08,6.402170142891063e-05
PART_002_R214G39B40A255,9977,4.180427e-05,-1.3801e-05,-1.378956e-05,1.962261e-05,7.716836e-10,2.573112e-08,6.516481041215493e-05
PART_003_R247G182B210A255,9978,-1.67495e-13,-4.905798e-14,1.099987e-13,2.025232e-05,-4.535019e-09,1.671582e-14,3.507804809059923e-05
PART_003_R247G182B210A255,9979,-1.409659e-13,2.398082e-13,2.184455e-14,1.894418e-05,-1.90813e-09,2.822668e-14,3.281228243417517e-05
PART_003_R247G182B210A255,9980,-2.324011e-13,6.101786e-13,6.352404e-14,1.796588e-05,-1.206884e-08,2.685401e-14,3.11178239839147e-05
PART_003_R247G182B210A255,9981,-2.617349e-13,8.741896e-13,-2.318256e-15,1.72913e-05,-7.385467e-10,1.738764e-14,2.9949410156234376e-05
PART_003_R247G182B210A255,9982,-3.134221e-13,9.998946e-13,5.293307e-14,1.690023e-05,-5.012616e-09,1.165628e-14,2.9272058307158022e-05
PART_003_R247G182B210A255,9983,-2.942542e-13,1.031911e-12,-4.179412e-15,1.677112e-05,2.155017e-12,-2.483072e-15,2.9048431939834815e-05
PART_002_R214G39B40A255,9984,-3.144162e-13,9.996309e-13,5.340137e-14,1.690023e-05,5.016675e-09,-6.679286e-15,2.927205830924408e-05
PART_002_R214G39B40A255,9985,-2.675222e-13,8.913842e-13,-3.013775e-15,1.72913e-05,7.423176e-10,-2.173861e-14,2.994941015651406e-05
PART_002_R214G39B40A255,9986,-2.64692e-13,6.98816e-13,6.373725e-14,1.796588e-05,1.207183e-08,-2.615195e-14,3.111782398739409e-05
PART_002_R214G39B40A255,9987,-2.138882e-13,4.653777e-13,2.288828e-14,1.894418e-05,1.910295e-09,-3.183144e-14,3.281228243455309e-05
PART_002_R214G39B40A255,9988,-2.755634e-13,3.001766e-13,1.08248e-13,2.025233e-05,4.535756e-09,-1.289947e-14,3.507806541139274e-05
PART_003_R247G182B210A255,9989,-4.180428e-05,1.3801e-05,1.378956e-05,1.962261e-05,-7.710709e-10,2.573139e-08,6.516481894459652e-05
PART_003_R247G182B210A255,9990,-4.180428e-05,1.379573e-05,1.379725e-05,1.832412e-05,-1.128733e-08,6.642331e-08,6.402171011484066e-05
PART_003_R247G182B210A255,9991,-4.180428e-05,1.379427e-05,1.379512e-05,1.735703e-05,-7.841213e-10,8.711364e-08,6.32065523585851e-05
PART_003_R247G182B210A255,9992,-4.180427e-05,1.379546e-05,1.37943e-05,1.66989e-05,-8.771234e-09,7.935309e-08,6.267251699831447e-05
PART_003_R247G182B210A255,9993,-4.180427e-05,1.379346e-05,1.379571e-05,1.631658e-05,1.530503e-10,4.673641e-08,6.236931603555897e-05
PART_001_R158G218B229A255,9994,-4.180427e-05,1.379611e-05,1.37926e-05,1.619261e-05,2.086737e-12,6.872977e-13,6.227205606824793e-05
PART_001_R158G218B229A255,9995,-4.180427e-05,1.379346e-05,1.379571e-05,1.631658e-05,-1.491283e-10,-4.673504e-08,6.236931603245068e-05
PART_002_R214G39B40A255,9996,-4.180427e-05,1.379546e-05,1.37943e-05,1.66989e-05,8.774863e-09,-7.935189e-08,6.267251699528033e-05
PART_002_R214G39B40A255,9997,-4.180427e-05,1.379427e-05,1.379512e-05,1.735703e-05,7.869542e-10,-8.711263e-08,6.320654355812068e-05
PART_002_R214G39B40A255,9998,-4.180427e-05,1.379572e-05,1.379725e-05,1.832412e-05,1.128931e-08,-6.642265e-08,6.402169708700138e-05
PART_002_R214G39B40A255,9999,-4.180427e-05,1.3801e-05,1.378956e-05,1.962261e-05,7.716816e-10,-2.573115e-08,6.51648104121904e-05
PART_003_R247G182B210A255,10000,-8.360855e-05,2.759416e-05,2.759618e-05,1.772536e-05,-5.835315e-09,5.843262e-08,0.0001153639581999224
PART_003_R247G182B210A255,10001,-8.360855e-05,2.75938e-05,2.758541e-05,1.645285e-05,4.698266e-10,1.613816e-07,0.00011479197132330409
PART_003_R247G182B210A255,10002,-8.360855e-05,2.759059e-05,2.759107e-05,1.553576e-05,-1.112195e-08,2.068048e-07,0.00011440939779869144
PART_003_R247G182B210A255,10003,-8.360855e-05,2.758641e-05,2.759188e-05,1.492193e-05,1.72398e-09,1.868194e-07,0.00011416227088626685
PART_001_R158G218B229A255,10004,-8.360855e-05,2.759227e-05,2.758514e-05,1.457597e-05,-1.684251e-09,1.104256e-07,0.00011402737764210361
PART_001_R158G218B229A255,10005,-8.360855e-05,2.759027e-05,2.758811e-05,1.446381e-05,1.881994e-12,1.339057e-12,0.00011398483576228513
PART_001_R158G218B229A255,10006,-8.360855e-05,2.759227e-05,2.758514e-05,1.457597e-05,1.687772e-09,-1.10423e-07,0.00011402737763470626
PART_001_R158G218B229A255,10007,-8.360855e-05,2.758641e-05,2.759188e-05,1.492194e-05,-1.72073e-09,-1.868171e-07,0.00011416227479607173
PART_002_R214G39B40A255,10008,-8.360855e-05,2.759059e-05,2.759107e-05,1.553577e-05,1.112447e-08,-2.068028e-07,0.00011440940186231051
PART_002_R214G39B40A255,10009,-8.360855e-05,2.75938e-05,2.758541e-05,1.645285e-05,-4.680202e-10,-1.613804e-07,0.00011479197131822086
PART_002_R214G39B40A255,10010,-8.360855e-05,2.759415e-05,2.759618e-05,1.772537e-05,5.835925e-09,-5.843214e-08,0.00011536395798914675
PART_003_R247G182B210A255,10011,-0.0001254128,4.140516e-05,4.136457e-05,1.452033e-05,1.465643e-09,1.261999e-07,0.0001686832238864571
PART_003_R247G182B210A255,10012,-0.0001254128,4.138626e-05,4.13917e-05,1.331918e-05,-1.466135e-08,3.183533e-07,0.00016839043972956784
PART_003_R247G182B210A255,10013,-0.0001254128,4.137854e-05,4.138842e-05,1.24938e-05,5.811833e-09,4.059903e-07,0.00016819565629371197
PART_001_R158G218B229A255,10014,-0.0001254128,4.138851e-05,4.137754e-05,1.198339e-05,1.559609e-09,3.623562e-07,0.0001680834499547971
PART_001_R158G218B229A255,10015,-0.0001254128,4.138843e-05,4.137919e-05,1.170197e-05,1.265245e-09,2.069282e-07,0.00016802394454306328
PART_001_R158G218B229A255,10016,-0.0001254128,4.138905e-05,4.137605e-05,1.161084e-05,1.540498e-12,1.910274e-12,0.00016800334438602503
PART_001_R158G218B229A255,10017,-0.0001254128,4.138843e-05,4.137919e-05,1.170198e-05,-1.262389e-09,-2.069244e-07,0.0001680239466183
PART_001_R158G218B229A255,10018,-0.0001254128,4.138851e-05,4.137754e-05,1.198339e-05,-1.557002e-09,-3.623529e-07,0.00016808344993338216
PART_001_R158G218B229A255,10019,-0.0001254128,4.137854e-05,4.138842e-05,1.24938e-05,-5.809898e-09,-4.059876e-07,0.00016819565627395973
PART_002_R214G39B40A255,10020,-0.0001254128,4.138626e-05,4.13917e-05,1.331919e-05,1.466265e-08,-3.183515e-07,0.00016839044209260952
PART_002_R214G39B40A255,10021,-0.0001254128,4.140516e-05,4.136457e-05,1.452033e-05,-1.465306e-09,-1.261993e-07,0.00016868322388510166
PART_003_R247G182B210A255,10022,-0.0001672171,5.51862e-05,5.520166e-05,9.932604e-06,-1.375417e-08,2.312783e-07,0.00022307576593630645
PART_003_R247G182B210A255,10023,-0.0001672171,5.517372e-05,5.517985e-05,8.856097e-06,1.340529e-08,6.334134e-07,0.00022292495520355595
PART_001_R158G218B229A255,10024,-0.0001672171,5.518508e-05,5.516727e-05,8.266721e-06,9.58327e-09,7.743521e-07,0.00022285776668189004
PART_001_R158G218B229A255,10025,-0.0001672171,5.518909e-05,5.51676e-05,7.924962e-06,2.816459e-09,6.407651e-07,0.0002228214108535239
PART_001_R158G218B229A255,10026,-0.0001672171,5.518536e-05,5.516739e-05,7.736566e-06,2.35011e-09,3.580905e-07,0.00022279767958435065
PART_001_R158G218B229A255,10027,-0.0001672171,5.519078e-05,5.516642e-05,7.679059e-06,1.06211e-12,2.380742e-12,0.00022279306915818468
PART_001_R158G218B229A255,10028,-0.0001672171,5.518536e-05,5.516739e-05,7.736566e-06,-2.348203e-09,-3.580861e-07,0.00022279767956307484
PART_001_R158G218B229A255,10029,-0.0001672171,5.518909e-05,5.51676e-05,7.924963e-06,-2.814683e-09,-6.40761e-07,0.00022282141092478498
PART_001_R158G218B229A255,10030,-0.0001672171,5.518508e-05,5.516727e-05,8.266723e-06,-9.582035e-09,-7.743489e-07,0.00022285776687093914
PART_001_R158G218B229A255,10031,-0.0001672171,5.517371e-05,5.517984e-05,8.856099e-06,-1.340447e-08,-6.334112e-07,0.0002229249454468387
PART_002_R214G39B40A255,10032,-0.0001672171,5.51862e-05,5.520166e-05,9.932607e-06,1.375441e-08,-2.312774e-07,0.0002230757663342829
PART_003_R247G182B210A255,10033,-0.0002090214,6.901824e-05,6.891359e-05,3.64802e-06,2.116339e-08,6.234952e-07,0.00027806122931262425
PART_001_R158G218B229A255,10034,-0.0002090214,6.897862e-05,6.894799e-05,3.134943e-06,1.30313e-08,1.347985e-06,0.00027804753590087697
PART_001_R158G218B229A255,10035,-0.0002090214,6.899843e-05,6.894705e-05,2.93875e-06,2.550536e-09,1.372505e-06,0.0002780509017039797
PART_001_R158G218B229A255,10036,-0.0002090214,6.898055e-05,6.89581e-05,2.809206e-06,3.047367e-09,1.070269e-06,0.0002780394844876087
PART_001_R158G218B229A255,10037,-0.0002090214,6.899243e-05,6.895441e-05,2.747208e-06,4.295746e-10,5.77617e-07,0.0002780373417566571
PART_001_R158G218B229A255,10038,-0.0002090214,6.898118e-05,6.895983e-05,2.724423e-06,4.067311e-13,2.664287e-12,0.00027803195325257977
PART_001_R158G218B229A255,10039,-0.0002090214,6.899243e-05,6.895441e-05,2.747208e-06,-4.289238e-10,-5.776123e-07,0.00027803734172736176
PART_001_R158G218B229A255,10040,-0.0002090214,6.898055e-05,6.89581e-05,2.809206e-06,-3.046692e-09,-1.070264e-06,0.00027803948442984655
PART_001_R158G218B229A255,10041,-0.0002090214,6.899843e-05,6.894705e-05,2.93875e-06,-2.550174e-09,-1.372502e-06,0.0002780509016595443
PART_001_R158G218B229A255,10042,-0.0002090214,6.897862e-05,6.894799e-05,3.134944e-06,-1.303102e-08,-1.347982e-06,0.00027804753589102986
PART_001_R158G218B229A255,10043,-0.0002090214,6.901824e-05,6.891359e-05,3.648021e-06,-2.116348e-08,-6.234945e-07,0.00027806122934729443
PART_003_R247G182B210A255,10044,0.0002044774,-6.751785e-05,-6.741546e-05,3.64802e-06,2.070362e-08,-6.234954e-07,0.0002720196106677778
PART_000_R31G119B180A255,10045,0.0002044774,-6.747909e-05,-6.744912e-05,3.134943e-06,1.274794e-08,-1.347985e-06,0.00027200573173439933
PART_000_R31G119B180A255,10046,0.0002044774,-6.749847e-05,-6.74482e-05,2.93875e-06,2.495297e-09,-1.372506e-06,0.0002720087576786307
PART_000_R31G119B180A255,10047,0.0002044774,-6.748098e-05,-6.745901e-05,2.809206e-06,2.981106e-09,-1.070269e-06,0.00027199723781355954
PART_000_R31G119B180A255,10048,0.0002044774,-6.74926e-05,-6.74554e-05,2.747208e-06,4.204135e-10,-5.776179e-07,0.0002719948664645553
PART_000_R31G119B180A255,10049,0.0002044774,-6.748159e-05,-6.746071e-05,2.724423e-06,4.103378e-13,-3.159274e-12,0.00027198948806182217
PART_000_R31G119B180A255,10050,0.0002044774,-6.749259e-05,-6.74554e-05,2.747208e-06,-4.194466e-10,5.776113e-07,0.00027199486142227646
PART_000_R31G119B180A255,10051,0.0002044774,-6.748098e-05,-6.745901e-05,2.809206e-06,-2.980442e-09,1.070264e-06,0.0002719972377545151
PART_000_R31G119B180A255,10052,0.0002044774,-6.749847e-05,-6.74482e-05,2.93875e-06,-2.494626e-09,1.372501e-06,0.0002720087576029251
PART_000_R31G119B180A255,10053,0.0002044774,-6.747908e-05,-6.744912e-05,3.134944e-06,-1.274773e-08,1.347982e-06,0.0002720057267246986
PART_000_R31G119B180A255,10054,0.0002044774,-6.751784e-05,-6.741546e-05,3.648021e-06,-2.070337e-08,6.234942e-07,0.00027201960569826766
PART_003_R247G182B210A255,10055,0.0001635819,-5.39865e-05,-5.400162e-05,9.932605e-06,-1.345521e-08,-2.312783e-07,0.00021825542256659892
PART_003_R247G182B210A255,10056,0.0001635819,-5.397429e-05,-5.398029e-05,8.856097e-06,1.311384e-08,-6.334138e-07,0.00021810203276842886
PART_000_R31G119B180A255,10057,0.0001635819,-5.398541e-05,-5.396798e-05,8.26672e-06,9.37514e-09,-7.743525e-07,0.00021803338642044118
PART_000_R31G119B180A255,10058,0.0001635819,-5.398933e-05,-5.396831e-05,7.924962e-06,2.75535e-09,-6.407656e-07,0.00021799613310983598
PART_000_R31G119B180A255,10059,0.0001635819,-5.398568e-05,-5.396809e-05,7.736566e-06,2.299327e-09,-3.580912e-07,0.0002179719551385743
PART_000_R31G119B180A255,10060,0.0001635819,-5.399098e-05,-5.396715e-05,7.679059e-06,1.200599e-12,-2.92517e-12,0.00021796714834811546
PART_000_R31G119B180A255,10061,0.0001635819,-5.398568e-05,-5.396809e-05,7.736566e-06,-2.29685e-09,3.580854e-07,0.00021797195510991088
PART_000_R31G119B180A255,10062,0.0001635819,-5.398933e-05,-5.39683e-05,7.924963e-06,-2.753358e-09,6.407605e-07,0.00021799612818455981
PART_000_R31G119B180A255,10063,0.0001635819,-5.39854e-05,-5.396798e-05,8.266723e-06,-9.373496e-09,7.743483e-07,0.000218033381727003
PART_000_R31G119B180A255,10064,0.0001635819,-5.397428e-05,-5.398028e-05,8.8561e-06,-1.311303e-08,6.33411e-07,0.00021810202313422456
PART_002_R214G39B40A255,10065,0.0001635819,-5.39865e-05,-5.400162e-05,9.932607e-06,1.345549e-08,2.312773e-07,0.00021825542283652625
PART_003_R247G182B210A255,10066,0.0001226865,-4.050505e-05,-4.046534e-05,1.452033e-05,1.434012e-09,-1.262e-07,0.00016509867039819542
PART_003_R247G182B210A255,10067,0.0001226865,-4.048656e-05,-4.049188e-05,1.331918e-05,-1.434245e-08,-3.183535e-07,0.00016479933844021615
PART_003_R247G182B210A255,10068,0.0001226865,-4.047901e-05,-4.048867e-05,1.24938e-05,5.685816e-09,-4.059905e-07,0.00016460054563356127
PART_000_R31G119B180A255,10069,0.0001226865,-4.048876e-05,-4.047803e-05,1.198339e-05,1.525952e-09,-3.623567e-07,0.00016448590682017927
PART_000_R31G119B180A255,10070,0.0001226865,-4.048868e-05,-4.047964e-05,1.170197e-05,1.238126e-09,-2.069286e-07,0.0001644250623071339
PART_000_R31G119B180A255,10071,0.0001226865,-4.048929e-05,-4.047657e-05,1.161084e-05,1.782691e-12,-2.414282e-12,0.0001644040687586245
PART_000_R31G119B180A255,10072,0.0001226865,-4.048868e-05,-4.047964e-05,1.170198e-05,-1.234553e-09,2.06924e-07,0.0001644250644247576
PART_000_R31G119B180A255,10073,0.0001226865,-4.048876e-05,-4.047803e-05,1.198339e-05,-1.522918e-09,3.623525e-07,0.00016448590679233772
PART_000_R31G119B180A255,10074,0.0001226865,-4.047901e-05,-4.048867e-05,1.24938e-05,-5.683281e-09,4.059872e-07,0.0001646005456088802
PART_002_R214G39B40A255,10075,0.0001226865,-4.048656e-05,-4.049188e-05,1.331919e-05,1.434401e-08,3.183513e-07,0.0001647993408524925
PART_002_R214G39B40A255,10076,0.0001226865,-4.050505e-05,-4.046534e-05,1.452034e-05,-1.433318e-09,1.261991e-07,0.00016509867303459658
PART_003_R247G182B210A255,10077,8.179098e-05,-2.699428e-05,-2.699626e-05,1.772536e-05,-5.70843e-09,-5.843261e-08,0.00011303549749640532
PART_003_R247G182B210A255,10078,8.179097e-05,-2.699394e-05,-2.698573e-05,1.645285e-05,4.596482e-10,-1.613818e-07,0.0001124519032264841
PART_003_R247G182B210A255,10079,8.179097e-05,-2.69908e-05,-2.699126e-05,1.553576e-05,-1.087986e-08,-2.068049e-07,0.00011206128546650513
PART_003_R247G182B210A255,10080,8.179097e-05,-2.69867e-05,-2.699206e-05,1.492193e-05,1.686772e-09,-1.868197e-07,0.00011180903928475965
PART_000_R31G119B180A255,10081,8.179097e-05,-2.699244e-05,-2.698546e-05,1.457597e-05,-1.647189e-09,-1.104259e-07,0.00011167132275498159
PART_000_R31G119B180A255,10082,8.179097e-05,-2.699048e-05,-2.698837e-05,1.446381e-05,2.175609e-12,-1.691066e-12,0.00011162786273526616
PART_000_R31G119B180A255,10083,8.179097e-05,-2.699244e-05,-2.698546e-05,1.457597e-05,1.65154e-09,1.104226e-07,0.00011167132274538494
PART_000_R31G119B180A255,10084,8.179097e-05,-2.69867e-05,-2.699206e-05,1.492194e-05,-1.683025e-09,1.868168e-07,0.00011180904327382694
PART_002_R214G39B40A255,10085,8.179097e-05,-2.69908e-05,-2.699126e-05,1.553577e-05,1.088301e-08,2.068025e-07,0.00011206128961322522
PART_002_R214G39B40A255,10086,8.179097e-05,-2.699394e-05,-2.698572e-05,1.645285e-05,-4.577019e-10,1.613802e-07,0.00011245189838334935
PART_002_R214G39B40A255,10087,8.179097e-05,-2.699428e-05,-2.699626e-05,1.772537e-05,5.709194e-09,5.843204e-08,0.00011303549257593026
PART_003_R247G182B210A255,10088,4.089549e-05,-1.350098e-05,-1.348978e-05,1.962261e-05,-7.540573e-10,-2.57314e-08,6.413664546180947e-05
PART_003_R247G182B210A255,10089,4.089549e-05,-1.349582e-05,-1.349731e-05,1.832412e-05,-1.10417e-08,-6.642334e-08,6.297483125859891e-05
PART_003_R247G182B210A255,10090,4.089549e-05,-1.349439e-05,-1.349523e-05,1.735702e-05,-7.666461e-10,-8.711369e-08,6.214600496096748e-05
PART_003_R247G182B210A255,10091,4.089549e-05,-1.349556e-05,-1.349443e-05,1.66989e-05,-8.58023e-09,-7.935323e-08,6.16027901542558e-05
PART_003_R247G182B210A255,10092,4.089549e-05,-1.34936e-05,-1.34958e-05,1.631658e-05,1.502123e-10,-4.673655e-08,6.12943037609394e-05
PART_000_R31G119B180A255,10093,4.089549e-05,-1.349619e-05,-1.349276e-05,1.619261e-05,2.405375e-12,-8.687706e-13,6.11953442457939e-05
PART_000_R31G119B180A255,10094,4.089549e-05,-1.34936e-05,-1.34958e-05,1.631658e-05,-1.453898e-10,4.673489e-08,6.129430375710736e-05
PART_002_R214G39B40A255,10095,4.089549e-05,-1.349556e-05,-1.349443e-05,1.66989e-05,8.584431e-09,7.935171e-08,6.160279015013773e-05
PART_002_R214G39B40A255,10096,4.089548e-05,-1.349439e-05,-1.349523e-05,1.735703e-05,7.702569e-10,8.711247e-08,6.214600458278212e-05
PART_002_R214G39B40A255,10097,4.089548e-05,-1.349582e-05,-1.349731e-05,1.832412e-05,1.104407e-08,6.642251e-08,6.297482262010945e-05
PART_002_R214G39B40A255,10098,4.089548e-05,-1.350098e-05,-1.348978e-05,1.962261e-05,7.550763e-10,2.57311e-08,6.413663698101767e-05
PART_003_R247G182B210A255,10099,-8.714026e-14,-7.643886e-14,8.353078e-14,2.025232e-05,-4.43637e-09,1.115539e-14,3.507804805275425e-05
PART_003_R247G182B210A255,10100,6.2313e-14,-4.663353e-13,1.182664e-13,1.894418e-05,-1.866593e-09,2.891558e-14,3.281228242700755e-05
PART_003_R247G182B210A255,10101,2.886682e-13,-9.400952e-13,4.254073e-14,1.796587e-05,-1.180612e-08,1.75327e-14,3.1117806361054914e-05
PART_003_R247G182B210A255,10102,3.92068e-13,-1.270192e-12,1.07795e-13,1.72913e-05,-7.221832e-10,6.792004e-15,2.994941015503725e-05
PART_003_R247G182B210A255,10103,4.781419e-13,-1.424721e-12,5.504394e-14,1.690023e-05,-4.90315e-09,-4.969277e-15,2.9272058251536445e-05
PART_003_R247G182B210A255,10104,4.644375e-13,-1.463538e-12,1.207283e-13,1.677112e-05,2.483627e-12,4.028393e-15,2.9048431939834923e-05
PART_002_R214G39B40A255,10105,4.797075e-13,-1.424486e-12,5.419744e-14,1.690023e-05,4.908124e-09,-1.980834e-15,2.9272058254037187e-05
PART_002_R214G39B40A255,10106,3.987052e-13,-1.290162e-12,1.091386e-13,1.72913e-05,7.265184e-10,2.745276e-16,2.99494101553518e-05
PART_002_R214G39B40A255,10107,3.285702e-13,-1.046427e-12,4.183187e-14,1.796588e-05,1.180981e-08,-1.894249e-14,3.111782368575987e-05
PART_002_R214G39B40A255,10108,1.519347e-13,-7.429335e-13,1.175107e-13,1.894418e-05,1.868932e-09,-2.362827e-14,3.2812282427406986e-05
PART_002_R214G39B40A255,10109,4.674299e-14,-5.086209e-13,8.581838e-14,2.025233e-05,4.437304e-09,-1.589865e-14,3.507806537361633e-05
PART_003_R247G182B210A255,10110,-4.089549e-05,1.350098e-05,1.348978e-05,1.962261e-05,-7.540512e-10,2.573142e-08,6.413664546183333e-05
PART_003_R247G182B210A255,10111,-4.089549e-05,1.349582e-05,1.349731e-05,1.832412e-05,-1.104169e-08,6.642337e-08,6.297483125868859e-05
PART_003_R247G182B210A255,10112,-4.089549e-05,1.349439e-05,1.349523e-05,1.735702e-05,-7.666434e-10,8.711369e-08,6.214600496096738e-05
PART_003_R247G182B210A255,10113,-4.089549e-05,1.349556e-05,1.349443e-05,1.66989e-05,-8.580229e-09,7.935323e-08,6.160279015425538e-05
PART_003_R247G182B210A255,10114,-4.089549e-05,1.34936e-05,1.34958e-05,1.631658e-05,1.50213e-10,4.673653e-08,6.129430376089365e-05
PART_001_R158G218B229A255,10115,-4.089549e-05,1.34962e-05,1.349276e-05,1.619261e-05,2.404361e-12,8.799106e-13,6.119534869017759e-05
PART_001_R158G218B229A255,10116,-4.089549e-05,1.34936e-05,1.34958e-05,1.631658e-05,-1.453895e-10,-4.673488e-08,6.129430375708448e-05
PART_002_R214G39B40A255,10117,-4.089549e-05,1.349556e-05,1.349443e-05,1.66989e-05,8.584428e-09,-7.93517e-08,6.160279015009784e-05
PART_002_R214G39B40A255,10118,-4.089549e-05,1.349439e-05,1.349523e-05,1.735703e-05,7.702547e-10,-8.711249e-08,6.214601333488352e-05
PART_002_R214G39B40A255,10119,-4.089549e-05,1.349582e-05,1.349731e-05,1.832412e-05,1.104406e-08,-6.642254e-08,6.297483125730901e-05
PART_002_R214G39B40A255,10120,-4.089548e-05,1.350098e-05,1.348978e-05,1.962261e-05,7.55074e-10,-2.573112e-08,6.413663698104167e-05
PART_003_R247G182B210A255,10121,-8.179097e-05,2.699428e-05,2.699626e-05,1.772536e-05,-5.70843e-09,5.843263e-08,0.00011303548787235789
PART_003_R247G182B210A255,10122,-8.179097e-05,2.699394e-05,2.698573e-05,1.645285e-05,4.596553e-10,1.613819e-07,0.00011245190322691471
PART_003_R247G182B210A255,10123,-8.179097e-05,2.69908e-05,2.699126e-05,1.553576e-05,-1.087985e-08,2.068049e-07,0.00011206128546650221
PART_003_R247G182B210A255,10124,-8.179097e-05,2.69867e-05,2.699206e-05,1.492193e-05,1.686771e-09,1.868198e-07,0.00011180903928526086
PART_001_R158G218B229A255,10125,-8.179097e-05,2.699244e-05,2.698546e-05,1.457597e-05,-1.647187e-09,1.104259e-07,0.0001116713227549815
PART_001_R158G218B229A255,10126,-8.179097e-05,2.699048e-05,2.698837e-05,1.446381e-05,2.172372e-12,1.701032e-12,0.00011162786273526616
PART_001_R158G218B229A255,10127,-8.179097e-05,2.699244e-05,2.698546e-05,1.457597e-05,1.651542e-09,-1.104226e-07,0.00011167132274538503
PART_001_R158G218B229A255,10128,-8.179097e-05,2.69867e-05,2.699206e-05,1.492194e-05,-1.68303e-09,-1.868168e-07,0.00011180904327382718
PART_002_R214G39B40A255,10129,-8.179097e-05,2.699079e-05,2.699126e-05,1.553577e-05,1.088301e-08,-2.068025e-07,0.00011206128475957314
PART_002_R214G39B40A255,10130,-8.179097e-05,2.699394e-05,2.698573e-05,1.645285e-05,-4.577128e-10,-1.613802e-07,0.00011245190321957187
PART_002_R214G39B40A255,10131,-8.179097e-05,2.699428e-05,2.699626e-05,1.772537e-05,5.709193e-09,-5.843207e-08,0.00011303549257597663
PART_003_R247G182B210A255,10132,-0.0001226865,4.050505e-05,4.046534e-05,1.452033e-05,1.434029e-09,1.262e-07,0.00016509867039819588
PART_003_R247G182B210A255,10133,-0.0001226865,4.048656e-05,4.049189e-05,1.331918e-05,-1.434244e-08,3.183536e-07,0.00016479934339177493
PART_003_R247G182B210A255,10134,-0.0001226865,4.047901e-05,4.048867e-05,1.24938e-05,5.685814e-09,4.059905e-07,0.00016460054563356105
PART_001_R158G218B229A255,10135,-0.0001226865,4.048877e-05,4.047803e-05,1.198339e-05,1.525952e-09,3.623567e-07,0.00016448591178066496
PART_001_R158G218B229A255,10136,-0.0001226865,4.048868e-05,4.047964e-05,1.170197e-05,1.238126e-09,2.069286e-07,0.0001644250623071339
PART_001_R158G218B229A255,10137,-0.0001226865,4.048929e-05,4.047657e-05,1.161084e-05,1.779208e-12,2.411188e-12,0.0001644040687586245
PART_001_R158G218B229A255,10138,-0.0001226865,4.048868e-05,4.047964e-05,1.170198e-05,-1.234547e-09,-2.069239e-07,0.00016442506442437995
PART_001_R158G218B229A255,10139,-0.0001226865,4.048876e-05,4.047803e-05,1.198339e-05,-1.522924e-09,-3.623525e-07,0.00016448590679233788
PART_001_R158G218B229A255,10140,-0.0001226865,4.047901e-05,4.048867e-05,1.24938e-05,-5.683276e-09,-4.059871e-07,0.0001646005456081397
PART_002_R214G39B40A255,10141,-0.0001226865,4.048656e-05,4.049188e-05,1.331919e-05,1.4344e-08,-3.183513e-07,0.0001647993408524899
PART_002_R214G39B40A255,10142,-0.0001226865,4.050505e-05,4.046534e-05,1.452033e-05,-1.433324e-09,-1.261991e-07,0.00016509867039611365
PART_003_R247G182B210A255,10143,-0.0001635819,5.39865e-05,5.400162e-05,9.932605e-06,-1.345524e-08,2.312782e-07,0.00021825542256628656
PART_003_R247G182B210A255,10144,-0.0001635819,5.397429e-05,5.398029e-05,8.856097e-06,1.311385e-08,6.334139e-07,0.00021810203276930191
PART_001_R158G218B229A255,10145,-0.0001635819,5.39854e-05,5.396798e-05,8.266721e-06,9.375141e-09,7.743524e-07,0.00021803338154340927
PART_001_R158G218B229A255,10146,-0.0001635819,5.398933e-05,5.396831e-05,7.924962e-06,2.755343e-09,6.407657e-07,0.00021799613311071752
PART_001_R158G218B229A255,10147,-0.0001635819,5.398567e-05,5.396809e-05,7.736566e-06,2.299327e-09,3.580911e-07,0.00021797195014695394
PART_001_R158G218B229A255,10148,-0.0001635819,5.399098e-05,5.396715e-05,7.679059e-06,1.198964e-12,2.901739e-12,0.00021796714834811546
PART_001_R158G218B229A255,10149,-0.0001635819,5.398567e-05,5.396809e-05,7.736566e-06,-2.296847e-09,-3.580853e-07,0.00021797195011829048
PART_001_R158G218B229A255,10150,-0.0001635819,5.398933e-05,5.396831e-05,7.924964e-06,-2.753355e-09,-6.407606e-07,0.00021799613328379248
PART_001_R158G218B229A255,10151,-0.0001635819,5.39854e-05,5.396798e-05,8.266723e-06,-9.373496e-09,-7.743482e-07,0.00021803338172593755
PART_001_R158G218B229A255,10152,-0.0001635819,5.397428e-05,5.398029e-05,8.8561e-06,-1.311304e-08,-6.334111e-07,0.00021810202812285942
PART_002_R214G39B40A255,10153,-0.0001635819,5.39865e-05,5.400161e-05,9.932607e-06,1.34555e-08,-2.312773e-07,0.00021825541785157448
PART_003_R247G182B210A255,10154,-0.0002044774,6.751785e-05,6.741546e-05,3.648019e-06,2.070373e-08,6.234954e-07,0.0002720196106275703
PART_001_R158G218B229A255,10155,-0.0002044774,6.747909e-05,6.744913e-05,3.134943e-06,1.274788e-08,1.347985e-06,0.0002720057367323841
PART_001_R158G218B229A255,10156,-0.0002044774,6.749847e-05,6.74482e-05,2.93875e-06,2.495331e-09,1.372505e-06,0.0002720087576634942
PART_001_R158G218B229A255,10157,-0.0002044774,6.748098e-05,6.745902e-05,2.809206e-06,2.981082e-09,1.070269e-06,0.00027199724281203687
PART_001_R158G218B229A255,10158,-0.0002044774,6.74926e-05,6.74554e-05,2.747208e-06,4.204206e-10,5.776178e-07,0.0002719948664639182
PART_001_R158G218B229A255,10159,-0.0002044774,6.748159e-05,6.746071e-05,2.724423e-06,4.11888e-13,3.118845e-12,0.00027198948806182217
PART_001_R158G218B229A255,10160,-0.0002044774,6.74926e-05,6.74554e-05,2.747208e-06,-4.194566e-10,-5.776112e-07,0.000271994866421866
PART_001_R158G218B229A255,10161,-0.0002044774,6.748098e-05,6.745902e-05,2.809206e-06,-2.980416e-09,-1.070264e-06,0.0002719972427529923
PART_001_R158G218B229A255,10162,-0.0002044774,6.749847e-05,6.74482e-05,2.93875e-06,-2.494662e-09,-1.372501e-06,0.00027200875760292616
PART_001_R158G218B229A255,10163,-0.0002044774,6.747908e-05,6.744912e-05,3.134944e-06,-1.274767e-08,-1.347982e-06,0.0002720057267246902
PART_001_R158G218B229A255,10164,-0.0002044774,6.751784e-05,6.741546e-05,3.648021e-06,-2.070345e-08,-6.234942e-07,0.00027201960569828593
PART_003_R247G182B210A255,10165,0.0001999335,-6.601745e-05,-6.591734e-05,3.64802e-06,2.024324e-08,-6.234954e-07,0.0002659781665794752
PART_000_R31G119B180A255,10166,0.0001999335,-6.597955e-05,-6.595025e-05,3.134943e-06,1.246477e-08,-1.347985e-06,0.00026596408597037946
PART_000_R31G119B180A255,10167,0.0001999335,-6.599851e-05,-6.594935e-05,2.93875e-06,2.439743e-09,-1.372506e-06,0.0002659667709177948
PART_000_R31G119B180A255,10168,0.0001999335,-6.59814e-05,-6.595993e-05,2.809206e-06,2.91505e-09,-1.07027e-06,0.00026595514036060753
PART_000_R31G119B180A255,10169,0.0001999335,-6.599276e-05,-6.595639e-05,2.747208e-06,4.110457e-10,-5.776185e-07,0.0002659525290866315
PART_000_R31G119B180A255,10170,0.0001999335,-6.5982e-05,-6.596158e-05,2.724423e-06,6.060165e-13,-4.350279e-12,0.00026594715829420933
PART_000_R31G119B180A255,10171,0.0001999335,-6.599276e-05,-6.595639e-05,2.747208e-06,-4.101387e-10,5.776108e-07,0.00026595252903645713
PART_000_R31G119B180A255,10172,0.0001999335,-6.59814e-05,-6.595992e-05,2.809206e-06,-2.914018e-09,1.070263e-06,0.0002659551352776286
PART_000_R31G119B180A255,10173,0.0001999335,-6.59985e-05,-6.594935e-05,2.938751e-06,-2.439229e-09,1.3725e-06,0.0002659667658577703
PART_000_R31G119B180A255,10174,0.0001999335,-6.597955e-05,-6.595025e-05,3.134944e-06,-1.24643e-08,1.347981e-06,0.00026596408594485517
PART_000_R31G119B180A255,10175,0.0001999335,-6.601745e-05,-6.591734e-05,3.648021e-06,-2.024341e-08,6.234941e-07,0.00026597816661151825
PART_003_R247G182B210A255,10176,0.0001599468,-5.27868e-05,-5.280159e-05,9.932604e-06,-1.315609e-08,-2.312784e-07,0.0002134358497831458
PART_003_R247G182B210A255,10177,0.0001599468,-5.277486e-05,-5.278073e-05,8.856096e-06,1.282273e-08,-6.334141e-07,0.000213279743028666
PART_000_R31G119B180A255,10178,0.0001599468,-5.278573e-05,-5.276869e-05,8.26672e-06,9.166927e-09,-7.743531e-07,0.00021320956767273506
PART_000_R31G119B180A255,10179,0.0001599468,-5.278956e-05,-5.276901e-05,7.924962e-06,2.694461e-09,-6.407664e-07,0.00021317137329101416
PART_000_R31G119B180A255,10180,0.0001599468,-5.278599e-05,-5.27688e-05,7.736566e-06,2.248369e-09,-3.580918e-07,0.00021314673683829724
PART_000_R31G119B180A255,10181,0.0001599468,-5.279118e-05,-5.276788e-05,7.679059e-06,1.531745e-12,-3.750491e-12,0.00021314172684815355
PART_000_R31G119B180A255,10182,0.0001599468,-5.278599e-05,-5.27688e-05,7.736567e-06,-2.245668e-09,3.580848e-07,0.00021314673691182236
PART_000_R31G119B180A255,10183,0.0001599468,-5.278956e-05,-5.276901e-05,7.924964e-06,-2.691844e-09,6.407599e-07,0.00021317137345535964
PART_000_R31G119B180A255,10184,0.0001599468,-5.278573e-05,-5.276869e-05,8.266723e-06,-9.165106e-09,7.743479e-07,0.0002132095679647977
PART_000_R31G119B180A255,10185,0.0001599468,-5.277485e-05,-5.278072e-05,8.8561e-06,-1.282141e-08,6.334106e-07,0.00021327973352155413
PART_002_R214G39B40A255,10186,0.0001599468,-5.27868e-05,-5.280158e-05,9.932608e-06,1.315646e-08,2.312772e-07,0.00021343584535351233
PART_003_R247G182B210A255,10187,0.0001199601,-3.960494e-05,-3.956611e-05,1.452033e-05,1.401973e-09,-1.262e-07,0.00016151586709240234
PART_003_R247G182B210A255,10188,0.0001199601,-3.958686e-05,-3.959207e-05,1.331918e-05,-1.402359e-08,-3.183538e-07,0.00016120970819734665
PART_003_R247G182B210A255,10189,0.0001199601,-3.957948e-05,-3.958892e-05,1.24938e-05,5.559578e-09,-4.05991e-07,0.00016100671856617712
PART_000_R31G119B180A255,10190,0.0001199601,-3.958902e-05,-3.957852e-05,1.198339e-05,1.49241e-09,-3.623572e-07,0.00016088954397301192
PART_000_R31G119B180A255,10191,0.0001199601,-3.958894e-05,-3.958009e-05,1.170197e-05,1.210858e-09,-2.069292e-07,0.00016082730179718481
PART_000_R31G119B180A255,10192,0.0001199601,-3.958953e-05,-3.957709e-05,1.161084e-05,2.174178e-12,-2.939282e-12,0.00016080589108303882
PART_000_R31G119B180A255,10193,0.0001199601,-3.958894e-05,-3.958009e-05,1.170198e-05,-1.206861e-09,2.069234e-07,0.00016082730395754088
PART_000_R31G119B180A255,10194,0.0001199601,-3.958901e-05,-3.957851e-05,1.198339e-05,-1.48867e-09,3.623521e-07,0.00016088953402208902
PART_000_R31G119B180A255,10195,0.0001199601,-3.957947e-05,-3.958892e-05,1.24938e-05,-5.556801e-09,4.059868e-07,0.00016100671357997261
PART_002_R214G39B40A255,10196,0.0001199601,-3.958686e-05,-3.959206e-05,1.331919e-05,1.402552e-08,3.18351e-07,0.00016120970571111758
PART_002_R214G39B40A255,10197,0.0001199601,-3.960494e-05,-3.956611e-05,1.452034e-05,-1.401497e-09,1.26199e-07,0.0001615158697870568
PART_003_R247G182B210A255,10198,7.99734e-05,-2.639441e-05,-2.639634e-05,1.772536e-05,-5.581447e-09,-5.843272e-08,0.00011071084768797072
PART_003_R247G182B210A255,10199,7.99734e-05,-2.639407e-05,-2.638604e-05,1.645285e-05,4.498736e-10,-1.61382e-07,0.00011011517406934491
PART_003_R247G182B210A255,10200,7.99734e-05,-2.6391e-05,-2.639146e-05,1.553576e-05,-1.063782e-08,-2.068052e-07,0.00010971619149510378
PART_003_R247G182B210A255,10201,7.99734e-05,-2.6387e-05,-2.639224e-05,1.492193e-05,1.649751e-09,-1.868201e-07,0.00010945861657403966
PART_000_R31G119B180A255,10202,7.99734e-05,-2.639261e-05,-2.638579e-05,1.457597e-05,-1.610288e-09,-1.104263e-07,0.00010931795830351607
PART_000_R31G119B180A255,10203,7.997339e-05,-2.639069e-05,-2.638863e-05,1.446381e-05,2.618483e-12,-2.034731e-12,0.00010927352747867862
PART_000_R31G119B180A255,10204,7.997339e-05,-2.639261e-05,-2.638579e-05,1.457597e-05,1.615145e-09,1.104223e-07,0.00010931794856195478
PART_000_R31G119B180A255,10205,7.997339e-05,-2.638699e-05,-2.639223e-05,1.492194e-05,-1.645158e-09,1.868165e-07,0.00010945860121076667
PART_002_R214G39B40A255,10206,7.997339e-05,-2.6391e-05,-2.639146e-05,1.553577e-05,1.06414e-08,2.068023e-07,0.00010971618603320951
PART_002_R214G39B40A255,10207,7.997339e-05,-2.639407e-05,-2.638604e-05,1.645285e-05,-4.471924e-10,1.6138e-07,0.00011011516440122743
PART_002_R214G39B40A255,10208,7.997339e-05,-2.639441e-05,-2.639634e-05,1.772537e-05,5.582338e-09,5.843199e-08,0.00011071084288230065
PART_003_R247G182B210A255,10209,3.99867e-05,-1.320096e-05,-1.319001e-05,1.962261e-05,-7.374479e-10,-2.573143e-08,6.311487422857117e-05
PART_003_R247G182B210A255,10210,3.99867e-05,-1.319591e-05,-1.319737e-05,1.832412e-05,-1.079614e-08,-6.642345e-08,6.193384666215677e-05
PART_003_R247G182B210A255,10211,3.99867e-05,-1.319452e-05,-1.319533e-05,1.735702e-05,-7.494494e-10,-8.711386e-08,6.109096853163105e-05
PART_003_R247G182B210A255,10212,3.99867e-05,-1.319566e-05,-1.319455e-05,1.66989e-05,-8.389101e-09,-7.935341e-08,6.053827937457575e-05
PART_003_R247G182B210A255,10213,3.99867e-05,-1.319375e-05,-1.319589e-05,1.631658e-05,1.471842e-10,-4.673676e-08,6.022435532800243e-05
PART_000_R31G119B180A255,10214,3.99867e-05,-1.319628e-05,-1.319292e-05,1.619261e-05,2.878767e-12,-1.037653e-12,6.012364371853662e-05
PART_000_R31G119B180A255,10215,3.99867e-05,-1.319375e-05,-1.319589e-05,1.631658e-05,-1.418312e-10,4.673472e-08,6.0224355323214616e-05
PART_002_R214G39B40A255,10216,3.99867e-05,-1.319566e-05,-1.319455e-05,1.66989e-05,8.394172e-09,7.93516e-08,6.053827936956698e-05
PART_002_R214G39B40A255,10217,3.99867e-05,-1.319452e-05,-1.319533e-05,1.735703e-05,7.533902e-10,8.711236e-08,6.109097704888983e-05
PART_002_R214G39B40A255,10218,3.99867e-05,-1.319591e-05,-1.319737e-05,1.832413e-05,1.079899e-08,6.642244e-08,6.19338555363798e-05
PART_002_R214G39B40A255,10219,3.99867e-05,-1.320096e-05,-1.319001e-05,1.962261e-05,7.382794e-10,2.573106e-08,6.31148742281478e-05
PART_003_R247G182B210A255,10220,-7.071351e-14,-3.345518e-13,1.939294e-13,2.025232e-05,-4.337661e-09,2.139859e-15,3.507804801571931e-05
PART_003_R247G182B210A255,10221,-6.749137e-14,1.364325e-13,9.359079e-14,1.894417e-05,-1.824622e-09,-2.144335e-14,3.281226509941726e-05
PART_003_R247G182B210A255,10222,-2.45893e-13,7.259332e-13,1.654734e-13,1.796587e-05,-1.154347e-08,-4.132206e-14,3.111780606543141e-05
PART_003_R247G182B210A255,10223,-3.531828e-13,1.139949e-12,1.257206e-13,1.72913e-05,-7.056272e-10,-5.135617e-14,2.9949410153853298e-05
PART_003_R247G182B210A255,10224,-4.612175e-13,1.334474e-12,2.17442e-13,1.690023e-05,-4.793868e-09,-2.548177e-14,2.9272058197233308e-05
PART_003_R247G182B210A255,10225,-4.544845e-13,1.383144e-12,1.626599e-13,1.677111e-05,2.963007e-12,-5.487777e-15,2.904841461932697e-05
PART_002_R214G39B40A255,10226,-4.628778e-13,1.333114e-12,2.190176e-13,1.690023e-05,4.79939e-09,3.710776e-14,2.9272058199947876e-05
PART_002_R214G39B40A255,10227,-3.591551e-13,1.161682e-12,1.231988e-13,1.72913e-05,7.108857e-10,4.206075e-14,2.994941015422637e-05
PART_002_R214G39B40A255,10228,-2.931888e-13,8.517631e-13,1.670627e-13,1.796588e-05,1.154763e-08,4.508027e-14,3.111782339056633e-05
PART_002_R214G39B40A255,10229,-1.74917e-13,4.727052e-13,9.390424e-14,1.894418e-05,1.827775e-09,1.458143e-14,3.2812282420451714e-05
PART_002_R214G39B40A255,10230,-2.341229e-13,1.971756e-13,1.912385e-13,2.025233e-05,4.33871e-09,4.063399e-15,3.507806533661618e-05
PART_003_R247G182B210A255,10231,-3.99867e-05,1.320096e-05,1.319001e-05,1.962261e-05,-7.374485e-10,2.573143e-08,6.31148742285712e-05
PART_003_R247G182B210A255,10232,-3.99867e-05,1.319591e-05,1.319737e-05,1.832412e-05,-1.079613e-08,6.642343e-08,6.193384666208719e-05
PART_003_R247G182B210A255,10233,-3.99867e-05,1.319451e-05,1.319534e-05,1.735702e-05,-7.494431e-10,8.711382e-08,6.109096853166104e-05
PART_003_R247G182B210A255,10234,-3.99867e-05,1.319566e-05,1.319455e-05,1.66989e-05,-8.389098e-09,7.935331e-08,6.053827937418126e-05
PART_003_R247G182B210A255,10235,-3.99867e-05,1.319374e-05,1.319589e-05,1.631658e-05,1.471835e-10,4.673671e-08,6.022435091286974e-05
PART_001_R158G218B229A255,10236,-3.99867e-05,1.319628e-05,1.319292e-05,1.619261e-05,2.879492e-12,1.022823e-12,6.012364371853662e-05
PART_001_R158G218B229A255,10237,-3.99867e-05,1.319374e-05,1.319589e-05,1.631658e-05,-1.418334e-10,-4.673464e-08,6.02243509080121e-05
PART_002_R214G39B40A255,10238,-3.99867e-05,1.319566e-05,1.319455e-05,1.66989e-05,8.394171e-09,-7.935152e-08,6.053827936925198e-05
PART_002_R214G39B40A255,10239,-3.99867e-05,1.319451e-05,1.319533e-05,1.735703e-05,7.533818e-10,-8.711229e-08,6.109097269603227e-05
PART_002_R214G39B40A255,10240,-3.99867e-05,1.319591e-05,1.319737e-05,1.832413e-05,1.079898e-08,-6.642243e-08,6.193385553634239e-05
PART_002_R214G39B40A255,10241,-3.99867e-05,1.320096e-05,1.319001e-05,1.962261e-05,7.382744e-10,-2.573107e-08,6.311487422815987e-05
PART_003_R247G182B210A255,10242,-7.99734e-05,2.639441e-05,2.639635e-05,1.772536e-05,-5.581435e-09,5.843273e-08,0.00011071085249201612
PART_003_R247G182B210A255,10243,-7.99734e-05,2.639407e-05,2.638604e-05,1.645285e-05,4.498874e-10,1.613819e-07,0.00011011517406890542
PART_003_R247G182B210A255,10244,-7.99734e-05,2.6391e-05,2.639146e-05,1.553576e-05,-1.063782e-08,2.068052e-07,0.00010971619149510378
PART_003_R247G182B210A255,10245,-7.99734e-05,2.6387e-05,2.639223e-05,1.492193e-05,1.649756e-09,1.868199e-07,0.00010945861171406202
PART_001_R158G218B229A255,10246,-7.99734e-05,2.639261e-05,2.638579e-05,1.457597e-05,-1.610293e-09,1.104262e-07,0.00010931795830321324
PART_001_R158G218B229A255,10247,-7.99734e-05,2.639069e-05,2.638863e-05,1.446381e-05,2.622059e-12,2.023746e-12,0.00010927353721233074
PART_001_R158G218B229A255,10248,-7.997339e-05,2.639261e-05,2.638579e-05,1.457597e-05,1.61514e-09,-1.104222e-07,0.00010931794856165153
PART_001_R158G218B229A255,10249,-7.997339e-05,2.6387e-05,2.639223e-05,1.492194e-05,-1.645156e-09,-1.868164e-07,0.00010945860606849076
PART_002_R214G39B40A255,10250,-7.997339e-05,2.6391e-05,2.639146e-05,1.553577e-05,1.064139e-08,-2.068022e-07,0.00010971618603264113
PART_002_R214G39B40A255,10251,-7.997339e-05,2.639407e-05,2.638604e-05,1.645285e-05,-4.472018e-10,-1.6138e-07,0.00011011516440122753
PART_002_R214G39B40A255,10252,-7.997339e-05,2.639441e-05,2.639634e-05,1.772537e-05,5.582326e-09,-5.843199e-08,0.00011071084288229883
PART_003_R247G182B210A255,10253,-0.0001199601,3.960494e-05,3.956611e-05,1.452033e-05,1.401966e-09,1.262001e-07,0.00016151586709263658
PART_003_R247G182B210A255,10254,-0.0001199601,3.958686e-05,3.959206e-05,1.331918e-05,-1.402358e-08,3.183538e-07,0.00016120970324859206
PART_003_R247G182B210A255,10255,-0.0001199601,3.957947e-05,3.958893e-05,1.24938e-05,5.559587e-09,4.05991e-07,0.00016100671856705844
PART_001_R158G218B229A255,10256,-0.0001199601,3.958901e-05,3.957851e-05,1.198339e-05,1.492407e-09,3.62357e-07,0.00016088953405530014
PART_001_R158G218B229A255,10257,-0.0001199601,3.958893e-05,3.95801e-05,1.170197e-05,1.210853e-09,2.069291e-07,0.00016082730179597422
PART_001_R158G218B229A255,10258,-0.0001199601,3.958952e-05,3.957709e-05,1.161084e-05,2.178635e-12,2.95081e-12,0.00016080588612171366
PART_001_R158G218B229A255,10259,-0.0001199601,3.958893e-05,3.95801e-05,1.170198e-05,-1.206867e-09,-2.069234e-07,0.0001608273039567165
PART_001_R158G218B229A255,10260,-0.0001199601,3.958901e-05,3.957851e-05,1.198339e-05,-1.48866e-09,-3.623519e-07,0.00016088953402073743
PART_001_R158G218B229A255,10261,-0.0001199601,3.957947e-05,3.958892e-05,1.24938e-05,-5.556816e-09,-4.059867e-07,0.0001610067135792177
PART_002_R214G39B40A255,10262,-0.0001199601,3.958685e-05,3.959206e-05,1.331919e-05,1.402552e-08,-3.183509e-07,0.00016120970076225754
PART_002_R214G39B40A255,10263,-0.0001199601,3.960493e-05,3.956611e-05,1.452034e-05,-1.401503e-09,-1.261991e-07,0.00016151586484648082
PART_003_R247G182B210A255,10264,-0.0001599468,5.27868e-05,5.280159e-05,9.932603e-06,-1.315606e-08,2.312785e-07,0.0002134358496438552
PART_003_R247G182B210A255,10265,-0.0001599468,5.277486e-05,5.278072e-05,8.856096e-06,1.282272e-08,6.334139e-07,0.00021327973803969054
PART_001_R158G218B229A255,10266,-0.0001599468,5.278573e-05,5.27687e-05,8.26672e-06,9.166919e-09,7.74353e-07,0.00021320957265965837
PART_001_R158G218B229A255,10267,-0.0001599468,5.278957e-05,5.276901e-05,7.924962e-06,2.694457e-09,6.407662e-07,0.00021317137827948926
PART_001_R158G218B229A255,10268,-0.0001599468,5.2786e-05,5.276881e-05,7.736565e-06,2.24836e-09,3.580917e-07,0.0002131467467090783
PART_001_R158G218B229A255,10269,-0.0001599468,5.279118e-05,5.276788e-05,7.679059e-06,1.533635e-12,3.793842e-12,0.00021314172684815355
PART_001_R158G218B229A255,10270,-0.0001599468,5.2786e-05,5.276881e-05,7.736566e-06,-2.245665e-09,-3.580848e-07,0.00021314674678310757
PART_001_R158G218B229A255,10271,-0.0001599468,5.278957e-05,5.2769e-05,7.924964e-06,-2.691837e-09,-6.407596e-07,0.00021317137345410085
PART_001_R158G218B229A255,10272,-0.0001599468,5.278573e-05,5.276869e-05,8.266723e-06,-9.165101e-09,-7.743478e-07,0.00021320956796370752
PART_001_R158G218B229A255,10273,-0.0001599468,5.277486e-05,5.278072e-05,8.8561e-06,-1.282141e-08,-6.334104e-07,0.00021327973850655138
PART_002_R214G39B40A255,10274,-0.0001599468,5.27868e-05,5.280159e-05,9.932607e-06,1.315644e-08,-2.312772e-07,0.00021343585019814013
PART_003_R247G182B210A255,10275,-0.0001999335,6.601745e-05,6.591735e-05,3.64802e-06,2.024311e-08,6.234955e-07,0.00026597817157587346
PART_001_R158G218B229A255,10276,-0.0001999335,6.597955e-05,6.595025e-05,3.134943e-06,1.246484e-08,1.347985e-06,0.00026596408597038927
PART_001_R158G218B229A255,10277,-0.0001999335,6.59985e-05,6.594936e-05,2.93875e-06,2.439696e-09,1.372506e-06,0.0002659667709150215
PART_001_R158G218B229A255,10278,-0.0001999335,6.59814e-05,6.595992e-05,2.809206e-06,2.91507e-09,1.07027e-06,0.00026595513536217217
PART_001_R158G218B229A255,10279,-0.0001999335,6.599276e-05,6.59564e-05,2.747208e-06,4.110323e-10,5.776183e-07,0.0002659525340834671
PART_001_R158G218B229A255,10280,-0.0001999335,6.5982e-05,6.596158e-05,2.724423e-06,6.033843e-13,4.417911e-12,0.00026594715829420933
PART_001_R158G218B229A255,10281,-0.0001999335,6.599276e-05,6.59564e-05,2.747208e-06,-4.101208e-10,-5.776107e-07,0.0002659525340339442
PART_001_R158G218B229A255,10282,-0.0001999335,6.59814e-05,6.595992e-05,2.809206e-06,-2.914042e-09,-1.070262e-06,0.0002659551352655567
PART_001_R158G218B229A255,10283,-0.0001999335,6.59985e-05,6.594936e-05,2.938751e-06,-2.43918e-09,-1.3725e-06,0.00026596677085526755
PART_001_R158G218B229A255,10284,-0.0001999335,6.597955e-05,6.595024e-05,3.134944e-06,-1.246437e-08,-1.347981e-06,0.00026596408094692624
PART_001_R158G218B229A255,10285,-0.0001999335,6.601744e-05,6.591734e-05,3.648021e-06,-2.024331e-08,-6.234942e-07,0.0002659781616108285
PART_003_R247G182B210A255,10286,0.0001953896,-6.451705e-05,-6.441922e-05,3.648019e-06,1.978364e-08,-6.234958e-07,0.00025993680224325696
PART_000_R31G119B180A255,10287,0.0001953896,-6.448002e-05,-6.445138e-05,3.134942e-06,1.218142e-08,-1.347986e-06,0.0002599225130327053
PART_000_R31G119B180A255,10288,0.0001953896,-6.449854e-05,-6.445051e-05,2.938749e-06,2.384609e-09,-1.372507e-06,0.00025992484543168535
PART_000_R31G119B180A255,10289,0.0001953895,-6.448182e-05,-6.446084e-05,2.809206e-06,2.848733e-09,-1.070271e-06,0.0002599129905907873
PART_000_R31G119B180A255,10290,0.0001953895,-6.449292e-05,-6.445738e-05,2.747208e-06,4.019614e-10,-5.7762e-07,0.0002599101376580085
PART_000_R31G119B180A255,10291,0.0001953895,-6.448241e-05,-6.446245e-05,2.724423e-06,5.314302e-13,-4.975177e-12,0.0002599047717995477
PART_000_R31G119B180A255,10292,0.0001953895,-6.449292e-05,-6.445738e-05,2.747208e-06,-4.005741e-10,5.776094e-07,0.00025991013758733093
PART_000_R31G119B180A255,10293,0.0001953895,-6.448182e-05,-6.446083e-05,2.809207e-06,-2.84785e-09,1.070262e-06,0.00025991298551361175
PART_000_R31G119B180A255,10294,0.0001953895,-6.449853e-05,-6.44505e-05,2.938751e-06,-2.383566e-09,1.372499e-06,0.00025992473539846123
PART_000_R31G119B180A255,10295,0.0001953895,-6.448001e-05,-6.445138e-05,3.134944e-06,-1.218112e-08,1.347981e-06,0.00025992240805356365
PART_000_R31G119B180A255,10296,0.0001953895,-6.451705e-05,-6.441922e-05,3.648021e-06,-1.978314e-08,6.234939e-07,0.00025993670234409396
PART_003_R247G182B210A255,10297,0.0001563116,-5.15871e-05,-5.160155e-05,9.932604e-06,-1.285716e-08,-2.312786e-07,0.00020861688483596455
PART_003_R247G182B210A255,10298,0.0001563116,-5.157543e-05,-5.158116e-05,8.856096e-06,1.253116e-08,-6.334146e-07,0.00020845791875118524
PART_000_R31G119B180A255,10299,0.0001563116,-5.158606e-05,-5.15694e-05,8.26672e-06,8.958847e-09,-7.743538e-07,0.00020838615315537724
PART_000_R31G119B180A255,10300,0.0001563116,-5.158981e-05,-5.156972e-05,7.924962e-06,2.633265e-09,-6.407671e-07,0.00020834698649273815
PART_000_R31G119B180A255,10301,0.0001563116,-5.158632e-05,-5.156951e-05,7.736565e-06,2.197648e-09,-3.580928e-07,0.00020832186317982606
PART_000_R31G119B180A255,10302,0.0001563116,-5.159138e-05,-5.156861e-05,7.679059e-06,1.583584e-12,-4.442698e-12,0.00020831663280178854
PART_000_R31G119B180A255,10303,0.0001563116,-5.158631e-05,-5.156951e-05,7.736567e-06,-2.194242e-09,3.580839e-07,0.00020832185836642056
PART_000_R31G119B180A255,10304,0.0001563116,-5.15898e-05,-5.156971e-05,7.924964e-06,-2.630579e-09,6.407593e-07,0.00020834697667076294
PART_000_R31G119B180A255,10305,0.0001563116,-5.158605e-05,-5.15694e-05,8.266723e-06,-8.956471e-09,7.743472e-07,0.00020838614844984838
PART_000_R31G119B180A255,10306,0.0001563116,-5.157543e-05,-5.158116e-05,8.856101e-06,-1.253001e-08,6.334103e-07,0.0002084579193490384
PART_002_R214G39B40A255,10307,0.0001563116,-5.15871e-05,-5.160154e-05,9.932608e-06,1.28576e-08,2.31277e-07,0.00020861688041858554
PART_003_R247G182B210A255,10308,0.0001172337,-3.870483e-05,-3.866688e-05,1.452033e-05,1.370512e-09,-1.262002e-07,0.0001579350386918082
PART_003_R247G182B210A255,10309,0.0001172337,-3.868716e-05,-3.869225e-05,1.331918e-05,-1.370464e-08,-3.183542e-07,0.00015762174509084638
PART_003_R247G182B210A255,10310,0.0001172337,-3.867994e-05,-3.868917e-05,1.24938e-05,5.433662e-09,-4.059915e-07,0.00015741436401208106
PART_000_R31G119B180A255,10311,0.0001172337,-3.868926e-05,-3.8679e-05,1.198339e-05,1.45868e-09,-3.623578e-07,0.0001572945282406378
PART_000_R31G119B180A255,10312,0.0001172337,-3.868918e-05,-3.868055e-05,1.170197e-05,1.183765e-09,-2.069298e-07,0.0001572308358344186
PART_000_R31G119B180A255,10313,0.0001172337,-3.868976e-05,-3.867761e-05,1.161084e-05,2.316197e-12,-3.57564e-12,0.00015720898788705421
PART_000_R31G119B180A255,10314,0.0001172337,-3.868918e-05,-3.868055e-05,1.170198e-05,-1.178994e-09,2.069229e-07,0.0001572308380398318
PART_000_R31G119B180A255,10315,0.0001172337,-3.868926e-05,-3.8679e-05,1.198339e-05,-1.454651e-09,3.623516e-07,0.00015729452819767761
PART_000_R31G119B180A255,10316,0.0001172337,-3.867994e-05,-3.868917e-05,1.24938e-05,-5.430111e-09,4.059864e-07,0.0001574143639722531
PART_002_R214G39B40A255,10317,0.0001172337,-3.868715e-05,-3.869224e-05,1.331919e-05,1.370686e-08,3.183507e-07,0.0001576217377129944
PART_002_R214G39B40A255,10318,0.0001172337,-3.870482e-05,-3.866688e-05,1.452034e-05,-1.369415e-09,1.26199e-07,0.00015793503650906817
PART_003_R247G182B210A255,10319,7.815582e-05,-2.579454e-05,-2.579643e-05,1.772536e-05,-5.454585e-09,-5.843277e-08,0.00010839026389715186
PART_003_R247G182B210A255,10320,7.815582e-05,-2.579421e-05,-2.578636e-05,1.645285e-05,4.39528e-10,-1.613823e-07,0.000107782001018608
PART_003_R247G182B210A255,10321,7.815582e-05,-2.579121e-05,-2.579165e-05,1.553576e-05,-1.039573e-08,-2.068056e-07,0.00010737429361314876
PART_003_R247G182B210A255,10322,7.815582e-05,-2.57873e-05,-2.579241e-05,1.492193e-05,1.612409e-09,-1.868205e-07,0.00010711115753767974
PART_000_R31G119B180A255,10323,7.815582e-05,-2.579278e-05,-2.578611e-05,1.457597e-05,-1.573232e-09,-1.104267e-07,0.00010696743169396467
PART_000_R31G119B180A255,10324,7.815582e-05,-2.579091e-05,-2.578889e-05,1.446381e-05,2.774143e-12,-2.452986e-12,0.00010692201881991866
PART_000_R31G119B180A255,10325,7.815582e-05,-2.579278e-05,-2.578611e-05,1.457597e-05,1.578923e-09,1.10422e-07,0.00010696743167966054
PART_000_R31G119B180A255,10326,7.815582e-05,-2.578729e-05,-2.579241e-05,1.492194e-05,-1.60755e-09,1.868162e-07,0.00010711115684246389
PART_002_R214G39B40A255,10327,7.815582e-05,-2.579121e-05,-2.579165e-05,1.553577e-05,1.04e-08,2.068021e-07,0.00010737429793480418
PART_002_R214G39B40A255,10328,7.815581e-05,-2.579421e-05,-2.578636e-05,1.645285e-05,-4.369362e-10,1.613798e-07,0.00010778199136324066
PART_002_R214G39B40A255,10329,7.815581e-05,-2.579454e-05,-2.579642e-05,1.772537e-05,5.455671e-09,5.843193e-08,0.00010839025441611422
PART_003_R247G182B210A255,10330,3.907791e-05,-1.290094e-05,-1.289024e-05,1.96226e-05,-7.202715e-10,-2.57315e-08,6.209980731277795e-05
PART_003_R247G182B210A255,10331,3.907791e-05,-1.2896e-05,-1.289743e-05,1.832412e-05,-1.055049e-08,-6.642361e-08,6.089905858856863e-05
PART_003_R247G182B210A255,10332,3.907791e-05,-1.289464e-05,-1.289544e-05,1.735702e-05,-7.318992e-10,-8.711408e-08,6.004172491042818e-05
PART_003_R247G182B210A255,10333,3.907791e-05,-1.289576e-05,-1.289468e-05,1.66989e-05,-8.198232e-09,-7.935367e-08,5.9479283108907354e-05
PART_003_R247G182B210A255,10334,3.907791e-05,-1.289388e-05,-1.289599e-05,1.631658e-05,1.443265e-10,-4.673697e-08,5.915974579490588e-05
PART_000_R31G119B180A255,10335,3.907791e-05,-1.289636e-05,-1.289308e-05,1.619261e-05,3.026303e-12,-1.245138e-12,5.905722761036139e-05
PART_000_R31G119B180A255,10336,3.907791e-05,-1.289388e-05,-1.289599e-05,1.631658e-05,-1.380991e-10,4.673459e-08,5.915974578922074e-05
PART_002_R214G39B40A255,10337,3.907791e-05,-1.289575e-05,-1.289467e-05,1.66989e-05,8.203614e-09,7.935149e-08,5.9479274364386324e-05
PART_002_R214G39B40A255,10338,3.907791e-05,-1.289464e-05,-1.289544e-05,1.735703e-05,7.367499e-10,8.711232e-08,6.004173357542642e-05
PART_002_R214G39B40A255,10339,3.907791e-05,-1.2896e-05,-1.289743e-05,1.832413e-05,1.055369e-08,6.64224e-08,6.08990676130742e-05
PART_002_R214G39B40A255,10340,3.907791e-05,-1.290094e-05,-1.289024e-05,1.962261e-05,7.217681e-10,2.573106e-08,6.209981679183115e-05
PART_003_R247G182B210A255,10341,1.894909e-13,-4.702905e-13,1.640589e-13,2.025232e-05,-4.239035e-09,-2.322083e-14,3.507804797954775e-05
PART_003_R247G182B210A255,10342,3.711474e-13,-1.023043e-12,2.141683e-13,1.894418e-05,-1.783294e-09,-6.042614e-14,3.281228241310888e-05
PART_003_R247G182B210A255,10343,6.117873e-13,-1.706621e-12,1.788098e-13,1.796587e-05,-1.128077e-08,-1.102059e-13,3.1117805776404287e-05
PART_003_R247G182B210A255,10344,6.867401e-13,-2.171943e-12,3.111157e-13,1.72913e-05,-6.894395e-10,-1.089928e-13,2.9949410152722336e-05
PART_003_R247G182B210A255,10345,7.367776e-13,-2.378361e-12,3.009172e-13,1.690023e-05,-4.684435e-09,-8.136416e-14,2.9272058144081747e-05
PART_003_R247G182B210A255,10346,7.003393e-13,-2.426642e-12,3.935913e-13,1.677112e-05,3.111308e-12,9.196456e-15,2.9048431939835204e-05
PART_002_R214G39B40A255,10347,7.39991e-13,-2.377348e-12,2.984854e-13,1.690023e-05,4.690826e-09,6.589153e-14,2.9272058147152116e-05
PART_002_R214G39B40A255,10348,6.939944e-13,-2.197409e-12,3.150156e-13,1.72913e-05,6.949548e-10,1.246246e-13,2.9949410153104755e-05
PART_002_R214G39B40A255,10349,6.71927e-13,-1.858125e-12,1.752887e-13,1.796588e-05,1.128567e-08,1.0515e-13,3.111782310223913e-05
PART_002_R214G39B40A255,10350,5.046545e-13,-1.436254e-12,2.146447e-13,1.894418e-05,1.786329e-09,7.122021e-14,3.2812282413604164e-05
PART_002_R214G39B40A255,10351,3.942208e-13,-1.129513e-12,1.66733e-13,2.025233e-05,4.240331e-09,1.574012e-14,3.507806530052539e-05
PART_003_R247G182B210A255,10352,-3.907791e-05,1.290094e-05,1.289024e-05,1.96226e-05,-7.2026e-10,2.573146e-08,6.209980731272783e-05
PART_003_R247G182B210A255,10353,-3.907791e-05,1.2896e-05,1.289743e-05,1.832412e-05,-1.055048e-08,6.642344e-08,6.089905858800716e-05
PART_003_R247G182B210A255,10354,-3.907791e-05,1.289464e-05,1.289544e-05,1.735702e-05,-7.318925e-10,8.71138e-08,6.004172490920919e-05
PART_003_R247G182B210A255,10355,-3.907791e-05,1.289576e-05,1.289468e-05,1.66989e-05,-8.198231e-09,7.935343e-08,5.9479283107946365e-05
PART_003_R247G182B210A255,10356,-3.907791e-05,1.289389e-05,1.289599e-05,1.631658e-05,1.443279e-10,4.673679e-08,5.91597501867977e-05
PART_001_R158G218B229A255,10357,-3.907791e-05,1.289637e-05,1.289308e-05,1.619261e-05,3.023951e-12,1.267657e-12,5.905723201097078e-05
PART_001_R158G218B229A255,10358,-3.907791e-05,1.289389e-05,1.289599e-05,1.631658e-05,-1.38098e-10,-4.673445e-08,5.9159750181207356e-05
PART_002_R214G39B40A255,10359,-3.907791e-05,1.289576e-05,1.289468e-05,1.66989e-05,8.203609e-09,-7.935121e-08,5.947928310128568e-05
PART_002_R214G39B40A255,10360,-3.907791e-05,1.289464e-05,1.289544e-05,1.735703e-05,7.36745e-10,-8.711207e-08,6.00417335743381e-05
PART_002_R214G39B40A255,10361,-3.907791e-05,1.2896e-05,1.289743e-05,1.832413e-05,1.055367e-08,-6.642222e-08,6.0899067612474824e-05
PART_002_R214G39B40A255,10362,-3.907791e-05,1.290094e-05,1.289024e-05,1.962261e-05,7.217635e-10,-2.573101e-08,6.209981679176884e-05
PART_003_R247G182B210A255,10363,-7.815582e-05,2.579454e-05,2.579643e-05,1.772536e-05,-5.454581e-09,5.84327e-08,0.00010839026389703805
PART_003_R247G182B210A255,10364,-7.815582e-05,2.579421e-05,2.578636e-05,1.645285e-05,4.395424e-10,1.613821e-07,0.0001077820010177098
PART_003_R247G182B210A255,10365,-7.815582e-05,2.579121e-05,2.579165e-05,1.553576e-05,-1.039572e-08,2.068053e-07,0.00010737429361141244
PART_003_R247G182B210A255,10366,-7.815582e-05,2.578729e-05,2.579241e-05,1.492193e-05,1.612405e-09,1.868203e-07,0.00010711115268475747
PART_001_R158G218B229A255,10367,-7.815582e-05,2.579278e-05,2.578611e-05,1.457597e-05,-1.573228e-09,1.104265e-07,0.00010696743169334509
PART_001_R158G218B229A255,10368,-7.815582e-05,2.57909e-05,2.578889e-05,1.446381e-05,2.766615e-12,2.465582e-12,0.00010692201395895815
PART_001_R158G218B229A255,10369,-7.815582e-05,2.579277e-05,2.578611e-05,1.457597e-05,1.57893e-09,-1.104218e-07,0.00010696742681983991
PART_001_R158G218B229A255,10370,-7.815582e-05,2.578729e-05,2.579241e-05,1.492194e-05,-1.60756e-09,-1.86816e-07,0.00010711115684141786
PART_002_R214G39B40A255,10371,-7.815581e-05,2.57912e-05,2.579165e-05,1.553577e-05,1.039999e-08,-2.068018e-07,0.00010737428341185158
PART_002_R214G39B40A255,10372,-7.815581e-05,2.579421e-05,2.578636e-05,1.645285e-05,-4.369595e-10,-1.613797e-07,0.00010778199136279176
PART_002_R214G39B40A255,10373,-7.815581e-05,2.579453e-05,2.579642e-05,1.772537e-05,5.455666e-09,-5.843188e-08,0.00010839024962093073
PART_003_R247G182B210A255,10374,-0.0001172337,3.870483e-05,3.866688e-05,1.452033e-05,1.37054e-09,1.262001e-07,0.0001579350386915692
PART_003_R247G182B210A255,10375,-0.0001172337,3.868716e-05,3.869225e-05,1.331918e-05,-1.370463e-08,3.18354e-07,0.00015762174508963193
PART_003_R247G182B210A255,10376,-0.0001172337,3.867994e-05,3.868917e-05,1.24938e-05,5.43366e-09,4.059911e-07,0.00015741436400898594
PART_001_R158G218B229A255,10377,-0.0001172337,3.868927e-05,3.867901e-05,1.198339e-05,1.458674e-09,3.623575e-07,0.00015729453815104073
PART_001_R158G218B229A255,10378,-0.0001172337,3.868919e-05,3.868054e-05,1.170197e-05,1.183763e-09,2.069296e-07,0.00015723083583445315
PART_001_R158G218B229A255,10379,-0.0001172337,3.868977e-05,3.867761e-05,1.161084e-05,2.307439e-12,3.548805e-12,0.0001572089928465549
PART_001_R158G218B229A255,10380,-0.0001172337,3.868919e-05,3.868054e-05,1.170198e-05,-1.178979e-09,-2.069227e-07,0.0001572308380398661
PART_001_R158G218B229A255,10381,-0.0001172337,3.868926e-05,3.867901e-05,1.198339e-05,-1.454659e-09,-3.623513e-07,0.00015729453315135378
PART_001_R158G218B229A255,10382,-0.0001172337,3.867994e-05,3.868917e-05,1.24938e-05,-5.430101e-09,-4.05986e-07,0.00015741436396915715
PART_002_R214G39B40A255,10383,-0.0001172337,3.868715e-05,3.869225e-05,1.331919e-05,1.370683e-08,-3.183506e-07,0.0001576217426587491
PART_002_R214G39B40A255,10384,-0.0001172337,3.870482e-05,3.866687e-05,1.452034e-05,-1.369427e-09,-1.261988e-07,0.0001579350315741984
PART_003_R247G182B210A255,10385,-0.0001563116,5.15871e-05,5.160154e-05,9.932604e-06,-1.285719e-08,2.312784e-07,0.00020861687985182544
PART_003_R247G182B210A255,10386,-0.0001563116,5.157543e-05,5.158117e-05,8.856096e-06,1.253117e-08,6.334145e-07,0.00020845792373685738
PART_001_R158G218B229A255,10387,-0.0001563116,5.158605e-05,5.15694e-05,8.26672e-06,8.958844e-09,7.743533e-07,0.00020838614816112423
PART_001_R158G218B229A255,10388,-0.0001563116,5.15898e-05,5.156972e-05,7.924961e-06,2.633248e-09,6.407668e-07,0.0002083469813860688
PART_001_R158G218B229A255,10389,-0.0001563116,5.158631e-05,5.156951e-05,7.736565e-06,2.197643e-09,3.580926e-07,0.0002083218581885665
PART_001_R158G218B229A255,10390,-0.0001563116,5.159138e-05,5.156861e-05,7.679059e-06,1.579212e-12,4.364768e-12,0.00020831663280178854
PART_001_R158G218B229A255,10391,-0.0001563116,5.158631e-05,5.156951e-05,7.736567e-06,-2.194232e-09,-3.580835e-07,0.00020832185836435757
PART_001_R158G218B229A255,10392,-0.0001563116,5.15898e-05,5.156972e-05,7.924964e-06,-2.630568e-09,-6.407591e-07,0.00020834698165726005
PART_001_R158G218B229A255,10393,-0.0001563116,5.158605e-05,5.15694e-05,8.266723e-06,-8.956465e-09,-7.743467e-07,0.00020838614844427374
PART_001_R158G218B229A255,10394,-0.0001563116,5.157542e-05,5.158116e-05,8.8561e-06,-1.253003e-08,-6.334102e-07,0.00020845791423450958
PART_002_R214G39B40A255,10395,-0.0001563116,5.15871e-05,5.160154e-05,9.932608e-06,1.285761e-08,-2.312769e-07,0.0002086168804182548
PART_003_R247G182B210A255,10396,-0.0001953896,6.451705e-05,6.441921e-05,3.648019e-06,1.978379e-08,6.234957e-07,0.00025993679724691535
PART_001_R158G218B229A255,10397,-0.0001953896,6.448002e-05,6.445139e-05,3.134943e-06,1.218133e-08,1.347985e-06,0.00025992251805119834
PART_001_R158G218B229A255,10398,-0.0001953895,6.449854e-05,6.44505e-05,2.938749e-06,2.384654e-09,1.372507e-06,0.00025992474045760146
PART_001_R158G218B229A255,10399,-0.0001953896,6.448183e-05,6.446084e-05,2.809206e-06,2.848695e-09,1.07027e-06,0.0002599130955579663
PART_001_R158G218B229A255,10400,-0.0001953895,6.449293e-05,6.445738e-05,2.747208e-06,4.019675e-10,5.776197e-07,0.000259910142656159
PART_001_R158G218B229A255,10401,-0.0001953895,6.448241e-05,6.446246e-05,2.724423e-06,5.353339e-13,4.861508e-12,0.0002599047767981477
PART_001_R158G218B229A255,10402,-0.0001953895,6.449293e-05,6.445738e-05,2.747208e-06,-4.005888e-10,-5.776089e-07,0.0002599101425841481
PART_001_R158G218B229A255,10403,-0.0001953895,6.448182e-05,6.446084e-05,2.809207e-06,-2.847807e-09,-1.070262e-06,0.0002599129905120013
PART_001_R158G218B229A255,10404,-0.0001953895,6.449854e-05,6.44505e-05,2.938751e-06,-2.383616e-09,-1.372499e-06,0.0002599247403986806
PART_001_R158G218B229A255,10405,-0.0001953895,6.448001e-05,6.445139e-05,3.134944e-06,-1.218103e-08,-1.347981e-06,0.00025992241305143214
PART_001_R158G218B229A255,10406,-0.0001953895,6.451705e-05,6.441921e-05,3.648021e-06,-1.978326e-08,-6.234937e-07,0.00025993669734702594
PART_003_R247G182B210A255,10407,0.0001908456,-6.301666e-05,-6.29211e-05,3.64802e-06,1.932291e-08,-6.234959e-07,0.00025389542850896965
PART_000_R31G119B180A255,10408,0.0001908456,-6.298048e-05,-6.295252e-05,3.134942e-06,1.189833e-08,-1.347987e-06,0.00025388091284759585
PART_000_R31G119B180A255,10409,0.0001908456,-6.299858e-05,-6.295166e-05,2.938749e-06,2.32888e-09,-1.372508e-06,0.0002538828856783959
PART_000_R31G119B180A255,10410,0.0001908456,-6.298225e-05,-6.296175e-05,2.809206e-06,2.782774e-09,-1.070273e-06,0.00025387100223561157
PART_000_R31G119B180A255,10411,0.0001908456,-6.299309e-05,-6.295837e-05,2.747208e-06,3.924542e-10,-5.776207e-07,0.00025386790041268464
PART_000_R31G119B180A255,10412,0.0001908456,-6.298282e-05,-6.296333e-05,2.724423e-06,8.139436e-13,-6.786985e-12,0.000253862536632918
PART_000_R31G119B180A255,10413,0.0001908456,-6.299309e-05,-6.295837e-05,2.747208e-06,-3.913886e-10,5.776089e-07,0.0002538679003321356
PART_000_R31G119B180A255,10414,0.0001908456,-6.298225e-05,-6.296174e-05,2.809207e-06,-2.781327e-09,1.070261e-06,0.0002538709971186495
PART_000_R31G119B180A255,10415,0.0001908456,-6.299857e-05,-6.295165e-05,2.938751e-06,-2.328264e-09,1.372499e-06,0.0002538828756043155
PART_000_R31G119B180A255,10416,0.0001908456,-6.298048e-05,-6.295251e-05,3.134944e-06,-1.189758e-08,1.34798e-06,0.00025388090781226053
PART_000_R31G119B180A255,10417,0.0001908456,-6.301665e-05,-6.292109e-05,3.648021e-06,-1.93233e-08,6.234938e-07,0.0002538954185398805
PART_003_R247G182B210A255,10418,0.0001526765,-5.03874e-05,-5.040151e-05,9.932602e-06,-1.255795e-08,-2.312789e-07,0.00020379878214625669
PART_003_R247G182B210A255,10419,0.0001526765,-5.0376e-05,-5.03816e-05,8.856096e-06,1.224024e-08,-6.334152e-07,0.0002036368097486573
PART_000_R31G119B180A255,10420,0.0001526765,-5.038638e-05,-5.037012e-05,8.26672e-06,8.750561e-09,-7.743545e-07,0.00020356337288156818
PART_000_R31G119B180A255,10421,0.0001526765,-5.039004e-05,-5.037042e-05,7.924962e-06,2.572449e-09,-6.407682e-07,0.00020352317491287425
PART_000_R31G119B180A255,10422,0.0001526765,-5.038663e-05,-5.037022e-05,7.736566e-06,2.146509e-09,-3.580936e-07,0.00020349754503688826
PART_000_R31G119B180A255,10423,0.0001526765,-5.039158e-05,-5.036934e-05,7.67906e-06,1.942586e-12,-5.53125e-12,0.00020349209631544834
PART_000_R31G119B180A255,10424,0.0001526765,-5.038663e-05,-5.037022e-05,7.736567e-06,-2.143232e-09,3.580833e-07,0.00020349754509646479
PART_000_R31G119B180A255,10425,0.0001526765,-5.039004e-05,-5.037042e-05,7.924964e-06,-2.568997e-09,6.407585e-07,0.00020352317505475956
PART_000_R31G119B180A255,10426,0.0001526765,-5.038637e-05,-5.037011e-05,8.266724e-06,-8.74818e-09,7.743469e-07,0.00020356336330683725
PART_000_R31G119B180A255,10427,0.0001526765,-5.0376e-05,-5.03816e-05,8.856101e-06,-1.223827e-08,6.334099e-07,0.00020363681035119022
PART_002_R214G39B40A255,10428,0.0001526765,-5.038739e-05,-5.040151e-05,9.932609e-06,1.255851e-08,2.312769e-07,0.0002037987781814108
PART_003_R247G182B210A255,10429,0.0001145074,-3.780472e-05,-3.776765e-05,1.452033e-05,1.338231e-09,-1.262003e-07,0.00015435642130354457
PART_003_R247G182B210A255,10430,0.0001145074,-3.778746e-05,-3.779243e-05,1.331918e-05,-1.338584e-08,-3.183546e-07,0.00015403566978686482
PART_003_R247G182B210A255,10431,0.0001145074,-3.778041e-05,-3.778943e-05,1.24938e-05,5.307214e-09,-4.059921e-07,0.00015382369934629074
PART_000_R31G119B180A255,10432,0.0001145074,-3.778952e-05,-3.777949e-05,1.198339e-05,1.425092e-09,-3.623584e-07,0.00015370108401888
PART_000_R31G119B180A255,10433,0.0001145074,-3.778944e-05,-3.7781e-05,1.170197e-05,1.156261e-09,-2.069305e-07,0.0001536358647264323
PART_000_R31G119B180A255,10434,0.0001145074,-3.779001e-05,-3.777813e-05,1.161084e-05,2.646221e-12,-4.14647e-12,0.00015361356306371052
PART_000_R31G119B180A255,10435,0.0001145074,-3.778944e-05,-3.7781e-05,1.170198e-05,-1.151521e-09,2.069223e-07,0.00015363586697820112
PART_000_R31G119B180A255,10436,0.0001145074,-3.778951e-05,-3.777949e-05,1.198339e-05,-1.420398e-09,3.623511e-07,0.00015370107901247214
PART_000_R31G119B180A255,10437,0.0001145074,-3.778041e-05,-3.778942e-05,1.24938e-05,-5.303758e-09,4.05986e-07,0.00015382369434697126
PART_002_R214G39B40A255,10438,0.0001145074,-3.778745e-05,-3.779242e-05,1.331919e-05,1.338846e-08,3.183505e-07,0.0001540356624690248
PART_002_R214G39B40A255,10439,0.0001145074,-3.780471e-05,-3.776765e-05,1.452034e-05,-1.337695e-09,1.261988e-07,0.00015435641918697628
PART_003_R247G182B210A255,10440,7.633825e-05,-2.519466e-05,-2.519651e-05,1.772536e-05,-5.327574e-09,-5.843294e-08,0.00010607400785365596
PART_003_R247G182B210A255,10441,7.633825e-05,-2.519434e-05,-2.518668e-05,1.645285e-05,4.299271e-10,-1.613825e-07,0.00010545262492702698
PART_003_R247G182B210A255,10442,7.633824e-05,-2.519141e-05,-2.519185e-05,1.553576e-05,-1.015385e-08,-2.06806e-07,0.00010503581595894716
PART_003_R247G182B210A255,10443,7.633824e-05,-2.518759e-05,-2.519259e-05,1.492193e-05,1.575327e-09,-1.868209e-07,0.00010476687696836532
PART_000_R31G119B180A255,10444,7.633824e-05,-2.519294e-05,-2.518643e-05,1.457597e-05,-1.536641e-09,-1.104271e-07,0.0001046199449456481
PART_000_R31G119B180A255,10445,7.633824e-05,-2.519111e-05,-2.518915e-05,1.446381e-05,3.094351e-12,-2.789522e-12,0.00010457349241985969
PART_000_R31G119B180A255,10446,7.633824e-05,-2.519294e-05,-2.518643e-05,1.457597e-05,1.542235e-09,1.104216e-07,0.00010461994492847962
PART_000_R31G119B180A255,10447,7.633824e-05,-2.518759e-05,-2.519259e-05,1.492194e-05,-1.569727e-09,1.86816e-07,0.00010476688121479708
PART_002_R214G39B40A255,10448,7.633824e-05,-2.519141e-05,-2.519184e-05,1.553577e-05,1.015821e-08,2.068019e-07,0.00010503581554013289
PART_002_R214G39B40A255,10449,7.633824e-05,-2.519434e-05,-2.518668e-05,1.645286e-05,-4.263389e-10,1.613798e-07,0.0001054526199673239
PART_002_R214G39B40A255,10450,7.633823e-05,-2.519466e-05,-2.519651e-05,1.772537e-05,5.328729e-09,5.843189e-08,0.00010607399372124708
PART_003_R247G182B210A255,10451,3.816912e-05,-1.260092e-05,-1.259047e-05,1.96226e-05,-7.039272e-10,-2.573154e-08,6.109179817282426e-05
PART_003_R247G182B210A255,10452,3.816912e-05,-1.25961e-05,-1.259749e-05,1.832412e-05,-1.030507e-08,-6.642379e-08,5.987079257453117e-05
PART_003_R247G182B210A255,10453,3.816912e-05,-1.259477e-05,-1.259555e-05,1.735702e-05,-7.15037e-10,-8.711434e-08,5.8998587461687884e-05
PART_003_R247G182B210A255,10454,3.816912e-05,-1.259586e-05,-1.25948e-05,1.66989e-05,-8.007244e-09,-7.935392e-08,5.842609221706452e-05
PART_003_R247G182B210A255,10455,3.816912e-05,-1.259403e-05,-1.259608e-05,1.631658e-05,1.409249e-10,-4.673723e-08,5.810077769219001e-05
PART_000_R31G119B180A255,10456,3.816912e-05,-1.259645e-05,-1.259324e-05,1.619261e-05,3.337165e-12,-1.395913e-12,5.799639649224458e-05
PART_000_R31G119B180A255,10457,3.816912e-05,-1.259403e-05,-1.259608e-05,1.631658e-05,-1.348874e-10,4.673446e-08,5.8100777685462505e-05
PART_002_R214G39B40A255,10458,3.816912e-05,-1.259586e-05,-1.25948e-05,1.66989e-05,8.013281e-09,7.935145e-08,5.84260922094835e-05
PART_002_R214G39B40A255,10459,3.816912e-05,-1.259477e-05,-1.259555e-05,1.735703e-05,7.1966e-10,8.711227e-08,5.899859627850382e-05
PART_002_R214G39B40A255,10460,3.816912e-05,-1.25961e-05,-1.259749e-05,1.832413e-05,1.030866e-08,6.642239e-08,5.987080175356008e-05
PART_002_R214G39B40A255,10461,3.816912e-05,-1.260092e-05,-1.259046e-05,1.962262e-05,7.048335e-10,2.573104e-08,6.109181329063354e-05
PART_003_R247G182B210A255,10462,4.794624e-13,-1.071448e-12,2.701017e-13,2.025232e-05,-4.140333e-09,-6.050062e-14,3.507804794418119e-05
PART_003_R247G182B210A255,10463,3.485973e-13,-2.730455e-13,1.94304e-13,1.894417e-05,-1.741164e-09,-2.001311e-13,3.281226508581291e-05
PART_003_R247G182B210A255,10464,-6.193776e-14,6.881995e-13,3.555596e-13,1.796587e-05,-1.101834e-08,-2.664069e-13,3.1117805494317074e-05
PART_003_R247G182B210A255,10465,-3.82449e-13,1.353764e-12,4.130567e-13,1.72913e-05,-6.729989e-10,-2.636969e-13,2.99494101516004e-05
PART_003_R247G182B210A255,10466,-6.320582e-13,1.663267e-12,5.88667e-13,1.690023e-05,-4.575541e-09,-1.40013e-13,2.9272058092410077e-05
PART_003_R247G182B210A255,10467,-6.683261e-13,1.740635e-12,5.557513e-13,1.677111e-05,3.409271e-12,-1.208765e-14,2.904841461932715e-05
PART_002_R214G39B40A255,10468,-6.351397e-13,1.660422e-12,5.925167e-13,1.690023e-05,4.581726e-09,1.664772e-13,2.9272058095312388e-05
PART_002_R214G39B40A255,10469,-3.862896e-13,1.380063e-12,4.062851e-13,1.72913e-05,6.792312e-10,2.436074e-13,2.994941015202249e-05
PART_002_R214G39B40A255,10470,-1.315618e-13,8.654744e-13,3.610025e-13,1.796588e-05,1.102326e-08,2.77918e-13,3.1117822820049346e-05
PART_002_R214G39B40A255,10471,1.91624e-13,2.277345e-13,1.913945e-13,1.894418e-05,1.745237e-09,1.865223e-13,3.281228240697006e-05
PART_002_R214G39B40A255,10472,2.323812e-13,-2.614298e-13,2.667367e-13,2.025233e-05,4.141625e-09,7.079543e-14,3.507806526514644e-05
PART_003_R247G182B210A255,10473,-3.816912e-05,1.260092e-05,1.259047e-05,1.96226e-05,-7.039265e-10,2.573142e-08,6.10917981726726e-05
PART_003_R247G182B210A255,10474,-3.816912e-05,1.25961e-05,1.259749e-05,1.832412e-05,-1.030506e-08,6.642343e-08,5.9870792573327804e-05
PART_003_R247G182B210A255,10475,-3.816912e-05,1.259476e-05,1.259555e-05,1.735702e-05,-7.150277e-10,8.711386e-08,5.899858315750054e-05
PART_003_R247G182B210A255,10476,-3.816912e-05,1.259585e-05,1.25948e-05,1.66989e-05,-8.007239e-09,7.935339e-08,5.842608787043715e-05
PART_003_R247G182B210A255,10477,-3.816912e-05,1.259403e-05,1.259608e-05,1.631658e-05,1.409215e-10,4.673695e-08,5.810077769151427e-05
PART_001_R158G218B229A255,10478,-3.816912e-05,1.259645e-05,1.259324e-05,1.619261e-05,3.339067e-12,1.366572e-12,5.799639649224458e-05
PART_001_R158G218B229A255,10479,-3.816912e-05,1.259402e-05,1.259608e-05,1.631658e-05,-1.348914e-10,-4.673412e-08,5.810077331627612e-05
PART_002_R214G39B40A255,10480,-3.816912e-05,1.259585e-05,1.25948e-05,1.66989e-05,8.01328e-09,-7.935098e-08,5.8426087863102305e-05
PART_002_R214G39B40A255,10481,-3.816912e-05,1.259476e-05,1.259555e-05,1.735703e-05,7.196452e-10,-8.711174e-08,5.8998591974095496e-05
PART_002_R214G39B40A255,10482,-3.816912e-05,1.259609e-05,1.259749e-05,1.832413e-05,1.030864e-08,-6.642205e-08,5.987079751297083e-05
PART_002_R214G39B40A255,10483,-3.816912e-05,1.260091e-05,1.259046e-05,1.962261e-05,7.04823e-10,-2.573092e-08,6.109179949843726e-05
PART_003_R247G182B210A255,10484,-7.633825e-05,2.519466e-05,2.519651e-05,1.772536e-05,-5.327554e-09,5.843282e-08,0.00010607400785345462
PART_003_R247G182B210A255,10485,-7.633824e-05,2.519434e-05,2.518668e-05,1.645284e-05,4.299539e-10,1.61382e-07,0.00010545261061619268
PART_003_R247G182B210A255,10486,-7.633825e-05,2.519141e-05,2.519185e-05,1.553576e-05,-1.015385e-08,2.068054e-07,0.00010503582562161739
PART_003_R247G182B210A255,10487,-7.633824e-05,2.518759e-05,2.519259e-05,1.492193e-05,1.575334e-09,1.868203e-07,0.00010476687696515588
PART_001_R158G218B229A255,10488,-7.633824e-05,2.519295e-05,2.518644e-05,1.457597e-05,-1.536654e-09,1.104268e-07,0.0001046199546491509
PART_001_R158G218B229A255,10489,-7.633824e-05,2.519112e-05,2.518915e-05,1.446381e-05,3.102545e-12,2.777331e-12,0.0001045734972744034
PART_001_R158G218B229A255,10490,-7.633824e-05,2.519295e-05,2.518643e-05,1.457597e-05,1.542226e-09,-1.104213e-07,0.00010461994978022244
PART_001_R158G218B229A255,10491,-7.633824e-05,2.518759e-05,2.519259e-05,1.492194e-05,-1.569719e-09,-1.868154e-07,0.00010476688121158702
PART_002_R214G39B40A255,10492,-7.633824e-05,2.519141e-05,2.519185e-05,1.553577e-05,1.015819e-08,-2.068013e-07,0.0001050358203697211
PART_002_R214G39B40A255,10493,-7.633823e-05,2.519434e-05,2.518667e-05,1.645286e-05,-4.263556e-10,-1.613793e-07,0.00010545260552372066
PART_002_R214G39B40A255,10494,-7.633824e-05,2.519466e-05,2.519651e-05,1.772537e-05,5.328707e-09,-5.843174e-08,0.00010607400329297596
PART_003_R247G182B210A255,10495,-0.0001145074,3.780472e-05,3.776766e-05,1.452033e-05,1.338223e-09,1.262002e-07,0.00015435642623467757
PART_003_R247G182B210A255,10496,-0.0001145074,3.778746e-05,3.779242e-05,1.331918e-05,-1.338582e-08,3.183541e-07,0.00015403566483994377
PART_003_R247G182B210A255,10497,-0.0001145074,3.778041e-05,3.778943e-05,1.24938e-05,5.307222e-09,4.059916e-07,0.00015382369934233256
PART_001_R158G218B229A255,10498,-0.0001145074,3.778951e-05,3.777949e-05,1.198339e-05,1.425084e-09,3.623578e-07,0.00015370107905998857
PART_001_R158G218B229A255,10499,-0.0001145074,3.778944e-05,3.7781e-05,1.170197e-05,1.156243e-09,2.069301e-07,0.00015363586472481563
PART_001_R158G218B229A255,10500,-0.0001145074,3.779e-05,3.777813e-05,1.161084e-05,2.655997e-12,4.19651e-12,0.00015361355810616383
PART_001_R158G218B229A255,10501,-0.0001145074,3.778943e-05,3.7781e-05,1.170198e-05,-1.151529e-09,-2.069221e-07,0.00015363586202069671
PART_001_R158G218B229A255,10502,-0.0001145074,3.778951e-05,3.777949e-05,1.198339e-05,-1.420373e-09,-3.623504e-07,0.0001537010790075207
PART_001_R158G218B229A255,10503,-0.0001145074,3.77804e-05,3.778943e-05,1.24938e-05,-5.303781e-09,-4.059855e-07,0.00015382369434389426
PART_002_R214G39B40A255,10504,-0.0001145074,3.778745e-05,3.779242e-05,1.331919e-05,1.338845e-08,-3.183499e-07,0.00015403566246530208
PART_002_R214G39B40A255,10505,-0.0001145074,3.780471e-05,3.776765e-05,1.452034e-05,-1.337711e-09,-1.261987e-07,0.00015435641918673144
PART_003_R247G182B210A255,10506,-0.0001526765,5.03874e-05,5.040152e-05,9.932601e-06,-1.255789e-08,2.312787e-07,0.00020379878698201576
PART_003_R247G182B210A255,10507,-0.0001526765,5.0376e-05,5.03816e-05,8.856095e-06,1.224024e-08,6.334145e-07,0.00020363680961165624
PART_001_R158G218B229A255,10508,-0.0001526765,5.038638e-05,5.037012e-05,8.266719e-06,8.75054e-09,7.743538e-07,0.00020356337275174695
PART_001_R158G218B229A255,10509,-0.0001526765,5.039004e-05,5.037041e-05,7.924961e-06,2.572434e-09,6.407674e-07,0.00020352316980068344
PART_001_R158G218B229A255,10510,-0.0001526765,5.038663e-05,5.037023e-05,7.736565e-06,2.146487e-09,3.580931e-07,0.00020349754990871413
PART_001_R158G218B229A255,10511,-0.0001526765,5.039158e-05,5.036933e-05,7.679059e-06,1.946321e-12,5.658124e-12,0.00020349209121375071
PART_001_R158G218B229A255,10512,-0.0001526765,5.038663e-05,5.037023e-05,7.736566e-06,-2.143223e-09,-3.58083e-07,0.00020349754996934694
PART_001_R158G218B229A255,10513,-0.0001526765,5.039004e-05,5.037041e-05,7.924964e-06,-2.568977e-09,-6.407575e-07,0.00020352317005749627
PART_001_R158G218B229A255,10514,-0.0001526765,5.038638e-05,5.037012e-05,8.266723e-06,-8.748167e-09,-7.743463e-07,0.00020356337315317224
PART_001_R158G218B229A255,10515,-0.0001526765,5.0376e-05,5.038159e-05,8.856101e-06,-1.223827e-08,-6.334091e-07,0.00020363680535779712
PART_002_R214G39B40A255,10516,-0.0001526765,5.03874e-05,5.040152e-05,9.932608e-06,1.255848e-08,-2.312768e-07,0.00020379878799913975
PART_003_R247G182B210A255,10517,-0.0001908456,6.301666e-05,6.292111e-05,3.64802e-06,1.932273e-08,6.234956e-07,0.0002538954335023015
PART_001_R158G218B229A255,10518,-0.0001908456,6.298048e-05,6.295251e-05,3.134942e-06,1.189844e-08,1.347986e-06,0.0002538809078338641
PART_001_R158G218B229A255,10519,-0.0001908456,6.299857e-05,6.295167e-05,2.938749e-06,2.328808e-09,1.372507e-06,0.0002538828856594042
PART_001_R158G218B229A255,10520,-0.0001908456,6.298225e-05,6.296174e-05,2.809205e-06,2.782796e-09,1.070272e-06,0.0002538709971914259
PART_001_R158G218B229A255,10521,-0.0001908456,6.299309e-05,6.295838e-05,2.747208e-06,3.924341e-10,5.7762e-07,0.00025386790540596365
PART_001_R158G218B229A255,10522,-0.0001908456,6.298282e-05,6.296332e-05,2.724423e-06,8.064731e-13,6.964329e-12,0.00025386253163435784
PART_001_R158G218B229A255,10523,-0.0001908456,6.299309e-05,6.295838e-05,2.747208e-06,-3.913565e-10,-5.776086e-07,0.00025386790532814493
PART_001_R158G218B229A255,10524,-0.0001908456,6.298224e-05,6.296174e-05,2.809206e-06,-2.781361e-09,-1.07026e-06,0.0002538709920732528
PART_001_R158G218B229A255,10525,-0.0001908456,6.299857e-05,6.295166e-05,2.938751e-06,-2.328184e-09,-1.372498e-06,0.000253882880585485
PART_001_R158G218B229A255,10526,-0.0001908456,6.298047e-05,6.29525e-05,3.134944e-06,-1.189768e-08,-1.347979e-06,0.0002538808977990565
PART_001_R158G218B229A255,10527,-0.0001908456,6.301665e-05,6.29211e-05,3.648021e-06,-1.932315e-08,-6.234937e-07,0.00025389542353469274
PART_003_R247G182B210A255,10528,0.0001863017,-6.151626e-05,-6.142298e-05,3.648019e-06,1.88638e-08,-6.234966e-07,0.0002478542413997464
PART_000_R31G119B180A255,10529,0.0001863017,-6.148095e-05,-6.145365e-05,3.134942e-06,1.161488e-08,-1.347987e-06,0.0002478394906296622
PART_000_R31G119B180A255,10530,0.0001863017,-6.149861e-05,-6.145281e-05,2.938749e-06,2.273978e-09,-1.37251e-06,0.0002478410913936717
PART_000_R31G119B180A255,10531,0.0001863017,-6.148267e-05,-6.146266e-05,2.809206e-06,2.716261e-09,-1.070273e-06,0.00024782906940373723
PART_000_R31G119B180A255,10532,0.0001863017,-6.149325e-05,-6.145936e-05,2.747208e-06,3.834788e-10,-5.776229e-07,0.00024782571098183067
PART_000_R31G119B180A255,10533,0.0001863017,-6.148322e-05,-6.14642e-05,2.724423e-06,5.222007e-13,-7.273047e-12,0.00024782034120313323
PART_000_R31G119B180A255,10534,0.0001863017,-6.149325e-05,-6.145936e-05,2.747208e-06,-3.817279e-10,5.776069e-07,0.0002478257108699475
PART_000_R31G119B180A255,10535,0.0001863016,-6.148266e-05,-6.146265e-05,2.809207e-06,-2.71534e-09,1.070261e-06,0.000247828959306525
PART_000_R31G119B180A255,10536,0.0001863016,-6.14986e-05,-6.14528e-05,2.938751e-06,-2.272461e-09,1.372498e-06,0.00024784098129367597
PART_000_R31G119B180A255,10537,0.0001863016,-6.148094e-05,-6.145364e-05,3.134945e-06,-1.161452e-08,1.34798e-06,0.00024783938066052195
PART_000_R31G119B180A255,10538,0.0001863016,-6.151625e-05,-6.142297e-05,3.648022e-06,-1.886283e-08,6.234936e-07,0.00024785413154615184
PART_003_R247G182B210A255,10539,0.0001490413,-4.91877e-05,-4.920148e-05,9.932604e-06,-1.225913e-08,-2.31279e-07,0.00019898140368877987
PART_003_R247G182B210A255,10540,0.0001490413,-4.917658e-05,-4.918204e-05,8.856096e-06,1.194838e-08,-6.334159e-07,0.00019881626099394617
PART_000_R31G119B180A255,10541,0.0001490413,-4.918671e-05,-4.917083e-05,8.26672e-06,8.542479e-09,-7.743556e-07,0.00019874106625787863
PART_000_R31G119B180A255,10542,0.0001490413,-4.919028e-05,-4.917112e-05,7.924962e-06,2.510937e-09,-6.40769e-07,0.0001986997946679413
PART_000_R31G119B180A255,10543,0.0001490413,-4.918695e-05,-4.917093e-05,7.736566e-06,2.095752e-09,-3.580948e-07,0.0001986736313842098
PART_000_R31G119B180A255,10544,0.0001490413,-4.919178e-05,-4.917007e-05,7.67906e-06,1.646515e-12,-6.14877e-12,0.00019866795092539366
PART_000_R31G119B180A255,10545,0.0001490413,-4.918695e-05,-4.917093e-05,7.736567e-06,-2.091824e-09,3.580823e-07,0.000198673631433319
PART_000_R31G119B180A255,10546,0.0001490413,-4.919028e-05,-4.917112e-05,7.924965e-06,-2.507991e-09,6.407581e-07,0.00019869979492133626
PART_000_R31G119B180A255,10547,0.0001490413,-4.91867e-05,-4.917082e-05,8.266724e-06,-8.539453e-09,7.743462e-07,0.0001987410566729735
PART_000_R31G119B180A255,10548,0.0001490413,-4.917657e-05,-4.918203e-05,8.856102e-06,-1.194701e-08,6.334096e-07,0.0001988162517652397
PART_002_R214G39B40A255,10549,0.0001490413,-4.91877e-05,-4.920147e-05,9.93261e-06,1.225975e-08,2.312767e-07,0.00019898139959759932
PART_003_R247G182B210A255,10550,0.000111781,-3.69046e-05,-3.686842e-05,1.452033e-05,1.307092e-09,-1.262006e-07,0.000150779963012898
PART_003_R247G182B210A255,10551,0.000111781,-3.688776e-05,-3.689261e-05,1.331918e-05,-1.306694e-08,-3.183551e-07,0.0001504514124118054
PART_003_R247G182B210A255,10552,0.000111781,-3.688087e-05,-3.688968e-05,1.24938e-05,5.181322e-09,-4.059927e-07,0.00015023462006695846
PART_000_R31G119B180A255,10553,0.000111781,-3.688976e-05,-3.687998e-05,1.198339e-05,1.390998e-09,-3.623592e-07,0.0001501090929978714
PART_000_R31G119B180A255,10554,0.000111781,-3.688969e-05,-3.688145e-05,1.170197e-05,1.128973e-09,-2.069311e-07,0.0001500422802325897
PART_000_R31G119B180A255,10555,0.000111781,-3.689024e-05,-3.687865e-05,1.161084e-05,2.322737e-12,-4.748892e-12,0.00015001949691393775
PART_000_R31G119B180A255,10556,0.000111781,-3.688969e-05,-3.688145e-05,1.170198e-05,-1.123825e-09,2.06922e-07,0.00015004228253455925
PART_000_R31G119B180A255,10557,0.000111781,-3.688976e-05,-3.687998e-05,1.198339e-05,-1.386734e-09,3.623508e-07,0.0001501090929369216
PART_000_R31G119B180A255,10558,0.000111781,-3.688087e-05,-3.688967e-05,1.249381e-05,-5.177065e-09,4.059858e-07,0.0001502346175571949
PART_002_R214G39B40A255,10559,0.000111781,-3.688775e-05,-3.68926e-05,1.331919e-05,1.306963e-08,3.183503e-07,0.00015045140515620656
PART_002_R214G39B40A255,10560,0.000111781,-3.69046e-05,-3.686842e-05,1.452034e-05,-1.305459e-09,1.261988e-07,0.00015077996589738053
PART_003_R247G182B210A255,10561,7.452067e-05,-2.459479e-05,-2.459659e-05,1.772536e-05,-5.200821e-09,-5.843297e-08,0.00010376236460224857
PART_003_R247G182B210A255,10562,7.452067e-05,-2.459448e-05,-2.4587e-05,1.645285e-05,4.190893e-10,-1.613829e-07,0.0001031272931253727
PART_003_R247G182B210A255,10563,7.452067e-05,-2.459162e-05,-2.459204e-05,1.553576e-05,-9.91199e-09,-2.068064e-07,0.0001027010018165304
PART_003_R247G182B210A255,10564,7.452067e-05,-2.458789e-05,-2.459276e-05,1.492193e-05,1.537434e-09,-1.868214e-07,0.000102426002783717
PART_000_R31G119B180A255,10565,7.452067e-05,-2.459312e-05,-2.458676e-05,1.457597e-05,-1.499897e-09,-1.104275e-07,0.00010227573680340485
PART_000_R31G119B180A255,10566,7.452066e-05,-2.459133e-05,-2.458941e-05,1.446381e-05,2.64623e-12,-3.139829e-12,0.00010222818432102788
PART_000_R31G119B180A255,10567,7.452066e-05,-2.459312e-05,-2.458675e-05,1.457597e-05,1.505737e-09,1.104215e-07,0.00010227572224889991
PART_000_R31G119B180A255,10568,7.452066e-05,-2.458789e-05,-2.459276e-05,1.492194e-05,-1.532589e-09,1.868158e-07,0.00010242599744705724
PART_002_R214G39B40A255,10569,7.452066e-05,-2.459162e-05,-2.459204e-05,1.553577e-05,9.916738e-09,2.068018e-07,0.00010270099667768383
PART_002_R214G39B40A255,10570,7.452066e-05,-2.459448e-05,-2.458699e-05,1.645286e-05,-4.163443e-10,1.613797e-07,0.00010312728348115568
PART_002_R214G39B40A255,10571,7.452066e-05,-2.459479e-05,-2.459659e-05,1.772537e-05,5.202158e-09,5.843187e-08,0.00010376236017314196
PART_003_R247G182B210A255,10572,3.726034e-05,-1.23009e-05,-1.229069e-05,1.96226e-05,-6.864799e-10,-2.573167e-08,6.009119631336679e-05
PART_003_R247G182B210A255,10573,3.726034e-05,-1.229619e-05,-1.229755e-05,1.832411e-05,-1.005958e-08,-6.642403e-08,5.884938084881041e-05
PART_003_R247G182B210A255,10574,3.726033e-05,-1.229489e-05,-1.229565e-05,1.735702e-05,-6.975917e-10,-8.711465e-08,5.796187272665572e-05
PART_003_R247G182B210A255,10575,3.726033e-05,-1.229595e-05,-1.229492e-05,1.66989e-05,-7.816965e-09,-7.935426e-08,5.7379026688952e-05
PART_003_R247G182B210A255,10576,3.726033e-05,-1.229417e-05,-1.229617e-05,1.631658e-05,1.376848e-10,-4.673743e-08,5.7047756179872324e-05
PART_000_R31G119B180A255,10577,3.726033e-05,-1.229653e-05,-1.22934e-05,1.619261e-05,2.779169e-12,-1.558799e-12,5.6941453491468155e-05
PART_000_R31G119B180A255,10578,3.726033e-05,-1.229417e-05,-1.229617e-05,1.631658e-05,-1.315039e-10,4.673448e-08,5.704775617257828e-05
PART_002_R214G39B40A255,10579,3.726033e-05,-1.229595e-05,-1.229492e-05,1.66989e-05,7.822163e-09,7.935148e-08,5.737902667954325e-05
PART_002_R214G39B40A255,10580,3.726033e-05,-1.229489e-05,-1.229565e-05,1.735703e-05,7.02904e-10,8.711241e-08,5.796188170042489e-05
PART_002_R214G39B40A255,10581,3.726033e-05,-1.229619e-05,-1.229755e-05,1.832413e-05,1.006307e-08,6.642247e-08,5.884939110668517e-05
PART_002_R214G39B40A255,10582,3.726033e-05,-1.230089e-05,-1.229069e-05,1.962262e-05,6.884608e-10,2.573109e-08,6.00912035340158e-05
PART_003_R247G182B210A255,10583,1.173872e-12,-1.423431e-12,1.941736e-13,2.025232e-05,-4.041812e-09,-1.313478e-13,3.50780479097104e-05
PART_003_R247G182B210A255,10584,1.265513e-12,-2.16345e-12,3.130452e-13,1.894417e-05,-1.700434e-09,-3.327617e-13,3.2812265079404936e-05
PART_003_R247G182B210A255,10585,1.373396e-12,-3.117923e-12,4.182306e-13,1.796587e-05,-1.075596e-08,-4.698118e-13,3.11178052189216e-05
PART_003_R247G182B210A255,10586,1.284093e-12,-3.750195e-12,7.086268e-13,1.72913e-05,-6.574905e-10,-4.207011e-13,2.9949410150567315e-05
PART_003_R247G182B210A255,10587,1.190764e-12,-4.008752e-12,8.146367e-13,1.690023e-05,-4.466526e-09,-2.788391e-13,2.9272058041898745e-05
PART_003_R247G182B210A255,10588,1.094241e-12,-4.061709e-12,9.571114e-13,1.677111e-05,2.822078e-12,2.062963e-14,2.904841461932733e-05
PART_002_R214G39B40A255,10589,1.197436e-12,-4.006559e-12,8.084451e-13,1.690023e-05,4.472786e-09,2.450324e-13,2.927205804476633e-05
PART_002_R214G39B40A255,10590,1.289871e-12,-3.7811e-12,7.184826e-13,1.72913e-05,6.62716e-10,4.554795e-13,2.9949410150912844e-05
PART_002_R214G39B40A255,10591,1.465189e-12,-3.331502e-12,4.074956e-13,1.796588e-05,1.076115e-08,4.558412e-13,3.111782254480971e-05
PART_002_R214G39B40A255,10592,1.463341e-12,-2.779152e-12,3.175355e-13,1.894419e-05,1.70345e-09,3.552846e-13,3.281229972089034e-05
PART_002_R214G39B40A255,10593,1.487608e-12,-2.428419e-12,1.949764e-13,2.025233e-05,4.043336e-09,1.193796e-13,3.507806523074513e-05
PART_003_R247G182B210A255,10594,-3.726033e-05,1.230089e-05,1.229069e-05,1.96226e-05,-6.86461e-10,2.573141e-08,6.0091183941527304e-05
PART_003_R247G182B210A255,10595,-3.726033e-05,1.229619e-05,1.229755e-05,1.832411e-05,-1.005956e-08,6.642328e-08,5.884937242523593e-05
PART_003_R247G182B210A255,10596,-3.726033e-05,1.229489e-05,1.229565e-05,1.735702e-05,-6.975812e-10,8.71136e-08,5.796187272192103e-05
PART_003_R247G182B210A255,10597,-3.726033e-05,1.229596e-05,1.229492e-05,1.66989e-05,-7.816967e-09,7.935337e-08,5.7379031003677735e-05
PART_003_R247G182B210A255,10598,-3.726033e-05,1.229417e-05,1.229617e-05,1.631658e-05,1.376866e-10,4.673684e-08,5.704775617842224e-05
PART_001_R158G218B229A255,10599,-3.726033e-05,1.229654e-05,1.229341e-05,1.619261e-05,2.773519e-12,1.605226e-12,5.694146219431874e-05
PART_001_R158G218B229A255,10600,-3.726033e-05,1.229417e-05,1.229617e-05,1.631658e-05,-1.314999e-10,-4.673397e-08,5.7047756171324854e-05
PART_002_R214G39B40A255,10601,-3.726033e-05,1.229596e-05,1.229492e-05,1.66989e-05,7.822155e-09,-7.935052e-08,5.737903099397462e-05
PART_002_R214G39B40A255,10602,-3.726033e-05,1.229489e-05,1.229565e-05,1.735703e-05,7.028979e-10,-8.711143e-08,5.796188169600609e-05
PART_002_R214G39B40A255,10603,-3.726033e-05,1.229619e-05,1.229755e-05,1.832413e-05,1.006304e-08,-6.64217e-08,5.884939110406253e-05
PART_002_R214G39B40A255,10604,-3.726033e-05,1.230089e-05,1.229069e-05,1.962262e-05,6.88454e-10,-2.573082e-08,6.0091203533668724e-05
PART_003_R247G182B210A255,10605,-7.452067e-05,2.459479e-05,2.459659e-05,1.772536e-05,-5.200809e-09,5.843267e-08,0.00010376236460173994
PART_003_R247G182B210A255,10606,-7.452067e-05,2.459448e-05,2.4587e-05,1.645285e-05,4.191112e-10,1.613822e-07,0.0001031272931220867
PART_003_R247G182B210A255,10607,-7.452067e-05,2.459161e-05,2.459204e-05,1.553576e-05,-9.911962e-09,2.068053e-07,0.0001027009969846145
PART_003_R247G182B210A255,10608,-7.452067e-05,2.458788e-05,2.459277e-05,1.492193e-05,1.537418e-09,1.868205e-07,0.00010242600277950626
PART_001_R158G218B229A255,10609,-7.452066e-05,2.459311e-05,2.458676e-05,1.457597e-05,-1.499891e-09,1.104269e-07,0.0001022757222652001
PART_001_R158G218B229A255,10610,-7.452066e-05,2.459132e-05,2.458941e-05,1.446381e-05,2.62903e-12,3.153896e-12,0.000102228179473348
PART_001_R158G218B229A255,10611,-7.452066e-05,2.459311e-05,2.458675e-05,1.457597e-05,1.505756e-09,-1.104209e-07,0.00010227571740122566
PART_001_R158G218B229A255,10612,-7.452066e-05,2.458788e-05,2.459277e-05,1.492194e-05,-1.532604e-09,-1.868149e-07,0.00010242599744284803
PART_002_R214G39B40A255,10613,-7.452066e-05,2.459161e-05,2.459204e-05,1.553577e-05,9.916734e-09,-2.068008e-07,0.00010270099184637936
PART_002_R214G39B40A255,10614,-7.452066e-05,2.459447e-05,2.458699e-05,1.645286e-05,-4.163858e-10,-1.613789e-07,0.00010312727867156162
PART_002_R214G39B40A255,10615,-7.452065e-05,2.459479e-05,2.459659e-05,1.772537e-05,5.20215e-09,-5.84316e-08,0.00010376235062043954
PART_003_R247G182B210A255,10616,-0.000111781,3.69046e-05,3.686842e-05,1.452032e-05,1.307137e-09,1.262003e-07,0.00015077996012310317
PART_003_R247G182B210A255,10617,-0.000111781,3.688776e-05,3.689261e-05,1.331918e-05,-1.306692e-08,3.183542e-07,0.000150451412406087
PART_003_R247G182B210A255,10618,-0.000111781,3.688088e-05,3.688967e-05,1.24938e-05,5.181315e-09,4.059914e-07,0.00015023462005553978
PART_001_R158G218B229A255,10619,-0.000111781,3.688977e-05,3.687999e-05,1.198339e-05,1.390973e-09,3.623581e-07,0.00015010910289375967
PART_001_R158G218B229A255,10620,-0.000111781,3.688969e-05,3.688145e-05,1.170197e-05,1.128969e-09,2.069304e-07,0.0001500422802296934
PART_001_R158G218B229A255,10621,-0.000111781,3.689024e-05,3.687866e-05,1.161084e-05,2.301937e-12,4.660272e-12,0.0001500195018682294
PART_001_R158G218B229A255,10622,-0.000111781,3.688969e-05,3.688145e-05,1.170197e-05,-1.123792e-09,-2.069212e-07,0.0001500422801915132
PART_001_R158G218B229A255,10623,-0.000111781,3.688976e-05,3.687998e-05,1.198339e-05,-1.386744e-09,-3.623498e-07,0.00015010909292968017
PART_001_R158G218B229A255,10624,-0.000111781,3.688087e-05,3.688967e-05,1.24938e-05,-5.17704e-09,-4.059844e-07,0.0001502346150509837
PART_002_R214G39B40A255,10625,-0.000111781,3.688775e-05,3.689261e-05,1.331919e-05,1.306959e-08,-3.183495e-07,0.00015045141009219687
PART_002_R214G39B40A255,10626,-0.000111781,3.69046e-05,3.686841e-05,1.452034e-05,-1.305476e-09,-1.261984e-07,0.00015077996096822744
PART_003_R247G182B210A255,10627,-0.0001490413,4.91877e-05,4.920147e-05,9.932603e-06,-1.225918e-08,2.312785e-07,0.00019898139855550794
PART_003_R247G182B210A255,10628,-0.0001490413,4.917657e-05,4.918205e-05,8.856095e-06,1.19484e-08,6.33415e-07,0.00019881626085212808
PART_001_R158G218B229A255,10629,-0.0001490413,4.91867e-05,4.917082e-05,8.266719e-06,8.542464e-09,7.743541e-07,0.00019874105614177187
PART_001_R158G218B229A255,10630,-0.0001490413,4.919028e-05,4.917113e-05,7.924961e-06,2.510898e-09,6.407677e-07,0.00019869979952296475
PART_001_R158G218B229A255,10631,-0.0001490413,4.918695e-05,4.917092e-05,7.736565e-06,2.095739e-09,3.580942e-07,0.00019867362627615717
PART_001_R158G218B229A255,10632,-0.0001490413,4.919178e-05,4.917008e-05,7.679059e-06,1.636739e-12,5.938881e-12,0.00019866795579739818
PART_001_R158G218B229A255,10633,-0.0001490413,4.918694e-05,4.917092e-05,7.736566e-06,-2.0918e-09,-3.580812e-07,0.0001986736213333681
PART_001_R158G218B229A255,10634,-0.0001490413,4.919027e-05,4.917113e-05,7.924964e-06,-2.507967e-09,-6.407571e-07,0.0001986997947905631
PART_001_R158G218B229A255,10635,-0.0001490413,4.91867e-05,4.917082e-05,8.266724e-06,-8.539432e-09,-7.743445e-07,0.00019874105665309988
PART_001_R158G218B229A255,10636,-0.0001490413,4.917657e-05,4.918204e-05,8.856101e-06,-1.194702e-08,-6.334088e-07,0.0001988162566091891
PART_002_R214G39B40A255,10637,-0.0001490413,4.918769e-05,4.920146e-05,9.932609e-06,1.225977e-08,-2.312763e-07,0.00019898138948392296
PART_003_R247G182B210A255,10638,-0.0001863017,6.151626e-05,6.142297e-05,3.648018e-06,1.886402e-08,6.23496e-07,0.00024785423635560896
PART_001_R158G218B229A255,10639,-0.0001863017,6.148095e-05,6.145366e-05,3.134942e-06,1.161474e-08,1.347986e-06,0.0002478394956110776
PART_001_R158G218B229A255,10640,-0.0001863017,6.149861e-05,6.14528e-05,2.938749e-06,2.274032e-09,1.372508e-06,0.0002478410863631169
PART_001_R158G218B229A255,10641,-0.0001863017,6.148267e-05,6.146267e-05,2.809205e-06,2.716203e-09,1.070272e-06,0.0002478290743550647
PART_001_R158G218B229A255,10642,-0.0001863017,6.149326e-05,6.145936e-05,2.747207e-06,3.834787e-10,5.776222e-07,0.0002478257159437437
PART_001_R158G218B229A255,10643,-0.0001863017,6.148323e-05,6.146421e-05,2.724423e-06,5.325047e-13,6.987829e-12,0.0002478203512013201
PART_001_R158G218B229A255,10644,-0.0001863017,6.149326e-05,6.145936e-05,2.747208e-06,-3.817509e-10,-5.776056e-07,0.00024782571586092123
PART_001_R158G218B229A255,10645,-0.0001863017,6.148267e-05,6.146266e-05,2.809207e-06,-2.715266e-09,-1.070259e-06,0.00024782906925633057
PART_001_R158G218B229A255,10646,-0.0001863016,6.14986e-05,6.145279e-05,2.938751e-06,-2.272532e-09,-1.372496e-06,0.0002478409762631219
PART_001_R158G218B229A255,10647,-0.0001863016,6.148094e-05,6.145365e-05,3.134944e-06,-1.161438e-08,-1.347979e-06,0.0002478393856039901
PART_001_R158G218B229A255,10648,-0.0001863016,6.151625e-05,6.142296e-05,3.648021e-06,-1.886302e-08,-6.234928e-07,0.00024785412650049816
PART_003_R247G182B210A255,10649,0.0001817577,-6.001587e-05,-5.992486e-05,3.64802e-06,1.84024e-08,-6.234965e-07,0.00024181305802235332
PART_000_R31G119B180A255,10650,0.0001817577,-5.998142e-05,-5.995478e-05,3.134942e-06,1.133194e-08,-1.347989e-06,0.00024179805232922834
PART_000_R31G119B180A255,10651,0.0001817577,-5.999865e-05,-5.995396e-05,2.93875e-06,2.217854e-09,-1.37251e-06,0.00024179927789756017
PART_000_R31G119B180A255,10652,0.0001817577,-5.99831e-05,-5.996357e-05,2.809206e-06,2.650431e-09,-1.070276e-06,0.0002417871067209976
PART_000_R31G119B180A255,10653,0.0001817577,-5.999343e-05,-5.996036e-05,2.747208e-06,3.736191e-10,-5.776233e-07,0.00024178349331967924
PART_000_R31G119B180A255,10654,0.0001817577,-5.998364e-05,-5.996507e-05,2.724424e-06,8.982091e-13,-9.811465e-12,0.0002417781092893902
PART_000_R31G119B180A255,10655,0.0001817577,-5.999342e-05,-5.996035e-05,2.747209e-06,-3.728621e-10,5.776069e-07,0.00024178348323824727
PART_000_R31G119B180A255,10656,0.0001817577,-5.998309e-05,-5.996356e-05,2.809207e-06,-2.648682e-09,1.070259e-06,0.00024178709653236384
PART_000_R31G119B180A255,10657,0.0001817577,-5.999864e-05,-5.995395e-05,2.938751e-06,-2.217397e-09,1.372498e-06,0.00024179926773236447
PART_000_R31G119B180A255,10658,0.0001817577,-5.998141e-05,-5.995477e-05,3.134945e-06,-1.133077e-08,1.347979e-06,0.00024179804228149313
PART_000_R31G119B180A255,10659,0.0001817577,-6.001586e-05,-5.992485e-05,3.648022e-06,-1.840324e-08,6.234936e-07,0.00024181304809414443
PART_003_R247G182B210A255,10660,0.0001454062,-4.7988e-05,-4.800144e-05,9.932601e-06,-1.195975e-08,-2.312795e-07,0.00019416499833884948
PART_003_R247G182B210A255,10661,0.0001454062,-4.797715e-05,-4.798248e-05,8.856095e-06,1.165779e-08,-6.334166e-07,0.00019399651061891205
PART_000_R31G119B180A255,10662,0.0001454062,-4.798703e-05,-4.797154e-05,8.26672e-06,8.333909e-09,-7.743564e-07,0.0001939194705520317
PART_000_R31G119B180A255,10663,0.0001454062,-4.799051e-05,-4.797183e-05,7.924962e-06,2.450081e-09,-6.407703e-07,0.0001938770795712294
PART_000_R31G119B180A255,10664,0.0001454062,-4.798727e-05,-4.797164e-05,7.736566e-06,2.044039e-09,-3.580954e-07,0.00019385035417274728
PART_000_R31G119B180A255,10665,0.0001454062,-4.799198e-05,-4.79708e-05,7.67906e-06,1.840594e-12,-7.292644e-12,0.00019384443296082397
PART_000_R31G119B180A255,10666,0.0001454062,-4.798726e-05,-4.797164e-05,7.736568e-06,-2.041366e-09,3.58082e-07,0.0001938503493492451
PART_000_R31G119B180A255,10667,0.0001454062,-4.799051e-05,-4.797182e-05,7.924965e-06,-2.446453e-09,6.407573e-07,0.0001938770748234352
PART_000_R31G119B180A255,10668,0.0001454062,-4.798702e-05,-4.797153e-05,8.266725e-06,-8.331491e-09,7.743461e-07,0.0001939194610953129
PART_000_R31G119B180A255,10669,0.0001454062,-4.797714e-05,-4.798247e-05,8.856103e-06,-1.165509e-08,6.334093e-07,0.00019399650167400926
PART_002_R214G39B40A255,10670,0.0001454062,-4.798799e-05,-4.800143e-05,9.932612e-06,1.196054e-08,2.312767e-07,0.0001941649900564733
PART_003_R247G182B210A255,10671,0.0001090546,-3.60045e-05,-3.596919e-05,1.452033e-05,1.274273e-09,-1.262006e-07,0.00014720594226238774
PART_003_R247G182B210A255,10672,0.0001090546,-3.598806e-05,-3.599279e-05,1.331918e-05,-1.274839e-08,-3.183556e-07,0.0001468692122266474
PART_003_R247G182B210A255,10673,0.0001090546,-3.598135e-05,-3.598993e-05,1.24938e-05,5.054236e-09,-4.059934e-07,0.0001466473694218493
PART_000_R31G119B180A255,10674,0.0001090546,-3.599002e-05,-3.598047e-05,1.198339e-05,1.357047e-09,-3.623597e-07,0.00014651878900974946
PART_000_R31G119B180A255,10675,0.0001090546,-3.598995e-05,-3.59819e-05,1.170197e-05,1.100678e-09,-2.069316e-07,0.0001464503011680615
PART_000_R31G119B180A255,10676,0.0001090546,-3.599048e-05,-3.597917e-05,1.161084e-05,2.206465e-12,-5.029986e-12,0.00014642701156816865
PART_000_R31G119B180A255,10677,0.0001090546,-3.598994e-05,-3.59819e-05,1.170198e-05,-1.097107e-09,2.069217e-07,0.00014645029857085826
PART_000_R31G119B180A255,10678,0.0001090546,-3.599001e-05,-3.598047e-05,1.19834e-05,-1.352737e-09,3.623507e-07,0.00014651878644646006
PART_000_R31G119B180A255,10679,0.0001090546,-3.598134e-05,-3.598993e-05,1.249381e-05,-5.051178e-09,4.059857e-07,0.00014664736696870357
PART_002_R214G39B40A255,10680,0.0001090546,-3.598805e-05,-3.599278e-05,1.331919e-05,1.275128e-08,3.183502e-07,0.00014686920503711168
PART_002_R214G39B40A255,10681,0.0001090546,-3.600449e-05,-3.596919e-05,1.452034e-05,-1.273989e-09,1.261988e-07,0.00014720594028865957
PART_003_R247G182B210A255,10682,7.27031e-05,-2.399492e-05,-2.399668e-05,1.772535e-05,-5.073824e-09,-5.843323e-08,0.00010145566362682211
PART_003_R247G182B210A255,10683,7.270309e-05,-2.399461e-05,-2.398731e-05,1.645284e-05,4.096593e-10,-1.613831e-07,0.0001008062761517613
PART_003_R247G182B210A255,10684,7.270309e-05,-2.399182e-05,-2.399224e-05,1.553576e-05,-9.670705e-09,-2.068069e-07,0.000100370086859227
PART_003_R247G182B210A255,10685,7.270309e-05,-2.398818e-05,-2.399294e-05,1.492193e-05,1.499888e-09,-1.868218e-07,0.00010008875394365872
PART_000_R31G119B180A255,10686,7.270309e-05,-2.399328e-05,-2.398708e-05,1.457597e-05,-1.464323e-09,-1.104278e-07,9.993498779594345e-05
PART_000_R31G119B180A255,10687,7.270309e-05,-2.399154e-05,-2.398966e-05,1.446381e-05,2.324506e-12,-3.189677e-12,9.988631081191882e-05
PART_000_R31G119B180A255,10688,7.270308e-05,-2.399328e-05,-2.398708e-05,1.457597e-05,1.468068e-09,1.104214e-07,9.993497809927567e-05
PART_000_R31G119B180A255,10689,7.270308e-05,-2.398818e-05,-2.399294e-05,1.492194e-05,-1.495188e-09,1.86816e-07,0.00010008874872279067
PART_002_R214G39B40A255,10690,7.270308e-05,-2.399182e-05,-2.399223e-05,1.553577e-05,9.674316e-09,2.06802e-07,0.00010037007702270922
PART_002_R214G39B40A255,10691,7.270308e-05,-2.399461e-05,-2.398731e-05,1.645286e-05,-4.057428e-10,1.613798e-07,0.00010080627633655222
PART_002_R214G39B40A255,10692,7.270308e-05,-2.399491e-05,-2.399667e-05,1.772537e-05,5.074976e-09,5.843191e-08,0.0001014556455138957
PART_003_R247G182B210A255,10693,3.635155e-05,-1.200088e-05,-1.199092e-05,1.96226e-05,-6.707507e-10,-2.573172e-08,5.909836948594828e-05
PART_003_R247G182B210A255,10694,3.635155e-05,-1.199629e-05,-1.199761e-05,1.832412e-05,-9.814634e-09,-6.64243e-08,5.783520640945283e-05
PART_003_R247G182B210A255,10695,3.635155e-05,-1.199502e-05,-1.199576e-05,1.735702e-05,-6.817196e-10,-8.711499e-08,5.6931957686998376e-05
PART_003_R247G182B210A255,10696,3.635155e-05,-1.199606e-05,-1.199505e-05,1.66989e-05,-7.626638e-09,-7.93545e-08,5.633845411602037e-05
PART_003_R247G182B210A255,10697,3.635155e-05,-1.199432e-05,-1.199627e-05,1.631658e-05,1.330952e-10,-4.673764e-08,5.600103861777228e-05
PART_000_R31G119B180A255,10698,3.635154e-05,-1.199662e-05,-1.199356e-05,1.619261e-05,2.322586e-12,-1.529704e-12,5.589274098857492e-05
PART_000_R31G119B180A255,10699,3.635154e-05,-1.199432e-05,-1.199627e-05,1.631658e-05,-1.294282e-10,4.673454e-08,5.6001029976780276e-05
PART_002_R214G39B40A255,10700,3.635154e-05,-1.199606e-05,-1.199505e-05,1.66989e-05,7.631305e-09,7.935174e-08,5.6338445524707826e-05
PART_002_R214G39B40A255,10701,3.635154e-05,-1.199502e-05,-1.199576e-05,1.735703e-05,6.850495e-10,8.711258e-08,5.693195833019414e-05
PART_002_R214G39B40A255,10702,3.635154e-05,-1.199629e-05,-1.19976e-05,1.832413e-05,9.817932e-09,6.642267e-08,5.783520337079862e-05
PART_002_R214G39B40A255,10703,3.635154e-05,-1.200087e-05,-1.199092e-05,1.962262e-05,6.711714e-10,2.573114e-08,5.9098377134659204e-05
PART_003_R247G182B210A255,10704,2.094524e-12,-2.619419e-12,2.105346e-13,2.025231e-05,-3.943218e-09,-2.290263e-13,3.507803055553749e-05
PART_003_R247G182B210A255,10705,1.539874e-12,-1.23182e-12,2.593818e-13,1.894417e-05,-1.658207e-09,-6.521306e-13,3.281226507292141e-05
PART_003_R247G182B210A255,10706,5.782166e-13,3.60531e-13,6.374905e-13,1.796587e-05,-1.04943e-08,-8.099969e-13,3.111780495089105e-05
PART_003_R247G182B210A255,10707,-2.346491e-13,1.446385e-12,9.30321e-13,1.72913e-05,-6.416817e-10,-7.600247e-13,2.9949410149538343e-05
PART_003_R247G182B210A255,10708,-7.951563e-13,1.948636e-12,1.275528e-12,1.690023e-05,-4.358867e-09,-4.041203e-13,2.9272057993210373e-05
PART_003_R247G182B210A255,10709,-9.353134e-13,2.074549e-12,1.299701e-12,1.677111e-05,2.298314e-12,-2.616465e-14,2.9048414619326872e-05
PART_002_R214G39B40A255,10710,-8.01592e-13,1.943876e-12,1.284655e-12,1.690023e-05,4.362498e-09,4.625835e-13,2.9272057994833115e-05
PART_002_R214G39B40A255,10711,-2.315106e-13,1.477291e-12,9.131997e-13,1.72913e-05,6.464183e-10,7.169389e-13,2.9949410149843915e-05
PART_002_R214G39B40A255,10712,4.738352e-13,6.093182e-13,6.525327e-13,1.796588e-05,1.049794e-08,8.394112e-13,3.1117822275079515e-05
PART_002_R214G39B40A255,10713,1.312524e-12,-4.854173e-13,2.465041e-13,1.894419e-05,1.662283e-09,6.248038e-13,3.2812299714556095e-05
PART_002_R214G39B40A255,10714,1.720286e-12,-1.383435e-12,2.078417e-13,2.025234e-05,3.944323e-09,2.461398e-13,3.507808251743329e-05
PART_003_R247G182B210A255,10715,-3.635155e-05,1.200087e-05,1.199092e-05,1.96226e-05,-6.707504e-10,2.573125e-08,5.9098365393649415e-05
PART_003_R247G182B210A255,10716,-3.635155e-05,1.199628e-05,1.199761e-05,1.832412e-05,-9.814607e-09,6.642306e-08,5.783520222548834e-05
PART_003_R247G182B210A255,10717,-3.635154e-05,1.199501e-05,1.199576e-05,1.735702e-05,-6.817122e-10,8.711344e-08,5.693194494189691e-05
PART_003_R247G182B210A255,10718,-3.635154e-05,1.199605e-05,1.199505e-05,1.66989e-05,-7.626633e-09,7.935297e-08,5.633844123710059e-05
PART_003_R247G182B210A255,10719,-3.635154e-05,1.199431e-05,1.199627e-05,1.631658e-05,1.330846e-10,4.673684e-08,5.600102566622396e-05
PART_001_R158G218B229A255,10720,-3.635154e-05,1.199661e-05,1.199357e-05,1.619261e-05,2.326716e-12,1.470484e-12,5.589274098775639e-05
PART_001_R158G218B229A255,10721,-3.635154e-05,1.199431e-05,1.199627e-05,1.631658e-05,-1.294331e-10,-4.673361e-08,5.600102565811157e-05
PART_002_R214G39B40A255,10722,-3.635154e-05,1.199605e-05,1.199505e-05,1.66989e-05,7.631309e-09,-7.935031e-08,5.6338441227760486e-05
PART_002_R214G39B40A255,10723,-3.635154e-05,1.199501e-05,1.199576e-05,1.735703e-05,6.850299e-10,-8.711093e-08,5.6931954076690306e-05
PART_002_R214G39B40A255,10724,-3.635154e-05,1.199628e-05,1.19976e-05,1.832413e-05,9.817916e-09,-6.642145e-08,5.783519918690852e-05
PART_002_R214G39B40A255,10725,-3.635154e-05,1.200087e-05,1.199092e-05,1.962262e-05,6.711539e-10,-2.573068e-08,5.909837713405777e-05
PART_003_R247G182B210A255,10726,-7.270309e-05,2.399492e-05,2.399668e-05,1.772535e-05,-5.073801e-09,5.843275e-08,0.0001014556540948408
PART_003_R247G182B210A255,10727,-7.270309e-05,2.399461e-05,2.398731e-05,1.645284e-05,4.096991e-10,1.613817e-07,0.00010080627614503794
PART_003_R247G182B210A255,10728,-7.270309e-05,2.399182e-05,2.399224e-05,1.553576e-05,-9.670719e-09,2.068051e-07,0.00010037008684810469
PART_003_R247G182B210A255,10729,-7.270309e-05,2.398818e-05,2.399294e-05,1.492193e-05,1.499895e-09,1.868201e-07,0.00010008875393413961
PART_001_R158G218B229A255,10730,-7.270309e-05,2.399328e-05,2.398708e-05,1.457597e-05,-1.464357e-09,1.104269e-07,9.993498779296146e-05
PART_001_R158G218B229A255,10731,-7.270309e-05,2.399154e-05,2.398966e-05,1.446381e-05,2.343308e-12,3.179907e-12,9.988631081191882e-05
PART_001_R158G218B229A255,10732,-7.270309e-05,2.399328e-05,2.398708e-05,1.457597e-05,1.468052e-09,-1.104205e-07,9.993498777190895e-05
PART_001_R158G218B229A255,10733,-7.270308e-05,2.398818e-05,2.399294e-05,1.492194e-05,-1.49516e-09,-1.868144e-07,0.00010008874871383024
PART_002_R214G39B40A255,10734,-7.270308e-05,2.399182e-05,2.399224e-05,1.553577e-05,9.674286e-09,-2.068002e-07,0.00010037008182853439
PART_002_R214G39B40A255,10735,-7.270308e-05,2.399461e-05,2.398731e-05,1.645286e-05,-4.057602e-10,-1.613784e-07,0.00010080627632982871
PART_002_R214G39B40A255,10736,-7.270308e-05,2.399491e-05,2.399668e-05,1.772537e-05,5.07494e-09,-5.843139e-08,0.00010145565027869596
PART_003_R247G182B210A255,10737,-0.0001090546,3.600449e-05,3.59692e-05,1.452033e-05,1.274264e-09,1.262001e-07,0.00014720594225750458
PART_003_R247G182B210A255,10738,-0.0001090546,3.598805e-05,3.599278e-05,1.331918e-05,-1.274835e-08,3.183541e-07,0.00014686920234108764
PART_003_R247G182B210A255,10739,-0.0001090546,3.598134e-05,3.598994e-05,1.24938e-05,5.05423e-09,4.059915e-07,0.00014664736940694687
PART_001_R158G218B229A255,10740,-0.0001090546,3.599001e-05,3.598047e-05,1.198339e-05,1.357028e-09,3.62358e-07,0.00014651878404711686
PART_001_R158G218B229A255,10741,-0.0001090546,3.598994e-05,3.598191e-05,1.170197e-05,1.100633e-09,2.069305e-07,0.00014645030116257416
PART_001_R158G218B229A255,10742,-0.0001090546,3.599047e-05,3.597917e-05,1.161084e-05,2.229556e-12,5.174782e-12,0.00014642700661497113
PART_001_R158G218B229A255,10743,-0.0001090546,3.598994e-05,3.598191e-05,1.170197e-05,-1.097121e-09,-2.069208e-07,0.00014645030112137852
PART_001_R158G218B229A255,10744,-0.0001090546,3.599001e-05,3.598046e-05,1.198339e-05,-1.352679e-09,-3.623487e-07,0.0001465187790289552
PART_001_R158G218B229A255,10745,-0.0001090546,3.598133e-05,3.598993e-05,1.24938e-05,-5.05121e-09,-4.05984e-07,0.00014664735945393574
PART_002_R214G39B40A255,10746,-0.0001090546,3.598805e-05,3.599278e-05,1.331919e-05,1.275127e-08,-3.183486e-07,0.00014686920502670473
PART_002_R214G39B40A255,10747,-0.0001090546,3.600448e-05,3.596919e-05,1.452034e-05,-1.274019e-09,-1.261983e-07,0.00014720593535909565
PART_003_R247G182B210A255,10748,-0.0001454062,4.7988e-05,4.800146e-05,9.932598e-06,-1.195966e-08,2.312789e-07,0.00019416500783797674
PART_003_R247G182B210A255,10749,-0.0001454062,4.797715e-05,4.798247e-05,8.856093e-06,1.165777e-08,6.334146e-07,0.00019399650534094202
PART_001_R158G218B229A255,10750,-0.0001454062,4.798703e-05,4.797155e-05,8.266718e-06,8.333859e-09,7.74354e-07,0.00019391947525312933
PART_001_R158G218B229A255,10751,-0.0001454062,4.799052e-05,4.797182e-05,7.92496e-06,2.450043e-09,6.407683e-07,0.00019387707930758653
PART_001_R158G218B229A255,10752,-0.0001454062,4.798727e-05,4.797165e-05,7.736564e-06,2.043994e-09,3.58094e-07,0.00019385035891293686
PART_001_R158G218B229A255,10753,-0.0001454062,4.799198e-05,4.797079e-05,7.679058e-06,1.848517e-12,7.61523e-12,0.00019384442773574015
PART_001_R158G218B229A255,10754,-0.0001454062,4.798727e-05,4.797165e-05,7.736566e-06,-2.041348e-09,-3.580812e-07,0.0001938503590813792
PART_001_R158G218B229A255,10755,-0.0001454062,4.799051e-05,4.797182e-05,7.924963e-06,-2.446404e-09,-6.407548e-07,0.00019387707455338876
PART_001_R158G218B229A255,10756,-0.0001454062,4.798702e-05,4.797154e-05,8.266723e-06,-8.331459e-09,-7.743442e-07,0.00019391946580240272
PART_001_R158G218B229A255,10757,-0.0001454062,4.797714e-05,4.798246e-05,8.856101e-06,-1.165508e-08,-6.334071e-07,0.000193996496394082
PART_002_R214G39B40A255,10758,-0.0001454062,4.798799e-05,4.800144e-05,9.932609e-06,1.19605e-08,-2.312761e-07,0.0001941649945747655
PART_003_R247G182B210A255,10759,-0.0001817577,6.001587e-05,5.992488e-05,3.648019e-06,1.840214e-08,6.234956e-07,0.0002418130679609142
PART_001_R158G218B229A255,10760,-0.0001817577,5.998141e-05,5.995477e-05,3.134941e-06,1.133209e-08,1.347987e-06,0.00024179804225989309
PART_001_R158G218B229A255,10761,-0.0001817577,5.999864e-05,5.995398e-05,2.938749e-06,2.217746e-09,1.372507e-06,0.00024179928280450327
PART_001_R158G218B229A255,10762,-0.0001817577,5.998309e-05,5.996356e-05,2.809205e-06,2.650448e-09,1.070274e-06,0.00024178709666190258
PART_001_R158G218B229A255,10763,-0.0001817577,5.999342e-05,5.996037e-05,2.747208e-06,3.73592e-10,5.776215e-07,0.00024178349330472747
PART_001_R158G218B229A255,10764,-0.0001817577,5.998363e-05,5.996506e-05,2.724423e-06,8.792397e-13,1.023857e-11,0.00024177809925749025
PART_001_R158G218B229A255,10765,-0.0001817577,5.999341e-05,5.996037e-05,2.747208e-06,-3.728039e-10,-5.77606e-07,0.00024178348819362284
PART_001_R158G218B229A255,10766,-0.0001817577,5.998308e-05,5.996355e-05,2.809206e-06,-2.648731e-09,-1.070256e-06,0.00024178708645999098
PART_001_R158G218B229A255,10767,-0.0001817577,5.999863e-05,5.995397e-05,2.938751e-06,-2.217266e-09,-1.372496e-06,0.0002417992726927969
PART_001_R158G218B229A255,10768,-0.0001817577,5.99814e-05,5.995476e-05,3.134944e-06,-1.133092e-08,-1.347977e-06,0.0002417980322121581
PART_001_R158G218B229A255,10769,-0.0001817577,6.001585e-05,5.992486e-05,3.648022e-06,-1.840302e-08,-6.234928e-07,0.00024181304808226114
PART_003_R247G182B210A255,10770,0.0001772138,-5.851547e-05,-5.842674e-05,3.648018e-06,1.794426e-08,-6.234977e-07,0.00023577207567847974
PART_000_R31G119B180A255,10771,0.0001772138,-5.848188e-05,-5.845591e-05,3.134942e-06,1.104825e-08,-1.347989e-06,0.00023575679926896622
PART_000_R31G119B180A255,10772,0.0001772138,-5.849868e-05,-5.845511e-05,2.938749e-06,2.163352e-09,-1.372513e-06,0.00023575764093713376
PART_000_R31G119B180A255,10773,0.0001772138,-5.848351e-05,-5.846448e-05,2.809206e-06,2.583446e-09,-1.070276e-06,0.00023574530406943447
PART_000_R31G119B180A255,10774,0.0001772138,-5.849358e-05,-5.846135e-05,2.747208e-06,3.647616e-10,-5.776264e-07,0.00023574141678741725
PART_000_R31G119B180A255,10775,0.0001772138,-5.848404e-05,-5.846594e-05,2.724424e-06,7.364082e-14,-9.412585e-12,0.0002357360249002413
PART_000_R31G119B180A255,10776,0.0001772138,-5.849358e-05,-5.846134e-05,2.747209e-06,-3.631047e-10,5.776045e-07,0.00023574141166348063
PART_000_R31G119B180A255,10777,0.0001772138,-5.848351e-05,-5.846447e-05,2.809207e-06,-2.583136e-09,1.070259e-06,0.0002357452988754619
PART_000_R31G119B180A255,10778,0.0001772138,-5.849866e-05,-5.84551e-05,2.938752e-06,-2.161371e-09,1.372497e-06,0.0002357576257726984
PART_000_R31G119B180A255,10779,0.0001772137,-5.848187e-05,-5.84559e-05,3.134945e-06,-1.104801e-08,1.34798e-06,0.00023575668926880685
PART_000_R31G119B180A255,10780,0.0001772137,-5.851546e-05,-5.842672e-05,3.648023e-06,-1.79424e-08,6.234933e-07,0.00023577196092057888
PART_003_R247G182B210A255,10781,0.000141771,-4.678831e-05,-4.680141e-05,9.932605e-06,-1.16612e-08,-2.312795e-07,0.00018934945072821653
PART_003_R247G182B210A255,10782,0.000141771,-4.677772e-05,-4.678292e-05,8.856097e-06,1.136524e-08,-6.334175e-07,0.00018917741857033728
PART_000_R31G119B180A255,10783,0.000141771,-4.678736e-05,-4.677225e-05,8.266721e-06,8.125655e-09,-7.743576e-07,0.0001890984435494234
PART_000_R31G119B180A255,10784,0.000141771,-4.679076e-05,-4.677253e-05,7.924962e-06,2.38771e-09,-6.407707e-07,0.0001890548783613463
PART_000_R31G119B180A255,10785,0.000141771,-4.678759e-05,-4.677235e-05,7.736566e-06,1.992949e-09,-3.580965e-07,0.000189027554958997
PART_000_R31G119B180A255,10786,0.000141771,-4.679219e-05,-4.677153e-05,7.67906e-06,5.751494e-13,-7.171677e-12,0.00018902138826534223
PART_000_R31G119B180A255,10787,0.000141771,-4.678759e-05,-4.677234e-05,7.736568e-06,-1.990258e-09,3.580813e-07,0.0001890275501313091
PART_000_R31G119B180A255,10788,0.000141771,-4.679075e-05,-4.677253e-05,7.924966e-06,-2.386191e-09,6.407577e-07,0.00018905487374469196
PART_000_R31G119B180A255,10789,0.000141771,-4.678735e-05,-4.677224e-05,8.266726e-06,-8.122747e-09,7.743457e-07,0.00018909843408756647
PART_000_R31G119B180A255,10790,0.000141771,-4.677771e-05,-4.678291e-05,8.856104e-06,-1.13642e-08,6.334094e-07,0.00018917740950497155
PART_002_R214G39B40A255,10791,0.000141771,-4.678829e-05,-4.68014e-05,9.932613e-06,1.166197e-08,2.312766e-07,0.0001893494370392824
PART_003_R247G182B210A255,10792,0.0001063283,-3.510438e-05,-3.506997e-05,1.452032e-05,1.243727e-09,-1.26201e-07,0.0001436346208994777
PART_003_R247G182B210A255,10793,0.0001063283,-3.508835e-05,-3.509297e-05,1.331918e-05,-1.242972e-08,-3.183559e-07,0.00014328931727814923
PART_003_R247G182B210A255,10794,0.0001063283,-3.508181e-05,-3.509018e-05,1.24938e-05,4.92813e-09,-4.059938e-07,0.00014306216328563613
PART_000_R31G119B180A255,10795,0.0001063283,-3.509026e-05,-3.508096e-05,1.198339e-05,1.321876e-09,-3.623602e-07,0.00014293037757599886
PART_000_R31G119B180A255,10796,0.0001063283,-3.509019e-05,-3.508236e-05,1.170197e-05,1.072615e-09,-2.069317e-07,0.0001428601373361089
PART_000_R31G119B180A255,10797,0.0001063283,-3.509071e-05,-3.507969e-05,1.161084e-05,5.400459e-13,-5.05862e-12,0.00014283631502474145
PART_000_R31G119B180A255,10798,0.0001063283,-3.509019e-05,-3.508235e-05,1.170198e-05,-1.07014e-09,2.06922e-07,0.00014286013480227137
PART_000_R31G119B180A255,10799,0.0001063283,-3.509026e-05,-3.508095e-05,1.19834e-05,-1.320132e-09,3.62351e-07,0.00014293037507474032
PART_000_R31G119B180A255,10800,0.0001063283,-3.50818e-05,-3.509018e-05,1.249381e-05,-4.924742e-09,4.059861e-07,0.00014306216089770253
PART_002_R214G39B40A255,10801,0.0001063283,-3.508835e-05,-3.509296e-05,1.331919e-05,1.243196e-08,3.183505e-07,0.00014328931509635616
PART_002_R214G39B40A255,10802,0.0001063282,-3.510437e-05,-3.506995e-05,1.452034e-05,-1.241494e-09,1.261988e-07,0.00014363451373769462
PART_003_R247G182B210A255,10803,7.088552e-05,-2.339505e-05,-2.339676e-05,1.772536e-05,-4.947363e-09,-5.843317e-08,9.915423632073302e-05
PART_003_R247G182B210A255,10804,7.088552e-05,-2.339475e-05,-2.338763e-05,1.645285e-05,3.976044e-10,-1.613836e-07,9.848992354695843e-05
PART_003_R247G182B210A255,10805,7.088552e-05,-2.339203e-05,-2.339243e-05,1.553576e-05,-9.429621e-09,-2.068071e-07,9.804336915772728e-05
PART_003_R247G182B210A255,10806,7.088552e-05,-2.338848e-05,-2.339312e-05,1.492193e-05,1.460463e-09,-1.86822e-07,9.775541533563351e-05
PART_000_R31G119B180A255,10807,7.088551e-05,-2.339346e-05,-2.33874e-05,1.457597e-05,-1.428673e-09,-1.104277e-07,9.759798247762657e-05
PART_000_R31G119B180A255,10808,7.088551e-05,-2.339176e-05,-2.338992e-05,1.446381e-05,1.597099e-13,-3.04549e-12,9.754811925921498e-05
PART_000_R31G119B180A255,10809,7.088551e-05,-2.339346e-05,-2.33874e-05,1.457597e-05,1.430544e-09,1.104219e-07,9.7597982458022e-05
PART_000_R31G119B180A255,10810,7.088551e-05,-2.338848e-05,-2.339311e-05,1.492194e-05,-1.45943e-09,1.868164e-07,9.775540541634122e-05
PART_002_R214G39B40A255,10811,7.088551e-05,-2.339203e-05,-2.339243e-05,1.553577e-05,9.432372e-09,2.068024e-07,9.804336426659971e-05
PART_002_R214G39B40A255,10812,7.08855e-05,-2.339475e-05,-2.338763e-05,1.645286e-05,-3.965088e-10,1.613801e-07,9.848990939683815e-05
PART_002_R214G39B40A255,10813,7.08855e-05,-2.339504e-05,-2.339675e-05,1.772537e-05,4.948526e-09,5.843203e-08,9.915421315617365e-05
PART_003_R247G182B210A255,10814,3.544276e-05,-1.170085e-05,-1.169115e-05,1.96226e-05,-6.528492e-10,-2.573193e-08,5.811371649499283e-05
PART_003_R247G182B210A255,10815,3.544276e-05,-1.169638e-05,-1.169767e-05,1.832411e-05,-9.569708e-09,-6.642458e-08,5.682861835715363e-05
PART_003_R247G182B210A255,10816,3.544276e-05,-1.169514e-05,-1.169587e-05,1.735702e-05,-6.648647e-10,-8.71153e-08,5.5909187313032174e-05
PART_003_R247G182B210A255,10817,3.544276e-05,-1.169615e-05,-1.169517e-05,1.66989e-05,-7.438031e-09,-7.93548e-08,5.5304696744241035e-05
PART_003_R247G182B210A255,10818,3.544275e-05,-1.169445e-05,-1.169636e-05,1.631658e-05,1.285646e-10,-4.673763e-08,5.496093668686025e-05
PART_000_R31G119B180A255,10819,3.544275e-05,-1.16967e-05,-1.169372e-05,1.619261e-05,-2.143958e-13,-1.421228e-12,5.485060743016623e-05
PART_000_R31G119B180A255,10820,3.544275e-05,-1.169445e-05,-1.169636e-05,1.631658e-05,-1.272712e-10,4.673499e-08,5.496093668011641e-05
PART_002_R214G39B40A255,10821,3.544275e-05,-1.169615e-05,-1.169517e-05,1.66989e-05,7.438568e-09,7.935218e-08,5.530468820977743e-05
PART_002_R214G39B40A255,10822,3.544275e-05,-1.169514e-05,-1.169586e-05,1.735703e-05,6.6768e-10,8.711318e-08,5.590918396980749e-05
PART_002_R214G39B40A255,10823,3.544275e-05,-1.169638e-05,-1.169766e-05,1.832413e-05,9.571495e-09,6.642304e-08,5.682862525658771e-05
PART_002_R214G39B40A255,10824,3.544275e-05,-1.170085e-05,-1.169114e-05,1.962262e-05,6.549922e-10,2.573132e-08,5.81137245878358e-05
PART_003_R247G182B210A255,10825,3.654304e-12,-3.268108e-12,-3.681982e-14,2.025232e-05,-3.844997e-09,-3.848981e-13,3.507804784333419e-05
PART_003_R247G182B210A255,10826,3.319725e-12,-4.192383e-12,2.842511e-13,1.894417e-05,-1.618958e-09,-9.556002e-13,3.2812265067041935e-05
PART_003_R247G182B210A255,10827,2.95391e-12,-5.487999e-12,7.249822e-13,1.796587e-05,-1.023295e-08,-1.257077e-12,3.1117804689768195e-05
PART_003_R247G182B210A255,10828,2.42181e-12,-6.317516e-12,1.330544e-12,1.72913e-05,-6.280333e-10,-1.07972e-12,2.994941014867153e-05
PART_003_R247G182B210A255,10829,1.98027e-12,-6.618053e-12,1.673188e-12,1.690023e-05,-4.251232e-09,-6.894489e-13,2.9272057945721775e-05
PART_003_R247G182B210A255,10830,1.755774e-12,-6.664391e-12,1.902253e-12,1.677111e-05,-3.458484e-13,4.490046e-14,2.904841461932772e-05
PART_002_R214G39B40A255,10831,1.993986e-12,-6.613321e-12,1.658071e-12,1.690023e-05,4.252258e-09,6.16464e-13,2.9272057946168846e-05
PART_002_R214G39B40A255,10832,2.420132e-12,-6.352086e-12,1.353971e-12,1.72913e-05,6.282198e-10,1.154913e-12,2.9949410148683284e-05
PART_002_R214G39B40A255,10833,3.095248e-12,-5.784512e-12,6.960903e-13,1.796588e-05,1.023515e-08,1.222382e-12,3.1117822012444156e-05
PART_002_R214G39B40A255,10834,3.608552e-12,-5.106096e-12,3.003908e-13,1.894419e-05,1.619529e-09,1.002576e-12,3.2812299708142734e-05
PART_002_R214G39B40A255,10835,4.134609e-12,-4.796955e-12,-4.464937e-14,2.025234e-05,3.846131e-09,3.659295e-13,3.507808248472301e-05
PART_003_R247G182B210A255,10836,-3.544276e-05,1.170085e-05,1.169115e-05,1.962259e-05,-6.528237e-10,2.573114e-08,5.811370636418429e-05
PART_003_R247G182B210A255,10837,-3.544276e-05,1.169637e-05,1.169767e-05,1.832411e-05,-9.569702e-09,6.642253e-08,5.682861420259396e-05
PART_003_R247G182B210A255,10838,-3.544276e-05,1.169514e-05,1.169587e-05,1.735702e-05,-6.648568e-10,8.711261e-08,5.590918730045775e-05
PART_003_R247G182B210A255,10839,-3.544276e-05,1.169615e-05,1.169517e-05,1.66989e-05,-7.438047e-09,7.935256e-08,5.530469673460533e-05
PART_003_R247G182B210A255,10840,-3.544276e-05,1.169446e-05,1.169636e-05,1.631658e-05,1.285646e-10,4.67362e-08,5.496094954795048e-05
PART_001_R158G218B229A255,10841,-3.544276e-05,1.169671e-05,1.169373e-05,1.619261e-05,-2.258479e-13,1.51713e-12,5.4850624617929446e-05
PART_001_R158G218B229A255,10842,-3.544275e-05,1.169446e-05,1.169636e-05,1.631658e-05,-1.272583e-10,-4.673373e-08,5.4960940964974784e-05
PART_002_R214G39B40A255,10843,-3.544275e-05,1.169615e-05,1.169517e-05,1.66989e-05,7.438562e-09,-7.934978e-08,5.530468819944447e-05
PART_002_R214G39B40A255,10844,-3.544275e-05,1.169514e-05,1.169586e-05,1.735703e-05,6.676827e-10,-8.711062e-08,5.590918395784141e-05
PART_002_R214G39B40A255,10845,-3.544275e-05,1.169637e-05,1.169767e-05,1.832413e-05,9.571466e-09,-6.642093e-08,5.682862524951497e-05
PART_002_R214G39B40A255,10846,-3.544275e-05,1.170085e-05,1.169114e-05,1.962262e-05,6.549882e-10,-2.573053e-08,5.811372458678631e-05
PART_003_R247G182B210A255,10847,-7.088552e-05,2.339505e-05,2.339676e-05,1.772536e-05,-4.947341e-09,5.843233e-08,9.915423631924467e-05
PART_003_R247G182B210A255,10848,-7.088552e-05,2.339475e-05,2.338764e-05,1.645285e-05,3.976187e-10,1.613815e-07,9.848992832220323e-05
PART_003_R247G182B210A255,10849,-7.088551e-05,2.339202e-05,2.339243e-05,1.553576e-05,-9.429589e-09,2.068044e-07,9.804335471677887e-05
PART_003_R247G182B210A255,10850,-7.088551e-05,2.338847e-05,2.339312e-05,1.492193e-05,1.460413e-09,1.868196e-07,9.77554008560747e-05
PART_001_R158G218B229A255,10851,-7.088551e-05,2.339344e-05,2.33874e-05,1.457597e-05,-1.428664e-09,1.104263e-07,9.759797281232453e-05
PART_001_R158G218B229A255,10852,-7.088551e-05,2.339174e-05,2.338993e-05,1.446381e-05,1.224052e-13,3.057184e-12,9.754811442649433e-05
PART_001_R158G218B229A255,10853,-7.088551e-05,2.339344e-05,2.33874e-05,1.457597e-05,1.430591e-09,-1.104205e-07,9.759797279272266e-05
PART_001_R158G218B229A255,10854,-7.088551e-05,2.338847e-05,2.339312e-05,1.492194e-05,-1.459448e-09,-1.86814e-07,9.775540540329446e-05
PART_002_R214G39B40A255,10855,-7.08855e-05,2.339202e-05,2.339242e-05,1.553577e-05,9.43239e-09,-2.067997e-07,9.804334501767473e-05
PART_002_R214G39B40A255,10856,-7.08855e-05,2.339474e-05,2.338763e-05,1.645286e-05,-3.965655e-10,-1.61378e-07,9.848990459986517e-05
PART_002_R214G39B40A255,10857,-7.088549e-05,2.339504e-05,2.339675e-05,1.772537e-05,4.948524e-09,-5.843123e-08,9.915420364619742e-05
PART_003_R247G182B210A255,10858,-0.0001063283,3.510438e-05,3.506996e-05,1.452032e-05,1.243788e-09,1.262001e-07,0.0001436346159761537
PART_003_R247G182B210A255,10859,-0.0001063283,3.508835e-05,3.509298e-05,1.331917e-05,-1.242972e-08,3.183535e-07,0.00014328931940853898
PART_003_R247G182B210A255,10860,-0.0001063283,3.508181e-05,3.509018e-05,1.249379e-05,4.928105e-09,4.059907e-07,0.00014306216063930433
PART_001_R158G218B229A255,10861,-0.0001063283,3.509027e-05,3.508097e-05,1.198339e-05,1.321805e-09,3.623574e-07,0.00014293038744860278
PART_001_R158G218B229A255,10862,-0.0001063283,3.50902e-05,3.508235e-05,1.170197e-05,1.072609e-09,2.069303e-07,0.00014286013733084832
PART_001_R158G218B229A255,10863,-0.0001063283,3.509072e-05,3.50797e-05,1.161083e-05,4.940909e-13,4.824946e-12,0.0001428363224864991
PART_001_R158G218B229A255,10864,-0.0001063283,3.509019e-05,3.508235e-05,1.170197e-05,-1.070067e-09,-2.069201e-07,0.00014286013233665045
PART_001_R158G218B229A255,10865,-0.0001063283,3.509026e-05,3.508096e-05,1.198339e-05,-1.32014e-09,-3.623486e-07,0.00014293037748772642
PART_001_R158G218B229A255,10866,-0.0001063283,3.508181e-05,3.509017e-05,1.24938e-05,-4.924674e-09,-4.059827e-07,0.00014306215824793305
PART_002_R214G39B40A255,10867,-0.0001063283,3.508835e-05,3.509297e-05,1.331919e-05,1.24319e-08,-3.183483e-07,0.00014328932001665356
PART_002_R214G39B40A255,10868,-0.0001063282,3.510437e-05,3.506995e-05,1.452034e-05,-1.241508e-09,-1.261978e-07,0.00014363451373505917
PART_003_R247G182B210A255,10869,-0.000141771,4.678831e-05,4.68014e-05,9.932601e-06,-1.166127e-08,2.312783e-07,0.00018934944511452763
PART_003_R247G182B210A255,10870,-0.000141771,4.677772e-05,4.678293e-05,8.856094e-06,1.136527e-08,6.334148e-07,0.00018917742310555687
PART_001_R158G218B229A255,10871,-0.000141771,4.678735e-05,4.677224e-05,8.266718e-06,8.12561e-09,7.74354e-07,0.00018909843314070384
PART_001_R158G218B229A255,10872,-0.000141771,4.679075e-05,4.677255e-05,7.92496e-06,2.387628e-09,6.407674e-07,0.00018905488306082528
PART_001_R158G218B229A255,10873,-0.000141771,4.678758e-05,4.677234e-05,7.736564e-06,1.992921e-09,3.580951e-07,0.00018902754473068263
PART_001_R158G218B229A255,10874,-0.000141771,4.679218e-05,4.677154e-05,7.679058e-06,5.537443e-13,6.661929e-12,0.0001890213880199514
PART_001_R158G218B229A255,10875,-0.000141771,4.678758e-05,4.677234e-05,7.736566e-06,-1.990208e-09,-3.580789e-07,0.00018902754488410025
PART_001_R158G218B229A255,10876,-0.000141771,4.679074e-05,4.677254e-05,7.924963e-06,-2.386141e-09,-6.407552e-07,0.00018905487334055607
PART_001_R158G218B229A255,10877,-0.000141771,4.678734e-05,4.677223e-05,8.266723e-06,-8.122689e-09,-7.743416e-07,0.0001890984236727033
PART_001_R158G218B229A255,10878,-0.000141771,4.677771e-05,4.678292e-05,8.856101e-06,-1.136421e-08,-6.33407e-07,0.00018917741404320088
PART_002_R214G39B40A255,10879,-0.000141771,4.678829e-05,4.680138e-05,9.932609e-06,1.166199e-08,-2.312754e-07,0.00018934942644575643
PART_003_R247G182B210A255,10880,-0.0001772138,5.851547e-05,5.842672e-05,3.648016e-06,1.794457e-08,6.234961e-07,0.00023577206558236406
PART_001_R158G218B229A255,10881,-0.0001772138,5.848188e-05,5.845593e-05,3.134941e-06,1.104804e-08,1.347985e-06,0.00023575680915563727
PART_001_R158G218B229A255,10882,-0.0001772138,5.849868e-05,5.84551e-05,2.938748e-06,2.163409e-09,1.372509e-06,0.00023575763583268553
PART_001_R158G218B229A255,10883,-0.0001772138,5.848352e-05,5.84645e-05,2.809205e-06,2.583361e-09,1.070272e-06,0.0002357453189749389
PART_001_R158G218B229A255,10884,-0.0001772138,5.849359e-05,5.846134e-05,2.747207e-06,3.647451e-10,5.776247e-07,0.00023574141674201186
PART_001_R158G218B229A255,10885,-0.0001772138,5.848405e-05,5.846596e-05,2.724423e-06,9.876361e-14,8.744694e-12,0.00023573603986198866
PART_001_R158G218B229A255,10886,-0.0001772138,5.849359e-05,5.846133e-05,2.747208e-06,-3.631439e-10,-5.776015e-07,0.00023574141160852098
PART_001_R158G218B229A255,10887,-0.0001772138,5.848352e-05,5.846449e-05,2.809206e-06,-2.58301e-09,-1.070256e-06,0.0002357453137945852
PART_001_R158G218B229A255,10888,-0.0001772138,5.849867e-05,5.845509e-05,2.93875e-06,-2.16147e-09,-1.372491e-06,0.00023575762559589305
PART_001_R158G218B229A255,10889,-0.0001772138,5.848187e-05,5.845591e-05,3.134944e-06,-1.10478e-08,-1.347977e-06,0.0002357567941435961
PART_001_R158G218B229A255,10890,-0.0001772137,5.851546e-05,5.842671e-05,3.648021e-06,-1.794267e-08,-6.234915e-07,0.00023577195581819598
PART_003_R247G182B210A255,10891,0.0001726699,-5.701508e-05,-5.692862e-05,3.648021e-06,1.748151e-08,-6.234973e-07,0.00022973121312670907
PART_000_R31G119B180A255,10892,0.0001726699,-5.698235e-05,-5.695704e-05,3.134943e-06,1.076556e-08,-1.347992e-06,0.00022971564872694
PART_000_R31G119B180A255,10893,0.0001726698,-5.699872e-05,-5.695627e-05,2.93875e-06,2.106372e-09,-1.372513e-06,0.00022971600204627088
PART_000_R31G119B180A255,10894,0.0001726698,-5.698395e-05,-5.696539e-05,2.809206e-06,2.517771e-09,-1.07028e-06,0.00022970349211938446
PART_000_R31G119B180A255,10895,0.0001726698,-5.699376e-05,-5.696234e-05,2.747208e-06,3.540847e-10,-5.776253e-07,0.00022969932119786142
PART_000_R31G119B180A255,10896,0.0001726698,-5.698446e-05,-5.696682e-05,2.724424e-06,5.106489e-13,-1.250261e-11,0.000229693917648175
PART_000_R31G119B180A255,10897,0.0001726698,-5.699375e-05,-5.696233e-05,2.747209e-06,-3.549938e-10,5.776061e-07,0.0002296993110911421
PART_000_R31G119B180A255,10898,0.0001726698,-5.698394e-05,-5.696538e-05,2.809207e-06,-2.51631e-09,1.070257e-06,0.00022970348183710002
PART_000_R31G119B180A255,10899,0.0001726698,-5.69987e-05,-5.695625e-05,2.938752e-06,-2.106853e-09,1.372498e-06,0.00022971598186015814
PART_000_R31G119B180A255,10900,0.0001726698,-5.698233e-05,-5.695703e-05,3.134946e-06,-1.076388e-08,1.347979e-06,0.00022971553365792072
PART_000_R31G119B180A255,10901,0.0001726698,-5.701506e-05,-5.69286e-05,3.648024e-06,-1.748331e-08,6.234937e-07,0.0002297310932874554
PART_003_R247G182B210A255,10902,0.0001381359,-4.55886e-05,-4.560138e-05,9.9326e-06,-1.136153e-08,-2.312802e-07,0.00018453501171814045
PART_003_R247G182B210A255,10903,0.0001381359,-4.557829e-05,-4.558336e-05,8.856095e-06,1.107518e-08,-6.334179e-07,0.00018435924262872838
PART_000_R31G119B180A255,10904,0.0001381359,-4.558768e-05,-4.557296e-05,8.266721e-06,7.916304e-09,-7.743578e-07,0.00018427822649429745
PART_000_R31G119B180A255,10905,0.0001381359,-4.559099e-05,-4.557324e-05,7.924963e-06,2.326488e-09,-6.407717e-07,0.00018423342847823088
PART_000_R31G119B180A255,10906,0.0001381359,-4.55879e-05,-4.557305e-05,7.736567e-06,1.939764e-09,-3.580959e-07,0.000184205468769735
PART_000_R31G119B180A255,10907,0.0001381359,-4.559238e-05,-4.557226e-05,7.679061e-06,9.817028e-14,-7.635119e-12,0.00018419904613516474
PART_000_R31G119B180A255,10908,0.0001381359,-4.55879e-05,-4.557305e-05,7.736568e-06,-1.94123e-09,3.580826e-07,0.00018420546881821602
PART_000_R31G119B180A255,10909,0.0001381359,-4.559098e-05,-4.557323e-05,7.924966e-06,-2.325022e-09,6.407577e-07,0.00018423341874721828
PART_000_R31G119B180A255,10910,0.0001381358,-4.558767e-05,-4.557295e-05,8.266726e-06,-7.915659e-09,7.743468e-07,0.00018427811736392122
PART_000_R31G119B180A255,10911,0.0001381358,-4.557828e-05,-4.558334e-05,8.856105e-06,-1.107205e-08,6.334096e-07,0.00018435912938431572
PART_002_R214G39B40A255,10912,0.0001381358,-4.558859e-05,-4.560136e-05,9.932615e-06,1.136246e-08,2.312768e-07,0.00018453489962825766
PART_003_R247G182B210A255,10913,0.0001036019,-3.420428e-05,-3.417074e-05,1.452033e-05,1.209753e-09,-1.262008e-07,0.00014006602045496175
PART_003_R247G182B210A255,10914,0.0001036019,-3.418866e-05,-3.419315e-05,1.331918e-05,-1.211188e-08,-3.183564e-07,0.00013971171491679023
PART_003_R247G182B210A255,10915,0.0001036019,-3.418228e-05,-3.419043e-05,1.24938e-05,4.799445e-09,-4.059941e-07,0.00013947896953954607
PART_000_R31G119B180A255,10916,0.0001036019,-3.419052e-05,-3.418145e-05,1.198339e-05,1.286798e-09,-3.623599e-07,0.0001393438198888172
PART_000_R31G119B180A255,10917,0.0001036019,-3.419045e-05,-3.418281e-05,1.170198e-05,1.042263e-09,-2.069314e-07,0.0001392717362431127
PART_000_R31G119B180A255,10918,0.0001036019,-3.419096e-05,-3.418021e-05,1.161084e-05,-9.5815e-13,-4.13882e-12,0.00013924735518426896
PART_000_R31G119B180A255,10919,0.0001036019,-3.419045e-05,-3.418281e-05,1.170198e-05,-1.045421e-09,2.069229e-07,0.0001392717362052963
PART_000_R31G119B180A255,10920,0.0001036019,-3.419052e-05,-3.418144e-05,1.19834e-05,-1.28707e-09,3.623521e-07,0.00013934381746425625
PART_000_R31G119B180A255,10921,0.0001036019,-3.418227e-05,-3.419043e-05,1.249381e-05,-4.800136e-09,4.059868e-07,0.00013947896722416337
PART_002_R214G39B40A255,10922,0.0001036019,-3.418865e-05,-3.419314e-05,1.331919e-05,1.211348e-08,3.18351e-07,0.00013971170787764064
PART_002_R214G39B40A255,10923,0.0001036019,-3.420426e-05,-3.417072e-05,1.452034e-05,-1.210608e-09,1.26199e-07,0.00014006600388522948
PART_003_R247G182B210A255,10924,6.906795e-05,-2.279518e-05,-2.279685e-05,1.772535e-05,-4.820504e-09,-5.843351e-08,9.685846622065338e-05
PART_003_R247G182B210A255,10925,6.906794e-05,-2.279488e-05,-2.278795e-05,1.645284e-05,3.882541e-10,-1.613835e-07,9.617851685062492e-05
PART_003_R247G182B210A255,10926,6.906794e-05,-2.279223e-05,-2.279262e-05,1.553576e-05,-9.189957e-09,-2.068072e-07,9.572113003616257e-05
PART_003_R247G182B210A255,10927,6.906794e-05,-2.278877e-05,-2.279329e-05,1.492193e-05,1.421487e-09,-1.868217e-07,9.542623896320681e-05
PART_000_R31G119B180A255,10928,6.906793e-05,-2.279361e-05,-2.278772e-05,1.457597e-05,-1.395727e-09,-1.104273e-07,9.526497149595816e-05
PART_000_R31G119B180A255,10929,6.906793e-05,-2.279196e-05,-2.279018e-05,1.446381e-05,-2.04114e-12,-2.084068e-12,9.521387127159901e-05
PART_000_R31G119B180A255,10930,6.906793e-05,-2.279361e-05,-2.278772e-05,1.457597e-05,1.390302e-09,1.104229e-07,9.526497148041958e-05
PART_000_R31G119B180A255,10931,6.906793e-05,-2.278877e-05,-2.279329e-05,1.492194e-05,-1.423397e-09,1.868176e-07,9.542623400417932e-05
PART_002_R214G39B40A255,10932,6.906793e-05,-2.279222e-05,-2.279262e-05,1.553577e-05,9.188228e-09,2.068034e-07,9.572112048513931e-05
PART_002_R214G39B40A255,10933,6.906792e-05,-2.279488e-05,-2.278794e-05,1.645286e-05,-3.861784e-10,1.613809e-07,9.617850322469392e-05
PART_002_R214G39B40A255,10934,6.906792e-05,-2.279517e-05,-2.279684e-05,1.772538e-05,4.820743e-09,5.843229e-08,9.68584447513315e-05
PART_003_R247G182B210A255,10935,3.453398e-05,-1.140084e-05,-1.139137e-05,1.962261e-05,-6.384773e-10,-2.573192e-08,5.713768662294861e-05
PART_003_R247G182B210A255,10936,3.453398e-05,-1.139648e-05,-1.139773e-05,1.832412e-05,-9.326014e-09,-6.642489e-08,5.583008319440287e-05
PART_003_R247G182B210A255,10937,3.453397e-05,-1.139527e-05,-1.139597e-05,1.735703e-05,-6.514413e-10,-8.711559e-08,5.4893983985947774e-05
PART_003_R247G182B210A255,10938,3.453397e-05,-1.139626e-05,-1.139529e-05,1.66989e-05,-7.249576e-09,-7.935476e-08,5.427817525768125e-05
PART_003_R247G182B210A255,10939,3.453397e-05,-1.139461e-05,-1.139645e-05,1.631658e-05,1.209459e-10,-4.673749e-08,5.392789514436104e-05
PART_000_R31G119B180A255,10940,3.453397e-05,-1.13968e-05,-1.139389e-05,1.619261e-05,-2.864565e-12,-8.015812e-13,5.381546096203791e-05
PART_000_R31G119B180A255,10941,3.453397e-05,-1.13946e-05,-1.139645e-05,1.631658e-05,-1.281468e-10,4.673565e-08,5.392789088146604e-05
PART_002_R214G39B40A255,10942,3.453397e-05,-1.139626e-05,-1.139529e-05,1.66989e-05,7.24607e-09,7.935315e-08,5.427817524921538e-05
PART_002_R214G39B40A255,10943,3.453397e-05,-1.139527e-05,-1.139597e-05,1.735703e-05,6.477854e-10,8.711391e-08,5.4893983977819686e-05
PART_002_R214G39B40A255,10944,3.453397e-05,-1.139647e-05,-1.139772e-05,1.832413e-05,9.325839e-09,6.642371e-08,5.583007658259453e-05
PART_002_R214G39B40A255,10945,3.453396e-05,-1.140083e-05,-1.139137e-05,1.962262e-05,6.368576e-10,2.573153e-08,5.7137676827704246e-05
PART_003_R247G182B210A255,10946,5.740643e-12,-5.288464e-12,-3.17573e-13,2.025231e-05,-3.746757e-09,-5.875065e-13,3.5078030490934876e-05
PART_003_R247G182B210A255,10947,4.137902e-12,-2.874465e-12,7.195491e-14,1.894417e-05,-1.576858e-09,-1.575415e-12,3.2812265060891296e-05
PART_003_R247G182B210A255,10948,2.028387e-12,-2.400857e-13,8.893179e-13,1.796587e-05,-9.973345e-09,-1.872048e-12,3.111780443690631e-05
PART_003_R247G182B210A255,10949,2.387849e-13,1.52646e-12,1.629736e-12,1.72913e-05,-6.14071e-10,-1.707496e-12,2.9949410147801912e-05
PART_003_R247G182B210A255,10950,-9.089425e-13,2.336922e-12,2.265197e-12,1.690023e-05,-4.146721e-09,-8.939286e-13,2.9272057900745515e-05
PART_003_R247G182B210A255,10951,-1.251423e-12,2.540843e-12,2.39227e-12,1.677111e-05,-3.194655e-12,-5.622884e-14,2.9048414619327238e-05
PART_002_R214G39B40A255,10952,-9.239129e-13,2.331413e-12,2.285578e-12,1.690023e-05,4.138891e-09,1.019103e-12,2.9272057897421046e-05
PART_002_R214G39B40A255,10953,2.580294e-13,1.56275e-12,1.589e-12,1.72913e-05,6.101635e-10,1.615156e-12,2.9949410147562307e-05
PART_002_R214G39B40A255,10954,1.86715e-12,1.096762e-13,9.266069e-13,1.796588e-05,9.969812e-09,1.940906e-12,3.111782175401529e-05
PART_002_R214G39B40A255,10955,3.812047e-12,-1.760203e-12,3.291789e-14,1.894419e-05,1.577878e-09,1.519176e-12,3.2812299702054234e-05
PART_002_R214G39B40A255,10956,5.171651e-12,-3.39892e-12,-3.1507e-13,2.025234e-05,3.746356e-09,6.154331e-13,3.507808245232922e-05
PART_003_R247G182B210A255,10957,-3.453397e-05,1.140083e-05,1.139137e-05,1.96226e-05,-6.384868e-10,2.573074e-08,5.713766425957172e-05
PART_003_R247G182B210A255,10958,-3.453397e-05,1.139647e-05,1.139773e-05,1.832412e-05,-9.325989e-09,6.642183e-08,5.583007084322493e-05
PART_003_R247G182B210A255,10959,-3.453397e-05,1.139526e-05,1.139597e-05,1.735702e-05,-6.514557e-10,8.711193e-08,5.48939702993847e-05
PART_003_R247G182B210A255,10960,-3.453397e-05,1.139624e-05,1.13953e-05,1.66989e-05,-7.24958e-09,7.935134e-08,5.42781710113284e-05
PART_003_R247G182B210A255,10961,-3.453397e-05,1.139459e-05,1.139646e-05,1.631658e-05,1.209172e-10,4.67357e-08,5.392789088206331e-05
PART_001_R158G218B229A255,10962,-3.453396e-05,1.139678e-05,1.139389e-05,1.619261e-05,-2.854548e-12,6.799626e-13,5.381544389204112e-05
PART_001_R158G218B229A255,10963,-3.453396e-05,1.139459e-05,1.139646e-05,1.631658e-05,-1.281497e-10,-4.673359e-08,5.392788235979298e-05
PART_002_R214G39B40A255,10964,-3.453396e-05,1.139624e-05,1.13953e-05,1.66989e-05,7.246095e-09,-7.934992e-08,5.427816254178738e-05
PART_002_R214G39B40A255,10965,-3.453396e-05,1.139526e-05,1.139597e-05,1.735703e-05,6.47774e-10,-8.711005e-08,5.489397140909616e-05
PART_002_R214G39B40A255,10966,-3.453396e-05,1.139646e-05,1.139772e-05,1.832413e-05,9.325839e-09,-6.642072e-08,5.5830064231683055e-05
PART_002_R214G39B40A255,10967,-3.453395e-05,1.140082e-05,1.139137e-05,1.962262e-05,6.368357e-10,-2.573033e-08,5.713766476710809e-05
PART_003_R247G182B210A255,10968,-6.906794e-05,2.279517e-05,2.279685e-05,1.772534e-05,-4.8205e-09,5.843227e-08,9.685844650193545e-05
PART_003_R247G182B210A255,10969,-6.906794e-05,2.279488e-05,2.278795e-05,1.645284e-05,3.882868e-10,1.613801e-07,9.617851683351033e-05
PART_003_R247G182B210A255,10970,-6.906794e-05,2.279223e-05,2.279263e-05,1.553576e-05,-9.190025e-09,2.068032e-07,9.572113480861983e-05
PART_003_R247G182B210A255,10971,-6.906794e-05,2.278877e-05,2.279329e-05,1.492193e-05,1.421484e-09,1.868181e-07,9.542623894206308e-05
PART_001_R158G218B229A255,10972,-6.906794e-05,2.279362e-05,2.278773e-05,1.457597e-05,-1.395807e-09,1.104253e-07,9.526499077386966e-05
PART_001_R158G218B229A255,10973,-6.906793e-05,2.279196e-05,2.279018e-05,1.446381e-05,-1.998079e-12,2.085226e-12,9.521387127159901e-05
PART_001_R158G218B229A255,10974,-6.906793e-05,2.279362e-05,2.278773e-05,1.457597e-05,1.390276e-09,-1.104208e-07,9.526498111554749e-05
PART_001_R158G218B229A255,10975,-6.906793e-05,2.278877e-05,2.279329e-05,1.492193e-05,-1.423317e-09,-1.86814e-07,9.54262292918901e-05
PART_002_R214G39B40A255,10976,-6.906793e-05,2.279223e-05,2.279263e-05,1.553577e-05,9.188204e-09,-2.067994e-07,9.572113005587167e-05
PART_002_R214G39B40A255,10977,-6.906792e-05,2.279488e-05,2.278794e-05,1.645286e-05,-3.861609e-10,-1.613776e-07,9.617850320808235e-05
PART_002_R214G39B40A255,10978,-6.906792e-05,2.279516e-05,2.279684e-05,1.772537e-05,4.820696e-09,-5.8431e-08,9.685843451685823e-05
PART_003_R247G182B210A255,10979,-0.0001036019,3.420427e-05,3.417075e-05,1.452033e-05,1.20973e-09,1.261995e-07,0.00014006602044785643
PART_003_R247G182B210A255,10980,-0.0001036019,3.418865e-05,3.419314e-05,1.331918e-05,-1.211184e-08,3.183529e-07,0.0001397117050302018
PART_003_R247G182B210A255,10981,-0.0001036019,3.418227e-05,3.419045e-05,1.24938e-05,4.799386e-09,4.059897e-07,0.00013947897444182666
PART_001_R158G218B229A255,10982,-0.0001036019,3.419051e-05,3.418144e-05,1.198339e-05,1.286758e-09,3.623562e-07,0.00013934380997161254
PART_001_R158G218B229A255,10983,-0.0001036019,3.419044e-05,3.418282e-05,1.170197e-05,1.042161e-09,2.069289e-07,0.00013927173371046676
PART_001_R158G218B229A255,10984,-0.0001036019,3.419095e-05,3.418021e-05,1.161083e-05,-9.043783e-13,4.500337e-12,0.00013924734773462604
PART_001_R158G218B229A255,10985,-0.0001036019,3.419044e-05,3.418282e-05,1.170197e-05,-1.045449e-09,-2.069211e-07,0.0001392717336757738
PART_001_R158G218B229A255,10986,-0.0001036019,3.41905e-05,3.418144e-05,1.198339e-05,-1.286938e-09,-3.623477e-07,0.0001393438049606498
PART_001_R158G218B229A255,10987,-0.0001036019,3.418226e-05,3.419044e-05,1.24938e-05,-4.800164e-09,-4.059829e-07,0.00013947896450374443
PART_002_R214G39B40A255,10988,-0.0001036019,3.418864e-05,3.419313e-05,1.331919e-05,1.211352e-08,-3.183472e-07,0.0001397116979890229
PART_002_R214G39B40A255,10989,-0.0001036019,3.420425e-05,3.417073e-05,1.452034e-05,-1.210651e-09,-1.261978e-07,0.0001400660038783962
PART_003_R247G182B210A255,10990,-0.0001381359,4.55886e-05,4.560139e-05,9.932593e-06,-1.136141e-08,2.312786e-07,0.0001845350155605093
PART_003_R247G182B210A255,10991,-0.0001381359,4.557829e-05,4.558334e-05,8.856091e-06,1.107511e-08,6.334135e-07,0.00018435923204135744
PART_001_R158G218B229A255,10992,-0.0001381359,4.558768e-05,4.557298e-05,8.266716e-06,7.916194e-09,7.743524e-07,0.0001842782357216145
PART_001_R158G218B229A255,10993,-0.0001381359,4.5591e-05,4.557323e-05,7.924959e-06,2.326412e-09,6.407675e-07,0.00018423342791966035
PART_001_R158G218B229A255,10994,-0.0001381359,4.558791e-05,4.557308e-05,7.736563e-06,1.939678e-09,3.580927e-07,0.00018420548819276272
PART_001_R158G218B229A255,10995,-0.0001381359,4.559239e-05,4.557225e-05,7.679057e-06,1.164006e-13,8.39432e-12,0.00018419904563653707
PART_001_R158G218B229A255,10996,-0.0001381359,4.558791e-05,4.557307e-05,7.736564e-06,-1.941202e-09,-3.580809e-07,0.00018420548326387364
PART_001_R158G218B229A255,10997,-0.0001381359,4.559099e-05,4.557322e-05,7.924962e-06,-2.32492e-09,-6.407523e-07,0.00018423341817612693
PART_001_R158G218B229A255,10998,-0.0001381359,4.558767e-05,4.557297e-05,8.266722e-06,-7.915587e-09,-7.743424e-07,0.00018427822643345203
PART_001_R158G218B229A255,10999,-0.0001381358,4.557828e-05,4.558333e-05,8.8561e-06,-1.107201e-08,-6.334046e-07,0.00018435912362943426
PART_002_R214G39B40A255,11000,-0.0001381358,4.558859e-05,4.560138e-05,9.932608e-06,1.136241e-08,-2.312753e-07,0.0001845349084497444
PART_003_R247G182B210A255,11001,-0.0001726699,5.701509e-05,5.692864e-05,3.648019e-06,1.748114e-08,6.234949e-07,0.0002297312280031427
PART_001_R158G218B229A255,11002,-0.0001726698,5.698235e-05,5.695702e-05,3.134941e-06,1.076576e-08,1.347987e-06,0.00022971553859513645
PART_001_R158G218B229A255,11003,-0.0001726699,5.699871e-05,5.695629e-05,2.938749e-06,2.106216e-09,1.372506e-06,0.00022971610684685532
PART_001_R158G218B229A255,11004,-0.0001726698,5.698394e-05,5.696538e-05,2.809204e-06,2.51777e-09,1.070275e-06,0.0002297034819786849
PART_001_R158G218B229A255,11005,-0.0001726698,5.699374e-05,5.696236e-05,2.747207e-06,3.540564e-10,5.776215e-07,0.00022969932112921275
PART_001_R158G218B229A255,11006,-0.0001726698,5.698445e-05,5.696681e-05,2.724422e-06,4.662547e-13,1.347663e-11,0.0002296939075791191
PART_001_R158G218B229A255,11007,-0.0001726698,5.699374e-05,5.696236e-05,2.747208e-06,-3.548904e-10,-5.776042e-07,0.00022969932103458646
PART_001_R158G218B229A255,11008,-0.0001726698,5.698393e-05,5.696537e-05,2.809206e-06,-2.516384e-09,-1.070251e-06,0.0002297034717191157
PART_001_R158G218B229A255,11009,-0.0001726698,5.69987e-05,5.695627e-05,2.938751e-06,-2.106638e-09,-1.372493e-06,0.00022971599172638988
PART_001_R158G218B229A255,11010,-0.0001726698,5.698233e-05,5.695701e-05,3.134944e-06,-1.076409e-08,-1.347973e-06,0.00022971552347540684
PART_001_R158G218B229A255,11011,-0.0001726698,5.701506e-05,5.692862e-05,3.648022e-06,-1.748298e-08,-6.234917e-07,0.00022973110316627985
PART_003_R247G182B210A255,11012,0.0001681259,-5.551468e-05,-5.54305e-05,3.648018e-06,1.702528e-08,-6.234993e-07,0.0002236903692041326
PART_000_R31G119B180A255,11013,0.0001681259,-5.548281e-05,-5.545818e-05,3.134943e-06,1.048137e-08,-1.347991e-06,0.00022367450342763485
PART_000_R31G119B180A255,11014,0.0001681259,-5.549874e-05,-5.545741e-05,2.93875e-06,2.052567e-09,-1.372517e-06,0.000223674538320748
PART_000_R31G119B180A255,11015,0.0001681259,-5.548436e-05,-5.54663e-05,2.809207e-06,2.449719e-09,-1.070278e-06,0.00022366184685153025
PART_000_R31G119B180A255,11016,0.0001681259,-5.549391e-05,-5.546333e-05,2.747209e-06,3.453126e-10,-5.776289e-07,0.00022365738195607987
PART_000_R31G119B180A255,11017,0.0001681259,-5.548486e-05,-5.546769e-05,2.724424e-06,-1.526223e-12,-9.345742e-12,0.00022365196253159257
PART_000_R31G119B180A255,11018,0.0001681259,-5.54939e-05,-5.546332e-05,2.747209e-06,-3.451902e-10,5.776036e-07,0.00022365737176242395
PART_000_R31G119B180A255,11019,0.0001681259,-5.548435e-05,-5.546629e-05,2.809207e-06,-2.451768e-09,1.070261e-06,0.00022366183661026191
PART_000_R31G119B180A255,11020,0.0001681259,-5.549873e-05,-5.54574e-05,2.938752e-06,-2.050476e-09,1.372497e-06,0.0002236745280345055
PART_000_R31G119B180A255,11021,0.0001681259,-5.548279e-05,-5.545815e-05,3.134946e-06,-1.048174e-08,1.347981e-06,0.00022367447838258738
PART_000_R31G119B180A255,11022,0.0001681258,-5.551466e-05,-5.543048e-05,3.648025e-06,-1.702174e-08,6.234935e-07,0.00022369024954658977
PART_003_R247G182B210A255,11023,0.0001345007,-4.438892e-05,-4.440134e-05,9.932609e-06,-1.106354e-08,-2.312798e-07,0.0001797215877683181
PART_003_R247G182B210A255,11024,0.0001345007,-4.437887e-05,-4.43838e-05,8.8561e-06,1.078112e-08,-6.334185e-07,0.0001795418558199897
PART_000_R31G119B180A255,11025,0.0001345007,-4.438801e-05,-4.437368e-05,8.266723e-06,7.707461e-09,-7.743584e-07,0.0001794586930022748
PART_000_R31G119B180A255,11026,0.0001345007,-4.439123e-05,-4.437394e-05,7.924964e-06,2.262081e-09,-6.407704e-07,0.0001794125882296746
PART_000_R31G119B180A255,11027,0.0001345007,-4.438823e-05,-4.437376e-05,7.736568e-06,1.887622e-09,-3.580958e-07,0.00017938397120383933
PART_000_R31G119B180A255,11028,0.0001345007,-4.439259e-05,-4.437298e-05,7.679061e-06,-3.510984e-12,-5.096292e-12,0.0001793772712126165
PART_000_R31G119B180A255,11029,0.0001345007,-4.438823e-05,-4.437376e-05,7.736568e-06,-1.891123e-09,3.580833e-07,0.00017938397112909177
PART_000_R31G119B180A255,11030,0.0001345007,-4.439123e-05,-4.437393e-05,7.924966e-06,-2.266603e-09,6.407603e-07,0.00017941258340213487
PART_000_R31G119B180A255,11031,0.0001345007,-4.4388e-05,-4.437366e-05,8.266726e-06,-7.70715e-09,7.743476e-07,0.0001794586783258536
PART_000_R31G119B180A255,11032,0.0001345007,-4.437885e-05,-4.438378e-05,8.856106e-06,-1.078206e-08,6.334108e-07,0.00017954183670003415
PART_002_R214G39B40A255,11033,0.0001345007,-4.438889e-05,-4.440132e-05,9.932616e-06,1.106423e-08,2.31277e-07,0.00017972156403362065
PART_003_R247G182B210A255,11034,0.0001008756,-3.330416e-05,-3.327151e-05,1.452032e-05,1.180325e-09,-1.262013e-07,0.00013650053096492764
PART_003_R247G182B210A255,11035,0.0001008755,-3.328895e-05,-3.329333e-05,1.331918e-05,-1.179395e-08,-3.18356e-07,0.00013613667191398162
PART_003_R247G182B210A255,11036,0.0001008755,-3.328274e-05,-3.329069e-05,1.24938e-05,4.672541e-09,-4.059934e-07,0.00013589804874923167
PART_000_R31G119B180A255,11037,0.0001008755,-3.329076e-05,-3.328193e-05,1.198339e-05,1.248973e-09,-3.623591e-07,0.00013575934419769736
PART_000_R31G119B180A255,11038,0.0001008755,-3.329069e-05,-3.328326e-05,1.170198e-05,1.012098e-09,-2.069296e-07,0.00013568532422462496
PART_000_R31G119B180A255,11039,0.0001008755,-3.329119e-05,-3.328073e-05,1.161084e-05,-5.916012e-12,-2.220079e-12,0.00013566035621325495
PART_000_R31G119B180A255,11040,0.0001008755,-3.329069e-05,-3.328326e-05,1.170198e-05,-1.020491e-09,2.069253e-07,0.00013568532420514035
PART_000_R31G119B180A255,11041,0.0001008755,-3.329075e-05,-3.328193e-05,1.19834e-05,-1.257128e-09,3.623542e-07,0.00013575934186511727
PART_000_R31G119B180A255,11042,0.0001008755,-3.328273e-05,-3.329068e-05,1.249381e-05,-4.674629e-09,4.059888e-07,0.00013589804159400476
PART_002_R214G39B40A255,11043,0.0001008755,-3.328894e-05,-3.329332e-05,1.331919e-05,1.179288e-08,3.183523e-07,0.00013613666496756227
PART_002_R214G39B40A255,11044,0.0001008755,-3.330414e-05,-3.327149e-05,1.452035e-05,-1.177688e-09,1.261995e-07,0.00013650042258826837
PART_003_R247G182B210A255,11045,6.725038e-05,-2.219531e-05,-2.219693e-05,1.772537e-05,-4.694722e-09,-5.843313e-08,9.456877337970651e-05
PART_003_R247G182B210A255,11046,6.725037e-05,-2.219503e-05,-2.218827e-05,1.645285e-05,3.734431e-10,-1.613837e-07,9.38724769558967e-05
PART_003_R247G182B210A255,11047,6.725037e-05,-2.219244e-05,-2.219282e-05,1.553577e-05,-8.950868e-09,-2.068068e-07,9.340374320710434e-05
PART_003_R247G182B210A255,11048,6.725036e-05,-2.218908e-05,-2.219347e-05,1.492194e-05,1.378403e-09,-1.868209e-07,9.310157720395565e-05
PART_000_R31G119B180A255,11049,6.725036e-05,-2.21938e-05,-2.218805e-05,1.457597e-05,-1.362916e-09,-1.104257e-07,9.293630495478655e-05
PART_000_R31G119B180A255,11050,6.725036e-05,-2.219218e-05,-2.219044e-05,1.446381e-05,-8.381461e-12,-3.915031e-13,9.288389383422786e-05
PART_000_R31G119B180A255,11051,6.725035e-05,-2.219379e-05,-2.218804e-05,1.457597e-05,1.350027e-09,1.104251e-07,9.293628570421592e-05
PART_000_R31G119B180A255,11052,6.725035e-05,-2.218907e-05,-2.219347e-05,1.492194e-05,-1.391089e-09,1.868196e-07,9.31015627867192e-05
PART_002_R214G39B40A255,11053,6.725035e-05,-2.219244e-05,-2.219281e-05,1.553577e-05,8.944812e-09,2.068052e-07,9.340371925481996e-05
PART_002_R214G39B40A255,11054,6.725035e-05,-2.219502e-05,-2.218826e-05,1.645286e-05,-3.788569e-10,1.61382e-07,9.387245362113675e-05
PART_002_R214G39B40A255,11055,6.725035e-05,-2.21953e-05,-2.219692e-05,1.772538e-05,4.694419e-09,5.843276e-08,9.456874116857078e-05
PART_003_R247G182B210A255,11056,3.362519e-05,-1.110081e-05,-1.10916e-05,1.962259e-05,-6.197753e-10,-2.573221e-08,5.617066259962275e-05
PART_003_R247G182B210A255,11057,3.362519e-05,-1.109657e-05,-1.109779e-05,1.832411e-05,-9.08262e-09,-6.642502e-08,5.4839975252923884e-05
PART_003_R247G182B210A255,11058,3.362518e-05,-1.109539e-05,-1.109608e-05,1.735703e-05,-6.362818e-10,-8.711557e-08,5.388675605971446e-05
PART_003_R247G182B210A255,11059,3.362518e-05,-1.109635e-05,-1.109542e-05,1.66989e-05,-7.064992e-09,-7.935463e-08,5.325929477778638e-05
PART_003_R247G182B210A255,11060,3.362518e-05,-1.109474e-05,-1.109654e-05,1.631658e-05,1.131071e-10,-4.673669e-08,5.2902274484038555e-05
PART_000_R31G119B180A255,11061,3.362518e-05,-1.109687e-05,-1.109404e-05,1.619261e-05,-1.017951e-11,1.286058e-13,5.2787660079288525e-05
PART_000_R31G119B180A255,11062,3.362518e-05,-1.109474e-05,-1.109654e-05,1.631658e-05,-1.292208e-10,4.673717e-08,5.290227448542145e-05
PART_002_R214G39B40A255,11063,3.362518e-05,-1.109635e-05,-1.109542e-05,1.66989e-05,7.049327e-09,7.935452e-08,5.325929477106759e-05
PART_002_R214G39B40A255,11064,3.362518e-05,-1.109539e-05,-1.109607e-05,1.735703e-05,6.285902e-10,8.711548e-08,5.388675190938441e-05
PART_002_R214G39B40A255,11065,3.362518e-05,-1.109656e-05,-1.109778e-05,1.832413e-05,9.077252e-09,6.642472e-08,5.48399789873163e-05
PART_002_R214G39B40A255,11066,3.362518e-05,-1.110081e-05,-1.10916e-05,1.962262e-05,6.209266e-10,2.573198e-08,5.617068607815409e-05
PART_003_R247G182B210A255,11067,8.689969e-12,-6.034284e-12,-1.019634e-12,2.025233e-05,-3.649248e-09,-8.663856e-13,3.507806510111274e-05
PART_003_R247G182B210A255,11068,7.228082e-12,-7.129061e-12,-2.284893e-13,1.894418e-05,-1.540957e-09,-2.103399e-12,3.281228237628424e-05
PART_003_R247G182B210A255,11069,5.779118e-12,-8.878578e-12,8.489896e-13,1.796588e-05,-9.714563e-09,-2.655631e-12,3.111782151182166e-05
PART_003_R247G182B210A255,11070,4.369946e-12,-9.961226e-12,1.970666e-12,1.72913e-05,-6.048254e-10,-2.198721e-12,2.994941014724051e-05
PART_003_R247G182B210A255,11071,3.281062e-12,-1.029139e-11,2.687974e-12,1.690023e-05,-4.04259e-09,-1.385913e-12,2.9272057857050023e-05
PART_003_R247G182B210A255,11072,2.835317e-12,-1.031548e-11,3.045506e-12,1.677111e-05,-1.079681e-11,9.448489e-14,2.904841461933552e-05
PART_002_R214G39B40A255,11073,3.308007e-12,-1.028108e-11,2.653271e-12,1.690023e-05,4.025247e-09,1.229259e-12,2.9272057849879994e-05
PART_002_R214G39B40A255,11074,4.345741e-12,-9.991633e-12,2.02346e-12,1.72913e-05,5.878047e-10,2.356929e-12,2.9949410146223873e-05
PART_002_R214G39B40A255,11075,5.997196e-12,-9.280882e-12,7.780157e-13,1.796588e-05,9.705045e-09,2.573672e-12,3.1117821502912056e-05
PART_002_R214G39B40A255,11076,7.63741e-12,-8.473722e-12,-1.836327e-13,1.894419e-05,1.532731e-09,2.199911e-12,3.281229969563704e-05
PART_002_R214G39B40A255,11077,9.419839e-12,-8.350001e-12,-1.052856e-12,2.025234e-05,3.648226e-09,8.370962e-13,3.5078082421302624e-05
PART_003_R247G182B210A255,11078,-3.362517e-05,1.11008e-05,1.10916e-05,1.962259e-05,-6.197568e-10,2.573041e-08,5.6170642691672064e-05
PART_003_R247G182B210A255,11079,-3.362518e-05,1.109656e-05,1.109779e-05,1.832411e-05,-9.08266e-09,6.642057e-08,5.483996300434106e-05
PART_003_R247G182B210A255,11080,-3.362518e-05,1.109539e-05,1.109608e-05,1.735702e-05,-6.36302e-10,8.710998e-08,5.388674636954794e-05
PART_003_R247G182B210A255,11081,-3.362518e-05,1.109635e-05,1.109542e-05,1.66989e-05,-7.065049e-09,7.93501e-08,5.325929475756098e-05
PART_003_R247G182B210A255,11082,-3.362518e-05,1.109474e-05,1.109655e-05,1.631658e-05,1.13101e-10,4.673385e-08,5.290227870350656e-05
PART_001_R158G218B229A255,11083,-3.362518e-05,1.109688e-05,1.109405e-05,1.61926e-05,-1.020133e-11,6.879144e-14,5.278765934859219e-05
PART_001_R158G218B229A255,11084,-3.362518e-05,1.109474e-05,1.109655e-05,1.631658e-05,-1.291837e-10,-4.673466e-08,5.290227870576372e-05
PART_002_R214G39B40A255,11085,-3.362518e-05,1.109635e-05,1.109542e-05,1.66989e-05,7.04934e-09,-7.934966e-08,5.325929474934972e-05
PART_002_R214G39B40A255,11086,-3.362517e-05,1.109539e-05,1.109608e-05,1.735703e-05,6.286367e-10,-8.711016e-08,5.388674773415332e-05
PART_002_R214G39B40A255,11087,-3.362517e-05,1.109656e-05,1.109778e-05,1.832413e-05,9.077246e-09,-6.642014e-08,5.4839970815608365e-05
PART_002_R214G39B40A255,11088,-3.362516e-05,1.11008e-05,1.10916e-05,1.962262e-05,6.209463e-10,-2.573021e-08,5.617066617025868e-05
PART_003_R247G182B210A255,11089,-6.725036e-05,2.21953e-05,2.219692e-05,1.772536e-05,-4.694695e-09,5.843128e-08,9.456873937820008e-05
PART_003_R247G182B210A255,11090,-6.725036e-05,2.219502e-05,2.218827e-05,1.645285e-05,3.733914e-10,1.613792e-07,9.387246264009613e-05
PART_003_R247G182B210A255,11091,-6.725036e-05,2.219243e-05,2.219282e-05,1.553576e-05,-8.950861e-09,2.068011e-07,9.340372381546531e-05
PART_003_R247G182B210A255,11092,-6.725036e-05,2.218906e-05,2.219348e-05,1.492193e-05,1.378269e-09,1.868161e-07,9.310156756439944e-05
PART_001_R158G218B229A255,11093,-6.725035e-05,2.219378e-05,2.218805e-05,1.457597e-05,-1.3629e-09,1.104229e-07,9.293628569601123e-05
PART_001_R158G218B229A255,11094,-6.725036e-05,2.219216e-05,2.219045e-05,1.446381e-05,-8.458517e-12,3.931856e-13,9.288388901910716e-05
PART_001_R158G218B229A255,11095,-6.725035e-05,2.219378e-05,2.218805e-05,1.457597e-05,1.350139e-09,-1.104223e-07,9.293628569331377e-05
PART_001_R158G218B229A255,11096,-6.725035e-05,2.218906e-05,2.219348e-05,1.492193e-05,-1.391096e-09,-1.868147e-07,9.310155794965654e-05
PART_002_R214G39B40A255,11097,-6.725034e-05,2.219242e-05,2.219281e-05,1.553576e-05,8.94492e-09,-2.067996e-07,9.340369507593027e-05
PART_002_R214G39B40A255,11098,-6.725034e-05,2.219501e-05,2.218826e-05,1.645285e-05,-3.788945e-10,-1.613775e-07,9.38724340472921e-05
PART_002_R214G39B40A255,11099,-6.725033e-05,2.219529e-05,2.219691e-05,1.772537e-05,4.694457e-09,-5.843095e-08,9.456870716714612e-05
PART_003_R247G182B210A255,11100,-0.0001008755,3.330415e-05,3.327149e-05,1.452031e-05,1.180379e-09,1.261993e-07,0.00013650041473888366
PART_003_R247G182B210A255,11101,-0.0001008755,3.328895e-05,3.329334e-05,1.331917e-05,-1.179403e-08,3.183508e-07,0.0001361366738703051
PART_003_R247G182B210A255,11102,-0.0001008755,3.328274e-05,3.329068e-05,1.249379e-05,4.672462e-09,4.059872e-07,0.00013589804099903166
PART_001_R158G218B229A255,11103,-0.0001008755,3.329077e-05,3.328195e-05,1.198339e-05,1.248803e-09,3.623535e-07,0.00013575935897585701
PART_001_R158G218B229A255,11104,-0.0001008755,3.32907e-05,3.328326e-05,1.170197e-05,1.0121e-09,2.069269e-07,0.0001356853265692616
PART_001_R158G218B229A255,11105,-0.0001008755,3.32912e-05,3.328075e-05,1.161083e-05,-6.0137e-12,1.665818e-12,0.00013566036847931793
PART_001_R158G218B229A255,11106,-0.0001008755,3.32907e-05,3.328325e-05,1.170197e-05,-1.020335e-09,-2.069216e-07,0.00013568532160172702
PART_001_R158G218B229A255,11107,-0.0001008755,3.329076e-05,3.328195e-05,1.198339e-05,-1.257128e-09,-3.623495e-07,0.00013575935400240738
PART_001_R158G218B229A255,11108,-0.0001008755,3.328274e-05,3.329067e-05,1.24938e-05,-4.674446e-09,-4.05982e-07,0.00013589803877411184
PART_002_R214G39B40A255,11109,-0.0001008755,3.328894e-05,3.329333e-05,1.331918e-05,1.179283e-08,-3.183476e-07,0.00013613666692735758
PART_002_R214G39B40A255,11110,-0.0001008755,3.330414e-05,3.327148e-05,1.452034e-05,-1.177662e-09,-1.261972e-07,0.00013650041447801588
PART_003_R247G182B210A255,11111,-0.0001345007,4.438892e-05,4.440132e-05,9.932601e-06,-1.106366e-08,2.312773e-07,0.00017972157647720046
PART_003_R247G182B210A255,11112,-0.0001345007,4.437887e-05,4.438382e-05,8.856093e-06,1.078113e-08,6.334127e-07,0.00017954186468641987
PART_001_R158G218B229A255,11113,-0.0001345007,4.4388e-05,4.437366e-05,8.266718e-06,7.707358e-09,7.743516e-07,0.00017945867727210503
PART_001_R158G218B229A255,11114,-0.0001345007,4.439122e-05,4.437397e-05,7.924959e-06,2.261928e-09,6.407637e-07,0.0001794125974629168
PART_001_R158G218B229A255,11115,-0.0001345007,4.438822e-05,4.437375e-05,7.736563e-06,1.887578e-09,3.580932e-07,0.00017938396056933943
PART_001_R158G218B229A255,11116,-0.0001345007,4.439257e-05,4.437301e-05,7.679056e-06,-3.554115e-12,3.933959e-12,0.00017937727555261505
PART_001_R158G218B229A255,11117,-0.0001345007,4.438821e-05,4.437375e-05,7.736563e-06,-1.891028e-09,-3.580786e-07,0.0001793839554954102
PART_001_R158G218B229A255,11118,-0.0001345007,4.439122e-05,4.437396e-05,7.924961e-06,-2.266516e-09,-6.407555e-07,0.00017941259265573582
PART_001_R158G218B229A255,11119,-0.0001345007,4.438799e-05,4.437365e-05,8.266721e-06,-7.707015e-09,-7.743393e-07,0.00017945866755958445
PART_001_R158G218B229A255,11120,-0.0001345007,4.437884e-05,4.43838e-05,8.856099e-06,-1.078205e-08,-6.334057e-07,0.0001795418405924513
PART_002_R214G39B40A255,11121,-0.0001345007,4.438888e-05,4.44013e-05,9.932608e-06,1.106427e-08,-2.312744e-07,0.00017972154776559182
PART_003_R247G182B210A255,11122,-0.0001681259,5.551468e-05,5.543048e-05,3.648014e-06,1.70257e-08,6.234959e-07,0.00022369035898985078
PART_001_R158G218B229A255,11123,-0.0001681259,5.548281e-05,5.54582e-05,3.134941e-06,1.048106e-08,1.347983e-06,0.00022367451319371697
PART_001_R158G218B229A255,11124,-0.0001681259,5.549875e-05,5.54574e-05,2.938747e-06,2.052606e-09,1.372508e-06,0.00022367453803959737
PART_001_R158G218B229A255,11125,-0.0001681259,5.548437e-05,5.546633e-05,2.809205e-06,2.449611e-09,1.070269e-06,0.0002236618666403342
PART_001_R158G218B229A255,11126,-0.0001681259,5.549392e-05,5.546332e-05,2.747206e-06,3.4526e-10,5.776259e-07,0.00022365738182433947
PART_001_R158G218B229A255,11127,-0.0001681259,5.548487e-05,5.546772e-05,2.724422e-06,-1.465937e-12,7.85561e-12,0.0002236519824529001
PART_001_R158G218B229A255,11128,-0.0001681259,5.549392e-05,5.546331e-05,2.747206e-06,-3.452666e-10,-5.775979e-07,0.00022365737660961122
PART_001_R158G218B229A255,11129,-0.0001681259,5.548436e-05,5.546632e-05,2.809205e-06,-2.451559e-09,-1.070255e-06,0.0002236618564421309
PART_001_R158G218B229A255,11130,-0.0001681259,5.549874e-05,5.545738e-05,2.938749e-06,-2.050618e-09,-1.372486e-06,0.00022367452271950753
PART_001_R158G218B229A255,11131,-0.0001681259,5.54828e-05,5.545818e-05,3.134944e-06,-1.048141e-08,-1.347974e-06,0.0002236744981632544
PART_001_R158G218B229A255,11132,-0.0001681258,5.551466e-05,5.543045e-05,3.64802e-06,-1.702213e-08,-6.234896e-07,0.00022369023428407185
PART_003_R247G182B210A255,11133,0.000163582,-5.40143e-05,-5.393239e-05,3.648023e-06,1.655981e-08,-6.234976e-07,0.00021764977476644497
PART_000_R31G119B180A255,11134,0.000163582,-5.398329e-05,-5.39593e-05,3.134945e-06,1.019911e-08,-1.347995e-06,0.00021763357236667736
PART_000_R31G119B180A255,11135,0.000163582,-5.399879e-05,-5.395857e-05,2.938752e-06,1.993787e-09,-1.372513e-06,0.00021763320259781657
PART_000_R31G119B180A255,11136,0.000163582,-5.398479e-05,-5.396721e-05,2.809207e-06,2.384216e-09,-1.070281e-06,0.00021762030017672798
PART_000_R31G119B180A255,11137,0.0001635819,-5.399409e-05,-5.396432e-05,2.74721e-06,3.32849e-10,-5.776235e-07,0.00021761543490506047
PART_000_R31G119B180A255,11138,0.0001635819,-5.398528e-05,-5.396856e-05,2.724424e-06,-1.147804e-12,-1.202528e-11,0.00021760999018394575
PART_000_R31G119B180A255,11139,0.0001635819,-5.399408e-05,-5.396431e-05,2.747209e-06,-3.387617e-10,5.776096e-07,0.00021761542475902772
PART_000_R31G119B180A255,11140,0.0001635819,-5.398479e-05,-5.39672e-05,2.809207e-06,-2.384769e-09,1.070259e-06,0.0002176201948828193
PART_000_R31G119B180A255,11141,0.0001635819,-5.399877e-05,-5.395855e-05,2.938752e-06,-1.997166e-09,1.372502e-06,0.00021763308242978235
PART_000_R31G119B180A255,11142,0.0001635819,-5.398326e-05,-5.395928e-05,3.134946e-06,-1.019692e-08,1.347981e-06,0.00021763344719472367
PART_000_R31G119B180A255,11143,0.0001635819,-5.401426e-05,-5.393235e-05,3.648025e-06,-1.656366e-08,6.234947e-07,0.0002176496349037077
PART_003_R247G182B210A255,11144,0.0001308656,-4.31892e-05,-4.320131e-05,9.9326e-06,-1.076335e-08,-2.312806e-07,0.00017490943885707546
PART_003_R247G182B210A255,11145,0.0001308656,-4.317943e-05,-4.318423e-05,8.856097e-06,1.049196e-08,-6.334178e-07,0.00017472550830853768
PART_000_R31G119B180A255,11146,0.0001308656,-4.318832e-05,-4.317439e-05,8.266724e-06,7.496261e-09,-7.743566e-07,0.00017464008108219575
PART_000_R31G119B180A255,11147,0.0001308656,-4.319146e-05,-4.317464e-05,7.924967e-06,2.19974e-09,-6.407695e-07,0.00017459261111522738
PART_000_R31G119B180A255,11148,0.0001308656,-4.318853e-05,-4.317447e-05,7.73657e-06,1.831052e-09,-3.580916e-07,0.00017456328769706312
PART_000_R31G119B180A255,11149,0.0001308655,-4.319277e-05,-4.317371e-05,7.679062e-06,-5.811986e-12,-2.9362e-12,0.00017455620340638128
PART_000_R31G119B180A255,11150,0.0001308655,-4.318853e-05,-4.317447e-05,7.736568e-06,-1.845432e-09,3.580885e-07,0.0001745631877082248
PART_000_R31G119B180A255,11151,0.0001308655,-4.319145e-05,-4.317464e-05,7.924965e-06,-2.20661e-09,6.407628e-07,0.00017459250609578794
PART_000_R31G119B180A255,11152,0.0001308655,-4.318831e-05,-4.317437e-05,8.266726e-06,-7.50216e-09,7.743515e-07,0.00017463996669030087
PART_000_R31G119B180A255,11153,0.0001308655,-4.317942e-05,-4.318422e-05,8.856106e-06,-1.048967e-08,6.334123e-07,0.0001747254000437172
PART_002_R214G39B40A255,11154,0.0001308655,-4.318919e-05,-4.320128e-05,9.932619e-06,1.076405e-08,2.312778e-07,0.00017490932266411768
PART_003_R247G182B210A255,11155,9.81492e-05,-3.240406e-05,-3.237228e-05,1.452034e-05,1.143932e-09,-1.262004e-07,0.0001329382350141923
PART_003_R247G182B210A255,11156,9.814919e-05,-3.238926e-05,-3.239351e-05,1.331919e-05,-1.147775e-08,-3.183557e-07,0.00013256450749698126
PART_003_R247G182B210A255,11157,9.814918e-05,-3.238322e-05,-3.239094e-05,1.249381e-05,4.54025e-09,-4.059921e-07,0.00013231967213922537
PART_000_R31G119B180A255,11158,9.814917e-05,-3.239102e-05,-3.238242e-05,1.19834e-05,1.211134e-09,-3.623563e-07,0.0001321772225873546
PART_000_R31G119B180A255,11159,9.814917e-05,-3.239096e-05,-3.238371e-05,1.170198e-05,9.769939e-10,-2.069263e-07,0.0001321011606426777
PART_000_R31G119B180A255,11160,9.814917e-05,-3.239144e-05,-3.238125e-05,1.161084e-05,-1.085193e-11,2.052094e-12,0.00013207556765242187
PART_000_R31G119B180A255,11161,9.814916e-05,-3.239096e-05,-3.238371e-05,1.170198e-05,-1.000492e-09,2.069294e-07,0.00013210115077621693
PART_000_R31G119B180A255,11162,9.814916e-05,-3.239102e-05,-3.238242e-05,1.198339e-05,-1.226573e-09,3.623583e-07,0.00013217721000855962
PART_000_R31G119B180A255,11163,9.814916e-05,-3.238321e-05,-3.239093e-05,1.249381e-05,-4.553145e-09,4.05992e-07,0.00013231964254397597
PART_002_R214G39B40A255,11164,9.814915e-05,-3.238925e-05,-3.23935e-05,1.331919e-05,1.147383e-08,3.183544e-07,0.00013256445824997407
PART_002_R214G39B40A255,11165,9.814915e-05,-3.240403e-05,-3.237226e-05,1.452035e-05,-1.148118e-09,1.262003e-07,0.00013293816464351343
PART_003_R247G182B210A255,11166,6.54328e-05,-2.159543e-05,-2.159701e-05,1.772535e-05,-4.568282e-09,-5.843348e-08,9.22855607769848e-05
PART_003_R247G182B210A255,11167,6.543279e-05,-2.159515e-05,-2.158858e-05,1.645285e-05,3.639326e-10,-1.613826e-07,9.157214403429837e-05
PART_003_R247G182B210A255,11168,6.543278e-05,-2.159264e-05,-2.159301e-05,1.553577e-05,-8.714985e-09,-2.068055e-07,9.109151940545717e-05
PART_003_R247G182B210A255,11169,6.543278e-05,-2.158936e-05,-2.159364e-05,1.492194e-05,1.335936e-09,-1.868187e-07,9.07817322614092e-05
PART_000_R31G119B180A255,11170,6.543278e-05,-2.159395e-05,-2.158837e-05,1.457598e-05,-1.336012e-09,-1.104231e-07,9.061225259585441e-05
PART_000_R31G119B180A255,11171,6.543277e-05,-2.159238e-05,-2.159069e-05,1.446381e-05,-1.514247e-11,3.24837e-12,9.055846212267587e-05
PART_000_R31G119B180A255,11172,6.543277e-05,-2.159395e-05,-2.158837e-05,1.457597e-05,1.303752e-09,1.104286e-07,9.061223818473034e-05
PART_000_R31G119B180A255,11173,6.543277e-05,-2.158936e-05,-2.159364e-05,1.492194e-05,-1.358575e-09,1.868233e-07,9.078172270471599e-05
PART_002_R214G39B40A255,11174,6.543277e-05,-2.159263e-05,-2.159301e-05,1.553577e-05,8.696506e-09,2.068082e-07,9.109150508811188e-05
PART_002_R214G39B40A255,11175,6.543277e-05,-2.159515e-05,-2.158858e-05,1.645286e-05,-3.695191e-10,1.613843e-07,9.15721304266871e-05
PART_002_R214G39B40A255,11176,6.543277e-05,-2.159542e-05,-2.1597e-05,1.772538e-05,4.565226e-09,5.843351e-08,9.228554034135055e-05
PART_003_R247G182B210A255,11177,3.271641e-05,-1.08008e-05,-1.079183e-05,1.962262e-05,-6.082909e-10,-2.573197e-08,5.5213231491893256e-05
PART_003_R247G182B210A255,11178,3.27164e-05,-1.079667e-05,-1.079785e-05,1.832413e-05,-8.841764e-09,-6.642505e-08,5.3858827501188454e-05
PART_003_R247G182B210A255,11179,3.27164e-05,-1.079552e-05,-1.079618e-05,1.735703e-05,-6.28322e-10,-8.711529e-08,5.288797727326619e-05
PART_003_R247G182B210A255,11180,3.27164e-05,-1.079646e-05,-1.079554e-05,1.66989e-05,-6.88094e-09,-7.935354e-08,5.2248519318921726e-05
PART_003_R247G182B210A255,11181,3.271639e-05,-1.079489e-05,-1.079664e-05,1.631658e-05,9.858067e-11,-4.673541e-08,5.1884550073744475e-05
PART_000_R31G119B180A255,11182,3.271639e-05,-1.079697e-05,-1.079421e-05,1.619261e-05,-1.809649e-11,2.273986e-12,5.176769518793451e-05
PART_000_R31G119B180A255,11183,3.271639e-05,-1.079489e-05,-1.079664e-05,1.631658e-05,-1.369791e-10,4.67392e-08,5.188455008424801e-05
PART_002_R214G39B40A255,11184,3.271639e-05,-1.079646e-05,-1.079554e-05,1.66989e-05,6.852682e-09,7.935702e-08,5.224851099566878e-05
PART_002_R214G39B40A255,11185,3.271639e-05,-1.079552e-05,-1.079618e-05,1.735703e-05,6.038082e-10,8.711736e-08,5.288796905539097e-05
PART_002_R214G39B40A255,11186,3.271639e-05,-1.079666e-05,-1.079785e-05,1.832413e-05,8.830056e-09,6.642633e-08,5.3858815381517796e-05
PART_002_R214G39B40A255,11187,3.271639e-05,-1.080079e-05,-1.079183e-05,1.962262e-05,6.008747e-10,2.573252e-08,5.5213211789075516e-05
PART_003_R247G182B210A255,11188,1.241936e-11,-8.717874e-12,-2.009076e-12,2.02523e-05,-3.551897e-09,-1.205042e-12,3.507801310961427e-05
PART_003_R247G182B210A255,11189,8.64809e-12,-4.641051e-12,-8.975022e-13,1.894417e-05,-1.4995e-09,-3.104055e-12,3.2812265050014004e-05
PART_003_R247G182B210A255,11190,4.482966e-12,-3.903267e-13,6.446997e-13,1.796588e-05,-9.459679e-09,-3.521217e-12,3.111782127623715e-05
PART_003_R247G182B210A255,11191,1.060211e-12,2.39879e-12,2.048725e-12,1.72913e-05,-5.952708e-10,-3.144884e-12,2.9949410146663544e-05
PART_003_R247G182B210A255,11192,-9.99621e-13,3.656533e-12,3.060808e-12,1.690023e-05,-3.945258e-09,-1.590234e-12,2.9272057817206992e-05
PART_003_R247G182B210A255,11193,-1.657459e-12,3.970754e-12,3.314573e-12,1.677111e-05,-1.920298e-11,-1.203213e-13,2.9048414619346005e-05
PART_002_R214G39B40A255,11194,-1.03609e-12,3.655257e-12,3.105373e-12,1.690022e-05,3.904717e-09,1.848894e-12,2.927204048039143e-05
PART_002_R214G39B40A255,11195,1.110049e-12,2.447875e-12,1.955703e-12,1.72913e-05,5.653322e-10,2.946925e-12,2.9949410144923206e-05
PART_002_R214G39B40A255,11196,4.220413e-12,1.0833e-13,7.31498e-13,1.796588e-05,9.43462e-09,3.671145e-12,3.1117821253413914e-05
PART_002_R214G39B40A255,11197,8.184239e-12,-2.971554e-12,-9.989937e-13,1.894418e-05,1.489592e-09,2.985882e-12,3.281228236916759e-05
PART_002_R214G39B40A255,11198,1.154692e-11,-5.822828e-12,-1.9879e-12,2.025234e-05,3.546683e-09,1.248268e-12,3.507808239006139e-05
PART_003_R247G182B210A255,11199,-3.271639e-05,1.080079e-05,1.079183e-05,1.962261e-05,-6.083366e-10,2.572959e-08,5.5213201123310404e-05
PART_003_R247G182B210A255,11200,-3.271638e-05,1.079665e-05,1.079785e-05,1.832413e-05,-8.841782e-09,6.641901e-08,5.385880324156484e-05
PART_003_R247G182B210A255,11201,-3.271638e-05,1.07955e-05,1.079618e-05,1.735703e-05,-6.284134e-10,8.710837e-08,5.288795255752469e-05
PART_003_R247G182B210A255,11202,-3.271639e-05,1.079644e-05,1.079554e-05,1.66989e-05,-6.880976e-09,7.934724e-08,5.224850263403611e-05
PART_003_R247G182B210A255,11203,-3.271639e-05,1.079487e-05,1.079664e-05,1.631658e-05,9.851362e-11,4.673221e-08,5.1884541679264824e-05
PART_001_R158G218B229A255,11204,-3.271639e-05,1.079694e-05,1.079421e-05,1.61926e-05,-1.807191e-11,-2.52887e-12,5.176767319507318e-05
PART_001_R158G218B229A255,11205,-3.271639e-05,1.079487e-05,1.079664e-05,1.631657e-05,-1.369699e-10,-4.673546e-08,5.188453225395162e-05
PART_002_R214G39B40A255,11206,-3.271638e-05,1.079644e-05,1.079554e-05,1.669889e-05,6.852768e-09,-7.935114e-08,5.2248484724556804e-05
PART_002_R214G39B40A255,11207,-3.271638e-05,1.07955e-05,1.079618e-05,1.735702e-05,6.038491e-10,-8.711002e-08,5.2887942719272556e-05
PART_002_R214G39B40A255,11208,-3.271637e-05,1.079664e-05,1.079784e-05,1.832412e-05,8.830134e-09,-6.642043e-08,5.385877687591563e-05
PART_002_R214G39B40A255,11209,-3.271637e-05,1.080077e-05,1.079182e-05,1.962262e-05,6.008661e-10,-2.573006e-08,5.5213184201451226e-05
PART_003_R247G182B210A255,11210,-6.543278e-05,2.159542e-05,2.159702e-05,1.772534e-05,-4.568368e-09,5.843093e-08,9.228553614948282e-05
PART_003_R247G182B210A255,11211,-6.543278e-05,2.159515e-05,2.158858e-05,1.645284e-05,3.638814e-10,1.613761e-07,9.157212910640814e-05
PART_003_R247G182B210A255,11212,-6.543278e-05,2.159264e-05,2.159302e-05,1.553576e-05,-8.715211e-09,2.067979e-07,9.109151901407858e-05
PART_003_R247G182B210A255,11213,-6.543278e-05,2.158937e-05,2.159364e-05,1.492193e-05,1.335902e-09,1.868122e-07,9.07817320828299e-05
PART_001_R158G218B229A255,11214,-6.543279e-05,2.159396e-05,2.158838e-05,1.457597e-05,-1.336184e-09,1.104194e-07,9.061226696449246e-05
PART_001_R158G218B229A255,11215,-6.543278e-05,2.159239e-05,2.15907e-05,1.446381e-05,-1.504351e-11,-3.222575e-12,9.055848134215099e-05
PART_001_R158G218B229A255,11216,-6.543278e-05,2.159396e-05,2.158838e-05,1.457596e-05,1.303712e-09,-1.10425e-07,9.061225255372735e-05
PART_001_R158G218B229A255,11217,-6.543277e-05,2.158936e-05,2.159364e-05,1.492193e-05,-1.358361e-09,-1.868168e-07,9.078171773342979e-05
PART_002_R214G39B40A255,11218,-6.543277e-05,2.159264e-05,2.159302e-05,1.553576e-05,8.696542e-09,-2.068007e-07,9.109150947415016e-05
PART_002_R214G39B40A255,11219,-6.543276e-05,2.159515e-05,2.158857e-05,1.645285e-05,-3.693552e-10,-1.613778e-07,9.157211074763139e-05
PART_002_R214G39B40A255,11220,-6.543275e-05,2.159541e-05,2.159701e-05,1.772537e-05,4.565198e-09,-5.843091e-08,9.228551571373013e-05
PART_003_R247G182B210A255,11221,-9.81492e-05,3.240405e-05,3.237229e-05,1.452033e-05,1.143856e-09,1.261976e-07,0.00013293823172584612
PART_003_R247G182B210A255,11222,-9.814917e-05,3.238925e-05,3.23935e-05,1.331918e-05,-1.147777e-08,3.18349e-07,0.0001325644748925447
PART_003_R247G182B210A255,11223,-9.814918e-05,3.23832e-05,3.239096e-05,1.24938e-05,4.540046e-09,4.059838e-07,0.00013231966923191895
PART_001_R158G218B229A255,11224,-9.814917e-05,3.2391e-05,3.238241e-05,1.198339e-05,1.211062e-09,3.623498e-07,0.00013217720499982474
PART_001_R158G218B229A255,11225,-9.814918e-05,3.239094e-05,3.238373e-05,1.170197e-05,9.767838e-10,2.069217e-07,0.00013210116784346802
PART_001_R158G218B229A255,11226,-9.814917e-05,3.239142e-05,3.238125e-05,1.161083e-05,-1.072645e-11,-1.219116e-12,0.00013207555513055302
PART_001_R158G218B229A255,11227,-9.814917e-05,3.239094e-05,3.238373e-05,1.170197e-05,-1.000553e-09,-2.069265e-07,0.0001321011579850015
PART_001_R158G218B229A255,11228,-9.814916e-05,3.2391e-05,3.238241e-05,1.198339e-05,-1.226284e-09,-3.623504e-07,0.00013217719512935677
PART_001_R158G218B229A255,11229,-9.814916e-05,3.238319e-05,3.239095e-05,1.24938e-05,-4.553129e-09,-4.059847e-07,0.00013231963964589288
PART_002_R214G39B40A255,11230,-9.814914e-05,3.238923e-05,3.239349e-05,1.331918e-05,1.147402e-08,-3.18347e-07,0.00013256443056444112
PART_002_R214G39B40A255,11231,-9.814914e-05,3.240402e-05,3.237228e-05,1.452033e-05,-1.148152e-09,-1.261978e-07,0.0001329381531677435
PART_003_R247G182B210A255,11232,-0.0001308656,4.31892e-05,4.320133e-05,9.932587e-06,-1.076323e-08,2.312775e-07,0.00017490944658258453
PART_003_R247G182B210A255,11233,-0.0001308656,4.317943e-05,4.318421e-05,8.856088e-06,1.049177e-08,6.334097e-07,0.00017472549689029305
PART_001_R158G218B229A255,11234,-0.0001308656,4.318833e-05,4.317442e-05,8.266716e-06,7.496042e-09,7.743465e-07,0.00017464009974263868
PART_001_R158G218B229A255,11235,-0.0001308656,4.319147e-05,4.317463e-05,7.924959e-06,2.19961e-09,6.407625e-07,0.000174592609950209
PART_001_R158G218B229A255,11236,-0.0001308656,4.318855e-05,4.31745e-05,7.736562e-06,1.83091e-09,3.580857e-07,0.00017456331152255146
PART_001_R158G218B229A255,11237,-0.0001308656,4.319279e-05,4.31737e-05,7.679055e-06,-5.768525e-12,4.636331e-12,0.00017455630717975884
PART_001_R158G218B229A255,11238,-0.0001308656,4.318855e-05,4.31745e-05,7.736561e-06,-1.845402e-09,-3.58086e-07,0.00017456331139189692
PART_001_R158G218B229A255,11239,-0.0001308655,4.319147e-05,4.317462e-05,7.924957e-06,-2.206419e-09,-6.40753e-07,0.00017459250490138556
PART_001_R158G218B229A255,11240,-0.0001308656,4.318832e-05,4.31744e-05,8.266718e-06,-7.502018e-09,-7.743435e-07,0.000174640085039059
PART_001_R158G218B229A255,11241,-0.0001308655,4.317942e-05,4.31842e-05,8.856097e-06,-1.048953e-08,-6.33403e-07,0.0001747253886124297
PART_002_R214G39B40A255,11242,-0.0001308655,4.318919e-05,4.320131e-05,9.932606e-06,1.076401e-08,-2.312749e-07,0.00017490933536668893
PART_003_R247G182B210A255,11243,-0.000163582,5.40143e-05,5.393242e-05,3.648019e-06,1.655933e-08,6.234929e-07,0.00021764978950983797
PART_001_R158G218B229A255,11244,-0.000163582,5.398328e-05,5.395928e-05,3.13494e-06,1.019937e-08,1.347985e-06,0.00021763355697118798
PART_001_R158G218B229A255,11245,-0.000163582,5.399878e-05,5.395861e-05,2.938749e-06,1.993586e-09,1.372501e-06,0.00021763321723732308
PART_001_R158G218B229A255,11246,-0.000163582,5.398478e-05,5.396719e-05,2.809204e-06,2.384173e-09,1.070273e-06,0.0002176202849474138
PART_001_R158G218B229A255,11247,-0.000163582,5.399407e-05,5.396436e-05,2.747207e-06,3.328474e-10,5.776165e-07,0.00021761554470209023
PART_001_R158G218B229A255,11248,-0.0001635819,5.398527e-05,5.396855e-05,2.724421e-06,-1.247913e-12,1.416224e-11,0.00021760998007361985
PART_001_R158G218B229A255,11249,-0.000163582,5.399407e-05,5.396435e-05,2.747206e-06,-3.38581e-10,-5.776068e-07,0.00021761553958927736
PART_001_R158G218B229A255,11250,-0.0001635819,5.398477e-05,5.396718e-05,2.809204e-06,-2.384897e-09,-1.070248e-06,0.0002176201746100767
PART_001_R158G218B229A255,11251,-0.0001635819,5.399876e-05,5.395858e-05,2.938749e-06,-1.996819e-09,-1.372492e-06,0.00021763309211017578
PART_001_R158G218B229A255,11252,-0.0001635819,5.398325e-05,5.395926e-05,3.134942e-06,-1.019722e-08,-1.347969e-06,0.00021763343180529262
PART_001_R158G218B229A255,11253,-0.0001635819,5.401426e-05,5.393238e-05,3.648021e-06,-1.656318e-08,-6.234908e-07,0.0002176496496539757
PART_003_R247G182B210A255,11254,0.000159038,-5.251388e-05,-5.243426e-05,3.648019e-06,1.610741e-08,-6.235007e-07,0.0002116091956314303
PART_000_R31G119B180A255,11255,0.000159038,-5.248373e-05,-5.246044e-05,3.134944e-06,9.91389e-09,-1.34799e-06,0.00021159265490831823
PART_000_R31G119B180A255,11256,0.000159038,-5.249881e-05,-5.245971e-05,2.938752e-06,1.941248e-09,-1.372517e-06,0.0002115918538945174
PART_000_R31G119B180A255,11257,0.000159038,-5.24852e-05,-5.246812e-05,2.809209e-06,2.313879e-09,-1.070273e-06,0.0002115787395942067
PART_000_R31G119B180A255,11258,0.000159038,-5.249423e-05,-5.246531e-05,2.74721e-06,3.240525e-10,-5.776259e-07,0.00021157365170728626
PART_000_R31G119B180A255,11259,0.000159038,-5.248567e-05,-5.246943e-05,2.724425e-06,-5.804854e-12,-1.845243e-12,0.0002115681818335349
PART_000_R31G119B180A255,11260,0.000159038,-5.249423e-05,-5.24653e-05,2.747209e-06,-3.290809e-10,5.776088e-07,0.0002115736465306474
PART_000_R31G119B180A255,11261,0.000159038,-5.248519e-05,-5.24681e-05,2.809207e-06,-2.322426e-09,1.070269e-06,0.00021157872445927005
PART_000_R31G119B180A255,11262,0.000159038,-5.249879e-05,-5.24597e-05,2.938751e-06,-1.94025e-09,1.372502e-06,0.0002115918385648294
PART_000_R31G119B180A255,11263,0.000159038,-5.248371e-05,-5.246041e-05,3.134946e-06,-9.916128e-09,1.347986e-06,0.00021159262993166188
PART_000_R31G119B180A255,11264,0.0001590379,-5.251386e-05,-5.243423e-05,3.648026e-06,-1.610065e-08,6.234947e-07,0.00021160907099907438
PART_003_R247G182B210A255,11265,0.0001272304,-4.198953e-05,-4.200127e-05,9.932619e-06,-1.046655e-08,-2.31279e-07,0.00017009850983527665
PART_003_R247G182B210A255,11266,0.0001272304,-4.198002e-05,-4.198467e-05,8.856109e-06,1.019469e-08,-6.33417e-07,0.0001699101205037367
PART_000_R31G119B180A255,11267,0.0001272304,-4.198866e-05,-4.19751e-05,8.26673e-06,7.285958e-09,-7.743547e-07,0.00016982229344300495
PART_000_R31G119B180A255,11268,0.0001272304,-4.199171e-05,-4.197535e-05,7.92497e-06,2.130883e-09,-6.407634e-07,0.00016977338278455526
PART_000_R31G119B180A255,11269,0.0001272304,-4.198887e-05,-4.197518e-05,7.736572e-06,1.776331e-09,-3.580873e-07,0.0001697433157531853
PART_000_R31G119B180A255,11270,0.0001272304,-4.199299e-05,-4.197444e-05,7.679063e-06,-1.464491e-11,5.838958e-12,0.00016973603329577592
PART_000_R31G119B180A255,11271,0.0001272304,-4.198887e-05,-4.197518e-05,7.736568e-06,-1.797898e-09,3.580937e-07,0.00016974331524743417
PART_000_R31G119B180A255,11272,0.0001272304,-4.199171e-05,-4.197534e-05,7.924964e-06,-2.152414e-09,6.407708e-07,0.00016977337704612356
PART_000_R31G119B180A255,11273,0.0001272304,-4.198865e-05,-4.197509e-05,8.266724e-06,-7.294553e-09,7.743554e-07,0.00016982228261339165
PART_000_R31G119B180A255,11274,0.0001272304,-4.198e-05,-4.198466e-05,8.856105e-06,-1.020179e-08,6.334162e-07,0.00016991010493237153
PART_002_R214G39B40A255,11275,0.0001272304,-4.198949e-05,-4.200125e-05,9.932618e-06,1.046641e-08,2.312788e-07,0.00017009847981420961
PART_003_R247G182B210A255,11276,9.542282e-05,-3.150393e-05,-3.147305e-05,1.452032e-05,1.116668e-09,-1.262009e-07,0.0001293794735788735
PART_003_R247G182B210A255,11277,9.542281e-05,-3.148954e-05,-3.149369e-05,1.331918e-05,-1.116158e-08,-3.183531e-07,0.000128995261050343
PART_003_R247G182B210A255,11278,9.54228e-05,-3.148367e-05,-3.149119e-05,1.249381e-05,4.411334e-09,-4.059883e-07,0.00012874388111243506
PART_000_R31G119B180A255,11279,9.54228e-05,-3.149125e-05,-3.148291e-05,1.19834e-05,1.167418e-09,-3.623515e-07,0.00012859750083255253
PART_000_R31G119B180A255,11280,9.542279e-05,-3.149119e-05,-3.148416e-05,1.170198e-05,9.41966e-10,-2.069197e-07,0.0001285192733456416
PART_000_R31G119B180A255,11281,9.542279e-05,-3.149166e-05,-3.148177e-05,1.161084e-05,-2.31852e-11,9.04351e-12,0.00012849302451581858
PART_000_R31G119B180A255,11282,9.542279e-05,-3.149119e-05,-3.148416e-05,1.170198e-05,-9.804287e-10,2.06937e-07,0.00012851927343006855
PART_000_R31G119B180A255,11283,9.542279e-05,-3.149125e-05,-3.148291e-05,1.198339e-05,-1.202782e-09,3.62365e-07,0.0001285974882833239
PART_000_R31G119B180A255,11284,9.542279e-05,-3.148366e-05,-3.149118e-05,1.24938e-05,-4.43015e-09,4.059977e-07,0.00012874385857683778
PART_002_R214G39B40A255,11285,9.542279e-05,-3.148954e-05,-3.149368e-05,1.331919e-05,1.115014e-08,3.183583e-07,0.0001289952395865111
PART_002_R214G39B40A255,11286,9.542278e-05,-3.150392e-05,-3.147303e-05,1.452035e-05,-1.114489e-09,1.262015e-07,0.0001293794297323522
PART_003_R247G182B210A255,11287,6.361523e-05,-2.099558e-05,-2.09971e-05,1.772538e-05,-4.443962e-09,-5.843226e-08,9.000941823089582e-05
PART_003_R247G182B210A255,11288,6.361522e-05,-2.09953e-05,-2.09889e-05,1.645287e-05,3.432697e-10,-1.613817e-07,8.927803511797225e-05
PART_003_R247G182B210A255,11289,6.361521e-05,-2.099285e-05,-2.09932e-05,1.553578e-05,-8.480311e-09,-2.068027e-07,8.878492737142665e-05
PART_003_R247G182B210A255,11290,6.361521e-05,-2.098967e-05,-2.099382e-05,1.492195e-05,1.284882e-09,-1.868148e-07,8.846714264040442e-05
PART_000_R31G119B180A255,11291,6.36152e-05,-2.099413e-05,-2.098869e-05,1.457598e-05,-1.30962e-09,-1.104176e-07,8.829321966070204e-05
PART_000_R31G119B180A255,11292,6.36152e-05,-2.099261e-05,-2.099095e-05,1.446381e-05,-3.079025e-11,8.843329e-12,8.823801032400084e-05
PART_000_R31G119B180A255,11293,6.36152e-05,-2.099413e-05,-2.098869e-05,1.457597e-05,1.257026e-09,1.104349e-07,8.829321477073851e-05
PART_000_R31G119B180A255,11294,6.36152e-05,-2.098967e-05,-2.099382e-05,1.492193e-05,-1.334188e-09,1.868288e-07,8.846712304730103e-05
PART_002_R214G39B40A255,11295,6.36152e-05,-2.099285e-05,-2.09932e-05,1.553576e-05,8.449339e-09,2.06813e-07,8.878490740604617e-05
PART_002_R214G39B40A255,11296,6.36152e-05,-2.099529e-05,-2.09889e-05,1.645285e-05,-3.666707e-10,1.613874e-07,8.927800039926174e-05
PART_002_R214G39B40A255,11297,6.36152e-05,-2.099555e-05,-2.099709e-05,1.772538e-05,4.438994e-09,5.843476e-08,9.000937123377671e-05
PART_003_R247G182B210A255,11298,3.180762e-05,-1.050077e-05,-1.049206e-05,1.962259e-05,-5.880859e-10,-2.573224e-08,5.426574920320976e-05
PART_003_R247G182B210A255,11299,3.180761e-05,-1.049675e-05,-1.049791e-05,1.832412e-05,-8.601847e-09,-6.642444e-08,5.2887063912926794e-05
PART_003_R247G182B210A255,11300,3.180761e-05,-1.049564e-05,-1.049629e-05,1.735704e-05,-6.170747e-10,-8.711396e-08,5.1898128467708006e-05
PART_003_R247G182B210A255,11301,3.18076e-05,-1.049654e-05,-1.049566e-05,1.669891e-05,-6.70516e-09,-7.935186e-08,5.124629591361378e-05
PART_003_R247G182B210A255,11302,3.18076e-05,-1.049502e-05,-1.049673e-05,1.631658e-05,8.330919e-11,-4.673246e-08,5.087516977610172e-05
PART_000_R31G119B180A255,11303,3.18076e-05,-1.049703e-05,-1.049437e-05,1.619261e-05,-3.600852e-11,5.238057e-12,5.0755995232454775e-05
PART_000_R31G119B180A255,11304,3.18076e-05,-1.049502e-05,-1.049673e-05,1.631657e-05,-1.455538e-10,4.674307e-08,5.087516018422681e-05
PART_002_R214G39B40A255,11305,3.18076e-05,-1.049654e-05,-1.049566e-05,1.669889e-05,6.646785e-09,7.936029e-08,5.1246276378613494e-05
PART_002_R214G39B40A255,11306,3.18076e-05,-1.049564e-05,-1.049629e-05,1.735702e-05,5.800526e-10,8.712081e-08,5.189810028299001e-05
PART_002_R214G39B40A255,11307,3.180761e-05,-1.049675e-05,-1.049791e-05,1.832412e-05,8.576422e-09,6.642853e-08,5.288706391595053e-05
PART_002_R214G39B40A255,11308,3.180761e-05,-1.050077e-05,-1.049206e-05,1.962262e-05,5.852394e-10,2.573346e-08,5.426577395331523e-05
PART_003_R247G182B210A255,11309,1.688165e-11,-8.41098e-12,-3.687484e-12,2.025234e-05,-3.455927e-09,-1.582537e-12,3.507808236288928e-05
PART_003_R247G182B210A255,11310,1.315604e-11,-9.781037e-12,-2.000744e-12,1.89442e-05,-1.470678e-09,-3.724982e-12,3.281231700762888e-05
PART_003_R247G182B210A255,11311,9.844368e-12,-1.228628e-11,2.453493e-14,1.796589e-05,-9.206511e-09,-4.538863e-12,3.1117838368952704e-05
PART_003_R247G182B210A255,11312,7.153019e-12,-1.380478e-11,1.748788e-12,1.729131e-05,-5.955513e-10,-3.569861e-12,2.9949427467194384e-05
PART_003_R247G182B210A255,11313,5.173124e-12,-1.420601e-11,2.858757e-12,1.690023e-05,-3.848957e-09,-2.263725e-12,2.927205777874971e-05
PART_003_R247G182B210A255,11314,4.446986e-12,-1.420362e-11,3.346284e-12,1.677111e-05,-3.778599e-11,1.912261e-13,2.9048414619405856e-05
PART_002_R214G39B40A255,11315,5.222275e-12,-1.418154e-11,2.782183e-12,1.690022e-05,3.783196e-09,1.92814e-12,2.9272040432523015e-05
PART_002_R214G39B40A255,11316,7.067249e-12,-1.380766e-11,1.864105e-12,1.729129e-05,5.334828e-10,3.889914e-12,2.9949392822668566e-05
PART_002_R214G39B40A255,11317,1.017253e-11,-1.280437e-11,-1.393643e-13,1.796587e-05,9.164971e-09,4.350129e-12,3.111780369115459e-05
PART_002_R214G39B40A255,11318,1.369938e-11,-1.173085e-11,-1.886804e-12,1.894418e-05,1.438904e-09,3.919032e-12,3.281228236238792e-05
PART_002_R214G39B40A255,11319,1.796893e-11,-1.18886e-11,-3.783696e-12,2.025233e-05,3.448489e-09,1.539873e-12,3.507806504018789e-05
PART_003_R247G182B210A255,11320,-3.180759e-05,1.050075e-05,1.049205e-05,1.962258e-05,-5.881175e-10,2.572889e-08,5.426570326847141e-05
PART_003_R247G182B210A255,11321,-3.180759e-05,1.049674e-05,1.04979e-05,1.832411e-05,-8.60204e-09,6.641656e-08,5.288702949171189e-05
PART_003_R247G182B210A255,11322,-3.18076e-05,1.049564e-05,1.049629e-05,1.735703e-05,-6.171876e-10,8.710449e-08,5.189811023542279e-05
PART_003_R247G182B210A255,11323,-3.18076e-05,1.049655e-05,1.049567e-05,1.66989e-05,-6.705312e-09,7.934454e-08,5.1246294358974e-05
PART_003_R247G182B210A255,11324,-3.18076e-05,1.049503e-05,1.049674e-05,1.631658e-05,8.329111e-11,4.672785e-08,5.087517807855034e-05
PART_001_R158G218B229A255,11325,-3.18076e-05,1.049705e-05,1.049437e-05,1.61926e-05,-3.604574e-11,-4.83739e-12,5.075599399703318e-05
PART_001_R158G218B229A255,11326,-3.18076e-05,1.049503e-05,1.049674e-05,1.631657e-05,-1.454575e-10,-4.673916e-08,5.087516848860263e-05
PART_002_R214G39B40A255,11327,-3.18076e-05,1.049655e-05,1.049567e-05,1.669889e-05,6.646861e-09,-7.935229e-08,5.124628459645897e-05
PART_002_R214G39B40A255,11328,-3.180759e-05,1.049564e-05,1.049629e-05,1.735702e-05,5.802317e-10,-8.711187e-08,5.189809208670191e-05
PART_002_R214G39B40A255,11329,-3.180759e-05,1.049674e-05,1.04979e-05,1.832412e-05,8.576519e-09,-6.64204e-08,5.2887039888040086e-05
PART_002_R214G39B40A255,11330,-3.180758e-05,1.050075e-05,1.049205e-05,1.962261e-05,5.853393e-10,-2.573022e-08,5.4265728018747984e-05
PART_003_R247G182B210A255,11331,-6.36152e-05,2.099556e-05,2.099708e-05,1.772537e-05,-4.443957e-09,5.842893e-08,9.000936531505898e-05
PART_003_R247G182B210A255,11332,-6.36152e-05,2.099529e-05,2.09889e-05,1.645286e-05,3.429957e-10,1.613738e-07,8.927800585386536e-05
PART_003_R247G182B210A255,11333,-6.36152e-05,2.099283e-05,2.09932e-05,1.553577e-05,-8.480409e-09,2.067933e-07,8.878490299722349e-05
PART_003_R247G182B210A255,11334,-6.36152e-05,2.098964e-05,2.099383e-05,1.492194e-05,1.284566e-09,1.86807e-07,8.846711840490892e-05
PART_001_R158G218B229A255,11335,-6.36152e-05,2.099411e-05,2.098869e-05,1.457597e-05,-1.309579e-09,1.104132e-07,8.829320510823125e-05
PART_001_R158G218B229A255,11336,-6.36152e-05,2.099258e-05,2.099097e-05,1.446381e-05,-3.094143e-11,-8.86456e-12,8.823800552905821e-05
PART_001_R158G218B229A255,11337,-6.36152e-05,2.099411e-05,2.098869e-05,1.457596e-05,1.257282e-09,-1.104304e-07,8.829320021790526e-05
PART_001_R158G218B229A255,11338,-6.36152e-05,2.098964e-05,2.099383e-05,1.492192e-05,-1.334148e-09,-1.86821e-07,8.846710837547746e-05
PART_002_R214G39B40A255,11339,-6.361519e-05,2.099283e-05,2.09932e-05,1.553575e-05,8.449698e-09,-2.068036e-07,8.87848830319177e-05
PART_002_R214G39B40A255,11340,-6.361518e-05,2.099527e-05,2.09889e-05,1.645284e-05,-3.665748e-10,-1.613793e-07,8.927796639512035e-05
PART_002_R214G39B40A255,11341,-6.361516e-05,2.099553e-05,2.099708e-05,1.772536e-05,4.439165e-09,-5.843146e-08,9.000930771015857e-05
PART_003_R247G182B210A255,11342,-9.54228e-05,3.150392e-05,3.147303e-05,1.452031e-05,1.116627e-09,1.261972e-07,0.00012937943587061442
PART_003_R247G182B210A255,11343,-9.542281e-05,3.148954e-05,3.149371e-05,1.331917e-05,-1.116193e-08,3.183439e-07,0.00012899526772389616
PART_003_R247G182B210A255,11344,-9.54228e-05,3.148368e-05,3.149117e-05,1.24938e-05,4.411129e-09,4.059783e-07,0.0001287438731763966
PART_001_R158G218B229A255,11345,-9.542282e-05,3.149127e-05,3.148293e-05,1.198339e-05,1.167056e-09,3.623423e-07,0.00012859753743428592
PART_001_R158G218B229A255,11346,-9.542281e-05,3.149121e-05,3.148415e-05,1.170197e-05,9.420167e-10,2.069159e-07,0.0001285192952840028
PART_001_R158G218B229A255,11347,-9.542282e-05,3.149168e-05,3.14818e-05,1.161083e-05,-2.338356e-11,-1.027594e-11,0.00012849307612658768
PART_001_R158G218B229A255,11348,-9.542281e-05,3.149121e-05,3.148415e-05,1.170196e-05,-9.801065e-10,-2.069309e-07,0.00012851929262574374
PART_001_R158G218B229A255,11349,-9.542281e-05,3.149127e-05,3.148293e-05,1.198338e-05,-1.202771e-09,-3.623578e-07,0.00012859752490197328
PART_001_R158G218B229A255,11350,-9.542279e-05,3.148367e-05,3.149117e-05,1.249379e-05,-4.429691e-09,-4.059863e-07,0.0001287438555567517
PART_002_R214G39B40A255,11351,-9.542279e-05,3.148954e-05,3.14937e-05,1.331918e-05,1.115022e-08,-3.183502e-07,0.00012899524626813283
PART_002_R214G39B40A255,11352,-9.542276e-05,3.150391e-05,3.147301e-05,1.452033e-05,-1.114314e-09,-1.261975e-07,0.00012937938865628754
PART_003_R247G182B210A255,11353,-0.0001272304,4.198953e-05,4.200124e-05,9.932605e-06,-1.046675e-08,2.312749e-07,0.00017009849244147948
PART_003_R247G182B210A255,11354,-0.0001272304,4.198001e-05,4.198471e-05,8.856096e-06,1.019462e-08,6.334067e-07,0.0001699101332952287
PART_001_R158G218B229A255,11355,-0.0001272304,4.198865e-05,4.197507e-05,8.266721e-06,7.285755e-09,7.74344e-07,0.00016982227205532583
PART_001_R158G218B229A255,11356,-0.0001272304,4.199169e-05,4.197538e-05,7.92496e-06,2.13064e-09,6.407523e-07,0.00016977338623839084
PART_001_R158G218B229A255,11357,-0.0001272304,4.198885e-05,4.197516e-05,7.736563e-06,1.776294e-09,3.580842e-07,0.00016974329456551012
PART_001_R158G218B229A255,11358,-0.0001272304,4.199298e-05,4.197448e-05,7.679054e-06,-1.472427e-11,-8.373597e-12,0.0001697360470240485
PART_001_R158G218B229A255,11359,-0.0001272304,4.198885e-05,4.197516e-05,7.736558e-06,-1.797733e-09,-3.580857e-07,0.00016974329389201023
PART_001_R158G218B229A255,11360,-0.0001272304,4.199169e-05,4.197538e-05,7.924954e-06,-2.152292e-09,-6.40764e-07,0.00016977338553145134
PART_001_R158G218B229A255,11361,-0.0001272304,4.198864e-05,4.197507e-05,8.266714e-06,-7.294267e-09,-7.743415e-07,0.00016982226601733338
PART_001_R158G218B229A255,11362,-0.0001272304,4.197999e-05,4.198469e-05,8.856093e-06,-1.020166e-08,-6.334077e-07,0.00016991011292066726
PART_002_R214G39B40A255,11363,-0.0001272303,4.198948e-05,4.200122e-05,9.932604e-06,1.046653e-08,-2.312742e-07,0.00017009835795758627
PART_003_R247G182B210A255,11364,-0.000159038,5.251388e-05,5.243422e-05,3.648011e-06,1.610789e-08,6.234949e-07,0.0002116091751869963
PART_001_R158G218B229A255,11365,-0.0001590381,5.248374e-05,5.246048e-05,3.13494e-06,9.913439e-09,1.347976e-06,0.00021159277941164284
PART_001_R158G218B229A255,11366,-0.000159038,5.249882e-05,5.245969e-05,2.938747e-06,1.941225e-09,1.372504e-06,0.0002115918484391302
PART_001_R158G218B229A255,11367,-0.0001590381,5.248522e-05,5.246817e-05,2.809205e-06,2.31379e-09,1.07026e-06,0.00021157887419489367
PART_001_R158G218B229A255,11368,-0.000159038,5.249426e-05,5.246529e-05,2.747206e-06,3.239292e-10,5.776225e-07,0.00021157365652743236
PART_001_R158G218B229A255,11369,-0.000159038,5.24857e-05,5.246948e-05,2.724421e-06,-5.662827e-12,-1.356007e-12,0.000211568221667906
PART_001_R158G218B229A255,11370,-0.000159038,5.249426e-05,5.246528e-05,2.747204e-06,-3.292452e-10,-5.775994e-07,0.00021157365126270308
PART_001_R158G218B229A255,11371,-0.000159038,5.248522e-05,5.246815e-05,2.809203e-06,-2.322093e-09,-1.070261e-06,0.00021157876416520214
PART_001_R158G218B229A255,11372,-0.000159038,5.249881e-05,5.245968e-05,2.938747e-06,-1.940469e-09,-1.372485e-06,0.00021159183807290314
PART_001_R158G218B229A255,11373,-0.000159038,5.248373e-05,5.246045e-05,3.134942e-06,-9.91561e-09,-1.347974e-06,0.0002115926595110969
PART_001_R158G218B229A255,11374,-0.0001590379,5.251386e-05,5.24342e-05,3.648018e-06,-1.610119e-08,-6.234879e-07,0.0002116090555406972
PART_003_R247G182B210A255,11375,0.0001544941,-5.101352e-05,-5.093615e-05,3.648029e-06,1.563648e-08,-6.234961e-07,0.00020556891560261512
PART_000_R31G119B180A255,11376,0.0001544941,-5.098422e-05,-5.096156e-05,3.134949e-06,9.632369e-09,-1.347995e-06,0.00020555198765852953
PART_000_R31G119B180A255,11377,0.0001544941,-5.099886e-05,-5.096087e-05,2.938756e-06,1.878783e-09,-1.372506e-06,0.0002055507517974174
PART_000_R31G119B180A255,11378,0.0001544941,-5.098564e-05,-5.096903e-05,2.80921e-06,2.248575e-09,-1.070275e-06,0.0002055373987167439
PART_000_R31G119B180A255,11379,0.0001544941,-5.099442e-05,-5.09663e-05,2.747212e-06,3.078511e-10,-5.7761e-07,0.00020553198468092955
PART_000_R31G119B180A255,11380,0.000154494,-5.09861e-05,-5.09703e-05,2.724425e-06,-5.77253e-12,-1.285708e-12,0.00020552637941347575
PART_000_R31G119B180A255,11381,0.000154494,-5.099442e-05,-5.096629e-05,2.747209e-06,-3.262507e-10,5.776251e-07,0.00020553187971844057
PART_000_R31G119B180A255,11382,0.000154494,-5.098564e-05,-5.096902e-05,2.809206e-06,-2.255321e-09,1.07027e-06,0.00020553729350915038
PART_000_R31G119B180A255,11383,0.000154494,-5.099884e-05,-5.096084e-05,2.93875e-06,-1.88954e-09,1.372514e-06,0.00020555062674870337
PART_000_R31G119B180A255,11384,0.000154494,-5.098419e-05,-5.096154e-05,3.134945e-06,-9.630025e-09,1.347987e-06,0.0002055518623686558
PART_000_R31G119B180A255,11385,0.000154494,-5.101346e-05,-5.09361e-05,3.648025e-06,-1.564463e-08,6.234978e-07,0.00020556876047955497
PART_003_R247G182B210A255,11386,0.0001235953,-4.078979e-05,-4.080123e-05,9.932602e-06,-1.016533e-08,-2.312798e-07,0.0001652890469423851
PART_003_R247G182B210A255,11387,0.0001235953,-4.078056e-05,-4.078511e-05,8.856104e-06,9.907173e-09,-6.334127e-07,0.00016509593255190555
PART_000_R31G119B180A255,11388,0.0001235952,-4.078896e-05,-4.077581e-05,8.266733e-06,7.070775e-09,-7.743471e-07,0.00016500547322402786
PART_000_R31G119B180A255,11389,0.0001235952,-4.079192e-05,-4.077605e-05,7.924975e-06,2.065901e-09,-6.407567e-07,0.00016495503646951314
PART_000_R31G119B180A255,11390,0.0001235952,-4.078916e-05,-4.077589e-05,7.736575e-06,1.71251e-09,-3.580741e-07,0.00016492417968999733
PART_000_R31G119B180A255,11391,0.0001235952,-4.079317e-05,-4.077517e-05,7.679064e-06,-2.118232e-11,1.512884e-11,0.00016491658981541917
PART_000_R31G119B180A255,11392,0.0001235952,-4.078916e-05,-4.077588e-05,7.736566e-06,-1.759526e-09,3.581081e-07,0.00016492417366355342
PART_000_R31G119B180A255,11393,0.0001235952,-4.079192e-05,-4.077605e-05,7.92496e-06,-2.095426e-09,6.407795e-07,0.00016495503457438635
PART_000_R31G119B180A255,11394,0.0001235952,-4.078896e-05,-4.07758e-05,8.26672e-06,-7.094331e-09,7.743658e-07,0.00016500546655606908
PART_000_R31G119B180A255,11395,0.0001235952,-4.078056e-05,-4.07851e-05,8.856102e-06,-9.909279e-09,6.334211e-07,0.00016509582778342409
PART_002_R214G39B40A255,11396,0.0001235952,-4.078978e-05,-4.080121e-05,9.932618e-06,1.016472e-08,2.312809e-07,0.00016528893545575635
PART_003_R247G182B210A255,11397,9.269648e-05,-3.060385e-05,-3.057382e-05,1.452036e-05,1.075319e-09,-1.261982e-07,0.00012582463954255812
PART_003_R247G182B210A255,11398,9.269646e-05,-3.058986e-05,-3.059387e-05,1.331921e-05,-1.084886e-08,-3.183504e-07,0.0001254293408755018
PART_003_R247G182B210A255,11399,9.269644e-05,-3.058415e-05,-3.059144e-05,1.249382e-05,4.271498e-09,-4.059824e-07,0.00012517101810656856
PART_000_R31G119B180A255,11400,9.269643e-05,-3.059152e-05,-3.058339e-05,1.198341e-05,1.123625e-09,-3.623422e-07,0.00012502046462618629
PART_000_R31G119B180A255,11401,9.269643e-05,-3.059146e-05,-3.058461e-05,1.170199e-05,8.966921e-10,-2.069091e-07,0.00012493997555605474
PART_000_R31G119B180A255,11402,9.269643e-05,-3.059192e-05,-3.058229e-05,1.161084e-05,-3.577328e-11,2.134551e-11,0.00012491302929707094
PART_000_R31G119B180A255,11403,9.269644e-05,-3.059146e-05,-3.058461e-05,1.170197e-05,-9.708343e-10,2.069488e-07,0.00012493998000282067
PART_000_R31G119B180A255,11404,9.269644e-05,-3.059152e-05,-3.058339e-05,1.198339e-05,-1.178156e-09,3.623761e-07,0.00012502046903246566
PART_000_R31G119B180A255,11405,9.269644e-05,-3.058415e-05,-3.059144e-05,1.24938e-05,-4.315802e-09,4.060064e-07,0.00012517101235582568
PART_002_R214G39B40A255,11406,9.269643e-05,-3.058985e-05,-3.059386e-05,1.331918e-05,1.082939e-08,3.18364e-07,0.00012542929209979244
PART_002_R214G39B40A255,11407,9.269642e-05,-3.060381e-05,-3.057381e-05,1.452034e-05,-1.087816e-09,1.262038e-07,0.00012582454934569458
PART_003_R247G182B210A255,11408,6.179764e-05,-2.039568e-05,-2.039718e-05,1.772535e-05,-4.318462e-09,-5.843234e-08,8.774075188692147e-05
PART_003_R247G182B210A255,11409,6.179763e-05,-2.039542e-05,-2.038922e-05,1.645286e-05,3.332124e-10,-1.613779e-07,8.699055032119418e-05
PART_003_R247G182B210A255,11410,6.179762e-05,-2.039304e-05,-2.03934e-05,1.553578e-05,-8.252453e-09,-2.067977e-07,8.648435731855279e-05
PART_003_R247G182B210A255,11411,6.179762e-05,-2.038994e-05,-2.039399e-05,1.492195e-05,1.234918e-09,-1.868075e-07,8.615814741440785e-05
PART_000_R31G119B180A255,11412,6.179762e-05,-2.039428e-05,-2.038901e-05,1.457598e-05,-1.2956e-09,-1.104094e-07,8.597958744198336e-05
PART_000_R31G119B180A255,11413,6.179762e-05,-2.03928e-05,-2.039121e-05,1.446381e-05,-4.755486e-11,1.872431e-11,8.592287156917438e-05
PART_000_R31G119B180A255,11414,6.179762e-05,-2.039428e-05,-2.038901e-05,1.457597e-05,1.197518e-09,1.104442e-07,8.597958248595237e-05
PART_000_R31G119B180A255,11415,6.179762e-05,-2.038995e-05,-2.0394e-05,1.492192e-05,-1.30981e-09,1.86838e-07,8.615814156820374e-05
PART_002_R214G39B40A255,11416,6.179763e-05,-2.039304e-05,-2.03934e-05,1.553575e-05,8.191566e-09,2.068203e-07,8.648435079956336e-05
PART_002_R214G39B40A255,11417,6.179763e-05,-2.039542e-05,-2.038922e-05,1.645285e-05,-3.600367e-10,1.613927e-07,8.699054472987119e-05
PART_002_R214G39B40A255,11418,6.179762e-05,-2.039567e-05,-2.039718e-05,1.772537e-05,4.30659e-09,5.843656e-08,8.77407405953334e-05
PART_003_R247G182B210A255,11419,3.089884e-05,-1.020076e-05,-1.019229e-05,1.962265e-05,-5.825302e-10,-2.573131e-08,5.332894377985905e-05
PART_003_R247G182B210A255,11420,3.089883e-05,-1.019685e-05,-1.019797e-05,1.832416e-05,-8.366833e-09,-6.642327e-08,5.1925320493563405e-05
PART_003_R247G182B210A255,11421,3.089882e-05,-1.019577e-05,-1.019639e-05,1.735705e-05,-6.20429e-10,-8.711176e-08,5.0917729004117876e-05
PART_003_R247G182B210A255,11422,3.089882e-05,-1.019666e-05,-1.019579e-05,1.669892e-05,-6.530368e-09,-7.934783e-08,5.0253194204850255e-05
PART_003_R247G182B210A255,11423,3.089882e-05,-1.019518e-05,-1.019682e-05,1.631659e-05,5.414473e-11,-4.672822e-08,4.9874684070401165e-05
PART_000_R31G119B180A255,11424,3.089882e-05,-1.019714e-05,-1.019453e-05,1.619261e-05,-5.540385e-11,1.089898e-11,4.9753115787093824e-05
PART_000_R31G119B180A255,11425,3.089882e-05,-1.019518e-05,-1.019682e-05,1.631657e-05,-1.683547e-10,4.674803e-08,4.9874664497761344e-05
PART_002_R214G39B40A255,11426,3.089882e-05,-1.019666e-05,-1.019579e-05,1.669888e-05,6.440638e-09,7.936582e-08,5.0253154379884515e-05
PART_002_R214G39B40A255,11427,3.089882e-05,-1.019578e-05,-1.01964e-05,1.735701e-05,5.44233e-10,8.712481e-08,5.091769623326277e-05
PART_002_R214G39B40A255,11428,3.089883e-05,-1.019685e-05,-1.019797e-05,1.832411e-05,8.325367e-09,6.643186e-08,5.192526757240617e-05
PART_002_R214G39B40A255,11429,3.089883e-05,-1.020075e-05,-1.019228e-05,1.962261e-05,5.609491e-10,2.573459e-08,5.332888421730159e-05
PART_003_R247G182B210A255,11430,2.177554e-11,-1.02764e-11,-6.043806e-12,2.025231e-05,-3.360488e-09,-1.995813e-12,3.507803037355234e-05
PART_003_R247G182B210A255,11431,1.425952e-11,-3.827716e-12,-3.696942e-12,1.894418e-05,-1.430754e-09,-4.927503e-12,3.28122823613166e-05
PART_003_R247G182B210A255,11432,7.116348e-12,2.656667e-12,-1.301433e-12,1.796589e-05,-8.961559e-09,-5.193384e-12,3.111783815442604e-05
PART_003_R247G182B210A255,11433,1.598611e-12,6.778009e-12,6.959309e-13,1.729132e-05,-5.95348e-10,-4.542842e-12,2.9949444787685328e-05
PART_003_R247G182B210A255,11434,-1.442089e-12,8.558293e-12,1.908208e-12,1.690024e-05,-3.766832e-09,-2.111038e-12,2.927207506720289e-05
PART_003_R247G182B210A255,11435,-2.43189e-12,8.986978e-12,2.18985e-12,1.677111e-05,-5.8271e-11,-2.571078e-13,2.904841461950352e-05
PART_002_R214G39B40A255,11436,-1.532688e-12,8.579235e-12,2.00267e-12,1.690021e-05,3.647031e-09,2.623069e-12,2.927202306016625e-05
PART_002_R214G39B40A255,11437,1.695452e-12,6.86308e-12,4.929022e-13,1.729128e-05,5.009281e-10,4.11648e-12,2.9949375500468658e-05
PART_002_R214G39B40A255,11438,6.658662e-12,3.385597e-12,-1.106806e-12,1.796586e-05,8.883049e-09,5.499217e-12,3.111778612537555e-05
PART_002_R214G39B40A255,11439,1.359722e-11,-1.311146e-12,-3.936872e-12,1.894416e-05,1.391959e-09,4.673903e-12,3.28122477152935e-05
PART_002_R214G39B40A255,11440,2.041478e-11,-5.826756e-12,-5.968116e-12,2.025233e-05,3.342964e-09,2.053108e-12,3.5078065009541646e-05
PART_003_R247G182B210A255,11441,-3.08988e-05,1.020075e-05,1.019227e-05,1.962264e-05,-5.826726e-10,2.572747e-08,5.3328890353769405e-05
PART_003_R247G182B210A255,11442,-3.08988e-05,1.019684e-05,1.019796e-05,1.832415e-05,-8.367e-09,6.641376e-08,5.1925278212359334e-05
PART_003_R247G182B210A255,11443,-3.08988e-05,1.019575e-05,1.019639e-05,1.735705e-05,-6.20717e-10,8.71016e-08,5.091770473964471e-05
PART_003_R247G182B210A255,11444,-3.08988e-05,1.019663e-05,1.019579e-05,1.669891e-05,-6.53048e-09,7.933878e-08,5.025315557117924e-05
PART_003_R247G182B210A255,11445,-3.089881e-05,1.019515e-05,1.019683e-05,1.631658e-05,5.400763e-11,4.6724e-08,4.987465776575593e-05
PART_001_R158G218B229A255,11446,-3.089881e-05,1.019711e-05,1.019453e-05,1.61926e-05,-5.53415e-11,-1.144244e-11,4.975308537285684e-05
PART_001_R158G218B229A255,11447,-3.089881e-05,1.019515e-05,1.019683e-05,1.631656e-05,-1.683072e-10,-4.674273e-08,4.9874638190076175e-05
PART_002_R214G39B40A255,11448,-3.089881e-05,1.019663e-05,1.019579e-05,1.669888e-05,6.440873e-09,-7.935768e-08,5.025313389701641e-05
PART_002_R214G39B40A255,11449,-3.08988e-05,1.019575e-05,1.01964e-05,1.7357e-05,5.44434e-10,-8.711383e-08,5.0917657702705226e-05
PART_002_R214G39B40A255,11450,-3.089879e-05,1.019683e-05,1.019796e-05,1.83241e-05,8.325675e-09,-6.642267e-08,5.192521342089758e-05
PART_002_R214G39B40A255,11451,-3.089878e-05,1.020072e-05,1.019227e-05,1.96226e-05,5.610036e-10,-2.573055e-08,5.332881922830549e-05
PART_003_R247G182B210A255,11452,-6.179761e-05,2.039566e-05,2.039718e-05,1.772534e-05,-4.318822e-09,5.842813e-08,8.774070834690301e-05
PART_003_R247G182B210A255,11453,-6.179761e-05,2.039541e-05,2.03892e-05,1.645285e-05,3.328837e-10,1.613677e-07,8.699051152243009e-05
PART_003_R247G182B210A255,11454,-6.179762e-05,2.039305e-05,2.039341e-05,1.553577e-05,-8.25305e-09,2.067865e-07,8.648436135282869e-05
PART_003_R247G182B210A255,11455,-6.179762e-05,2.038996e-05,2.039399e-05,1.492194e-05,1.234822e-09,1.867985e-07,8.61581516987723e-05
PART_001_R158G218B229A255,11456,-6.179763e-05,2.03943e-05,2.038903e-05,1.457597e-05,-1.295939e-09,1.104045e-07,8.597961101475532e-05
PART_001_R158G218B229A255,11457,-6.179763e-05,2.039282e-05,2.039121e-05,1.44638e-05,-4.732224e-11,-1.865975e-11,8.592288565043578e-05
PART_001_R158G218B229A255,11458,-6.179763e-05,2.03943e-05,2.038903e-05,1.457595e-05,1.197453e-09,-1.104394e-07,8.597960097324887e-05
PART_001_R158G218B229A255,11459,-6.179763e-05,2.038996e-05,2.039399e-05,1.492191e-05,-1.309296e-09,-1.868289e-07,8.615814585190069e-05
PART_002_R214G39B40A255,11460,-6.179763e-05,2.039305e-05,2.039341e-05,1.553574e-05,8.191793e-09,-2.068093e-07,8.648435483517071e-05
PART_002_R214G39B40A255,11461,-6.179761e-05,2.039542e-05,2.03892e-05,1.645283e-05,-3.594518e-10,-1.613827e-07,8.699050498281173e-05
PART_002_R214G39B40A255,11462,-6.17976e-05,2.039567e-05,2.039718e-05,1.772536e-05,4.306667e-09,-5.843232e-08,8.774071579061631e-05
PART_003_R247G182B210A255,11463,-9.269646e-05,3.060384e-05,3.057384e-05,1.452035e-05,1.075095e-09,1.261937e-07,0.00012582462136432102
PART_003_R247G182B210A255,11464,-9.269643e-05,3.058985e-05,3.059385e-05,1.33192e-05,-1.084909e-08,3.183404e-07,0.00012542929338163982
PART_003_R247G182B210A255,11465,-9.269644e-05,3.058413e-05,3.059146e-05,1.249381e-05,4.270965e-09,4.059702e-07,0.00012517101499513972
PART_001_R158G218B229A255,11466,-9.269643e-05,3.05915e-05,3.058338e-05,1.19834e-05,1.123544e-09,3.623339e-07,0.00012502044688633945
PART_001_R158G218B229A255,11467,-9.269644e-05,3.059144e-05,3.058464e-05,1.170197e-05,8.96299e-10,2.069024e-07,0.00012493998470230628
PART_001_R158G218B229A255,11468,-9.269643e-05,3.05919e-05,3.058228e-05,1.161083e-05,-3.547509e-11,-1.952345e-11,0.00012491301170362647
PART_001_R158G218B229A255,11469,-9.269645e-05,3.059144e-05,3.058464e-05,1.170196e-05,-9.709794e-10,-2.069456e-07,0.0001249399919762979
PART_001_R158G218B229A255,11470,-9.269643e-05,3.05915e-05,3.058338e-05,1.198337e-05,-1.177551e-09,-3.623648e-07,0.00012502043852987845
PART_001_R158G218B229A255,11471,-9.269644e-05,3.058413e-05,3.059146e-05,1.249378e-05,-4.315654e-09,-4.059964e-07,0.00012517100627142913
PART_002_R214G39B40A255,11472,-9.269641e-05,3.058983e-05,3.059384e-05,1.331917e-05,1.083003e-08,-3.183524e-07,0.00012542924950874579
PART_002_R214G39B40A255,11473,-9.26964e-05,3.060379e-05,3.057382e-05,1.452032e-05,-1.087769e-09,-1.261998e-07,0.00012582451790874537
PART_003_R247G182B210A255,11474,-0.0001235953,4.078978e-05,4.080127e-05,9.932583e-06,-1.016534e-08,2.312747e-07,0.00016528905841680616
PART_003_R247G182B210A255,11475,-0.0001235952,4.078057e-05,4.078507e-05,8.85609e-06,9.906682e-09,6.33401e-07,0.0001650958156631465
PART_001_R158G218B229A255,11476,-0.0001235953,4.078898e-05,4.077585e-05,8.26672e-06,7.070385e-09,7.743322e-07,0.00016500560056444447
PART_001_R158G218B229A255,11477,-0.0001235953,4.079195e-05,4.077602e-05,7.924963e-06,2.06574e-09,6.407485e-07,0.00016495513429963797
PART_001_R158G218B229A255,11478,-0.0001235953,4.07892e-05,4.077593e-05,7.736562e-06,1.712322e-09,3.580653e-07,0.0001649243173393201
PART_001_R158G218B229A255,11479,-0.0001235953,4.07932e-05,4.077515e-05,7.679052e-06,-2.107194e-11,-1.145174e-11,0.00016491669280119988
PART_001_R158G218B229A255,11480,-0.0001235953,4.07892e-05,4.077593e-05,7.736554e-06,-1.759533e-09,-3.581064e-07,0.00016492431648268752
PART_001_R158G218B229A255,11481,-0.0001235953,4.079195e-05,4.077602e-05,7.924948e-06,-2.095106e-09,-6.407652e-07,0.00016495513233341972
PART_001_R158G218B229A255,11482,-0.0001235953,4.078898e-05,4.077584e-05,8.266708e-06,-7.094082e-09,-7.743556e-07,0.00016500559411297043
PART_001_R158G218B229A255,11483,-0.0001235952,4.078057e-05,4.078506e-05,8.856088e-06,-9.908883e-09,-6.334068e-07,0.00016509581042998116
PART_002_R214G39B40A255,11484,-0.0001235952,4.078978e-05,4.080124e-05,9.932599e-06,1.016478e-08,-2.312765e-07,0.00016528894693207353
PART_003_R247G182B210A255,11485,-0.0001544942,5.101353e-05,5.09362e-05,3.648022e-06,1.563594e-08,6.234886e-07,0.00020556904508706847
PART_001_R158G218B229A255,11486,-0.0001544941,5.098422e-05,5.096152e-05,3.134942e-06,9.632661e-09,1.347981e-06,0.00020555196707444092
PART_001_R158G218B229A255,11487,-0.0001544941,5.099885e-05,5.096093e-05,2.938752e-06,1.878598e-09,1.372488e-06,0.0002055507762462483
PART_001_R158G218B229A255,11488,-0.0001544941,5.098562e-05,5.0969e-05,2.809205e-06,2.248452e-09,1.070266e-06,0.00020553737337976116
PART_001_R158G218B229A255,11489,-0.0001544941,5.09944e-05,5.096636e-05,2.747207e-06,3.079618e-10,5.775996e-07,0.00020553200437895902
PART_001_R158G218B229A255,11490,-0.0001544941,5.098609e-05,5.097028e-05,2.72442e-06,-5.99032e-12,5.840277e-12,0.0002055264641928083
PART_001_R158G218B229A255,11491,-0.0001544941,5.09944e-05,5.096634e-05,2.747204e-06,-3.259404e-10,-5.776236e-07,0.00020553199446593468
PART_001_R158G218B229A255,11492,-0.0001544941,5.098562e-05,5.096899e-05,2.8092e-06,-2.25558e-09,-1.070254e-06,0.00020553736798973606
PART_001_R158G218B229A255,11493,-0.0001544941,5.099883e-05,5.096089e-05,2.938746e-06,-1.888995e-09,-1.372502e-06,0.00020555074628360456
PART_001_R158G218B229A255,11494,-0.000154494,5.098418e-05,5.096151e-05,3.134939e-06,-9.630442e-09,-1.347969e-06,0.00020555184174999013
PART_001_R158G218B229A255,11495,-0.000154494,5.101346e-05,5.093615e-05,3.648019e-06,-1.564392e-08,-6.234918e-07,0.0002055687850791041
PART_003_R247G182B210A255,11496,0.0001499501,-4.951307e-05,-4.943801e-05,3.64802e-06,1.519171e-08,-6.235007e-07,0.00019952864760832307
PART_000_R31G119B180A255,11497,0.0001499501,-4.948465e-05,-4.94627e-05,3.134948e-06,9.345096e-09,-1.347981e-06,0.00019951134682972836
PART_000_R31G119B180A255,11498,0.0001499501,-4.949886e-05,-4.946201e-05,2.938756e-06,1.828647e-09,-1.372507e-06,0.00019950964765077828
PART_000_R31G119B180A255,11499,0.0001499501,-4.948603e-05,-4.946995e-05,2.809214e-06,2.173542e-09,-1.070252e-06,0.0001994960517330347
PART_000_R31G119B180A255,11500,0.0001499501,-4.949455e-05,-4.946728e-05,2.747213e-06,2.988108e-10,-5.77607e-07,0.00019949028229284554
PART_000_R31G119B180A255,11501,0.0001499501,-4.948648e-05,-4.947117e-05,2.724426e-06,-1.587961e-11,2.502601e-11,0.00019948474576654668
PART_000_R31G119B180A255,11502,0.0001499501,-4.949455e-05,-4.946728e-05,2.747207e-06,-3.170985e-10,5.776301e-07,0.00019949028224570581
PART_000_R31G119B180A255,11503,0.0001499501,-4.948603e-05,-4.946992e-05,2.809204e-06,-2.197659e-09,1.070293e-06,0.00019949603697818713
PART_000_R31G119B180A255,11504,0.0001499501,-4.949886e-05,-4.9462e-05,2.938748e-06,-1.831816e-09,1.372518e-06,0.0001995096425277378
PART_000_R31G119B180A255,11505,0.0001499501,-4.948464e-05,-4.946266e-05,3.134943e-06,-9.352098e-09,1.347999e-06,0.000199511321973315
PART_000_R31G119B180A255,11506,0.0001499501,-4.951306e-05,-4.943799e-05,3.648025e-06,-1.517882e-08,6.234984e-07,0.00019952863286863194
PART_003_R247G182B210A255,11507,0.0001199601,-3.959015e-05,-3.96012e-05,9.93264e-06,-9.870991e-09,-2.312751e-07,0.00016048108360913236
PART_003_R247G182B210A255,11508,0.0001199601,-3.958117e-05,-3.958554e-05,8.856126e-06,9.603364e-09,-6.334077e-07,0.00016028290876902749
PART_000_R31G119B180A255,11509,0.0001199601,-3.958931e-05,-3.957651e-05,8.266746e-06,6.857404e-09,-7.743382e-07,0.0001601898510238447
PART_000_R31G119B180A255,11510,0.0001199601,-3.959218e-05,-3.957675e-05,7.924981e-06,1.987926e-09,-6.407388e-07,0.0001601378032247196
PART_000_R31G119B180A255,11511,0.0001199601,-3.958951e-05,-3.957659e-05,7.736579e-06,1.652225e-09,-3.580593e-07,0.00016010610678098293
PART_000_R31G119B180A255,11512,0.0001199601,-3.95934e-05,-3.95759e-05,7.679064e-06,-4.102438e-11,3.824442e-11,0.00016009819347515363
PART_000_R31G119B180A255,11513,0.0001199601,-3.958951e-05,-3.957659e-05,7.736563e-06,-1.717863e-09,3.581241e-07,0.00016010610489841531
PART_000_R31G119B180A255,11514,0.0001199601,-3.959219e-05,-3.957675e-05,7.924955e-06,-2.050462e-09,6.407998e-07,0.00016013780508143728
PART_000_R31G119B180A255,11515,0.0001199601,-3.958931e-05,-3.957652e-05,8.266713e-06,-6.889223e-09,7.743773e-07,0.00016018985146520317
PART_000_R31G119B180A255,11516,0.0001199601,-3.958115e-05,-3.958554e-05,8.856094e-06,-9.626084e-09,6.33431e-07,0.0001602828937916095
PART_002_R214G39B40A255,11517,0.0001199601,-3.959009e-05,-3.960118e-05,9.93261e-06,9.868154e-09,2.312838e-07,0.00016048103830857219
PART_003_R247G182B210A255,11518,8.997008e-05,-2.970369e-05,-2.967459e-05,1.452033e-05,1.052416e-09,-1.261981e-07,0.00012227386187262866
PART_003_R247G182B210A255,11519,8.997006e-05,-2.969013e-05,-2.969405e-05,1.33192e-05,-1.053634e-08,-3.183424e-07,0.0001218668854888874
PART_003_R247G182B210A255,11520,8.997005e-05,-2.968459e-05,-2.969169e-05,1.249383e-05,4.138385e-09,-4.059708e-07,0.0001216012513271979
PART_000_R31G119B180A255,11521,8.997005e-05,-2.969174e-05,-2.968388e-05,1.198342e-05,1.067762e-09,-3.623281e-07,0.00012144630261634149
PART_000_R31G119B180A255,11522,8.997005e-05,-2.969168e-05,-2.968506e-05,1.170199e-05,8.514614e-10,-2.068911e-07,0.00012136340318894216
PART_000_R31G119B180A255,11523,8.997006e-05,-2.969213e-05,-2.968281e-05,1.161084e-05,-6.366814e-11,4.00301e-11,0.00012133572997011832
PART_000_R31G119B180A255,11524,8.997006e-05,-2.969169e-05,-2.968507e-05,1.170197e-05,-9.614596e-10,2.06968e-07,0.00012136341751852939
PART_000_R31G119B180A255,11525,8.997007e-05,-2.969175e-05,-2.968389e-05,1.198338e-05,-1.167859e-09,3.623931e-07,0.00012144632091845543
PART_000_R31G119B180A255,11526,8.997007e-05,-2.96846e-05,-2.969169e-05,1.249378e-05,-4.198847e-09,4.060205e-07,0.00012160126101970616
PART_002_R214G39B40A255,11527,8.997007e-05,-2.969014e-05,-2.969405e-05,1.331917e-05,1.049865e-08,3.183735e-07,0.00012186689061488958
PART_002_R214G39B40A255,11528,8.997006e-05,-2.970369e-05,-2.967458e-05,1.452034e-05,-1.053028e-09,1.262069e-07,0.00012227384099884294
PART_003_R247G182B210A255,11529,5.998008e-05,-1.979584e-05,-1.979726e-05,1.772542e-05,-4.197064e-09,-5.842912e-08,8.548036343471306e-05
PART_003_R247G182B210A255,11530,5.998006e-05,-1.979557e-05,-1.978953e-05,1.645291e-05,3.007893e-10,-1.613739e-07,8.471034293907579e-05
PART_003_R247G182B210A255,11531,5.998005e-05,-1.979326e-05,-1.979359e-05,1.553581e-05,-8.026562e-09,-2.067891e-07,8.419037931496882e-05
PART_003_R247G182B210A255,11532,5.998004e-05,-1.979026e-05,-1.979417e-05,1.492197e-05,1.167658e-09,-1.867963e-07,8.385530947982457e-05
PART_000_R31G119B180A255,11533,5.998004e-05,-1.979447e-05,-1.978933e-05,1.457599e-05,-1.282472e-09,-1.103952e-07,8.367184383562581e-05
PART_000_R31G119B180A255,11534,5.998005e-05,-1.979304e-05,-1.979147e-05,1.446381e-05,-8.276535e-11,3.314239e-11,8.361355180850677e-05
PART_000_R31G119B180A255,11535,5.998006e-05,-1.979448e-05,-1.978934e-05,1.457596e-05,1.136804e-09,1.104595e-07,8.367185700724462e-05
PART_000_R31G119B180A255,11536,5.998006e-05,-1.979027e-05,-1.979418e-05,1.492191e-05,-1.302729e-09,1.868511e-07,8.385530636056147e-05
PART_002_R214G39B40A255,11537,5.998007e-05,-1.979327e-05,-1.97936e-05,1.553574e-05,7.935678e-09,2.068315e-07,8.419036927607951e-05
PART_002_R214G39B40A255,11538,5.998007e-05,-1.979557e-05,-1.978954e-05,1.645283e-05,-3.672328e-10,1.613999e-07,8.47103105995707e-05
PART_002_R214G39B40A255,11539,5.998006e-05,-1.979581e-05,-1.979726e-05,1.772536e-05,4.180282e-09,5.843941e-08,8.548029346392006e-05
PART_003_R247G182B210A255,11540,2.999004e-05,-9.900721e-06,-9.892516e-06,1.96226e-05,-5.592201e-10,-2.573124e-08,5.240311876496911e-05
PART_003_R247G182B210A255,11541,2.999003e-05,-9.896926e-06,-9.898027e-06,1.832414e-05,-8.133987e-09,-6.642041e-08,5.0974002485711476e-05
PART_003_R247G182B210A255,11542,2.999002e-05,-9.895875e-06,-9.896502e-06,1.735706e-05,-6.170294e-10,-8.710677e-08,4.9947322132837455e-05
PART_003_R247G182B210A255,11543,2.999002e-05,-9.896729e-06,-9.89591e-06,1.669893e-05,-6.372523e-09,-7.934211e-08,4.9269685162231725e-05
PART_003_R247G182B210A255,11544,2.999002e-05,-9.895292e-06,-9.896919e-06,1.63166e-05,2.358048e-11,-4.672015e-08,4.888357458682838e-05
PART_000_R31G119B180A255,11545,2.999002e-05,-9.897196e-06,-9.894689e-06,1.619261e-05,-9.550225e-11,1.839361e-11,4.875953101835445e-05
PART_000_R31G119B180A255,11546,2.999002e-05,-9.895295e-06,-9.896921e-06,1.631656e-05,-1.93095e-10,4.675676e-08,4.888353667863819e-05
PART_002_R214G39B40A255,11547,2.999003e-05,-9.896734e-06,-9.895916e-06,1.669887e-05,6.214822e-09,7.937273e-08,4.92696367906382e-05
PART_002_R214G39B40A255,11548,2.999004e-05,-9.895881e-06,-9.896507e-06,1.735699e-05,5.099885e-10,8.713172e-08,4.994726964676966e-05
PART_002_R214G39B40A255,11549,2.999004e-05,-9.896931e-06,-9.898032e-06,1.832409e-05,8.060369e-09,6.643614e-08,5.097396032777081e-05
PART_002_R214G39B40A255,11550,2.999004e-05,-9.900718e-06,-9.892518e-06,1.96226e-05,5.455689e-10,2.573639e-08,5.2403118390962296e-05
PART_003_R247G182B210A255,11551,2.599925e-11,-5.367123e-12,-9.441003e-12,2.025239e-05,-3.267538e-09,-2.221355e-12,3.5078168911273815e-05
PART_003_R247G182B210A255,11552,1.881013e-11,-7.68742e-12,-6.408911e-12,1.894424e-05,-1.416069e-09,-4.924805e-12,3.28123862824589e-05
PART_003_R247G182B210A255,11553,1.33521e-11,-1.184372e-11,-3.51644e-12,1.796592e-05,-8.719469e-09,-5.713067e-12,3.1117889909619696e-05
PART_003_R247G182B210A255,11554,9.733451e-12,-1.440052e-11,-1.694514e-12,1.729133e-05,-6.148684e-10,-3.980109e-12,2.9949462109383105e-05
PART_003_R247G182B210A255,11555,7.204947e-12,-1.51304e-11,-6.797536e-13,1.690024e-05,-3.686579e-09,-2.660904e-12,2.9272075036556606e-05
PART_003_R247G182B210A255,11556,6.365938e-12,-1.515613e-11,-2.22607e-13,1.677111e-05,-9.98146e-11,3.692833e-13,2.9048414619847228e-05
PART_002_R214G39B40A255,11557,7.283326e-12,-1.506652e-11,-8.424072e-13,1.690021e-05,3.508559e-09,1.941365e-12,2.927202300939677e-05
PART_002_R214G39B40A255,11558,9.489719e-12,-1.431438e-11,-1.449173e-12,1.729127e-05,4.484464e-10,4.597241e-12,2.994935817747188e-05
PART_002_R214G39B40A255,11559,1.381175e-11,-1.244654e-11,-3.873038e-12,1.796584e-05,8.602243e-09,5.283345e-12,3.111775124769101e-05
PART_002_R214G39B40A255,11560,1.942758e-11,-1.043746e-11,-6.135157e-12,1.894414e-05,1.328923e-09,5.30106e-12,3.281221306644486e-05
PART_002_R214G39B40A255,11561,2.754848e-11,-1.051315e-11,-9.676209e-12,2.025231e-05,3.244344e-09,2.166515e-12,3.507803034075653e-05
PART_003_R247G182B210A255,11562,-2.998999e-05,9.900704e-06,9.892497e-06,1.962259e-05,-5.594095e-10,2.572635e-08,5.2403055766140166e-05
PART_003_R247G182B210A255,11563,-2.999e-05,9.896926e-06,9.898015e-06,1.832413e-05,-8.134555e-09,6.640988e-08,5.097396348998134e-05
PART_003_R247G182B210A255,11564,-2.999001e-05,9.89589e-06,9.896495e-06,1.735706e-05,-6.17361e-10,8.709485e-08,4.994731727889315e-05
PART_003_R247G182B210A255,11565,-2.999002e-05,9.896754e-06,9.895908e-06,1.669893e-05,-6.372862e-09,7.933399e-08,4.926969443331982e-05
PART_003_R247G182B210A255,11566,-2.999002e-05,9.895321e-06,9.896917e-06,1.631659e-05,2.355416e-11,4.671476e-08,4.888357557227277e-05
PART_001_R158G218B229A255,11567,-2.999003e-05,9.897226e-06,9.89469e-06,1.61926e-05,-9.555013e-11,-1.759783e-11,4.875954191610022e-05
PART_001_R158G218B229A255,11568,-2.999003e-05,9.895324e-06,9.896919e-06,1.631655e-05,-1.928699e-10,-4.67529e-08,4.888354582790658e-05
PART_002_R214G39B40A255,11569,-2.999003e-05,9.896759e-06,9.895914e-06,1.669886e-05,6.215049e-09,-7.936328e-08,4.9269635887408185e-05
PART_002_R214G39B40A255,11570,-2.999002e-05,9.895898e-06,9.896498e-06,1.735699e-05,5.104874e-10,-8.712093e-08,4.994725681301175e-05
PART_002_R214G39B40A255,11571,-2.999001e-05,9.896937e-06,9.898022e-06,1.832409e-05,8.060755e-09,-6.642511e-08,5.0973935244327154e-05
PART_002_R214G39B40A255,11572,-2.998999e-05,9.900712e-06,9.892498e-06,1.96226e-05,5.458767e-10,-2.573182e-08,5.240307043342019e-05
PART_003_R247G182B210A255,11573,-5.998003e-05,1.979583e-05,1.979724e-05,1.772541e-05,-4.19713e-09,5.842453e-08,8.548029654148035e-05
PART_003_R247G182B210A255,11574,-5.998004e-05,1.979556e-05,1.978953e-05,1.645289e-05,2.999596e-10,1.613634e-07,8.471030768223962e-05
PART_003_R247G182B210A255,11575,-5.998002e-05,1.979324e-05,1.979358e-05,1.55358e-05,-8.026916e-09,2.067778e-07,8.4190331056728e-05
PART_003_R247G182B210A255,11576,-5.998003e-05,1.979023e-05,1.979418e-05,1.492196e-05,1.166998e-09,1.867876e-07,8.385528505842726e-05
PART_001_R158G218B229A255,11577,-5.998003e-05,1.979444e-05,1.978933e-05,1.457598e-05,-1.282331e-09,1.103906e-07,8.367181475514514e-05
PART_001_R158G218B229A255,11578,-5.998005e-05,1.979301e-05,1.979148e-05,1.44638e-05,-8.304087e-11,-3.320271e-11,8.361353707783624e-05
PART_001_R158G218B229A255,11579,-5.998005e-05,1.979445e-05,1.978933e-05,1.457595e-05,1.137362e-09,-1.104547e-07,8.367182315950175e-05
PART_001_R158G218B229A255,11580,-5.998005e-05,1.979024e-05,1.979419e-05,1.49219e-05,-1.302581e-09,-1.868425e-07,8.385528193984963e-05
PART_002_R214G39B40A255,11581,-5.998004e-05,1.979324e-05,1.979358e-05,1.553573e-05,7.936631e-09,-2.068201e-07,8.419031154188424e-05
PART_002_R214G39B40A255,11582,-5.998004e-05,1.979555e-05,1.978954e-05,1.645282e-05,-3.667405e-10,-1.613893e-07,8.471026704273491e-05
PART_002_R214G39B40A255,11583,-5.998001e-05,1.979578e-05,1.979724e-05,1.772535e-05,4.180805e-09,-5.843479e-08,8.548021723818931e-05
PART_003_R247G182B210A255,11584,-8.997003e-05,2.970368e-05,2.967455e-05,1.452031e-05,1.052056e-09,1.261931e-07,0.00012227378134110732
PART_003_R247G182B210A255,11585,-8.997006e-05,2.969013e-05,2.969407e-05,1.331918e-05,-1.053738e-08,3.183302e-07,0.00012186688865554634
PART_003_R247G182B210A255,11586,-8.997005e-05,2.968461e-05,2.969166e-05,1.249381e-05,4.137954e-09,4.059598e-07,0.00012160124013004571
PART_001_R158G218B229A255,11587,-8.997008e-05,2.969177e-05,2.968391e-05,1.19834e-05,1.067076e-09,3.623172e-07,0.00012144635571484762
PART_001_R158G218B229A255,11588,-8.997007e-05,2.969172e-05,2.968504e-05,1.170198e-05,8.517072e-10,2.068886e-07,0.0001213634298645401
PART_001_R158G218B229A255,11589,-8.997009e-05,2.969217e-05,2.968284e-05,1.161083e-05,-6.404999e-11,-4.264686e-11,0.00012133579120092786
PART_001_R158G218B229A255,11590,-8.997008e-05,2.969172e-05,2.968505e-05,1.170195e-05,-9.608107e-10,-2.069605e-07,0.00012136343634573615
PART_001_R158G218B229A255,11591,-8.99701e-05,2.969178e-05,2.968391e-05,1.198336e-05,-1.167863e-09,-3.623866e-07,0.0001214463691304923
PART_001_R158G218B229A255,11592,-8.997007e-05,2.968462e-05,2.969167e-05,1.249377e-05,-4.197791e-09,-4.060061e-07,0.0001216012577912986
PART_002_R214G39B40A255,11593,-8.997007e-05,2.969015e-05,2.969407e-05,1.331916e-05,1.04991e-08,-3.183635e-07,0.0001218669019867236
PART_002_R214G39B40A255,11594,-8.997002e-05,2.970369e-05,2.967454e-05,1.452032e-05,-1.052443e-09,-1.262011e-07,0.00012227377514587145
PART_003_R247G182B210A255,11595,-0.0001199601,3.959014e-05,3.960114e-05,9.932623e-06,-9.87134e-09,2.312699e-07,0.00016048104562940756
PART_003_R247G182B210A255,11596,-0.0001199601,3.958116e-05,3.958559e-05,8.856111e-06,9.603117e-09,6.333943e-07,0.0001602829260327021
PART_001_R158G218B229A255,11597,-0.0001199601,3.958929e-05,3.957647e-05,8.266733e-06,6.857077e-09,7.743276e-07,0.00016018981897979488
PART_001_R158G218B229A255,11598,-0.0001199601,3.959216e-05,3.95768e-05,7.924969e-06,1.987636e-09,6.407257e-07,0.00016013781622526422
PART_001_R158G218B229A255,11599,-0.0001199601,3.958949e-05,3.957656e-05,7.736566e-06,1.652298e-09,3.580591e-07,0.00016010607998361248
PART_001_R158G218B229A255,11600,-0.0001199601,3.959338e-05,3.957595e-05,7.679052e-06,-4.115257e-11,-4.358248e-11,0.00016009820669084896
PART_001_R158G218B229A255,11601,-0.0001199601,3.958949e-05,3.957656e-05,7.736551e-06,-1.717603e-09,-3.581135e-07,0.00016010607817621488
PART_001_R158G218B229A255,11602,-0.0001199601,3.959217e-05,3.95768e-05,7.924942e-06,-2.050363e-09,-6.407955e-07,0.00016013781803915158
PART_001_R158G218B229A255,11603,-0.0001199601,3.958929e-05,3.957648e-05,8.2667e-06,-6.888673e-09,-7.743599e-07,0.00016018981932250855
PART_001_R158G218B229A255,11604,-0.0001199601,3.958113e-05,3.958558e-05,8.85608e-06,-9.625698e-09,-6.334215e-07,0.00016028290131339735
PART_002_R214G39B40A255,11605,-0.00011996,3.959007e-05,3.960113e-05,9.932594e-06,9.868498e-09,-2.312773e-07,0.00016048090108651387
PART_003_R247G182B210A255,11606,-0.0001499501,4.951307e-05,4.943795e-05,3.648009e-06,1.519206e-08,6.234933e-07,0.00019952861696810972
PART_001_R158G218B229A255,11607,-0.0001499502,4.948467e-05,4.946277e-05,3.134943e-06,9.344483e-09,1.347962e-06,0.00019951149114106703
PART_001_R158G218B229A255,11608,-0.0001499501,4.949889e-05,4.946197e-05,2.938749e-06,1.828476e-09,1.372494e-06,0.00019950964208483957
PART_001_R158G218B229A255,11609,-0.0001499502,4.948608e-05,4.947001e-05,2.809208e-06,2.173621e-09,1.070236e-06,0.0001994962061686549
PART_001_R158G218B229A255,11610,-0.0001499501,4.94946e-05,4.946725e-05,2.747206e-06,2.985612e-10,5.776073e-07,0.0001994902920114993
PART_001_R158G218B229A255,11611,-0.0001499502,4.948653e-05,4.947123e-05,2.72442e-06,-1.554783e-11,-3.168805e-11,0.00019948490047677002
PART_001_R158G218B229A255,11612,-0.0001499501,4.94946e-05,4.946724e-05,2.747201e-06,-3.174673e-10,-5.776178e-07,0.00019949028689874047
PART_001_R158G218B229A255,11613,-0.0001499502,4.948608e-05,4.946998e-05,2.809198e-06,-2.197157e-09,-1.070289e-06,0.00019949619160691533
PART_001_R158G218B229A255,11614,-0.0001499501,4.949889e-05,4.946196e-05,2.938741e-06,-1.832196e-09,-1.372497e-06,0.00019950963679671064
PART_001_R158G218B229A255,11615,-0.0001499501,4.948467e-05,4.946272e-05,3.134938e-06,-9.351285e-09,-1.347986e-06,0.0001995113664517729
PART_001_R158G218B229A255,11616,-0.00014995,4.951307e-05,4.943794e-05,3.648014e-06,-1.517953e-08,-6.234889e-07,0.00019952851225527884
PART_003_R247G182B210A255,11617,0.0001454062,-4.801275e-05,-4.793991e-05,3.648039e-06,1.470985e-08,-6.234893e-07,0.00019348875502195825
PART_000_R31G119B180A255,11618,0.0001454062,-4.798515e-05,-4.796381e-05,3.134957e-06,9.064951e-09,-1.347984e-06,0.00019347098757720093
PART_000_R31G119B180A255,11619,0.0001454062,-4.799892e-05,-4.796317e-05,2.938764e-06,1.75886e-09,-1.372478e-06,0.00019346882845988966
PART_000_R31G119B180A255,11620,0.0001454061,-4.798648e-05,-4.797085e-05,2.809216e-06,2.108613e-09,-1.070246e-06,0.00019345484975510997
PART_000_R31G119B180A255,11621,0.0001454061,-4.799474e-05,-4.796828e-05,2.747215e-06,2.750774e-10,-5.775676e-07,0.00019344872848019493
PART_000_R31G119B180A255,11622,0.0001454062,-4.798692e-05,-4.797205e-05,2.724425e-06,-1.675543e-11,3.568424e-11,0.0001934432495681962
PART_000_R31G119B180A255,11623,0.0001454062,-4.799475e-05,-4.796827e-05,2.747206e-06,-3.217456e-10,5.77669e-07,0.00019344882897574608
PART_000_R31G119B180A255,11624,0.0001454062,-4.798649e-05,-4.797084e-05,2.8092e-06,-2.13071e-09,1.070304e-06,0.0001934549499864429
PART_000_R31G119B180A255,11625,0.0001454062,-4.799893e-05,-4.796314e-05,2.938743e-06,-1.786617e-09,1.372545e-06,0.00019346881893939787
PART_000_R31G119B180A255,11626,0.0001454061,-4.798513e-05,-4.796381e-05,3.134939e-06,-9.063651e-09,1.348004e-06,0.00019347087716975448
PART_000_R31G119B180A255,11627,0.0001454061,-4.801267e-05,-4.793986e-05,3.648019e-06,-1.472694e-08,6.235052e-07,0.00019348858913044448
PART_003_R247G182B210A255,11628,0.0001163249,-3.839036e-05,-3.840115e-05,9.932607e-06,-9.567671e-09,-2.312753e-07,0.00015567469915118065
PART_003_R247G182B210A255,11629,0.0001163249,-3.838168e-05,-3.838598e-05,8.856117e-06,9.319176e-09,-6.333949e-07,0.00015547117869519296
PART_000_R31G119B180A255,11630,0.0001163249,-3.838959e-05,-3.837722e-05,8.26675e-06,6.634252e-09,-7.743174e-07,0.00015537527490489255
PART_000_R31G119B180A255,11631,0.0001163249,-3.839238e-05,-3.837745e-05,7.924991e-06,1.917572e-09,-6.407183e-07,0.00015532152150431135
PART_000_R31G119B180A255,11632,0.0001163249,-3.838978e-05,-3.83773e-05,7.736584e-06,1.5737e-09,-3.580261e-07,0.00015528892515407532
PART_000_R31G119B180A255,11633,0.0001163249,-3.839356e-05,-3.837663e-05,7.679064e-06,-5.652798e-11,6.432081e-11,0.00015528067117203927
PART_000_R31G119B180A255,11634,0.0001163249,-3.838979e-05,-3.83773e-05,7.736557e-06,-1.694883e-09,3.581591e-07,0.00015528892702443877
PART_000_R31G119B180A255,11635,0.0001163249,-3.83924e-05,-3.837746e-05,7.924943e-06,-2.000423e-09,6.408231e-07,0.00015532153039882432
PART_000_R31G119B180A255,11636,0.0001163249,-3.838961e-05,-3.837723e-05,8.266699e-06,-6.699479e-09,7.744022e-07,0.0001553752829770284
PART_000_R31G119B180A255,11637,0.0001163249,-3.838171e-05,-3.838598e-05,8.856081e-06,-9.334006e-09,6.334438e-07,0.00015547118806936435
PART_002_R214G39B40A255,11638,0.0001163249,-3.839038e-05,-3.840115e-05,9.932602e-06,9.563104e-09,2.312888e-07,0.00015567470819113167
PART_003_R247G182B210A255,11639,8.724374e-05,-2.880364e-05,-2.877535e-05,1.452041e-05,1.001117e-09,-1.261916e-07,0.0001187277849556667
PART_003_R247G182B210A255,11640,8.72437e-05,-2.879046e-05,-2.879422e-05,1.331925e-05,-1.023033e-08,-3.183338e-07,0.0001183083859004759
PART_003_R247G182B210A255,11641,8.724368e-05,-2.878508e-05,-2.879193e-05,1.249385e-05,3.983754e-09,-4.059545e-07,0.0001180349579544666
PART_000_R31G119B180A255,11642,8.724368e-05,-2.879201e-05,-2.878436e-05,1.198343e-05,1.01232e-09,-3.623042e-07,0.00011787533804422021
PART_000_R31G119B180A255,11643,8.724369e-05,-2.879196e-05,-2.878551e-05,1.1702e-05,7.856594e-10,-2.068643e-07,0.0001177899082050331
PART_000_R31G119B180A255,11644,8.72437e-05,-2.87924e-05,-2.878333e-05,1.161084e-05,-9.208336e-11,6.99539e-11,0.0001177614493567603
PART_000_R31G119B180A255,11645,8.724372e-05,-2.879197e-05,-2.878552e-05,1.170196e-05,-9.737749e-10,2.069967e-07,0.000117789936388679
PART_000_R31G119B180A255,11646,8.724373e-05,-2.879204e-05,-2.878438e-05,1.198336e-05,-1.156325e-09,3.624195e-07,0.00011787539159015465
PART_000_R31G119B180A255,11647,8.724374e-05,-2.87851e-05,-2.879195e-05,1.249376e-05,-4.100217e-09,4.060412e-07,0.00011803500892463443
PART_002_R214G39B40A255,11648,8.724373e-05,-2.879046e-05,-2.879424e-05,1.331915e-05,1.017357e-08,3.183871e-07,0.00011830839177417264
PART_002_R214G39B40A255,11649,8.724372e-05,-2.880358e-05,-2.877537e-05,1.452031e-05,-1.032637e-09,1.262123e-07,0.0001187277092261214
PART_003_R247G182B210A255,11650,5.816247e-05,-1.919591e-05,-1.919734e-05,1.772536e-05,-4.073331e-09,-5.842834e-08,8.322863109249317e-05
PART_003_R247G182B210A255,11651,5.816245e-05,-1.919566e-05,-1.918985e-05,1.645288e-05,2.900365e-10,-1.613638e-07,8.243784120094676e-05
PART_003_R247G182B210A255,11652,5.816244e-05,-1.919343e-05,-1.919378e-05,1.553582e-05,-7.814462e-09,-2.067754e-07,8.190342641640021e-05
PART_003_R247G182B210A255,11653,5.816244e-05,-1.919051e-05,-1.919434e-05,1.492198e-05,1.103079e-09,-1.867779e-07,8.15590355088462e-05
PART_000_R31G119B180A255,11654,5.816245e-05,-1.91946e-05,-1.918966e-05,1.4576e-05,-1.294384e-09,-1.103746e-07,8.137043041524585e-05
PART_000_R31G119B180A255,11655,5.816246e-05,-1.919321e-05,-1.919173e-05,1.446381e-05,-1.200002e-10,5.647342e-11,8.131045809825922e-05
PART_000_R31G119B180A255,11656,5.816247e-05,-1.919461e-05,-1.918967e-05,1.457595e-05,1.049529e-09,1.104812e-07,8.1370432488426e-05
PART_000_R31G119B180A255,11657,5.816248e-05,-1.919053e-05,-1.919436e-05,1.492189e-05,-1.296058e-09,1.868719e-07,8.155904367164888e-05
PART_002_R214G39B40A255,11658,5.81625e-05,-1.919345e-05,-1.91938e-05,1.553571e-05,7.657147e-09,2.068479e-07,8.19034398836624e-05
PART_002_R214G39B40A255,11659,5.81625e-05,-1.919569e-05,-1.918986e-05,1.64528e-05,-3.672039e-10,1.614116e-07,8.243785926900127e-05
PART_002_R214G39B40A255,11660,5.81625e-05,-1.919592e-05,-1.919736e-05,1.772534e-05,4.040747e-09,5.844337e-08,8.322866016767901e-05
PART_003_R247G182B210A255,11661,2.908126e-05,-9.600716e-06,-9.59274e-06,1.962271e-05,-5.654865e-10,-2.572854e-08,5.1489232209322295e-05
PART_003_R247G182B210A255,11662,2.908125e-05,-9.597033e-06,-9.598091e-06,1.832422e-05,-7.90995e-09,-6.641588e-08,5.0033938834608484e-05
PART_003_R247G182B210A255,11663,2.908123e-05,-9.596016e-06,-9.596604e-06,1.73571e-05,-6.423304e-10,-8.709961e-08,4.898756599592247e-05
PART_003_R247G182B210A255,11664,2.908123e-05,-9.59685e-06,-9.596038e-06,1.669895e-05,-6.215528e-09,-7.933105e-08,4.8296441442378874e-05
PART_003_R247G182B210A255,11665,2.908123e-05,-9.595461e-06,-9.597011e-06,1.631661e-05,-3.489018e-11,-4.670919e-08,4.790248645851564e-05
PART_000_R31G119B180A255,11666,2.908124e-05,-9.597309e-06,-9.594855e-06,1.619261e-05,-1.382795e-10,3.159409e-11,4.7775904988863676e-05
PART_000_R31G119B180A255,11667,2.908125e-05,-9.595467e-06,-9.597017e-06,1.631655e-05,-2.473642e-10,4.676767e-08,4.7902446312770687e-05
PART_002_R214G39B40A255,11668,2.908126e-05,-9.59686e-06,-9.596047e-06,1.669885e-05,5.98812e-09,7.938413e-08,4.829636952343664e-05
PART_002_R214G39B40A255,11669,2.908126e-05,-9.596027e-06,-9.596617e-06,1.735696e-05,4.500964e-10,8.713956e-08,4.898745055082077e-05
PART_002_R214G39B40A255,11670,2.908127e-05,-9.597035e-06,-9.5981e-06,1.832406e-05,7.800332e-09,6.64425e-08,5.003378280927629e-05
PART_002_R214G39B40A255,11671,2.908127e-05,-9.600697e-06,-9.592751e-06,1.962257e-05,5.120826e-10,2.573852e-08,5.1489076663248145e-05
PART_003_R247G182B210A255,11672,2.828867e-11,-1.721734e-12,-1.389117e-11,2.025232e-05,-3.175776e-09,-2.376519e-12,3.507804764244e-05
PART_003_R247G182B210A255,11673,1.580044e-11,7.334078e-12,-9.979418e-12,1.894422e-05,-1.378634e-09,-5.397355e-12,3.281235163665811e-05
PART_003_R247G182B210A255,11674,5.9495e-12,1.625551e-11,-7.431769e-12,1.796594e-05,-8.493848e-09,-4.573128e-12,3.111792436342192e-05
PART_003_R247G182B210A255,11675,-7.496102e-13,2.162281e-11,-5.953286e-12,1.729135e-05,-6.327396e-10,-3.84843e-12,2.9949496751519324e-05
PART_003_R247G182B210A255,11676,-3.720262e-12,2.370321e-11,-5.531068e-12,1.690026e-05,-3.634878e-09,-1.148054e-12,2.9272109658181844e-05
PART_003_R247G182B210A255,11677,-4.655575e-12,2.414724e-11,-5.68078e-12,1.677111e-05,-1.448644e-10,-5.504583e-13,2.9048414620424952e-05
PART_002_R214G39B40A255,11678,-3.943965e-12,2.37954e-11,-5.335688e-12,1.690019e-05,3.339729e-09,2.108916e-12,2.927198830914109e-05
PART_002_R214G39B40A255,11679,-6.071466e-13,2.181608e-11,-6.376819e-12,1.729124e-05,3.941181e-10,2.925361e-12,2.9949306213658414e-05
PART_002_R214G39B40A255,11680,5.087405e-12,1.736938e-11,-7.006843e-12,1.796581e-05,8.295241e-09,5.153641e-12,3.111769903610958e-05
PART_002_R214G39B40A255,11681,1.48295e-11,1.115491e-11,-1.050599e-11,1.894411e-05,1.273001e-09,4.841407e-12,3.281216109826549e-05
PART_002_R214G39B40A255,11682,2.610309e-11,5.135725e-12,-1.366783e-11,2.025229e-05,3.130041e-09,2.419739e-12,3.5077995668580823e-05
PART_003_R247G182B210A255,11683,-2.908121e-05,9.600718e-06,9.592714e-06,1.962271e-05,-5.658286e-10,2.572437e-08,5.148918563282885e-05
PART_003_R247G182B210A255,11684,-2.908121e-05,9.597029e-06,9.598071e-06,1.832422e-05,-7.910462e-09,6.640588e-08,5.0033898596112274e-05
PART_003_R247G182B210A255,11685,-2.908121e-05,9.596e-06,9.596591e-06,1.73571e-05,-6.430189e-10,8.709101e-08,4.898753871105365e-05
PART_003_R247G182B210A255,11686,-2.908121e-05,9.596827e-06,9.596026e-06,1.669895e-05,-6.215764e-09,7.932359e-08,4.8296411374115477e-05
PART_003_R247G182B210A255,11687,-2.908122e-05,9.595436e-06,9.597001e-06,1.63166e-05,-3.511998e-11,4.670706e-08,4.790245402993736e-05
PART_001_R158G218B229A255,11688,-2.908123e-05,9.597284e-06,9.594843e-06,1.61926e-05,-1.381183e-10,-3.276966e-11,4.77758717481372e-05
PART_001_R158G218B229A255,11689,-2.908123e-05,9.595442e-06,9.597008e-06,1.631655e-05,-2.472274e-10,-4.676341e-08,4.7902416426070835e-05
PART_002_R214G39B40A255,11690,-2.908124e-05,9.596838e-06,9.596033e-06,1.669884e-05,5.988667e-09,-7.937865e-08,4.829632869182443e-05
PART_002_R214G39B40A255,11691,-2.908124e-05,9.59601e-06,9.596605e-06,1.735696e-05,4.50663e-10,-8.71294e-08,4.898742325751988e-05
PART_002_R214G39B40A255,11692,-2.908123e-05,9.597024e-06,9.598078e-06,1.832406e-05,7.801177e-09,-6.643323e-08,5.003373909500649e-05
PART_002_R214G39B40A255,11693,-2.908121e-05,9.600686e-06,9.592726e-06,1.962257e-05,5.123015e-10,-2.573383e-08,5.148901806517905e-05
PART_003_R247G182B210A255,11694,-5.816242e-05,1.919591e-05,1.919733e-05,1.772535e-05,-4.07437e-09,5.842338e-08,8.322857357168189e-05
PART_003_R247G182B210A255,11695,-5.816242e-05,1.919567e-05,1.918982e-05,1.645288e-05,2.890565e-10,1.613532e-07,8.243780360698247e-05
PART_003_R247G182B210A255,11696,-5.816244e-05,1.919346e-05,1.919378e-05,1.553581e-05,-7.8158e-09,2.067658e-07,8.190343482062909e-05
PART_003_R247G182B210A255,11697,-5.816245e-05,1.919056e-05,1.919432e-05,1.492197e-05,1.102947e-09,1.867714e-07,8.155905368427867e-05
PART_001_R158G218B229A255,11698,-5.816247e-05,1.919465e-05,1.918966e-05,1.457599e-05,-1.294972e-09,1.103715e-07,8.137046781013917e-05
PART_001_R158G218B229A255,11699,-5.816247e-05,1.919326e-05,1.919171e-05,1.44638e-05,-1.194465e-10,-5.6382e-11,8.131047654654497e-05
PART_001_R158G218B229A255,11700,-5.816249e-05,1.919466e-05,1.918967e-05,1.457594e-05,1.049408e-09,-1.104783e-07,8.13704698841231e-05
PART_001_R158G218B229A255,11701,-5.816249e-05,1.919057e-05,1.919434e-05,1.492188e-05,-1.294938e-09,-1.868653e-07,8.155905710445361e-05
PART_002_R214G39B40A255,11702,-5.81625e-05,1.919348e-05,1.91938e-05,1.55357e-05,7.657802e-09,-2.068385e-07,8.19034482892353e-05
PART_002_R214G39B40A255,11703,-5.816247e-05,1.919571e-05,1.918984e-05,1.64528e-05,-3.656354e-10,-1.614013e-07,8.243783106021587e-05
PART_002_R214G39B40A255,11704,-5.816245e-05,1.919593e-05,1.919735e-05,1.772533e-05,4.041107e-09,-5.84385e-08,8.322860729420854e-05
PART_003_R247G182B210A255,11705,-8.724372e-05,2.880364e-05,2.877537e-05,1.45204e-05,1.000579e-09,1.261866e-07,0.00011872777149408993
PART_003_R247G182B210A255,11706,-8.724367e-05,2.879045e-05,2.879418e-05,1.331924e-05,-1.023103e-08,3.183249e-07,0.00011830832850706456
PART_003_R247G182B210A255,11707,-8.724369e-05,2.878506e-05,2.879196e-05,1.249384e-05,3.98259e-09,4.059438e-07,0.00011803496941615923
PART_001_R158G218B229A255,11708,-8.724366e-05,2.879199e-05,2.878432e-05,1.198342e-05,1.012397e-09,3.623008e-07,0.00011787528574594839
PART_001_R158G218B229A255,11709,-8.72437e-05,2.879194e-05,2.878554e-05,1.170199e-05,7.85012e-10,2.068583e-07,0.00011778991996716642
PART_001_R158G218B229A255,11710,-8.724369e-05,2.879238e-05,2.878329e-05,1.161083e-05,-9.136561e-11,-6.611556e-11,0.00011776140698761014
PART_001_R158G218B229A255,11711,-8.724373e-05,2.879195e-05,2.878555e-05,1.170195e-05,-9.741388e-10,-2.06998e-07,0.00011778994818931177
PART_001_R158G218B229A255,11712,-8.724372e-05,2.879201e-05,2.878435e-05,1.198335e-05,-1.155139e-09,-3.624097e-07,0.00011787534907545004
PART_001_R158G218B229A255,11713,-8.724374e-05,2.878508e-05,2.879198e-05,1.249375e-05,-4.099808e-09,-4.060353e-07,0.0001180350106056153
PART_002_R214G39B40A255,11714,-8.72437e-05,2.879044e-05,2.87942e-05,1.331914e-05,1.017525e-08,-3.183748e-07,0.00011830832944982938
PART_002_R214G39B40A255,11715,-8.724369e-05,2.880357e-05,2.877538e-05,1.45203e-05,-1.032351e-09,-1.262083e-07,0.00011872767622166497
PART_003_R247G182B210A255,11716,-0.0001163249,3.839035e-05,3.840121e-05,9.93259e-06,-9.568099e-09,2.312696e-07,0.00015567472072231447
PART_003_R247G182B210A255,11717,-0.0001163249,3.83817e-05,3.838592e-05,8.856106e-06,9.318052e-09,6.333853e-07,0.00015547115679431716
PART_001_R158G218B229A255,11718,-0.000116325,3.838963e-05,3.837728e-05,8.266737e-06,6.633684e-09,7.74304e-07,0.00015537542198440184
PART_001_R158G218B229A255,11719,-0.0001163249,3.839243e-05,3.837739e-05,7.924978e-06,1.91754e-09,6.407178e-07,0.0001553215145358728
PART_001_R158G218B229A255,11720,-0.000116325,3.838984e-05,3.837735e-05,7.73657e-06,1.573577e-09,3.58017e-07,0.0001552890774198691
PART_001_R158G218B229A255,11721,-0.0001163249,3.839362e-05,3.837658e-05,7.679051e-06,-5.623934e-11,-5.657251e-11,0.00015528067423402082
PART_001_R158G218B229A255,11722,-0.000116325,3.838985e-05,3.837735e-05,7.736544e-06,-1.695041e-09,-3.581646e-07,0.00015528907954070974
PART_001_R158G218B229A255,11723,-0.000116325,3.839245e-05,3.837741e-05,7.924931e-06,-1.999958e-09,-6.408098e-07,0.00015532162801078027
PART_001_R158G218B229A255,11724,-0.000116325,3.838965e-05,3.837728e-05,8.266687e-06,-6.699135e-09,-7.743986e-07,0.0001553754253847663
PART_001_R158G218B229A255,11725,-0.0001163249,3.838173e-05,3.838593e-05,8.856069e-06,-9.333039e-09,-6.334284e-07,0.00015547117090242748
PART_002_R214G39B40A255,11726,-0.0001163249,3.839039e-05,3.840119e-05,9.932586e-06,9.563441e-09,-2.31285e-07,0.00015567472996003614
PART_003_R247G182B210A255,11727,-0.0001454063,4.801276e-05,4.793998e-05,3.648034e-06,1.470948e-08,6.234811e-07,0.0001934888945660015
PART_001_R158G218B229A255,11728,-0.0001454062,4.798515e-05,4.796375e-05,3.13495e-06,9.065206e-09,1.347974e-06,0.0001934709570469116
PART_001_R158G218B229A255,11729,-0.0001454062,4.799891e-05,4.796325e-05,2.93876e-06,1.758915e-09,1.372463e-06,0.00019346886293116614
PART_001_R158G218B229A255,11730,-0.0001454062,4.798646e-05,4.797079e-05,2.809209e-06,2.10836e-09,1.070247e-06,0.00019345490944744186
PART_001_R158G218B229A255,11731,-0.0001454062,4.799473e-05,4.796834e-05,2.74721e-06,2.755333e-10,5.77557e-07,0.00019344885312557196
PART_001_R158G218B229A255,11732,-0.0001454062,4.798691e-05,4.797199e-05,2.724419e-06,-1.721492e-11,-2.619337e-11,0.00019344321432798552
PART_001_R158G218B229A255,11733,-0.0001454062,4.799474e-05,4.796833e-05,2.747201e-06,-3.21218e-10,-5.776766e-07,0.000193448853815735
PART_001_R158G218B229A255,11734,-0.0001454062,4.798648e-05,4.797079e-05,2.809194e-06,-2.131281e-09,-1.070289e-06,0.00019345491948941453
PART_001_R158G218B229A255,11735,-0.0001454062,4.799892e-05,4.796321e-05,2.938738e-06,-1.785807e-09,-1.372543e-06,0.00019346884864522533
PART_001_R158G218B229A255,11736,-0.0001454061,4.798512e-05,4.796376e-05,3.134932e-06,-9.064221e-09,-1.347985e-06,0.00019347084644972653
PART_001_R158G218B229A255,11737,-0.0001454061,4.801266e-05,4.793992e-05,3.648014e-06,-1.472589e-08,-6.235001e-07,0.00019348861376462182
PART_003_R247G182B210A255,11738,0.0001408622,-4.651223e-05,-4.644175e-05,3.648021e-06,1.428036e-08,-6.234956e-07,0.0001874488379776037
PART_000_R31G119B180A255,11739,0.0001408622,-4.648554e-05,-4.646496e-05,3.134955e-06,8.773742e-09,-1.34795e-06,0.0001874306684010224
PART_000_R31G119B180A255,11740,0.0001408622,-4.64989e-05,-4.64643e-05,2.938765e-06,1.71354e-09,-1.372469e-06,0.00018742801374864484
PART_000_R31G119B180A255,11741,0.0001408622,-4.648685e-05,-4.647177e-05,2.809222e-06,2.024291e-09,-1.070192e-06,0.00018741385399541466
PART_000_R31G119B180A255,11742,0.0001408622,-4.649485e-05,-4.646926e-05,2.747217e-06,2.65529e-10,-5.775495e-07,0.00018740734421805014
PART_000_R31G119B180A255,11743,0.0001408622,-4.648728e-05,-4.647292e-05,2.724426e-06,-3.785521e-11,9.666915e-11,0.0001874017209501235
PART_000_R31G119B180A255,11744,0.0001408622,-4.649487e-05,-4.646926e-05,2.747202e-06,-3.139715e-10,5.7769e-07,0.00018740735485643233
PART_000_R31G119B180A255,11745,0.0001408622,-4.648688e-05,-4.647174e-05,2.809194e-06,-2.082818e-09,1.070355e-06,0.00018741385553441929
PART_000_R31G119B180A255,11746,0.0001408622,-4.649893e-05,-4.646431e-05,2.938735e-06,-1.727753e-09,1.372561e-06,0.00018742803435279614
PART_000_R31G119B180A255,11747,0.0001408622,-4.648558e-05,-4.646493e-05,3.13493e-06,-8.791764e-09,1.348032e-06,0.00018743067392162097
PART_000_R31G119B180A255,11748,0.0001408622,-4.651228e-05,-4.644176e-05,3.648014e-06,-1.42557e-08,6.235074e-07,0.00018744886767476697
PART_003_R247G182B210A255,11749,0.0001126898,-3.719077e-05,-3.720112e-05,9.932678e-06,-9.278235e-09,-2.312643e-07,0.00015087038019136908
PART_003_R247G182B210A255,11750,0.0001126898,-3.718231e-05,-3.71864e-05,8.85616e-06,9.002568e-09,-6.333806e-07,0.00015066107929866612
PART_000_R31G119B180A255,11751,0.0001126897,-3.718994e-05,-3.717792e-05,8.266774e-06,6.415284e-09,-7.742928e-07,0.00015056202192560524
PART_000_R31G119B180A255,11752,0.0001126897,-3.719265e-05,-3.717814e-05,7.925003e-06,1.821938e-09,-6.406756e-07,0.00015050645395612045
PART_000_R31G119B180A255,11753,0.0001126897,-3.719014e-05,-3.7178e-05,7.73659e-06,1.5025e-09,-3.579879e-07,0.0001504729078333175
PART_000_R31G119B180A255,11754,0.0001126898,-3.71938e-05,-3.717736e-05,7.679063e-06,-9.8609e-11,1.181131e-10,0.00015046439365708596
PART_000_R31G119B180A255,11755,0.0001126898,-3.719016e-05,-3.717802e-05,7.736547e-06,-1.665717e-09,3.581995e-07,0.00015047302223882415
PART_000_R31G119B180A255,11756,0.0001126898,-3.719268e-05,-3.717817e-05,7.924927e-06,-1.975034e-09,6.408702e-07,0.00015050657389666975
PART_000_R31G119B180A255,11757,0.0001126898,-3.718998e-05,-3.717796e-05,8.266677e-06,-6.500522e-09,7.744312e-07,0.00015056214745433577
PART_000_R31G119B180A255,11758,0.0001126898,-3.718231e-05,-3.718643e-05,8.856056e-06,-9.061135e-09,6.33467e-07,0.00015066107698134208
PART_002_R214G39B40A255,11759,0.0001126898,-3.719069e-05,-3.720113e-05,9.932575e-06,9.268466e-09,2.312963e-07,0.0001508703252266321
PART_003_R247G182B210A255,11760,8.45173e-05,-2.790342e-05,-2.787611e-05,1.452034e-05,9.873236e-10,-1.261902e-07,0.00011518644632621605
PART_003_R247G182B210A255,11761,8.451727e-05,-2.789068e-05,-2.789439e-05,1.331923e-05,-9.924499e-09,-3.183146e-07,0.0001147539724884527
PART_003_R247G182B210A255,11762,8.451727e-05,-2.788549e-05,-2.789217e-05,1.249387e-05,3.843165e-09,-4.059267e-07,0.00011447233765051962
PART_000_R31G119B180A255,11763,8.451727e-05,-2.789221e-05,-2.788484e-05,1.198345e-05,9.329443e-10,-3.622701e-07,0.00011430776759920742
PART_000_R31G119B180A255,11764,8.451729e-05,-2.789216e-05,-2.788596e-05,1.170201e-05,7.206032e-10,-2.068223e-07,0.00011421964363112825
PART_000_R31G119B180A255,11765,8.451731e-05,-2.789259e-05,-2.788385e-05,1.161084e-05,-1.513553e-10,1.136303e-10,0.0001141903588246217
PART_000_R31G119B180A255,11766,8.451734e-05,-2.789218e-05,-2.788598e-05,1.170194e-05,-9.866036e-10,2.07041e-07,0.00011421969219965708
PART_000_R31G119B180A255,11767,8.451737e-05,-2.789225e-05,-2.788488e-05,1.198333e-05,-1.174673e-09,3.624588e-07,0.00011430786933065134
PART_000_R31G119B180A255,11768,8.451739e-05,-2.788554e-05,-2.789222e-05,1.249373e-05,-3.99694e-09,4.060736e-07,0.0001144724603210346
PART_002_R214G39B40A255,11769,8.45174e-05,-2.789074e-05,-2.789444e-05,1.331911e-05,9.827088e-09,3.18409e-07,0.00011475411268548383
PART_002_R214G39B40A255,11770,8.451738e-05,-2.790347e-05,-2.787615e-05,1.452028e-05,-9.959865e-10,1.262193e-07,0.00011518654571706343
PART_003_R247G182B210A255,11771,5.634491e-05,-1.85961e-05,-1.859742e-05,1.77255e-05,-3.957364e-09,-5.842087e-08,8.098669174884256e-05
PART_003_R247G182B210A255,11772,5.634487e-05,-1.859583e-05,-1.859016e-05,1.645298e-05,2.351869e-10,-1.613529e-07,8.017395706806577e-05
PART_003_R247G182B210A255,11773,5.634485e-05,-1.859365e-05,-1.859397e-05,1.553587e-05,-7.604328e-09,-2.067546e-07,7.962424849575899e-05
PART_003_R247G182B210A255,11774,5.634486e-05,-1.859083e-05,-1.859452e-05,1.492201e-05,1.004814e-09,-1.86751e-07,7.927003179162701e-05
PART_000_R31G119B180A255,11775,5.634487e-05,-1.85948e-05,-1.858998e-05,1.457601e-05,-1.306713e-09,-1.103419e-07,7.907597414777376e-05
PART_000_R31G119B180A255,11776,5.634489e-05,-1.859346e-05,-1.859199e-05,1.446381e-05,-1.945351e-10,8.949118e-11,7.901424898583014e-05
PART_000_R31G119B180A255,11777,5.634492e-05,-1.859481e-05,-1.858999e-05,1.457593e-05,9.600357e-10,1.105152e-07,7.907598747973178e-05
PART_000_R31G119B180A255,11778,5.634494e-05,-1.859087e-05,-1.859455e-05,1.492186e-05,-1.325574e-09,1.869012e-07,7.927005687335682e-05
PART_002_R214G39B40A255,11779,5.634495e-05,-1.859369e-05,-1.8594e-05,1.553567e-05,7.381964e-09,2.068725e-07,7.96242593393794e-05
PART_002_R214G39B40A255,11780,5.634496e-05,-1.859584e-05,-1.85902e-05,1.645275e-05,-3.964319e-10,1.614275e-07,8.017392341035733e-05
PART_002_R214G39B40A255,11781,5.634494e-05,-1.859605e-05,-1.859745e-05,1.772529e-05,3.91387e-09,5.844956e-08,8.098657242584555e-05
PART_003_R247G182B210A255,11782,2.817244e-05,-9.300647e-06,-9.292973e-06,1.962262e-05,-5.352165e-10,-2.572743e-08,5.058743295804543e-05
PART_003_R247G182B210A255,11783,2.817242e-05,-9.29708e-06,-9.298145e-06,1.832419e-05,-7.690084e-09,-6.640762e-08,4.910544329499717e-05
PART_003_R247G182B210A255,11784,2.817242e-05,-9.296094e-06,-9.296716e-06,1.735712e-05,-6.527378e-10,-8.708609e-08,4.803898879549197e-05
PART_003_R247G182B210A255,11785,2.817242e-05,-9.296898e-06,-9.296158e-06,1.669898e-05,-6.09202e-09,-7.931625e-08,4.7334013650854384e-05
PART_003_R247G182B210A255,11786,2.817242e-05,-9.295551e-06,-9.297111e-06,1.631662e-05,-9.471643e-11,-4.669006e-08,4.6931973194299245e-05
PART_000_R31G119B180A255,11787,2.817243e-05,-9.297342e-06,-9.295018e-06,1.61926e-05,-2.228192e-10,4.849815e-11,4.6802752310295105e-05
PART_000_R31G119B180A255,11788,2.817245e-05,-9.29556e-06,-9.29712e-06,1.631653e-05,-3.052208e-10,4.678616e-08,4.693191075085034e-05
PART_002_R214G39B40A255,11789,2.817246e-05,-9.296915e-06,-9.296176e-06,1.669881e-05,5.720301e-09,7.939799e-08,4.733387951673621e-05
PART_002_R214G39B40A255,11790,2.817247e-05,-9.296117e-06,-9.296734e-06,1.735691e-05,3.928036e-10,8.715288e-08,4.80388165118178e-05
PART_002_R214G39B40A255,11791,2.817248e-05,-9.297104e-06,-9.298167e-06,1.832401e-05,7.510356e-09,6.64504e-08,4.910530521292419e-05
PART_002_R214G39B40A255,11792,2.817249e-05,-9.300655e-06,-9.292992e-06,1.962254e-05,4.966487e-10,2.574181e-08,5.058738691630143e-05
PART_003_R247G182B210A255,11793,2.527484e-11,1.631092e-11,-1.958039e-11,2.025249e-05,-3.088217e-09,-1.622177e-12,3.507834206762416e-05
PART_003_R247G182B210A255,11794,1.502257e-11,1.063309e-11,-1.530355e-11,1.894434e-05,-1.390637e-09,-2.669266e-12,3.281255948427737e-05
PART_003_R247G182B210A255,11795,9.654669e-12,2.384773e-12,-1.306459e-11,1.7966e-05,-8.271508e-09,-2.400773e-12,3.111802810677365e-05
PART_003_R247G182B210A255,11796,8.128068e-12,-2.892034e-12,-1.333018e-11,1.729139e-05,-6.887954e-10,1.142341e-13,2.9949566037256082e-05
PART_003_R247G182B210A255,11797,7.289525e-12,-4.797218e-12,-1.42394e-11,1.690028e-05,-3.585242e-09,-6.364279e-13,2.9272144280824925e-05
PART_003_R247G182B210A255,11798,7.189646e-12,-5.079645e-12,-1.438985e-11,1.677112e-05,-2.323394e-10,6.715222e-13,2.9048431942628123e-05
PART_002_R214G39B40A255,11799,7.385989e-12,-4.632753e-12,-1.457012e-11,1.690018e-05,3.16656e-09,-9.109058e-13,2.9271970930890044e-05
PART_002_R214G39B40A255,11800,7.497393e-12,-2.570916e-12,-1.281801e-11,1.729121e-05,2.981693e-10,1.003352e-12,2.994925424880104e-05
PART_002_R214G39B40A255,11801,1.019225e-11,1.843525e-12,-1.379742e-11,1.796576e-05,7.99001e-09,1.42584e-12,3.11176121939655e-05
PART_002_R214G39B40A255,11802,1.543019e-11,6.930082e-12,-1.466331e-11,1.894406e-05,1.183028e-09,3.366374e-12,3.281207448562529e-05
PART_002_R214G39B40A255,11803,2.72889e-11,8.866172e-12,-2.008743e-11,2.025224e-05,3.030082e-09,1.574548e-12,3.50779090397177e-05
PART_003_R247G182B210A255,11804,-2.817239e-05,9.300666e-06,9.292935e-06,1.962263e-05,-5.357768e-10,2.572311e-08,5.058740052422733e-05
PART_003_R247G182B210A255,11805,-2.81724e-05,9.29712e-06,9.298116e-06,1.832419e-05,-7.691409e-09,6.640127e-08,4.910543220451202e-05
PART_003_R247G182B210A255,11806,-2.817242e-05,9.296155e-06,9.29669e-06,1.735712e-05,-6.53451e-10,8.708085e-08,4.8039002415662e-05
PART_003_R247G182B210A255,11807,-2.817243e-05,9.29697e-06,9.296132e-06,1.669898e-05,-6.092636e-09,7.93166e-08,4.7334039776422964e-05
PART_003_R247G182B210A255,11808,-2.817244e-05,9.295627e-06,9.297083e-06,1.631662e-05,-9.468276e-11,4.668885e-08,4.69320083161611e-05
PART_001_R158G218B229A255,11809,-2.817245e-05,9.297419e-06,9.29499e-06,1.619261e-05,-2.228384e-10,-4.696606e-11,4.680279831866135e-05
PART_001_R158G218B229A255,11810,-2.817246e-05,9.295637e-06,9.297091e-06,1.631653e-05,-3.047435e-10,-4.678829e-08,4.693193789906946e-05
PART_002_R214G39B40A255,11811,-2.817247e-05,9.296988e-06,9.296152e-06,1.669881e-05,5.720817e-09,-7.939579e-08,4.733390681690793e-05
PART_002_R214G39B40A255,11812,-2.817247e-05,9.29618e-06,9.296706e-06,1.735692e-05,3.93942e-10,-8.715009e-08,4.803884098464916e-05
PART_002_R214G39B40A255,11813,-2.817246e-05,9.297153e-06,9.298141e-06,1.832402e-05,7.511359e-09,-6.644314e-08,4.9105309891485857e-05
PART_002_R214G39B40A255,11814,-2.817244e-05,9.300692e-06,9.292951e-06,1.962254e-05,4.974039e-10,-2.573837e-08,5.058734840437672e-05
PART_003_R247G182B210A255,11815,-5.634485e-05,1.859612e-05,1.859738e-05,1.772551e-05,-3.957517e-09,5.841776e-08,8.098663353245936e-05
PART_003_R247G182B210A255,11816,-5.634485e-05,1.859584e-05,1.859015e-05,1.645298e-05,2.332518e-10,1.613474e-07,8.017393834208831e-05
PART_003_R247G182B210A255,11817,-5.634483e-05,1.859365e-05,1.859393e-05,1.553587e-05,-7.605089e-09,2.067517e-07,7.962421082712466e-05
PART_003_R247G182B210A255,11818,-5.634485e-05,1.859082e-05,1.85945e-05,1.492201e-05,1.003649e-09,1.867512e-07,7.927000815902088e-05
PART_001_R158G218B229A255,11819,-5.634485e-05,1.859478e-05,1.858994e-05,1.457601e-05,-1.306205e-09,1.103429e-07,7.907592676977523e-05
PART_001_R158G218B229A255,11820,-5.634488e-05,1.859344e-05,1.859197e-05,1.446381e-05,-1.949904e-10,-8.960066e-11,7.901422053364412e-05
PART_001_R158G218B229A255,11821,-5.63449e-05,1.85948e-05,1.858995e-05,1.457593e-05,9.611896e-10,-1.105161e-07,7.90759448401278e-05
PART_001_R158G218B229A255,11822,-5.634493e-05,1.859085e-05,1.859454e-05,1.492186e-05,-1.325278e-09,-1.869016e-07,7.927003324286444e-05
PART_002_R214G39B40A255,11823,-5.634493e-05,1.859368e-05,1.859397e-05,1.553567e-05,7.384117e-09,-2.068694e-07,7.962422166954801e-05
PART_002_R214G39B40A255,11824,-5.634493e-05,1.859584e-05,1.859018e-05,1.645276e-05,-3.950876e-10,-1.614217e-07,8.017389214505601e-05
PART_002_R214G39B40A255,11825,-5.634488e-05,1.859605e-05,1.859741e-05,1.77253e-05,3.915162e-09,-5.844626e-08,8.098650495564495e-05
PART_003_R247G182B210A255,11826,-8.451722e-05,2.790342e-05,2.787604e-05,1.452034e-05,9.861607e-10,1.261868e-07,0.00011518633410236053
PART_003_R247G182B210A255,11827,-8.451728e-05,2.789071e-05,2.789442e-05,1.331923e-05,-9.926989e-09,3.183072e-07,0.00011475401161040883
PART_003_R247G182B210A255,11828,-8.451726e-05,2.788554e-05,2.789212e-05,1.249386e-05,3.842499e-09,4.059271e-07,0.00011447232455657192
PART_001_R158G218B229A255,11829,-8.451731e-05,2.789228e-05,2.788486e-05,1.198345e-05,9.318522e-10,3.622679e-07,0.00011430785116637159
PART_001_R158G218B229A255,11830,-8.45173e-05,2.789223e-05,2.78859e-05,1.1702e-05,7.214899e-10,2.068291e-07,0.00011421965536174745
PART_001_R158G218B229A255,11831,-8.451735e-05,2.789266e-05,2.788386e-05,1.161083e-05,-1.520456e-10,-1.189922e-10,0.00011419043452728705
PART_001_R158G218B229A255,11832,-8.451736e-05,2.789225e-05,2.788592e-05,1.170194e-05,-9.853298e-10,-2.070372e-07,0.00011421971678742545
PART_001_R158G218B229A255,11833,-8.451741e-05,2.789231e-05,2.788489e-05,1.198333e-05,-1.174864e-09,-3.624656e-07,0.0001143079431498685
PART_001_R158G218B229A255,11834,-8.451739e-05,2.788559e-05,2.789216e-05,1.249373e-05,-3.994737e-09,-4.06067e-07,0.00011447245533604072
PART_002_R214G39B40A255,11835,-8.45174e-05,2.789078e-05,2.789446e-05,1.331911e-05,9.828359e-09,-3.184063e-07,0.00011475414205003262
PART_002_R214G39B40A255,11836,-8.451732e-05,2.790348e-05,2.787608e-05,1.452029e-05,-9.944572e-10,-1.262145e-07,0.00011518646166889217
PART_003_R247G182B210A255,11837,-0.0001126898,3.719077e-05,3.720102e-05,9.932676e-06,-9.278772e-09,2.312621e-07,0.00015087033010753421
PART_003_R247G182B210A255,11838,-0.0001126898,3.71823e-05,3.718647e-05,8.856155e-06,9.002032e-09,6.333738e-07,0.00015066110817602962
PART_001_R158G218B229A255,11839,-0.0001126897,3.718993e-05,3.717784e-05,8.26677e-06,6.414953e-09,7.742986e-07,0.00015056197656612293
PART_001_R158G218B229A255,11840,-0.0001126898,3.719263e-05,3.71782e-05,7.924996e-06,1.821872e-09,6.406718e-07,0.00015050657229266948
PART_001_R158G218B229A255,11841,-0.0001126897,3.719012e-05,3.717792e-05,7.736584e-06,1.50301e-09,3.580013e-07,0.00015047285720622537
PART_001_R158G218B229A255,11842,-0.0001126898,3.719378e-05,3.717739e-05,7.679056e-06,-9.876628e-11,-1.290332e-10,0.0001504643975616987
PART_001_R158G218B229A255,11843,-0.0001126898,3.719014e-05,3.717794e-05,7.736541e-06,-1.665344e-09,-3.581914e-07,0.00015047297145822188
PART_001_R158G218B229A255,11844,-0.0001126899,3.719266e-05,3.717821e-05,7.924921e-06,-1.975191e-09,-6.408847e-07,0.00015050668266835542
PART_001_R158G218B229A255,11845,-0.0001126898,3.718996e-05,3.717789e-05,8.266672e-06,-6.499588e-09,-7.744226e-07,0.00015056210170667173
PART_001_R158G218B229A255,11846,-0.0001126898,3.71823e-05,3.718648e-05,8.856052e-06,-9.060232e-09,-6.334686e-07,0.00015066109619276465
PART_002_R214G39B40A255,11847,-0.0001126897,3.719068e-05,3.720105e-05,9.932573e-06,9.269329e-09,-2.312911e-07,0.0001508701807505482
PART_003_R247G182B210A255,11848,-0.0001408622,4.651223e-05,4.644166e-05,3.648013e-06,1.428001e-08,6.234925e-07,0.00018744879253123486
PART_001_R158G218B229A255,11849,-0.0001408623,4.648557e-05,4.646505e-05,3.134954e-06,8.773034e-09,1.34794e-06,0.00018743082805048488
PART_001_R158G218B229A255,11850,-0.0001408622,4.649896e-05,4.646422e-05,2.938759e-06,1.713064e-09,1.372478e-06,0.00018742800368803017
PART_001_R158G218B229A255,11851,-0.0001408623,4.648693e-05,4.647184e-05,2.809218e-06,2.024961e-09,1.070188e-06,0.0001874140286800919
PART_001_R158G218B229A255,11852,-0.0001408622,4.649494e-05,4.646917e-05,2.747211e-06,2.650655e-10,5.775666e-07,0.000187407344130782
PART_001_R158G218B229A255,11853,-0.0001408623,4.648737e-05,4.647297e-05,2.724421e-06,-3.708448e-11,-1.101399e-10,0.00018740189068047617
PART_001_R158G218B229A255,11854,-0.0001408623,4.649496e-05,4.646917e-05,2.747196e-06,-3.147983e-10,-5.776811e-07,0.0001874074544951207
PART_001_R158G218B229A255,11855,-0.0001408623,4.648696e-05,4.64718e-05,2.80919e-06,-2.082119e-09,-1.070374e-06,0.00018741402561565446
PART_001_R158G218B229A255,11856,-0.0001408623,4.6499e-05,4.646424e-05,2.938731e-06,-1.728497e-09,-1.372552e-06,0.00018742813394144407
PART_001_R158G218B229A255,11857,-0.0001408623,4.648562e-05,4.6465e-05,3.134928e-06,-8.790519e-09,-1.348033e-06,0.000187430828763101
PART_001_R158G218B229A255,11858,-0.0001408622,4.651229e-05,4.644168e-05,3.648007e-06,-1.425656e-08,-6.235002e-07,0.00018744883224031074
PART_003_R247G182B210A255,11859,0.0001363183,-4.501198e-05,-4.494366e-05,3.648057e-06,1.377661e-08,-6.234702e-07,0.00018140942175656912
PART_000_R31G119B180A255,11860,0.0001363182,-4.498607e-05,-4.496605e-05,3.134971e-06,8.496324e-09,-1.347949e-06,0.00018139058480291304
PART_000_R31G119B180A255,11861,0.0001363182,-4.499896e-05,-4.496547e-05,2.938778e-06,1.629604e-09,-1.372404e-06,0.0001813874335640196
PART_000_R31G119B180A255,11862,0.0001363182,-4.49873e-05,-4.497266e-05,2.809225e-06,1.960564e-09,-1.070167e-06,0.00018137293417463526
PART_000_R31G119B180A255,11863,0.0001363182,-4.499506e-05,-4.497026e-05,2.747221e-06,2.271075e-10,-5.774615e-07,0.00018136605071841533
PART_000_R31G119B180A255,11864,0.0001363183,-4.498775e-05,-4.497379e-05,2.724423e-06,-4.0554e-11,1.324389e-10,0.0001813604708064369
PART_000_R31G119B180A255,11865,0.0001363183,-4.49951e-05,-4.497025e-05,2.747197e-06,-3.338181e-10,5.777768e-07,0.00018136616760462543
PART_000_R31G119B180A255,11866,0.0001363183,-4.498737e-05,-4.497267e-05,2.809184e-06,-2.016722e-09,1.070389e-06,0.000181373076147379
PART_000_R31G119B180A255,11867,0.0001363183,-4.499903e-05,-4.496545e-05,2.938723e-06,-1.694114e-09,1.372622e-06,0.00018138756079370718
PART_000_R31G119B180A255,11868,0.0001363183,-4.498609e-05,-4.49661e-05,3.134917e-06,-8.499068e-09,1.348046e-06,0.0001813907190918642
PART_000_R31G119B180A255,11869,0.0001363183,-4.50119e-05,-4.494363e-05,3.647997e-06,-1.381213e-08,6.235223e-07,0.00018140936370241624
PART_003_R247G182B210A255,11870,0.0001090545,-3.59909e-05,-3.600106e-05,9.932611e-06,-8.970354e-09,-2.312631e-07,0.00014606769936829832
PART_003_R247G182B210A255,11871,0.0001090545,-3.598277e-05,-3.598683e-05,8.856141e-06,8.725767e-09,-6.333502e-07,0.00014585230845938946
PART_000_R31G119B180A255,11872,0.0001090545,-3.599019e-05,-3.597862e-05,8.266783e-06,6.177288e-09,-7.742454e-07,0.00014575013430456895
PART_000_R31G119B180A255,11873,0.0001090545,-3.599282e-05,-3.597884e-05,7.925019e-06,1.74199e-09,-6.406263e-07,0.00014569264383218743
PART_000_R31G119B180A255,11874,0.0001090545,-3.599039e-05,-3.59787e-05,7.736598e-06,1.395532e-09,-3.579139e-07,0.00014565807164646551
PART_000_R31G119B180A255,11875,0.0001090546,-3.599394e-05,-3.597809e-05,7.679059e-06,-1.318354e-10,1.805254e-10,0.00014564918135547984
PART_000_R31G119B180A255,11876,0.0001090546,-3.599043e-05,-3.597873e-05,7.736531e-06,-1.674116e-09,3.582781e-07,0.00014565819809224812
PART_000_R31G119B180A255,11877,0.0001090547,-3.599288e-05,-3.59789e-05,7.924898e-06,-1.940184e-09,6.409267e-07,0.00014569288689382496
PART_000_R31G119B180A255,11878,0.0001090547,-3.599028e-05,-3.597868e-05,8.266641e-06,-6.333346e-09,7.744876e-07,0.00014575038768292357
PART_000_R31G119B180A255,11879,0.0001090547,-3.598287e-05,-3.59869e-05,8.856017e-06,-8.771149e-09,6.33498e-07,0.00014585257121632424
PART_002_R214G39B40A255,11880,0.0001090547,-3.5991e-05,-3.600111e-05,9.932542e-06,8.95602e-09,2.31308e-07,0.00014606795858530325
PART_003_R247G182B210A255,11881,8.179096e-05,-2.700343e-05,-2.697688e-05,1.452049e-05,9.164469e-10,-1.26176e-07,0.00011165085383690065
PART_003_R247G182B210A255,11882,8.17909e-05,-2.699104e-05,-2.699456e-05,1.331932e-05,-9.630178e-09,-3.182944e-07,0.00011120436350686155
PART_003_R247G182B210A255,11883,8.179088e-05,-2.698598e-05,-2.699241e-05,1.249391e-05,3.661321e-09,-4.058896e-07,0.00011091389628264161
PART_000_R31G119B180A255,11884,8.179088e-05,-2.699249e-05,-2.698532e-05,1.198348e-05,8.567645e-10,-3.622173e-07,0.00011074405920072413
PART_000_R31G119B180A255,11885,8.179092e-05,-2.699245e-05,-2.698641e-05,1.170202e-05,6.153999e-10,-2.067625e-07,0.00011065308239292419
PART_000_R31G119B180A255,11886,8.179096e-05,-2.699287e-05,-2.698437e-05,1.161083e-05,-2.106801e-10,1.799483e-10,0.00011062292347999534
PART_000_R31G119B180A255,11887,8.179101e-05,-2.699249e-05,-2.698644e-05,1.170192e-05,-1.043558e-09,2.071054e-07,0.00011065317548513403
PART_000_R31G119B180A255,11888,8.179106e-05,-2.699255e-05,-2.698538e-05,1.198329e-05,-1.190856e-09,3.625182e-07,0.00011074423622843767
PART_000_R31G119B180A255,11889,8.179109e-05,-2.698605e-05,-2.699249e-05,1.249367e-05,-3.93214e-09,4.06121e-07,0.00011091409726552615
PART_002_R214G39B40A255,11890,8.17911e-05,-2.699107e-05,-2.699464e-05,1.331905e-05,9.491707e-09,3.184401e-07,0.00011120451715770169
PART_002_R214G39B40A255,11891,8.179108e-05,-2.700336e-05,-2.697695e-05,1.452022e-05,-9.891146e-10,1.262317e-07,0.00011165086557679611
PART_003_R247G182B210A255,11892,5.452724e-05,-1.799611e-05,-1.79975e-05,1.772538e-05,-3.836274e-09,-5.84183e-08,7.87547755713177e-05
PART_003_R247G182B210A255,11893,5.452722e-05,-1.799587e-05,-1.799047e-05,1.645294e-05,2.254497e-10,-1.613302e-07,7.791907836984264e-05
PART_003_R247G182B210A255,11894,5.452722e-05,-1.799379e-05,-1.799416e-05,1.553589e-05,-7.420911e-09,-2.067236e-07,7.735336920753452e-05
PART_003_R247G182B210A255,11895,5.452723e-05,-1.799106e-05,-1.799468e-05,1.492204e-05,9.143372e-10,-1.867102e-07,7.698877406302486e-05
PART_000_R31G119B180A255,11896,5.452725e-05,-1.79949e-05,-1.79903e-05,1.457603e-05,-1.368285e-09,-1.102963e-07,7.678897780940434e-05
PART_000_R31G119B180A255,11897,5.452729e-05,-1.79936e-05,-1.799225e-05,1.446381e-05,-2.713898e-10,1.402168e-10,7.672539986498174e-05
PART_000_R31G119B180A255,11898,5.452733e-05,-1.799492e-05,-1.799033e-05,1.45759e-05,8.163654e-10,1.105629e-07,7.67890040689227e-05
PART_000_R31G119B180A255,11899,5.452737e-05,-1.799111e-05,-1.799474e-05,1.492181e-05,-1.355965e-09,1.869461e-07,7.698882574664221e-05
PART_002_R214G39B40A255,11900,5.45274e-05,-1.799385e-05,-1.799422e-05,1.55356e-05,7.058919e-09,2.069081e-07,7.735342086173338e-05
PART_002_R214G39B40A255,11901,5.452741e-05,-1.799595e-05,-1.799053e-05,1.645268e-05,-4.116853e-10,1.614525e-07,7.79191564202265e-05
PART_002_R214G39B40A255,11902,5.45274e-05,-1.799616e-05,-1.799757e-05,1.772523e-05,3.75868e-09,5.84581e-08,7.875487696245479e-05
PART_003_R247G182B210A255,11903,2.726365e-05,-9.000647e-06,-8.99319e-06,1.962284e-05,-5.6435e-10,-2.57208e-08,4.969907850533307e-05
PART_003_R247G182B210A255,11904,2.726363e-05,-8.997186e-06,-8.998211e-06,1.832434e-05,-7.484633e-09,-6.63955e-08,4.8189642536816304e-05
PART_003_R247G182B210A255,11905,2.726361e-05,-8.996232e-06,-8.996814e-06,1.73572e-05,-7.178762e-10,-8.706824e-08,4.710241145772709e-05
PART_003_R247G182B210A255,11906,2.726362e-05,-8.997019e-06,-8.99629e-06,1.669903e-05,-5.966224e-09,-7.929036e-08,4.6383178887476914e-05
PART_003_R247G182B210A255,11907,2.726364e-05,-8.995723e-06,-8.997204e-06,1.631665e-05,-2.09012e-10,-4.66653e-08,4.59728272159214e-05
PART_000_R31G119B180A255,11908,2.726366e-05,-8.997461e-06,-8.995192e-06,1.619261e-05,-3.106981e-10,7.704507e-11,4.5840904015793154e-05
PART_000_R31G119B180A255,11909,2.726368e-05,-8.995739e-06,-8.997221e-06,1.63165e-05,-4.232422e-10,4.680885e-08,4.597271250824297e-05
PART_002_R214G39B40A255,11910,2.72637e-05,-8.997048e-06,-8.996316e-06,1.669876e-05,5.450772e-09,7.942089e-08,4.6382971788864966e-05
PART_002_R214G39B40A255,11911,2.726371e-05,-8.996266e-06,-8.99685e-06,1.735684e-05,2.81522e-10,8.716794e-08,4.7102117946345796e-05
PART_002_R214G39B40A255,11912,2.726371e-05,-8.997204e-06,-8.998244e-06,1.832393e-05,7.230203e-09,6.646238e-08,4.818925437328978e-05
PART_002_R214G39B40A255,11913,2.726371e-05,-9.000622e-06,-8.993231e-06,1.962245e-05,4.433711e-10,2.574572e-08,4.9698666194162814e-05
PART_003_R247G182B210A255,11914,1.306551e-11,3.641748e-11,-2.608315e-11,2.025238e-05,-3.002675e-09,-6.151124e-13,3.507815151977602e-05
PART_003_R247G182B210A255,11915,-2.540265e-12,4.642502e-11,-2.14666e-11,1.89443e-05,-1.354999e-09,1.410747e-13,3.281249019781567e-05
PART_003_R247G182B210A255,11916,-1.048013e-11,5.646027e-11,-2.183522e-11,1.796604e-05,-8.080709e-09,4.409668e-12,3.111809723848491e-05
PART_003_R247G182B210A255,11917,-1.329831e-11,6.17716e-11,-2.458933e-11,1.729144e-05,-7.38498e-10,4.169672e-12,2.994965264345483e-05
PART_003_R247G182B210A255,11918,-1.214297e-11,6.313183e-11,-2.782568e-11,1.690031e-05,-3.591416e-09,4.483654e-12,2.927219624473469e-05
PART_003_R247G182B210A255,11919,-1.157928e-11,6.322752e-11,-2.967866e-11,1.677112e-05,-3.247204e-10,-1.180804e-12,2.9048431945404765e-05
PART_002_R214G39B40A255,11920,-1.268312e-11,6.341123e-11,-2.742784e-11,1.690015e-05,2.93163e-09,-2.803826e-12,2.927191889606858e-05
PART_002_R214G39B40A255,11921,-1.318973e-11,6.225384e-11,-2.543112e-11,1.729116e-05,1.984904e-10,-6.17781e-12,2.9949167643890785e-05
PART_002_R214G39B40A255,11922,-1.221259e-11,5.824873e-11,-2.092137e-11,1.796569e-05,7.629426e-09,-3.405143e-12,3.111749067901222e-05
PART_002_R214G39B40A255,11923,-4.05482e-12,5.225448e-11,-2.254192e-11,1.894399e-05,1.106757e-09,-1.384555e-12,3.2811953234143076e-05
PART_002_R214G39B40A255,11924,9.397767e-12,4.698715e-11,-2.547386e-11,2.025219e-05,2.896626e-09,5.234957e-13,3.507782240338712e-05
PART_003_R247G182B210A255,11925,-2.726362e-05,9.000723e-06,8.993139e-06,1.962287e-05,-5.649892e-10,2.572139e-08,4.969910128764344e-05
PART_003_R247G182B210A255,11926,-2.726362e-05,8.997244e-06,8.998169e-06,1.832436e-05,-7.485708e-09,6.639763e-08,4.8189663854953406e-05
PART_003_R247G182B210A255,11927,-2.726361e-05,8.996267e-06,8.996771e-06,1.735722e-05,-7.191823e-10,8.707848e-08,4.710243054460204e-05
PART_003_R247G182B210A255,11928,-2.726361e-05,8.997039e-06,8.996241e-06,1.669904e-05,-5.966524e-09,7.929949e-08,4.638317058298701e-05
PART_003_R247G182B210A255,11929,-2.726362e-05,8.995737e-06,8.997149e-06,1.631666e-05,-2.092643e-10,4.667493e-08,4.597280594769829e-05
PART_001_R158G218B229A255,11930,-2.726364e-05,8.997474e-06,8.995132e-06,1.619262e-05,-3.102841e-10,-7.961436e-11,4.5840880207278045e-05
PART_001_R158G218B229A255,11931,-2.726367e-05,8.995753e-06,8.997166e-06,1.631652e-05,-4.229404e-10,-4.681448e-08,4.597270976251721e-05
PART_002_R214G39B40A255,11932,-2.726369e-05,8.997069e-06,8.996264e-06,1.669877e-05,5.451857e-09,-7.943437e-08,4.638296272509398e-05
PART_002_R214G39B40A255,11933,-2.726371e-05,8.9963e-06,8.996811e-06,1.735686e-05,2.827347e-10,-8.71753e-08,4.7102138171676856e-05
PART_002_R214G39B40A255,11934,-2.72637e-05,8.997254e-06,8.998198e-06,1.832395e-05,7.232068e-09,-6.646623e-08,4.818927118370792e-05
PART_002_R214G39B40A255,11935,-2.726368e-05,9.00068e-06,8.993183e-06,1.962248e-05,4.438986e-10,-2.574508e-08,4.969868349943949e-05
PART_003_R247G182B210A255,11936,-5.45272e-05,1.799615e-05,1.799746e-05,1.772542e-05,-3.838765e-09,5.841731e-08,7.875476574157892e-05
PART_003_R247G182B210A255,11937,-5.45272e-05,1.799594e-05,1.799041e-05,1.645297e-05,2.233126e-10,1.613327e-07,7.791908343537464e-05
PART_003_R247G182B210A255,11938,-5.452724e-05,1.799388e-05,1.799413e-05,1.553591e-05,-7.423411e-09,2.067336e-07,7.735342821521486e-05
PART_003_R247G182B210A255,11939,-5.452724e-05,1.799117e-05,1.799462e-05,1.492206e-05,9.144868e-10,1.867228e-07,7.698881874660033e-05
PART_001_R158G218B229A255,11940,-5.452728e-05,1.799501e-05,1.799026e-05,1.457605e-05,-1.369095e-09,1.103051e-07,7.678905062966414e-05
PART_001_R158G218B229A255,11941,-5.45273e-05,1.799371e-05,1.799218e-05,1.446382e-05,-2.70071e-10,-1.402283e-10,7.672543387867356e-05
PART_001_R158G218B229A255,11942,-5.452735e-05,1.799504e-05,1.799029e-05,1.457592e-05,8.160675e-10,-1.10572e-07,7.678907216890143e-05
PART_001_R158G218B229A255,11943,-5.452738e-05,1.799122e-05,1.799467e-05,1.492182e-05,-1.353776e-09,-1.869588e-07,7.698885990613526e-05
PART_002_R214G39B40A255,11944,-5.452742e-05,1.799395e-05,1.799419e-05,1.553562e-05,7.060253e-09,-2.069185e-07,7.73534845598758e-05
PART_002_R214G39B40A255,11945,-5.45274e-05,1.799603e-05,1.799048e-05,1.645271e-05,-4.081983e-10,-1.614557e-07,7.791918010408134e-05
PART_002_R214G39B40A255,11946,-5.452737e-05,1.799622e-05,1.799754e-05,1.772526e-05,3.759585e-09,-5.845756e-08,7.875488340309128e-05
PART_003_R247G182B210A255,11947,-8.179094e-05,2.700346e-05,2.697689e-05,1.452052e-05,9.154407e-10,1.261763e-07,0.00011165086554621169
PART_003_R247G182B210A255,11948,-8.179086e-05,2.699106e-05,2.699448e-05,1.331935e-05,-9.631599e-09,3.183028e-07,0.00011120430588038064
PART_003_R247G182B210A255,11949,-8.179088e-05,2.698598e-05,2.699243e-05,1.249393e-05,3.659237e-09,4.059002e-07,0.00011091391296600676
PART_001_R158G218B229A255,11950,-8.179085e-05,2.699248e-05,2.698522e-05,1.198349e-05,8.576676e-10,3.622394e-07,0.00011074397917591962
PART_001_R158G218B229A255,11951,-8.179091e-05,2.699244e-05,2.69864e-05,1.170204e-05,6.145472e-10,2.067669e-07,0.00011065306910131644
PART_001_R158G218B229A255,11952,-8.179092e-05,2.699286e-05,2.698427e-05,1.161085e-05,-2.089488e-10,-1.721e-10,0.0001106228363657054
PART_001_R158G218B229A255,11953,-8.1791e-05,2.699248e-05,2.698643e-05,1.170193e-05,-1.044486e-09,-2.071243e-07,0.00011065315910236546
PART_001_R158G218B229A255,11954,-8.179103e-05,2.699255e-05,2.698529e-05,1.198331e-05,-1.188705e-09,-3.625272e-07,0.00011074416914380992
PART_001_R158G218B229A255,11955,-8.179109e-05,2.698605e-05,2.69925e-05,1.249369e-05,-3.931459e-09,-4.061414e-07,0.00011091410915236568
PART_002_R214G39B40A255,11956,-8.179105e-05,2.699108e-05,2.699456e-05,1.331908e-05,9.495473e-09,-3.184416e-07,0.00011120444479897714
PART_002_R214G39B40A255,11957,-8.179104e-05,2.700337e-05,2.697696e-05,1.452025e-05,-9.883695e-10,-1.262338e-07,0.0001116508480594886
PART_003_R247G182B210A255,11958,-0.0001090545,3.599089e-05,3.600113e-05,9.932626e-06,-8.971914e-09,2.312631e-07,0.00014606773222385877
PART_003_R247G182B210A255,11959,-0.0001090545,3.59828e-05,3.598672e-05,8.856155e-06,8.723491e-09,6.33363e-07,0.0001458522713960659
PART_001_R158G218B229A255,11960,-0.0001090546,3.599026e-05,3.597868e-05,8.266789e-06,6.17682e-09,7.742564e-07,0.0001457502996961821
PART_001_R158G218B229A255,11961,-0.0001090545,3.599291e-05,3.597871e-05,7.925025e-06,1.742658e-09,6.406594e-07,0.00014569262535347823
PART_001_R158G218B229A255,11962,-0.0001090546,3.599049e-05,3.597873e-05,7.736601e-06,1.395875e-09,3.579143e-07,0.0001456582364304564
PART_001_R158G218B229A255,11963,-0.0001090546,3.599404e-05,3.597795e-05,7.679062e-06,-1.310757e-10,-1.645308e-10,0.00014564916193323044
PART_001_R158G218B229A255,11964,-0.0001090547,3.599053e-05,3.597875e-05,7.736535e-06,-1.674706e-09,-3.583081e-07,0.00014565835827589184
PART_001_R158G218B229A255,11965,-0.0001090547,3.599297e-05,3.597878e-05,7.924904e-06,-1.939678e-09,-6.409331e-07,0.00014569287303975589
PART_001_R158G218B229A255,11966,-0.0001090548,3.599035e-05,3.597872e-05,8.266649e-06,-6.333153e-09,-7.745189e-07,0.00014575054378855113
PART_001_R158G218B229A255,11967,-0.0001090547,3.598292e-05,3.598681e-05,8.856031e-06,-8.769087e-09,-6.334985e-07,0.000145852553881296
PART_002_R214G39B40A255,11968,-0.0001090547,3.599102e-05,3.600117e-05,9.932559e-06,8.956964e-09,-2.313122e-07,0.0001460680017969287
PART_003_R247G182B210A255,11969,-0.0001363184,4.5012e-05,4.494377e-05,3.648065e-06,1.37772e-08,6.234712e-07,0.0001814095871211855
PART_001_R158G218B229A255,11970,-0.0001363182,4.498608e-05,4.496594e-05,3.134972e-06,8.496368e-09,1.34797e-06,0.00018139053535945213
PART_001_R158G218B229A255,11971,-0.0001363183,4.499896e-05,4.496556e-05,2.938781e-06,1.63057e-09,1.372421e-06,0.00018138757901372816
PART_001_R158G218B229A255,11972,-0.0001363182,4.498729e-05,4.497252e-05,2.809225e-06,1.960117e-09,1.07021e-06,0.00018137285997460055
PART_001_R158G218B229A255,11973,-0.0001363183,4.499505e-05,4.49703e-05,2.747222e-06,2.284851e-10,5.774628e-07,0.00018136616572982163
PART_001_R158G218B229A255,11974,-0.0001363182,4.498773e-05,4.497364e-05,2.724423e-06,-4.149556e-11,-1.130183e-10,0.00018136028587657104
PART_001_R158G218B229A255,11975,-0.0001363183,4.499509e-05,4.497028e-05,2.747198e-06,-3.32913e-10,-5.778144e-07,0.00018136617800171826
PART_001_R158G218B229A255,11976,-0.0001363183,4.498736e-05,4.497255e-05,2.809185e-06,-2.018007e-09,-1.070399e-06,0.0001813730114044381
PART_001_R158G218B229A255,11977,-0.0001363184,4.499903e-05,4.496552e-05,2.938725e-06,-1.693024e-09,-1.372664e-06,0.00018138769676990846
PART_001_R158G218B229A255,11978,-0.0001363183,4.498609e-05,4.496601e-05,3.134919e-06,-8.499853e-09,-1.348051e-06,0.00018139067433849872
PART_001_R158G218B229A255,11979,-0.0001363183,4.501189e-05,4.494372e-05,3.648004e-06,-1.381062e-08,-6.235291e-07,0.00018140940414129603
PART_003_R247G182B210A255,11980,0.0001317742,-4.351134e-05,-4.344546e-05,3.648018e-06,1.337788e-08,-6.234792e-07,0.0001753698032265455
PART_000_R31G119B180A255,11981,0.0001317742,-4.348639e-05,-4.346721e-05,3.134967e-06,8.19788e-09,-1.347874e-06,0.0001753506425016826
PART_000_R31G119B180A255,11982,0.0001317741,-4.34989e-05,-4.346658e-05,2.938779e-06,1.59444e-09,-1.372376e-06,0.0001753468570335316
PART_000_R31G119B180A255,11983,0.0001317742,-4.348763e-05,-4.347358e-05,2.809237e-06,1.858487e-09,-1.070051e-06,0.00017533213424525502
PART_000_R31G119B180A255,11984,0.0001317742,-4.349514e-05,-4.347124e-05,2.747223e-06,2.171525e-10,-5.774096e-07,0.00017532482735293012
PART_000_R31G119B180A255,11985,0.0001317743,-4.348808e-05,-4.347467e-05,2.724423e-06,-8.326272e-11,2.643726e-10,0.0001753191923231908
PART_000_R31G119B180A255,11986,0.0001317744,-4.34952e-05,-4.347126e-05,2.747187e-06,-3.290268e-10,5.778365e-07,0.0001753250697923303
PART_000_R31G119B180A255,11987,0.0001317744,-4.348775e-05,-4.347358e-05,2.809169e-06,-1.988941e-09,1.070502e-06,0.00017533239913267957
PART_000_R31G119B180A255,11988,0.0001317745,-4.349904e-05,-4.346665e-05,2.938703e-06,-1.633824e-09,1.372666e-06,0.0001753473647737557
PART_000_R31G119B180A255,11989,0.0001317745,-4.348656e-05,-4.346722e-05,3.134894e-06,-8.239871e-09,1.348106e-06,0.00017535103373428015
PART_000_R31G119B180A255,11990,0.0001317745,-4.351153e-05,-4.344557e-05,3.647978e-06,-1.333044e-08,6.235291e-07,0.0001753702509735522
PART_003_R247G182B210A255,11991,0.0001054194,-3.479139e-05,-3.480101e-05,9.932739e-06,-8.690543e-09,-2.312399e-07,0.00014126766476142135
PART_003_R247G182B210A255,11992,0.0001054193,-3.478343e-05,-3.478724e-05,8.856218e-06,8.38505e-09,-6.333187e-07,0.0001410455279929689
PART_000_R31G119B180A255,11993,0.0001054193,-3.479055e-05,-3.477931e-05,8.266825e-06,5.949714e-09,-7.741907e-07,0.00014093986523090323
PART_000_R31G119B180A255,11994,0.0001054193,-3.479309e-05,-3.477952e-05,7.925041e-06,1.613998e-09,-6.405358e-07,0.0001408803091359043
PART_000_R31G119B180A255,11995,0.0001054194,-3.479076e-05,-3.47794e-05,7.736609e-06,1.304697e-09,-3.578282e-07,0.0001408447577777856
PART_000_R31G119B180A255,11996,0.0001054195,-3.479421e-05,-3.477882e-05,7.679055e-06,-2.172894e-10,2.965437e-10,0.00014083547307870923
PART_000_R31G119B180A255,11997,0.0001054195,-3.479082e-05,-3.477946e-05,7.736508e-06,-1.670282e-09,3.583717e-07,0.00014084490456390178
PART_000_R31G119B180A255,11998,0.0001054196,-3.47932e-05,-3.477961e-05,7.924858e-06,-1.95545e-09,6.410314e-07,0.00014088068311438338
PART_000_R31G119B180A255,11999,0.0001054197,-3.479068e-05,-3.477944e-05,8.266584e-06,-6.148646e-09,7.745571e-07,0.00014094035612279043
PART_000_R31G119B180A255,12000,0.0001054197,-3.47835e-05,-3.478737e-05,8.855952e-06,-8.520729e-09,6.335513e-07,0.00014104597806615215
PART_002_R214G39B40A255,12001,0.0001054197,-3.479133e-05,-3.480113e-05,9.932466e-06,8.664822e-09,2.313259e-07,0.00014126793514655697
PART_003_R247G182B210A255,12002,7.906442e-05,-2.61031e-05,-2.607762e-05,1.452035e-05,9.222925e-10,-1.261727e-07,0.00010812075516449765
PART_003_R247G182B210A255,12003,7.90644e-05,-2.609119e-05,-2.609472e-05,1.331928e-05,-9.3349e-09,-3.182543e-07,0.00010765957039630234
PART_003_R247G182B210A255,12004,7.906441e-05,-2.608635e-05,-2.609264e-05,1.249393e-05,3.509886e-09,-4.058319e-07,0.00010735982843926248
PART_000_R31G119B180A255,12005,7.906444e-05,-2.609265e-05,-2.608579e-05,1.198351e-05,7.346103e-10,-3.621453e-07,0.00010718441692580361
PART_000_R31G119B180A255,12006,7.906449e-05,-2.609262e-05,-2.608685e-05,1.170204e-05,5.145038e-10,-2.066737e-07,0.00010709039370388951
PART_000_R31G119B180A255,12007,7.906456e-05,-2.609303e-05,-2.60849e-05,1.161083e-05,-3.30891e-10,2.741813e-10,0.00010705931995823153
PART_000_R31G119B180A255,12008,7.906464e-05,-2.609267e-05,-2.60869e-05,1.170188e-05,-1.100643e-09,2.072017e-07,0.00010709054071168562
PART_000_R31G119B180A255,12009,7.906472e-05,-2.609275e-05,-2.60859e-05,1.198323e-05,-1.268647e-09,3.626055e-07,0.00010718470540066286
PART_000_R31G119B180A255,12010,7.906478e-05,-2.608649e-05,-2.609277e-05,1.249359e-05,-3.858768e-09,4.061933e-07,0.00010736020849901684
PART_002_R214G39B40A255,12011,7.906482e-05,-2.609136e-05,-2.609486e-05,1.331895e-05,9.110722e-09,3.184896e-07,0.00010766001158402125
PART_002_R214G39B40A255,12012,7.90648e-05,-2.610325e-05,-2.607776e-05,1.452013e-05,-9.49591e-10,1.262477e-07,0.00010812117739254062
PART_003_R247G182B210A255,12013,5.270967e-05,-1.739633e-05,-1.739756e-05,1.772564e-05,-3.729592e-09,-5.840277e-08,7.653458487835354e-05
PART_003_R247G182B210A255,12014,5.270962e-05,-1.739605e-05,-1.739077e-05,1.645311e-05,1.301734e-10,-1.613065e-07,7.567448302775291e-05
PART_003_R247G182B210A255,12015,5.27096e-05,-1.739401e-05,-1.739433e-05,1.553598e-05,-7.235598e-09,-2.066798e-07,7.509172323666384e-05
PART_003_R247G182B210A255,12016,5.270962e-05,-1.739138e-05,-1.739485e-05,1.492209e-05,7.602582e-10,-1.866534e-07,7.471615818298188e-05
PART_000_R31G119B180A255,12017,5.270966e-05,-1.73951e-05,-1.739062e-05,1.457606e-05,-1.426091e-09,-1.102279e-07,7.451029698937606e-05
PART_000_R31G119B180A255,12018,5.270972e-05,-1.739386e-05,-1.739252e-05,1.446381e-05,-4.221089e-10,2.104483e-10,7.444476738918924e-05
PART_000_R31G119B180A255,12019,5.270978e-05,-1.739514e-05,-1.739066e-05,1.457587e-05,6.699777e-10,1.106351e-07,7.451033779770809e-05
PART_000_R31G119B180A255,12020,5.270984e-05,-1.739146e-05,-1.739494e-05,1.492173e-05,-1.461162e-09,1.870094e-07,7.471623136143276e-05
PART_002_R214G39B40A255,12021,5.270988e-05,-1.739411e-05,-1.739443e-05,1.55355e-05,6.742325e-09,2.069611e-07,7.509178226088976e-05
PART_002_R214G39B40A255,12022,5.27099e-05,-1.739611e-05,-1.739088e-05,1.645256e-05,-4.885912e-10,1.614873e-07,7.56744635782894e-05
PART_002_R214G39B40A255,12023,5.270988e-05,-1.739628e-05,-1.739768e-05,1.77251e-05,3.629934e-09,5.84715e-08,7.653443425568519e-05
PART_003_R247G182B210A255,12024,2.635477e-05,-8.700517e-06,-8.693424e-06,1.962268e-05,-5.176215e-10,-2.571752e-08,4.882392083739105e-05
PART_003_R247G182B210A255,12025,2.635475e-05,-8.697183e-06,-8.698255e-06,1.832429e-05,-7.285829e-09,-6.637637e-08,4.728665533305929e-05
PART_003_R247G182B210A255,12026,2.635476e-05,-8.696268e-06,-8.696928e-06,1.735724e-05,-7.486859e-10,-8.70375e-08,4.617836904314048e-05
PART_003_R247G182B210A255,12027,2.635478e-05,-8.697026e-06,-8.696407e-06,1.669909e-05,-5.9045e-09,-7.925768e-08,4.544452857704721e-05
PART_003_R247G182B210A255,12028,2.63548e-05,-8.695774e-06,-8.697313e-06,1.631669e-05,-3.209912e-10,-4.662415e-08,4.50256185114972e-05
PART_000_R31G119B180A255,12029,2.635483e-05,-8.697457e-06,-8.695359e-06,1.619261e-05,-4.810383e-10,1.124601e-10,4.489088042355911e-05
PART_000_R31G119B180A255,12030,2.635487e-05,-8.695798e-06,-8.697336e-06,1.631647e-05,-5.463509e-10,4.684686e-08,4.502545282506469e-05
PART_002_R214G39B40A255,12031,2.63549e-05,-8.697071e-06,-8.696453e-06,1.669868e-05,5.096292e-09,7.944846e-08,4.54442049613133e-05
PART_002_R214G39B40A255,12032,2.635492e-05,-8.696328e-06,-8.696979e-06,1.735673e-05,1.749805e-10,8.719391e-08,4.6177958404937425e-05
PART_002_R214G39B40A255,12033,2.635493e-05,-8.69725e-06,-8.698319e-06,1.832381e-05,6.886072e-09,6.647722e-08,4.7286279546398875e-05
PART_002_R214G39B40A255,12034,2.635493e-05,-8.700558e-06,-8.693485e-06,1.962235e-05,4.268144e-10,2.575183e-08,4.8823674483421524e-05
PART_003_R247G182B210A255,12035,-1.570027e-11,8.453867e-11,-3.311329e-11,2.02527e-05,-2.923601e-09,3.158741e-12,3.507870575612012e-05
PART_003_R247G182B210A255,12036,-2.24636e-11,6.887066e-11,-2.97757e-11,1.894453e-05,-1.414376e-09,1.037216e-11,3.2812888577104336e-05
PART_003_R247G182B210A255,12037,-1.835038e-11,5.069206e-11,-3.332085e-11,1.796616e-05,-7.889327e-09,1.415925e-11,3.111830493725305e-05
PART_003_R247G182B210A255,12038,-8.169386e-12,3.869788e-11,-4.153829e-11,1.729152e-05,-8.597081e-10,1.659895e-11,2.9949791217205412e-05
PART_003_R247G182B210A255,12039,-6.026425e-13,3.348537e-11,-4.90097e-11,1.690036e-05,-3.596216e-09,8.087851e-12,2.9272282849010256e-05
PART_003_R247G182B210A255,12040,2.440416e-12,3.233694e-11,-5.117791e-11,1.677114e-05,-5.007492e-10,1.124217e-12,2.90484665938914e-05
PART_002_R214G39B40A255,12041,-5.628654e-13,3.388663e-11,-4.964982e-11,1.690013e-05,2.690101e-09,-1.142066e-11,2.9271884185448478e-05
PART_002_R214G39B40A255,12042,-9.705898e-12,3.956162e-11,-4.048177e-11,1.729109e-05,1.291924e-11,-1.474733e-11,2.994904639834704e-05
PART_002_R214G39B40A255,12043,-1.803215e-11,5.060798e-11,-3.473252e-11,1.796559e-05,7.272113e-09,-1.636333e-11,3.111731721730076e-05
PART_002_R214G39B40A255,12044,-2.31166e-11,6.42558e-11,-2.829615e-11,1.894387e-05,9.587182e-10,-9.155029e-12,3.281174537412612e-05
PART_002_R214G39B40A255,12045,-1.356443e-11,7.408386e-11,-3.407692e-11,2.025207e-05,2.793111e-09,-3.11865e-12,3.5077614532191854e-05
PART_003_R247G182B210A255,12046,-2.635479e-05,8.700657e-06,8.69336e-06,1.962273e-05,-5.188921e-10,2.57212e-08,4.882402279130729e-05
PART_003_R247G182B210A255,12047,-2.63548e-05,8.697341e-06,8.698196e-06,1.832433e-05,-7.288358e-09,6.63957e-08,4.7286775671106855e-05
PART_003_R247G182B210A255,12048,-2.635482e-05,8.696447e-06,8.696863e-06,1.735728e-05,-7.497708e-10,8.706588e-08,4.6178503114430485e-05
PART_003_R247G182B210A255,12049,-2.635482e-05,8.697215e-06,8.696323e-06,1.669912e-05,-5.905285e-09,7.929197e-08,4.544463317721423e-05
PART_003_R247G182B210A255,12050,-2.635484e-05,8.695963e-06,8.697213e-06,1.631672e-05,-3.206016e-10,4.664073e-08,4.5025716952289614e-05
PART_001_R158G218B229A255,12051,-2.635487e-05,8.697646e-06,8.695255e-06,1.619264e-05,-4.808818e-10,-1.096262e-10,4.4890977315268785e-05
PART_001_R158G218B229A255,12052,-2.63549e-05,8.695988e-06,8.697235e-06,1.631649e-05,-5.454475e-10,-4.687076e-08,4.502553263269805e-05
PART_002_R214G39B40A255,12053,-2.635495e-05,8.697261e-06,8.696373e-06,1.669871e-05,5.097198e-09,-7.947809e-08,4.544431917908607e-05
PART_002_R214G39B40A255,12054,-2.635497e-05,8.696512e-06,8.696909e-06,1.735677e-05,1.771265e-10,-8.722768e-08,4.61780849168692e-05
PART_002_R214G39B40A255,12055,-2.635499e-05,8.697423e-06,8.698265e-06,1.832385e-05,6.888066e-09,-6.649505e-08,4.728641470382547e-05
PART_002_R214G39B40A255,12056,-2.635496e-05,8.700724e-06,8.693416e-06,1.96224e-05,4.283722e-10,-2.575782e-08,4.882379116171162e-05
PART_003_R247G182B210A255,12057,-5.270965e-05,1.739644e-05,1.739749e-05,1.772573e-05,-3.729505e-09,5.841022e-08,7.65346474263312e-05
PART_003_R247G182B210A255,12058,-5.270964e-05,1.739614e-05,1.739073e-05,1.645318e-05,1.265976e-10,1.613294e-07,7.567457052615425e-05
PART_003_R247G182B210A255,12059,-5.27096e-05,1.739407e-05,1.739425e-05,1.553604e-05,-7.23652e-09,2.067147e-07,7.509175142990043e-05
PART_003_R247G182B210A255,12060,-5.270961e-05,1.739142e-05,1.739478e-05,1.492214e-05,7.58723e-10,1.866895e-07,7.471616495100183e-05
PART_001_R158G218B229A255,12061,-5.270963e-05,1.739513e-05,1.73905e-05,1.457611e-05,-1.424397e-09,1.1025e-07,7.451025587478694e-05
PART_001_R158G218B229A255,12062,-5.270969e-05,1.739389e-05,1.739242e-05,1.446385e-05,-4.227558e-10,-2.105776e-10,7.44447294967978e-05
PART_001_R158G218B229A255,12063,-5.270975e-05,1.739518e-05,1.739054e-05,1.457592e-05,6.722224e-10,-1.106576e-07,7.45103013895895e-05
PART_001_R158G218B229A255,12064,-5.270984e-05,1.73915e-05,1.739487e-05,1.492179e-05,-1.460927e-09,-1.870457e-07,7.471625350461028e-05
PART_002_R214G39B40A255,12065,-5.270988e-05,1.739416e-05,1.739435e-05,1.553556e-05,6.746478e-09,-2.069962e-07,7.509180578792497e-05
PART_002_R214G39B40A255,12066,-5.270991e-05,1.739619e-05,1.739085e-05,1.645263e-05,-4.859348e-10,-1.615096e-07,7.567454180676203e-05
PART_002_R214G39B40A255,12067,-5.270985e-05,1.739637e-05,1.73976e-05,1.772519e-05,3.632647e-09,-5.84783e-08,7.653447390021888e-05
PART_003_R247G182B210A255,12068,-7.906434e-05,2.610315e-05,2.60775e-05,1.452044e-05,9.19455e-10,1.261806e-07,0.00010812067963739656
PART_003_R247G182B210A255,12069,-7.906442e-05,2.609127e-05,2.609474e-05,1.331934e-05,-9.339918e-09,3.182767e-07,0.00010765966123689779
PART_003_R247G182B210A255,12070,-7.90644e-05,2.608646e-05,2.609251e-05,1.249399e-05,3.509595e-09,4.058784e-07,0.00010735983031461969
PART_001_R158G218B229A255,12071,-7.906447e-05,2.609279e-05,2.608576e-05,1.198356e-05,7.33399e-10,3.621801e-07,0.00010718451744678255
PART_001_R158G218B229A255,12072,-7.906447e-05,2.609276e-05,2.608668e-05,1.170208e-05,5.172705e-10,2.067099e-07,0.00010709037267192174
PART_001_R158G218B229A255,12073,-7.906457e-05,2.609318e-05,2.608484e-05,1.161087e-05,-3.320491e-10,-2.848474e-10,0.00010705938700566141
PART_001_R158G218B229A255,12074,-7.906462e-05,2.609281e-05,2.608674e-05,1.170193e-05,-1.098209e-09,-2.072166e-07,0.00010709052774358961
PART_001_R158G218B229A255,12075,-7.906475e-05,2.609289e-05,2.608586e-05,1.198328e-05,-1.269678e-09,-3.626583e-07,0.00010718480119970566
PART_001_R158G218B229A255,12076,-7.906478e-05,2.608661e-05,2.609266e-05,1.249364e-05,-3.854725e-09,-4.062258e-07,0.00010736023121049699
PART_002_R214G39B40A255,12077,-7.906484e-05,2.609146e-05,2.609487e-05,1.331902e-05,9.113239e-09,-3.185216e-07,0.00010766011110325252
PART_002_R214G39B40A255,12078,-7.906473e-05,2.610332e-05,2.607765e-05,1.452022e-05,-9.46204e-10,-1.26253e-07,0.00010812112617152595
PART_003_R247G182B210A255,12079,-0.0001054193,3.479142e-05,3.480085e-05,9.932805e-06,-8.691001e-09,2.312533e-07,0.0001412675149682465
PART_003_R247G182B210A255,12080,-0.0001054194,3.478345e-05,3.478732e-05,8.856263e-06,8.384414e-09,6.333485e-07,0.00014104568597786662
PART_001_R158G218B229A255,12081,-0.0001054192,3.479055e-05,3.477914e-05,8.266864e-06,5.950046e-09,7.742564e-07,0.00014093968915218508
PART_001_R158G218B229A255,12082,-0.0001054193,3.479308e-05,3.477954e-05,7.925073e-06,1.615089e-09,6.40573e-07,0.000140880320017621
PART_001_R158G218B229A255,12083,-0.0001054193,3.479074e-05,3.477919e-05,7.73664e-06,1.306525e-09,3.578812e-07,0.00014084454927930956
PART_001_R158G218B229A255,12084,-0.0001054194,3.479419e-05,3.477878e-05,7.679084e-06,-2.173373e-10,-3.183202e-10,0.00014083534840521095
PART_001_R158G218B229A255,12085,-0.0001054195,3.479081e-05,3.477926e-05,7.736539e-06,-1.669791e-09,-3.583809e-07,0.0001408448052314558
PART_001_R158G218B229A255,12086,-0.0001054196,3.479319e-05,3.477961e-05,7.924891e-06,-1.956556e-09,-6.411053e-07,0.00014088068471546886
PART_001_R158G218B229A255,12087,-0.0001054196,3.479068e-05,3.47793e-05,8.266623e-06,-6.147355e-09,-7.74593e-07,0.00014094019447264024
PART_001_R158G218B229A255,12088,-0.0001054197,3.478351e-05,3.478742e-05,8.856e-06,-8.519111e-09,-6.335983e-07,0.00014104601756266053
PART_002_R214G39B40A255,12089,-0.0001054196,3.479133e-05,3.4801e-05,9.932531e-06,8.666715e-09,-2.313328e-07,0.00014126778511321575
PART_003_R247G182B210A255,12090,-0.0001317741,4.351133e-05,4.344531e-05,3.648034e-06,1.337526e-08,6.234984e-07,0.0001753696245890072
PART_001_R158G218B229A255,12091,-0.0001317743,4.348644e-05,4.346733e-05,3.134984e-06,8.197468e-09,1.347913e-06,0.00017535082920192086
PART_001_R158G218B229A255,12092,-0.0001317742,4.3499e-05,4.34664e-05,2.938787e-06,1.593373e-09,1.37246e-06,0.00017534691941618313
PART_001_R158G218B229A255,12093,-0.0001317743,4.348776e-05,4.347362e-05,2.809247e-06,1.860836e-09,1.070099e-06,0.0001753323205286845
PART_001_R158G218B229A255,12094,-0.0001317742,4.349528e-05,4.3471e-05,2.74723e-06,2.163308e-10,5.774748e-07,0.00017532477838459515
PART_001_R158G218B229A255,12095,-0.0001317743,4.348822e-05,4.347465e-05,2.724431e-06,-8.148441e-11,-2.908781e-10,0.00017531925268376528
PART_001_R158G218B229A255,12096,-0.0001317744,4.349534e-05,4.347104e-05,2.747195e-06,-3.308316e-10,-5.778487e-07,0.00017532503034155822
PART_001_R158G218B229A255,12097,-0.0001317745,4.348787e-05,4.347359e-05,2.809179e-06,-1.988086e-09,-1.070594e-06,0.00017533256623243097
PART_001_R158G218B229A255,12098,-0.0001317745,4.349915e-05,4.346651e-05,2.938713e-06,-1.635413e-09,-1.372714e-06,0.00017534735144634014
PART_001_R158G218B229A255,12099,-0.0001317746,4.348663e-05,4.346731e-05,3.134911e-06,-8.238093e-09,-1.348169e-06,0.00017535121599493306
PART_001_R158G218B229A255,12100,-0.0001317744,4.351156e-05,4.344546e-05,3.647996e-06,-1.333128e-08,-6.235399e-07,0.00017537011234532924
PART_003_R247G182B210A255,12101,0.0001272303,-4.201123e-05,-4.194739e-05,3.648082e-06,1.283027e-08,-6.234268e-07,0.00016933099880594762
PART_000_R31G119B180A255,12102,0.0001272302,-4.198698e-05,-4.196825e-05,3.134994e-06,7.926231e-09,-1.347865e-06,0.0001693110152676845
PART_000_R31G119B180A255,12103,0.0001272302,-4.199898e-05,-4.196775e-05,2.938803e-06,1.48392e-09,-1.372241e-06,0.00016930679296296597
PART_000_R31G119B180A255,12104,0.0001272302,-4.19881e-05,-4.197445e-05,2.809242e-06,1.798939e-09,-1.069988e-06,0.00016929156377661048
PART_000_R31G119B180A255,12105,0.0001272303,-4.199537e-05,-4.197224e-05,2.747231e-06,1.509354e-10,-5.772269e-07,0.00016928394826282669
PART_000_R31G119B180A255,12106,0.0001272304,-4.198857e-05,-4.197555e-05,2.724418e-06,-8.891245e-11,3.559175e-10,0.00016927824463619599
PART_000_R31G119B180A255,12107,0.0001272305,-4.199548e-05,-4.197225e-05,2.747176e-06,-3.792332e-10,5.78022e-07,0.0001692842136282404
PART_000_R31G119B180A255,12108,0.0001272306,-4.198829e-05,-4.197454e-05,2.809147e-06,-1.925322e-09,1.070591e-06,0.0001692921102389251
PART_000_R31G119B180A255,12109,0.0001272307,-4.199919e-05,-4.19678e-05,2.938672e-06,-1.624271e-09,1.372799e-06,0.00016930742939122852
PART_000_R31G119B180A255,12110,0.0001272307,-4.198712e-05,-4.196845e-05,3.13486e-06,-7.939546e-09,1.348148e-06,0.0001693116841723559
PART_000_R31G119B180A255,12111,0.0001272307,-4.201118e-05,-4.194746e-05,3.647934e-06,-1.290358e-08,6.235614e-07,0.00016933140041631414
PART_003_R247G182B210A255,12112,0.000101784,-3.359135e-05,-3.360092e-05,9.932604e-06,-8.372268e-09,-2.312375e-07,0.00013646945266468312
PART_003_R247G182B210A255,12113,0.000101784,-3.358378e-05,-3.358765e-05,8.856178e-06,8.125704e-09,-6.332573e-07,0.00013624044428591005
PART_000_R31G119B180A255,12114,0.000101784,-3.359075e-05,-3.357998e-05,8.266839e-06,5.686157e-09,-7.740962e-07,0.00013613113060733525
PART_000_R31G119B180A255,12115,0.000101784,-3.359321e-05,-3.35802e-05,7.925071e-06,1.519433e-09,-6.404331e-07,0.0001360693889925283
PART_000_R31G119B180A255,12116,0.0001017841,-3.359097e-05,-3.358009e-05,7.736624e-06,1.145081e-09,-3.576762e-07,0.00013603266765227972
PART_000_R31G119B180A255,12117,0.0001017843,-3.359431e-05,-3.357955e-05,7.679046e-06,-2.835461e-10,4.330806e-10,0.00013602306171499123
PART_000_R31G119B180A255,12118,0.0001017844,-3.359107e-05,-3.358017e-05,7.736472e-06,-1.741131e-09,3.585399e-07,0.0001360330366587563
PART_000_R31G119B180A255,12119,0.0001017845,-3.359339e-05,-3.358036e-05,7.924793e-06,-1.952611e-09,6.411613e-07,0.00013607001728478161
PART_000_R31G119B180A255,12120,0.0001017846,-3.359099e-05,-3.358018e-05,8.266499e-06,-6.029429e-09,7.746828e-07,0.000136131894136206
PART_000_R31G119B180A255,12121,0.0001017847,-3.358409e-05,-3.358788e-05,8.855853e-06,-8.237284e-09,6.336249e-07,0.00013624134985501052
PART_002_R214G39B40A255,12122,0.0001017847,-3.359166e-05,-3.360115e-05,9.932374e-06,8.33619e-09,2.313531e-07,0.00013647036527994111
PART_003_R247G182B210A255,12123,7.63381e-05,-2.52032e-05,-2.517837e-05,1.452062e-05,8.136245e-10,-1.261449e-07,0.00010459783892072743
PART_003_R247G182B210A255,12124,7.6338e-05,-2.519158e-05,-2.519487e-05,1.331945e-05,-9.058455e-09,-3.182155e-07,0.00010412068446041997
PART_003_R247G182B210A255,12125,7.633797e-05,-2.518684e-05,-2.519286e-05,1.249402e-05,3.281507e-09,-4.057586e-07,0.00010381085598743123
PART_000_R31G119B180A255,12126,7.633801e-05,-2.519293e-05,-2.518625e-05,1.198356e-05,6.254938e-10,-3.620403e-07,0.00010362945501525037
PART_000_R31G119B180A255,12127,7.633809e-05,-2.519292e-05,-2.518728e-05,1.170207e-05,3.371911e-10,-2.065515e-07,0.00010353220130131277
PART_000_R31G119B180A255,12128,7.633821e-05,-2.519334e-05,-2.518541e-05,1.161082e-05,-4.475804e-10,4.121481e-10,0.00010350016419032234
PART_000_R31G119B180A255,12129,7.633834e-05,-2.5193e-05,-2.518738e-05,1.170184e-05,-1.246235e-09,2.073398e-07,0.00010353246147872317
PART_000_R31G119B180A255,12130,7.633846e-05,-2.519309e-05,-2.518641e-05,1.198314e-05,-1.34176e-09,3.627351e-07,0.00010362991425118992
PART_000_R31G119B180A255,12131,7.633856e-05,-2.518704e-05,-2.519308e-05,1.249346e-05,-3.865684e-09,4.062995e-07,0.0001038114426133364
PART_002_R214G39B40A255,12132,7.63386e-05,-2.519172e-05,-2.519509e-05,1.33188e-05,8.751785e-09,3.185604e-07,0.00010412119870671998
PART_002_R214G39B40A255,12133,7.633857e-05,-2.520315e-05,-2.51786e-05,1.451996e-05,-9.717164e-10,1.262758e-07,0.00010459810805557334
PART_003_R247G182B210A255,12134,5.089189e-05,-1.679621e-05,-1.679763e-05,1.772542e-05,-3.610775e-09,-5.839787e-08,7.432601706875157e-05
PART_003_R247G182B210A255,12135,5.089187e-05,-1.679601e-05,-1.679106e-05,1.645304e-05,1.301109e-10,-1.612625e-07,7.34404497599804e-05
PART_003_R247G182B210A255,12136,5.08919e-05,-1.679408e-05,-1.679451e-05,1.553602e-05,-7.100038e-09,-2.066184e-07,7.283991330828981e-05
PART_003_R247G182B210A255,12137,5.089194e-05,-1.679155e-05,-1.679501e-05,1.492216e-05,6.289332e-10,-1.865725e-07,7.245278477535449e-05
PART_000_R31G119B180A255,12138,5.089201e-05,-1.679515e-05,-1.679094e-05,1.45761e-05,-1.578373e-09,-1.101352e-07,7.224050909314469e-05
PART_000_R31G119B180A255,12139,5.089209e-05,-1.679396e-05,-1.679277e-05,1.44638e-05,-5.718555e-10,3.144613e-10,7.217288515929521e-05
PART_000_R31G119B180A255,12140,5.089219e-05,-1.679522e-05,-1.679101e-05,1.457581e-05,4.146397e-10,1.107356e-07,7.224057049428319e-05
PART_000_R31G119B180A255,12141,5.089228e-05,-1.679168e-05,-1.679513e-05,1.492163e-05,-1.566963e-09,1.871049e-07,7.24528958738968e-05
PART_002_R214G39B40A255,12142,5.089235e-05,-1.679425e-05,-1.679467e-05,1.553534e-05,6.325245e-09,2.070384e-07,7.284005305859269e-05
PART_002_R214G39B40A255,12143,5.089239e-05,-1.679621e-05,-1.679124e-05,1.645239e-05,-5.381145e-10,1.615415e-07,7.344066911659076e-05
PART_002_R214G39B40A255,12144,5.089238e-05,-1.679638e-05,-1.679782e-05,1.772494e-05,3.440614e-09,5.849027e-08,7.432628402580696e-05
PART_003_R247G182B210A255,12145,2.544595e-05,-8.400523e-06,-8.393625e-06,1.962309e-05,-5.896882e-10,-2.570322e-08,4.79640414853193e-05
PART_003_R247G182B210A255,12146,2.544593e-05,-8.397282e-06,-8.398323e-06,1.832457e-05,-7.107407e-09,-6.634974e-08,4.639807308292785e-05
PART_003_R247G182B210A255,12147,2.544592e-05,-8.396394e-06,-8.397015e-06,1.735739e-05,-8.808039e-10,-8.699999e-08,4.5267901492070045e-05
PART_003_R247G182B210A255,12148,2.544596e-05,-8.397141e-06,-8.396545e-06,1.669918e-05,-5.827443e-09,-7.920378e-08,4.451900801650903e-05
PART_003_R247G182B210A255,12149,2.5446e-05,-8.395945e-06,-8.397404e-06,1.631675e-05,-5.366932e-10,-4.657353e-08,4.4091293003745874e-05
PART_000_R31G119B180A255,12150,2.544605e-05,-8.397579e-06,-8.395545e-06,1.619263e-05,-6.516689e-10,1.70951e-10,4.395368233035545e-05
PART_000_R31G119B180A255,12151,2.54461e-05,-8.395982e-06,-8.397443e-06,1.631642e-05,-7.90317e-10,4.689283e-08,4.409103359013674e-05
PART_002_R214G39B40A255,12152,2.544614e-05,-8.397211e-06,-8.396608e-06,1.669858e-05,4.739931e-09,7.94949e-08,4.451852139839746e-05
PART_002_R214G39B40A255,12153,2.544616e-05,-8.39648e-06,-8.397106e-06,1.735658e-05,-4.444554e-11,8.722395e-08,4.5267216614251905e-05
PART_002_R214G39B40A255,12154,2.544617e-05,-8.397341e-06,-8.398411e-06,1.832362e-05,6.561884e-09,6.650084e-08,4.639717660032901e-05
PART_002_R214G39B40A255,12155,2.544616e-05,-8.400499e-06,-8.393736e-06,1.962215e-05,3.311292e-10,2.575941e-08,4.796306671892117e-05
PART_003_R247G182B210A255,12156,-7.043142e-11,1.415554e-10,-3.852645e-11,2.025249e-05,-2.846713e-09,7.11332e-12,3.507834200687041e-05
PART_003_R247G182B210A255,12157,-7.763598e-11,1.461243e-10,-3.759936e-11,1.894448e-05,-1.372475e-09,2.172933e-11,3.281280196975553e-05
PART_003_R247G182B210A255,12158,-6.820982e-11,1.523242e-10,-4.916062e-11,1.796624e-05,-7.755804e-09,3.427982e-11,3.111844340127908e-05
PART_003_R247G182B210A255,12159,-5.272243e-11,1.536193e-10,-6.5063e-11,1.729162e-05,-9.593668e-10,3.001787e-11,2.9949964432071243e-05
PART_003_R247G182B210A255,12160,-3.707333e-11,1.516135e-10,-7.831318e-11,1.690043e-05,-3.707295e-09,2.099462e-11,2.9272404134836893e-05
PART_003_R247G182B210A255,12161,-3.138754e-11,1.504726e-10,-8.465575e-11,1.677116e-05,-6.799175e-10,-2.530408e-12,2.904850124652356e-05
PART_002_R214G39B40A255,12162,-3.833115e-11,1.523179e-10,-7.751169e-11,1.690009e-05,2.324732e-09,-1.834593e-11,2.9271814810219718e-05
PART_002_R214G39B40A255,12163,-5.295167e-11,1.547739e-10,-6.663912e-11,1.729099e-05,-1.787598e-10,-3.438953e-11,2.9948873195596086e-05
PART_002_R214G39B40A255,12164,-7.181309e-11,1.552841e-10,-4.721002e-11,1.796544e-05,6.798647e-09,-3.276884e-11,3.1117057089246335e-05
PART_002_R214G39B40A255,12165,-8.023179e-11,1.549631e-10,-3.962911e-11,1.89437e-05,8.374126e-10,-2.455185e-11,3.281145091615126e-05
PART_002_R214G39B40A255,12166,-7.694548e-11,1.577464e-10,-3.692543e-11,2.025193e-05,2.618094e-09,-7.738299e-12,3.507737200511774e-05
PART_003_R247G182B210A255,12167,-2.544606e-05,8.400799e-06,8.393545e-06,1.962318e-05,-5.904582e-10,2.572262e-08,4.796429878163417e-05
PART_003_R247G182B210A255,12168,-2.544605e-05,8.39751e-06,8.39825e-06,1.832465e-05,-7.108872e-09,6.639756e-08,4.6398312131361046e-05
PART_003_R247G182B210A255,12169,-2.5446e-05,8.39657e-06,8.396913e-06,1.735746e-05,-8.825625e-10,8.70721e-08,4.526806989774806e-05
PART_003_R247G182B210A255,12170,-2.5446e-05,8.397282e-06,8.396414e-06,1.669925e-05,-5.827264e-09,7.926583e-08,4.4519121331065216e-05
PART_003_R247G182B210A255,12171,-2.5446e-05,8.396071e-06,8.397243e-06,1.631681e-05,-5.365437e-10,4.661754e-08,4.40913463167874e-05
PART_001_R158G218B229A255,12172,-2.544604e-05,8.397701e-06,8.395372e-06,1.619269e-05,-6.50635e-10,-1.765875e-10,4.395372132025184e-05
PART_001_R158G218B229A255,12173,-2.544611e-05,8.396109e-06,8.397285e-06,1.631648e-05,-7.897996e-10,-4.692963e-08,4.409109609081574e-05
PART_002_R214G39B40A255,12174,-2.544618e-05,8.397354e-06,8.396472e-06,1.669865e-05,4.741686e-09,-7.956659e-08,4.4518633624978694e-05
PART_002_R214G39B40A255,12175,-2.544625e-05,8.396656e-06,8.397011e-06,1.735665e-05,-4.249703e-11,-8.729104e-08,4.5267395084457885e-05
PART_002_R214G39B40A255,12176,-2.544629e-05,8.397558e-06,8.39833e-06,1.83237e-05,6.565228e-09,-6.655259e-08,4.6397408738119275e-05
PART_002_R214G39B40A255,12177,-2.544627e-05,8.40075e-06,8.393664e-06,1.962225e-05,3.320114e-10,-2.577591e-08,4.7963330282820016e-05
PART_003_R247G182B210A255,12178,-5.089195e-05,1.67964e-05,1.679757e-05,1.772558e-05,-3.615998e-09,5.841393e-08,7.432624541343441e-05
PART_003_R247G182B210A255,12179,-5.089194e-05,1.679622e-05,1.679097e-05,1.645317e-05,1.266996e-10,1.613133e-07,7.344065729584144e-05
PART_003_R247G182B210A255,12180,-5.089198e-05,1.679432e-05,1.679443e-05,1.553613e-05,-7.103576e-09,2.066935e-07,7.284013301276298e-05
PART_003_R247G182B210A255,12181,-5.089197e-05,1.67918e-05,1.679485e-05,1.492226e-05,6.307158e-10,1.866438e-07,7.245291716455827e-05
PART_001_R158G218B229A255,12182,-5.089203e-05,1.67954e-05,1.679078e-05,1.457619e-05,-1.578912e-09,1.101795e-07,7.224062469425738e-05
PART_001_R158G218B229A255,12183,-5.089209e-05,1.679421e-05,1.679257e-05,1.44639e-05,-5.687482e-10,-3.15082e-10,7.2172968733078e-05
PART_001_R158G218B229A255,12184,-5.089221e-05,1.679546e-05,1.679086e-05,1.45759e-05,4.137568e-10,-1.107801e-07,7.22406860954556e-05
PART_001_R158G218B229A255,12185,-5.089231e-05,1.679192e-05,1.679498e-05,1.492173e-05,-1.563261e-09,-1.871776e-07,7.245302827399405e-05
PART_002_R214G39B40A255,12186,-5.089244e-05,1.679449e-05,1.679459e-05,1.553546e-05,6.326978e-09,-2.071141e-07,7.284028845773407e-05
PART_002_R214G39B40A255,12187,-5.089247e-05,1.679644e-05,1.679114e-05,1.645252e-05,-5.316488e-10,-1.615944e-07,7.344089049027513e-05
PART_002_R214G39B40A255,12188,-5.089246e-05,1.67966e-05,1.679777e-05,1.77251e-05,3.442172e-09,-5.850786e-08,7.432654879877976e-05
PART_003_R247G182B210A255,12189,-7.633812e-05,2.520332e-05,2.517839e-05,1.452079e-05,8.124839e-10,1.261664e-07,0.0001045979971759185
PART_003_R247G182B210A255,12190,-7.633797e-05,2.519168e-05,2.519471e-05,1.331959e-05,-9.059962e-09,3.182829e-07,0.00010412068029315422
PART_003_R247G182B210A255,12191,-7.633798e-05,2.51869e-05,2.519284e-05,1.249414e-05,3.27882e-09,4.058397e-07,0.00010381092960253401
PART_001_R158G218B229A255,12192,-7.633791e-05,2.519297e-05,2.518602e-05,1.198367e-05,6.293493e-10,3.621355e-07,0.00010362930314258087
PART_001_R158G218B229A255,12193,-7.633802e-05,2.519294e-05,2.518717e-05,1.170217e-05,3.366422e-10,2.065893e-07,0.00010353212266759824
PART_001_R158G218B229A255,12194,-7.633807e-05,2.519336e-05,2.518514e-05,1.161093e-05,-4.434417e-10,-3.965049e-10,0.00010349994127783345
PART_001_R158G218B229A255,12195,-7.633826e-05,2.519303e-05,2.518726e-05,1.170194e-05,-1.248589e-09,-2.074062e-07,0.00010353237321136234
PART_001_R158G218B229A255,12196,-7.633838e-05,2.519313e-05,2.51862e-05,1.198325e-05,-1.338295e-09,-3.628042e-07,0.00010362979149483951
PART_001_R158G218B229A255,12197,-7.633856e-05,2.51871e-05,2.519303e-05,1.249358e-05,-3.865481e-09,-4.064001e-07,0.00010381149200528413
PART_002_R214G39B40A255,12198,-7.633857e-05,2.51918e-05,2.519496e-05,1.331895e-05,8.758935e-09,-3.186141e-07,0.00010412120312688566
PART_002_R214G39B40A255,12199,-7.633858e-05,2.520324e-05,2.51786e-05,1.452014e-05,-9.705134e-10,-1.263006e-07,0.00010459823650906533
PART_003_R247G182B210A255,12200,-0.000101784,3.359137e-05,3.360103e-05,9.932731e-06,-8.376404e-09,2.312602e-07,0.00013646954499709645
PART_003_R247G182B210A255,12201,-0.0001017839,3.358386e-05,3.358744e-05,8.85628e-06,8.121799e-09,6.333435e-07,0.00013624030142724963
PART_001_R158G218B229A255,12202,-0.0001017841,3.359087e-05,3.358002e-05,8.26692e-06,5.687038e-09,7.741883e-07,0.00013613132593292724
PART_001_R158G218B229A255,12203,-0.000101784,3.359336e-05,3.357991e-05,7.925146e-06,1.522444e-09,6.405588e-07,0.00013606933426391974
PART_001_R158G218B229A255,12204,-0.0001017841,3.359113e-05,3.358001e-05,7.736692e-06,1.147035e-09,3.577101e-07,0.000136032719341533
PART_001_R158G218B229A255,12205,-0.0001017841,3.359447e-05,3.357922e-05,7.679115e-06,-2.815802e-10,-4.006263e-10,0.00013602278980701704
PART_001_R158G218B229A255,12206,-0.0001017844,3.359122e-05,3.358008e-05,7.736542e-06,-1.742779e-09,-3.586323e-07,0.000136033079201061
PART_001_R158G218B229A255,12207,-0.0001017845,3.359354e-05,3.35801e-05,7.924868e-06,-1.952503e-09,-6.412326e-07,0.00013606997670922335
PART_001_R158G218B229A255,12208,-0.0001017847,3.359112e-05,3.358018e-05,8.266584e-06,-6.030415e-09,-7.748153e-07,0.00013613207596785344
PART_001_R158G218B229A255,12209,-0.0001017847,3.358419e-05,3.358772e-05,8.855958e-06,-8.23355e-09,-6.336856e-07,0.00013624134136326228
PART_002_R214G39B40A255,12210,-0.0001017847,3.359172e-05,3.36012e-05,9.932507e-06,8.33809e-09,-2.313852e-07,0.0001364704490436194
PART_003_R247G182B210A255,12211,-0.0001272304,4.201126e-05,4.194755e-05,3.648138e-06,1.283409e-08,6.234634e-07,0.00016933119765399774
PART_001_R158G218B229A255,12212,-0.0001272301,4.1987e-05,4.196804e-05,3.135026e-06,7.925728e-09,1.347987e-06,0.00016931082509705523
PART_001_R158G218B229A255,12213,-0.0001272302,4.199897e-05,4.196782e-05,2.938835e-06,1.487585e-09,1.372363e-06,0.00016930682756843447
PART_001_R158G218B229A255,12214,-0.00012723,4.198808e-05,4.197413e-05,2.809267e-06,1.798201e-09,1.070144e-06,0.00016929119817269756
PART_001_R158G218B229A255,12215,-0.0001272302,4.199535e-05,4.197216e-05,2.747257e-06,1.545852e-10,5.77269e-07,0.00016928380002738898
PART_001_R158G218B229A255,12216,-0.0001272302,4.198855e-05,4.197517e-05,2.724442e-06,-9.079611e-11,-3.167802e-10,0.00016927784597126633
PART_001_R158G218B229A255,12217,-0.0001272304,4.199545e-05,4.197215e-05,2.747202e-06,-3.776325e-10,-5.781347e-07,0.00016928405112388986
PART_001_R158G218B229A255,12218,-0.0001272305,4.198827e-05,4.197426e-05,2.809174e-06,-1.928161e-09,-1.070681e-06,0.0001692918634249054
PART_001_R158G218B229A255,12219,-0.0001272307,4.199919e-05,4.196782e-05,2.938703e-06,-1.623101e-09,-1.372969e-06,0.00016930744513261837
PART_001_R158G218B229A255,12220,-0.0001272307,4.198712e-05,4.196829e-05,3.134895e-06,-7.940711e-09,-1.348236e-06,0.00016931160828086638
PART_001_R158G218B229A255,12221,-0.0001272307,4.201117e-05,4.194757e-05,3.647987e-06,-1.290158e-08,-6.236092e-07,0.00016933145429965656
PART_003_R247G182B210A255,12222,0.000122686,-4.051033e-05,-4.044912e-05,3.648003e-06,1.249377e-08,-6.234425e-07,0.00016329160086291336
PART_000_R31G119B180A255,12223,0.000122686,-4.048715e-05,-4.046942e-05,3.134984e-06,7.615127e-09,-1.347716e-06,0.00016327130090308927
PART_000_R31G119B180A255,12224,0.000122686,-4.049883e-05,-4.046881e-05,2.938802e-06,1.470968e-09,-1.372179e-06,0.00016326649729333226
PART_000_R31G119B180A255,12225,0.0001226861,-4.048837e-05,-4.047538e-05,2.809263e-06,1.664026e-09,-1.069759e-06,0.00016325102520114965
PART_000_R31G119B180A255,12226,0.0001226862,-4.049539e-05,-4.04732e-05,2.747234e-06,1.424505e-10,-5.771073e-07,0.00016324292281860917
PART_000_R31G119B180A255,12227,0.0001226864,-4.048887e-05,-4.047642e-05,2.724418e-06,-1.731525e-10,6.27306e-10,0.00016323726512059236
PART_000_R31G119B180A255,12228,0.0001226866,-4.049556e-05,-4.047328e-05,2.747156e-06,-3.801849e-10,5.781691e-07,0.00016324345492963084
PART_000_R31G119B180A255,12229,0.0001226868,-4.048867e-05,-4.047545e-05,2.809115e-06,-1.938488e-09,1.070835e-06,0.00016325192329675768
PART_000_R31G119B180A255,12230,0.000122687,-4.049923e-05,-4.046906e-05,2.938627e-06,-1.562685e-09,1.372914e-06,0.00016326783061919526
PART_000_R31G119B180A255,12231,0.000122687,-4.048763e-05,-4.04696e-05,3.134806e-06,-7.706968e-09,1.34828e-06,0.00016327263378527055
PART_000_R31G119B180A255,12232,0.000122687,-4.051088e-05,-4.04495e-05,3.647882e-06,-1.240177e-08,6.235812e-07,0.00016329305823988002
PART_003_R247G182B210A255,12233,9.814894e-05,-3.239202e-05,-3.240087e-05,9.932829e-06,-8.111077e-09,-2.311935e-07,0.00013167475622928587
PART_003_R247G182B210A255,12234,9.814878e-05,-3.238452e-05,-3.238802e-05,8.856309e-06,7.741391e-09,-6.332004e-07,0.00013143783672530345
PART_000_R31G119B180A255,12235,9.814872e-05,-3.239112e-05,-3.238064e-05,8.266912e-06,5.44905e-09,-7.739918e-07,0.00013132442522461644
PART_000_R31G119B180A255,12236,9.814879e-05,-3.239349e-05,-3.238085e-05,7.925112e-06,1.335596e-09,-6.402587e-07,0.00013126038615114102
PART_000_R31G119B180A255,12237,9.814893e-05,-3.239136e-05,-3.238077e-05,7.736648e-06,1.022203e-09,-3.575016e-07,0.00013122246604871255
PART_000_R31G119B180A255,12238,9.814913e-05,-3.239461e-05,-3.238026e-05,7.679041e-06,-4.510138e-10,6.699262e-10,0.00013121241545843438
PART_000_R31G119B180A255,12239,9.814935e-05,-3.239151e-05,-3.238091e-05,7.736426e-06,-1.78667e-09,3.587451e-07,0.00013122299902936573
PART_000_R31G119B180A255,12240,9.814956e-05,-3.239377e-05,-3.23811e-05,7.924708e-06,-2.050949e-09,6.413875e-07,0.00013126135882687308
PART_000_R31G119B180A255,12241,9.814975e-05,-3.239146e-05,-3.238099e-05,8.266373e-06,-5.876516e-09,7.748444e-07,0.000131325705306595
PART_000_R31G119B180A255,12242,9.814982e-05,-3.238478e-05,-3.238839e-05,8.855702e-06,-8.035281e-09,6.337466e-07,0.00013143906767697634
PART_002_R214G39B40A255,12243,9.814981e-05,-3.239202e-05,-3.240124e-05,9.93219e-06,8.051098e-09,2.31396e-07,0.0001316756586533942
PART_003_R247G182B210A255,12244,7.361137e-05,-2.430266e-05,-2.427908e-05,1.452035e-05,8.627005e-10,-1.261411e-07,0.00010108124674419822
PART_003_R247G182B210A255,12245,7.361135e-05,-2.42916e-05,-2.4295e-05,1.331936e-05,-8.775807e-09,-3.181429e-07,0.00010058747649921498
PART_003_R247G182B210A255,12246,7.361139e-05,-2.428713e-05,-2.429306e-05,1.249406e-05,3.120222e-09,-4.056531e-07,0.00010026713863449816
PART_000_R31G119B180A255,12247,7.361147e-05,-2.429303e-05,-2.428669e-05,1.198363e-05,4.305719e-10,-3.619033e-07,0.00010007939614325283
PART_000_R31G119B180A255,12248,7.36116e-05,-2.429303e-05,-2.42877e-05,1.170211e-05,1.764533e-10,-2.063776e-07,9.997870114558877e-05
PART_000_R31G119B180A255,12249,7.361177e-05,-2.429345e-05,-2.428593e-05,1.161081e-05,-6.822801e-10,6.041588e-10,9.994562842668128e-05
PART_000_R31G119B180A255,12250,7.361197e-05,-2.429315e-05,-2.428784e-05,1.170177e-05,-1.388515e-09,2.075415e-07,9.997907863062446e-05
PART_000_R31G119B180A255,12251,7.361217e-05,-2.429327e-05,-2.428695e-05,1.198301e-05,-1.540774e-09,3.629241e-07,0.00010008011387865491
PART_000_R31G119B180A255,12252,7.361233e-05,-2.428748e-05,-2.429338e-05,1.249327e-05,-3.856059e-09,4.064594e-07,0.00010026809811671366
PART_002_R214G39B40A255,12253,7.361243e-05,-2.429203e-05,-2.429536e-05,1.331858e-05,8.295914e-09,3.186721e-07,0.00010058860722104678
PART_002_R214G39B40A255,12254,7.361242e-05,-2.430305e-05,-2.427946e-05,1.451975e-05,-9.28001e-10,1.263128e-07,0.00010108237869882708
PART_003_R247G182B210A255,12255,4.90743e-05,-1.619651e-05,-1.619767e-05,1.772589e-05,-3.518299e-09,-5.836889e-08,7.213172769547977e-05
PART_003_R247G182B210A255,12256,4.907423e-05,-1.619621e-05,-1.619135e-05,1.645334e-05,-3.344483e-11,-1.612196e-07,7.12188761061506e-05
PART_003_R247G182B210A255,12257,4.907421e-05,-1.619429e-05,-1.619466e-05,1.553618e-05,-6.946061e-09,-2.065379e-07,7.059920698679837e-05
PART_003_R247G182B210A255,12258,4.907427e-05,-1.619187e-05,-1.619516e-05,1.492226e-05,3.809356e-10,-1.864646e-07,7.019978351123026e-05
PART_000_R31G119B180A255,12259,4.907438e-05,-1.619536e-05,-1.619123e-05,1.457617e-05,-1.711099e-09,-1.100025e-07,6.998071104767798e-05
PART_000_R31G119B180A255,12260,4.907451e-05,-1.619423e-05,-1.619304e-05,1.446381e-05,-8.654316e-10,4.559827e-10,6.991091584882917e-05
PART_000_R31G119B180A255,12261,4.907465e-05,-1.619546e-05,-1.619134e-05,1.457575e-05,1.595718e-10,1.108843e-07,6.998080246597025e-05
PART_000_R31G119B180A255,12262,4.90748e-05,-1.619206e-05,-1.619536e-05,1.492148e-05,-1.825984e-09,1.8724e-07,7.019996644168893e-05
PART_002_R214G39B40A255,12263,4.90749e-05,-1.619453e-05,-1.619491e-05,1.553513e-05,5.921733e-09,2.071533e-07,7.059938335476641e-05
PART_002_R214G39B40A255,12264,4.907495e-05,-1.619639e-05,-1.619163e-05,1.645211e-05,-7.172331e-10,1.616187e-07,7.121889700203829e-05
PART_002_R214G39B40A255,12265,4.907492e-05,-1.619648e-05,-1.619796e-05,1.772464e-05,3.30689e-09,5.851994e-08,7.213148520422893e-05
PART_003_R247G182B210A255,12266,2.453696e-05,-8.100277e-06,-8.093855e-06,1.962277e-05,-5.032211e-10,-2.56969e-08,4.711837192720735e-05
PART_003_R247G182B210A255,12267,2.453695e-05,-8.097188e-06,-8.098344e-06,1.832448e-05,-6.936701e-09,-6.631253e-08,4.552359528445085e-05
PART_003_R247G182B210A255,12268,2.4537e-05,-8.096359e-06,-8.097131e-06,1.735748e-05,-9.325652e-10,-8.69392e-08,4.437150354569627e-05
PART_003_R247G182B210A255,12269,2.453705e-05,-8.097081e-06,-8.096649e-06,1.669931e-05,-5.86952e-09,-7.914035e-08,4.360724899296311e-05
PART_003_R247G182B210A255,12270,2.453712e-05,-8.09593e-06,-8.09752e-06,1.631683e-05,-7.344058e-10,-4.649192e-08,4.31704893560489e-05
PART_000_R31G119B180A255,12271,2.453719e-05,-8.097514e-06,-8.095711e-06,1.619264e-05,-9.82317e-10,2.41105e-10,4.3029871503702494e-05
PART_000_R31G119B180A255,12272,2.453727e-05,-8.095984e-06,-8.097573e-06,1.631636e-05,-1.03775e-09,4.696992e-08,4.317011183786501e-05
PART_002_R214G39B40A255,12273,2.453733e-05,-8.097183e-06,-8.096755e-06,1.669842e-05,4.209656e-09,7.955114e-08,4.3606515581541554e-05
PART_002_R214G39B40A255,12274,2.453737e-05,-8.096499e-06,-8.097252e-06,1.735635e-05,-2.540631e-10,8.727726e-08,4.4370547527622535e-05
PART_002_R214G39B40A255,12275,2.453739e-05,-8.097351e-06,-8.0985e-06,1.832335e-05,6.101467e-09,6.653107e-08,4.552266111812573e-05
PART_002_R214G39B40A255,12276,2.453738e-05,-8.100396e-06,-8.094011e-06,1.96219e-05,3.10509e-10,2.577171e-08,4.711767123338119e-05
PART_003_R247G182B210A255,12277,-1.640014e-10,2.472778e-10,-4.10695e-11,2.02531e-05,-2.77842e-09,1.80963e-11,3.5079398542784895e-05
PART_003_R247G182B210A255,12278,-1.447949e-10,2.062917e-10,-4.61367e-11,1.89449e-05,-1.509906e-09,4.840326e-11,3.2813529450134355e-05
PART_003_R247G182B210A255,12279,-1.06095e-10,1.660074e-10,-6.781827e-11,1.796648e-05,-7.603339e-09,6.022496e-11,3.111885898100158e-05
PART_003_R247G182B210A255,12280,-6.14939e-11,1.391615e-10,-9.636777e-11,1.729179e-05,-1.188782e-09,5.961098e-11,2.995025890557617e-05
PART_003_R247G182B210A255,12281,-3.03075e-11,1.262272e-10,-1.198165e-10,1.690055e-05,-3.801398e-09,3.101189e-11,2.9272612017187526e-05
PART_003_R247G182B210A255,12282,-1.888663e-11,1.229297e-10,-1.266987e-10,1.677121e-05,-1.021132e-09,1.655895e-12,2.9048587879059886e-05
PART_002_R214G39B40A255,12283,-3.056021e-11,1.271163e-10,-1.209799e-10,1.690006e-05,1.952886e-09,-3.816457e-11,2.9271762767277198e-05
PART_002_R214G39B40A255,12284,-6.502762e-11,1.411115e-10,-9.419951e-11,1.729087e-05,-5.460352e-10,-5.694974e-11,2.994866536298823e-05
PART_002_R214G39B40A255,12285,-1.068976e-10,1.671967e-10,-7.032196e-11,1.796524e-05,6.332448e-09,-6.516445e-11,3.111671038448108e-05
PART_002_R214G39B40A255,12286,-1.485903e-10,2.01214e-10,-4.273291e-11,1.894344e-05,5.652661e-10,-4.64266e-11,3.281100056630981e-05
PART_002_R214G39B40A255,12287,-1.628704e-10,2.329813e-10,-4.26135e-11,2.025164e-05,2.505905e-09,-1.769796e-11,3.507686968690302e-05
PART_003_R247G182B210A255,12288,-2.453725e-05,8.10071e-06,8.093778e-06,1.962293e-05,-5.055758e-10,2.572652e-08,4.711889606472672e-05
PART_003_R247G182B210A255,12289,-2.453722e-05,8.09762e-06,8.098246e-06,1.832461e-05,-6.940385e-09,6.640734e-08,4.552406595301947e-05
PART_003_R247G182B210A255,12290,-2.453722e-05,8.096795e-06,8.096996e-06,1.73576e-05,-9.330847e-10,8.706109e-08,4.4371917575080735e-05
PART_003_R247G182B210A255,12291,-2.45372e-05,8.097513e-06,8.096448e-06,1.669942e-05,-5.869539e-09,7.926312e-08,4.3607574732464654e-05
PART_003_R247G182B210A255,12292,-2.453721e-05,8.096353e-06,8.097277e-06,1.631694e-05,-7.327097e-10,4.655498e-08,4.317075034025741e-05
PART_001_R158G218B229A255,12293,-2.453726e-05,8.097933e-06,8.09545e-06,1.619274e-05,-9.81563e-10,-2.361188e-10,4.303009742388196e-05
PART_001_R158G218B229A255,12294,-2.453736e-05,8.096409e-06,8.097326e-06,1.631646e-05,-1.036289e-09,-4.704908e-08,4.317036078163691e-05
PART_002_R214G39B40A255,12295,-2.453748e-05,8.097618e-06,8.096562e-06,1.669853e-05,4.210651e-09,-7.966588e-08,4.360684539782723e-05
PART_002_R214G39B40A255,12296,-2.453759e-05,8.096943e-06,8.097108e-06,1.735647e-05,-2.509746e-10,-8.741111e-08,4.4370961266704355e-05
PART_002_R214G39B40A255,12297,-2.453768e-05,8.097804e-06,8.098414e-06,1.832349e-05,6.104324e-09,-6.662391e-08,4.5523170026881495e-05
PART_002_R214G39B40A255,12298,-2.453768e-05,8.10087e-06,8.093922e-06,1.962207e-05,3.131707e-10,-2.580722e-08,4.711822485321942e-05
PART_003_R247G182B210A255,12299,-4.907447e-05,1.619686e-05,1.619757e-05,1.772617e-05,-3.516301e-09,5.840871e-08,7.213220115558189e-05
PART_003_R247G182B210A255,12300,-4.90744e-05,1.619649e-05,1.619127e-05,1.645358e-05,-3.802555e-11,1.613249e-07,7.121929061861202e-05
PART_003_R247G182B210A255,12301,-4.907429e-05,1.619451e-05,1.61945e-05,1.553639e-05,-6.945147e-09,2.066752e-07,7.059944852524336e-05
PART_003_R247G182B210A255,12302,-4.907428e-05,1.619204e-05,1.619497e-05,1.492245e-05,3.804088e-10,1.865942e-07,7.019990569703745e-05
PART_001_R158G218B229A255,12303,-4.90743e-05,1.619551e-05,1.619095e-05,1.457635e-05,-1.705968e-09,1.100776e-07,6.998068866357809e-05
PART_001_R158G218B229A255,12304,-4.907443e-05,1.619438e-05,1.619278e-05,1.446399e-05,-8.661007e-10,-4.559754e-10,6.99109015412799e-05
PART_001_R158G218B229A255,12305,-4.907458e-05,1.619561e-05,1.619105e-05,1.457593e-05,1.63614e-10,-1.109622e-07,6.998078475815911e-05
PART_001_R158G218B229A255,12306,-4.907481e-05,1.619223e-05,1.619517e-05,1.492167e-05,-1.827012e-09,-1.873698e-07,7.020008862679075e-05
PART_002_R214G39B40A255,12307,-4.907498e-05,1.619475e-05,1.619474e-05,1.553534e-05,5.928233e-09,-2.072926e-07,7.059962028524222e-05
PART_002_R214G39B40A255,12308,-4.907512e-05,1.619666e-05,1.619155e-05,1.645235e-05,-7.137856e-10,-1.617228e-07,7.121930691584122e-05
PART_002_R214G39B40A255,12309,-4.907508e-05,1.61968e-05,1.619785e-05,1.772492e-05,3.311665e-09,-5.855796e-08,7.213193150287544e-05
PART_003_R247G182B210A255,12310,-7.361136e-05,2.430284e-05,2.427889e-05,1.452066e-05,8.56938e-10,1.26183e-07,0.00010108136603405592
PART_003_R247G182B210A255,12311,-7.361146e-05,2.429181e-05,2.429501e-05,1.33196e-05,-8.784054e-09,3.182528e-07,0.00010058778701159419
PART_003_R247G182B210A255,12312,-7.361138e-05,2.428738e-05,2.42928e-05,1.249428e-05,3.123131e-09,4.058211e-07,0.00010026720824828951
PART_001_R158G218B229A255,12313,-7.361147e-05,2.429329e-05,2.428656e-05,1.198382e-05,4.308244e-10,3.620357e-07,0.00010007952943731276
PART_001_R158G218B229A255,12314,-7.361146e-05,2.429329e-05,2.428732e-05,1.170229e-05,1.842828e-10,2.064842e-07,9.997856919287569e-05
PART_001_R158G218B229A255,12315,-7.361168e-05,2.429371e-05,2.42857e-05,1.1611e-05,-6.840575e-10,-6.248395e-10,9.994562120780169e-05
PART_001_R158G218B229A255,12316,-7.361184e-05,2.429342e-05,2.428747e-05,1.170196e-05,-1.384004e-09,-2.076062e-07,9.997896951382894e-05
PART_001_R158G218B229A255,12317,-7.361215e-05,2.429353e-05,2.428679e-05,1.19832e-05,-1.544712e-09,-3.630916e-07,0.0001000802133181938
PART_001_R158G218B229A255,12318,-7.361233e-05,2.428773e-05,2.429315e-05,1.249349e-05,-3.84995e-09,-4.065997e-07,0.0001002681918020863
PART_002_R214G39B40A255,12319,-7.361253e-05,2.429227e-05,2.429534e-05,1.331884e-05,8.299005e-09,-3.188011e-07,0.00010058891611943252
PART_002_R214G39B40A255,12320,-7.361244e-05,2.430328e-05,2.42793e-05,1.452006e-05,-9.215831e-10,-1.263505e-07,0.00010108256576827924
PART_003_R247G182B210A255,12321,-9.81488e-05,3.239211e-05,3.24006e-05,9.933082e-06,-8.109901e-09,2.31252e-07,0.0001316745857478362
PART_003_R247G182B210A255,12322,-9.814883e-05,3.238458e-05,3.238812e-05,8.856499e-06,7.742242e-09,6.333349e-07,0.00013143800618449638
PART_001_R158G218B229A255,12323,-9.814855e-05,3.239113e-05,3.23803e-05,8.267077e-06,5.452337e-09,7.742107e-07,0.00013132412729288022
PART_001_R158G218B229A255,12324,-9.814866e-05,3.239348e-05,3.238076e-05,7.925258e-06,1.340435e-09,6.404043e-07,0.0001312602357267789
PART_001_R158G218B229A255,12325,-9.814861e-05,3.239134e-05,3.238029e-05,7.736792e-06,1.027518e-09,3.576469e-07,0.00013122192572163351
PART_001_R158G218B229A255,12326,-9.814887e-05,3.239459e-05,3.238005e-05,7.679181e-06,-4.504841e-10,-7.123652e-10,0.00013121206698660866
PART_001_R158G218B229A255,12327,-9.814904e-05,3.239148e-05,3.238045e-05,7.736572e-06,-1.786053e-09,-3.588021e-07,0.0001312224732541652
PART_001_R158G218B229A255,12328,-9.81494e-05,3.239376e-05,3.238096e-05,7.924859e-06,-2.054812e-09,-6.41605e-07,0.000131261155671745
PART_001_R158G218B229A255,12329,-9.81496e-05,3.239147e-05,3.23807e-05,8.266541e-06,-5.875559e-09,-7.75003e-07,0.0001313254516011445
PART_001_R158G218B229A255,12330,-9.814982e-05,3.238482e-05,3.238842e-05,8.855896e-06,-8.033552e-09,-6.339156e-07,0.0001314391440936059
PART_002_R214G39B40A255,12331,-9.814968e-05,3.239207e-05,3.240104e-05,9.932443e-06,8.054653e-09,-2.314403e-07,0.0001316755128842692
PART_003_R247G182B210A255,12332,-0.0001226858,4.051032e-05,4.044887e-05,3.64809e-06,1.248491e-08,6.235256e-07,0.00016329127796568837
PART_001_R158G218B229A255,12333,-0.0001226861,4.048723e-05,4.046956e-05,3.135055e-06,7.616371e-09,1.347897e-06,0.00016327151933307575
PART_001_R158G218B229A255,12334,-0.0001226859,4.049898e-05,4.046843e-05,2.938856e-06,1.468769e-09,1.372454e-06,0.00016326629234479878
PART_001_R158G218B229A255,12335,-0.000122686,4.048855e-05,4.047529e-05,2.809316e-06,1.670658e-09,1.06994e-06,0.0001632509765402485
PART_001_R158G218B229A255,12336,-0.0001226859,4.049557e-05,4.047266e-05,2.747283e-06,1.410004e-10,5.772832e-07,0.00016324244744592693
PART_001_R158G218B229A255,12337,-0.0001226862,4.048904e-05,4.047619e-05,2.724467e-06,-1.690972e-10,-6.780847e-10,0.0001632370376940036
PART_001_R158G218B229A255,12338,-0.0001226863,4.049573e-05,4.047276e-05,2.747207e-06,-3.839663e-10,-5.782389e-07,0.0001632429835286465
PART_001_R158G218B229A255,12339,-0.0001226867,4.048884e-05,4.047531e-05,2.809167e-06,-1.937706e-09,-1.071101e-06,0.0001632518462784378
PART_001_R158G218B229A255,12340,-0.0001226869,4.049937e-05,4.046875e-05,2.938686e-06,-1.566195e-09,-1.373117e-06,0.0001632676540989539
PART_001_R158G218B229A255,12341,-0.0001226871,4.048773e-05,4.046966e-05,3.134877e-06,-7.704876e-09,-1.348505e-06,0.00016327282333441627
PART_001_R158G218B229A255,12342,-0.000122687,4.051092e-05,4.044931e-05,3.647975e-06,-1.240221e-08,-6.23648e-07,0.00016329299036087658
PART_003_R247G182B210A255,12343,0.0001181422,-3.90105e-05,-3.895108e-05,3.648113e-06,1.185803e-08,-6.233423e-07,0.00015725370872790963
PART_000_R31G119B180A255,12344,0.0001181419,-3.898785e-05,-3.897038e-05,3.135027e-06,7.356233e-09,-1.347702e-06,0.0001572321463021732
PART_000_R31G119B180A255,12345,0.0001181419,-3.899893e-05,-3.896999e-05,2.938844e-06,1.311843e-09,-1.371926e-06,0.00015722674898112132
PART_000_R31G119B180A255,12346,0.000118142,-3.898884e-05,-3.89762e-05,2.809273e-06,1.617709e-09,-1.069629e-06,0.00015721076068726038
PART_000_R31G119B180A255,12347,0.0001181422,-3.899565e-05,-3.897419e-05,2.747253e-06,2.506858e-11,-5.767491e-07,0.0001572023291831456
PART_000_R31G119B180A255,12348,0.0001181425,-3.898941e-05,-3.89773e-05,2.724411e-06,-1.822019e-10,8.339467e-10,0.0001571966973811691
PART_000_R31G119B180A255,12349,0.0001181428,-3.89959e-05,-3.897426e-05,2.747137e-06,-4.901029e-10,5.785528e-07,0.00015720310264224962
PART_000_R31G119B180A255,12350,0.0001181432,-3.898931e-05,-3.897647e-05,2.80907e-06,-1.880789e-09,1.071051e-06,0.00015721234800892043
PART_000_R31G119B180A255,12351,0.0001181434,-3.899949e-05,-3.897023e-05,2.938562e-06,-1.60295e-09,1.373203e-06,0.00015722866545184375
PART_000_R31G119B180A255,12352,0.0001181436,-3.89883e-05,-3.897094e-05,3.134728e-06,-7.393057e-09,1.348392e-06,0.0001572343496028346
PART_000_R31G119B180A255,12353,0.0001181435,-3.901061e-05,-3.895144e-05,3.647778e-06,-1.200847e-08,6.236527e-07,0.00015725522279398183
PART_003_R247G182B210A255,12354,9.451325e-05,-3.119165e-05,-3.120073e-05,9.932556e-06,-7.768361e-09,-2.311948e-07,0.00012688179895941243
PART_003_R247G182B210A255,12355,9.451322e-05,-3.118469e-05,-3.11884e-05,8.856228e-06,7.524211e-09,-6.330933e-07,0.00012663700819966894
PART_000_R31G119B180A255,12356,9.451328e-05,-3.119122e-05,-3.118127e-05,8.266938e-06,5.145551e-09,-7.738247e-07,0.00012651953977387882
PART_000_R31G119B180A255,12357,9.451338e-05,-3.119354e-05,-3.118149e-05,7.925172e-06,1.224291e-09,-6.400673e-07,0.00012645303171270313
PART_000_R31G119B180A255,12358,9.451359e-05,-3.11915e-05,-3.118142e-05,7.736683e-06,7.693179e-10,-3.572097e-07,0.00012641382137970372
PART_000_R31G119B180A255,12359,9.451388e-05,-3.119466e-05,-3.118098e-05,7.679032e-06,-5.753361e-10,9.506758e-10,0.00012640340234472435
PART_000_R31G119B180A255,12360,9.451421e-05,-3.119172e-05,-3.118162e-05,7.736364e-06,-1.979247e-09,3.590926e-07,0.00012641460416954112
PART_000_R31G119B180A255,12361,9.451457e-05,-3.119395e-05,-3.118189e-05,7.924579e-06,-2.113586e-09,6.416763e-07,0.00012645453023552855
PART_000_R31G119B180A255,12362,9.451486e-05,-3.119179e-05,-3.118178e-05,8.266193e-06,-5.857996e-09,7.751207e-07,0.0001265215239010458
PART_000_R31G119B180A255,12363,9.451508e-05,-3.118543e-05,-3.1189e-05,8.85548e-06,-7.769294e-09,6.339193e-07,0.00012663937499071692
PART_002_R214G39B40A255,12364,9.451509e-05,-3.119244e-05,-3.120134e-05,9.931964e-06,7.687184e-09,2.314594e-07,0.00012688417789172822
PART_003_R247G182B210A255,12365,7.088506e-05,-2.340295e-05,-2.337981e-05,1.452082e-05,6.823082e-10,-1.260925e-07,9.757385859151929e-05
PART_003_R247G182B210A255,12366,7.088491e-05,-2.339207e-05,-2.339511e-05,1.331965e-05,-8.520869e-09,-3.180825e-07,9.706172543693391e-05
PART_003_R247G182B210A255,12367,7.088485e-05,-2.338763e-05,-2.339324e-05,1.249421e-05,2.819285e-09,-4.05527e-07,9.672971940565056e-05
PART_000_R31G119B180A255,12368,7.088494e-05,-2.33933e-05,-2.33871e-05,1.198373e-05,2.776339e-10,-3.617138e-07,9.653509162910073e-05
PART_000_R31G119B180A255,12369,7.088513e-05,-2.339333e-05,-2.33881e-05,1.170217e-05,-1.266153e-10,-2.061451e-07,9.64307254279478e-05
PART_000_R31G119B180A255,12370,7.088539e-05,-2.339378e-05,-2.338641e-05,1.161082e-05,-9.001436e-10,8.774234e-10,9.63965795071614e-05
PART_000_R31G119B180A255,12371,7.088569e-05,-2.339353e-05,-2.338831e-05,1.170169e-05,-1.706262e-09,2.078273e-07,9.643130946632721e-05
PART_000_R31G119B180A255,12372,7.088599e-05,-2.339367e-05,-2.338748e-05,1.198284e-05,-1.727829e-09,3.632013e-07,9.653616863560644e-05
PART_000_R31G119B180A255,12373,7.088625e-05,-2.33881e-05,-2.339374e-05,1.249301e-05,-4.013029e-09,4.066944e-07,9.673110643926584e-05
PART_002_R214G39B40A255,12374,7.088639e-05,-2.339245e-05,-2.339565e-05,1.331824e-05,7.884696e-09,3.188331e-07,9.70630366025536e-05
PART_002_R214G39B40A255,12375,7.088639e-05,-2.340298e-05,-2.338039e-05,1.451936e-05,-1.012166e-09,1.263771e-07,9.757478757062787e-05
PART_003_R247G182B210A255,12376,4.72563e-05,-1.559617e-05,-1.559771e-05,1.772545e-05,-3.395946e-09,-5.836425e-08,6.995080247672775e-05
PART_003_R247G182B210A255,12377,4.72563e-05,-1.559601e-05,-1.55916e-05,1.645321e-05,5.43346e-12,-1.611461e-07,6.900969479142856e-05
PART_003_R247G182B210A255,12378,4.725638e-05,-1.559427e-05,-1.559481e-05,1.553627e-05,-6.88157e-09,-2.064319e-07,6.837026536484869e-05
PART_003_R247G182B210A255,12379,4.725648e-05,-1.559196e-05,-1.559528e-05,1.49224e-05,1.960052e-10,-1.863196e-07,6.795787878275842e-05
PART_000_R31G119B180A255,12380,4.725663e-05,-1.559533e-05,-1.559153e-05,1.457626e-05,-2.021358e-09,-1.098276e-07,6.773159025269693e-05
PART_000_R31G119B180A255,12381,4.725682e-05,-1.559426e-05,-1.559327e-05,1.446383e-05,-1.142493e-09,6.594665e-10,6.765946478952194e-05
PART_000_R31G119B180A255,12382,4.725704e-05,-1.559547e-05,-1.559169e-05,1.457565e-05,-3.120971e-10,1.110902e-07,6.773172216368061e-05
PART_000_R31G119B180A255,12383,4.725725e-05,-1.559223e-05,-1.559556e-05,1.492128e-05,-2.081444e-09,1.874411e-07,6.795811682307003e-05
PART_002_R214G39B40A255,12384,4.725743e-05,-1.559466e-05,-1.559518e-05,1.553481e-05,5.308516e-09,2.073218e-07,6.837059234393756e-05
PART_002_R214G39B40A255,12385,4.725754e-05,-1.559649e-05,-1.559201e-05,1.645173e-05,-8.416933e-10,1.617386e-07,6.901017505763286e-05
PART_002_R214G39B40A255,12386,4.725754e-05,-1.559657e-05,-1.559817e-05,1.772426e-05,3.043546e-09,5.856229e-08,6.995139889298746e-05
PART_003_R247G182B210A255,12387,2.362806e-05,-7.800299e-06,-7.794019e-06,1.96235e-05,-6.536185e-10,-2.566959e-08,4.6290297618312684e-05
PART_003_R247G182B210A255,12388,2.362806e-05,-7.797281e-06,-7.798408e-06,1.832497e-05,-6.786932e-09,-6.626317e-08,4.466558363783966e-05
PART_003_R247G182B210A255,12389,2.362808e-05,-7.796463e-06,-7.797188e-06,1.735776e-05,-1.166561e-09,-8.6872e-08,4.3490491225631087e-05
PART_003_R247G182B210A255,12390,2.362817e-05,-7.797181e-06,-7.796788e-06,1.669951e-05,-5.855679e-09,-7.903952e-08,4.271042124340501e-05
PART_003_R247G182B210A255,12391,2.362827e-05,-7.796096e-06,-7.797597e-06,1.631698e-05,-1.125611e-09,-4.639732e-08,4.226435755603571e-05
PART_000_R31G119B180A255,12392,2.362839e-05,-7.797637e-06,-7.795907e-06,1.619271e-05,-1.297165e-09,3.558996e-10,4.212068833520083e-05
PART_000_R31G119B180A255,12393,2.362849e-05,-7.796176e-06,-7.797682e-06,1.63163e-05,-1.525163e-09,4.706213e-08,4.226379715083815e-05
PART_002_R214G39B40A255,12394,2.362858e-05,-7.797334e-06,-7.796928e-06,1.669824e-05,3.681429e-09,7.964787e-08,4.2709343723362145e-05
PART_002_R214G39B40A255,12395,2.362863e-05,-7.796657e-06,-7.797392e-06,1.735604e-05,-6.982417e-10,8.73416e-08,4.348897586436401e-05
PART_002_R214G39B40A255,12396,2.362864e-05,-7.797431e-06,-7.798613e-06,1.832293e-05,5.682745e-09,6.658191e-08,4.466360680909881e-05
PART_002_R214G39B40A255,12397,2.36286e-05,-7.800297e-06,-7.794281e-06,1.962144e-05,1.242726e-10,2.578812e-08,4.628813287153677e-05
PART_003_R247G182B210A255,12398,-3.144299e-10,3.700141e-10,-3.401514e-11,2.025269e-05,-2.708815e-09,2.744869e-11,3.507868838880331e-05
PART_003_R247G182B210A255,12399,-2.795134e-10,3.536694e-10,-4.910354e-11,1.89448e-05,-1.430623e-09,7.66036e-11,3.281335623775429e-05
PART_003_R247G182B210A255,12400,-2.158603e-10,3.445745e-10,-8.942481e-11,1.796665e-05,-7.552855e-09,1.05687e-10,3.111915339621371e-05
PART_003_R247G182B210A255,12401,-1.507002e-10,3.334491e-10,-1.357588e-10,1.729201e-05,-1.353738e-09,9.037061e-11,2.9950639980975535e-05
PART_003_R247G182B210A255,12402,-9.956977e-11,3.228846e-10,-1.703991e-10,1.690072e-05,-4.093413e-09,5.795284e-11,2.9272906586923893e-05
PART_003_R247G182B210A255,12403,-8.15593e-11,3.188143e-10,-1.862891e-10,1.677129e-05,-1.351544e-09,-5.380995e-12,2.90487264864675e-05
PART_002_R214G39B40A255,12404,-1.023515e-10,3.244099e-10,-1.687898e-10,1.690001e-05,1.33567e-09,-5.445616e-11,2.9271676063664894e-05
PART_002_R214G39B40A255,12405,-1.520825e-10,3.359283e-10,-1.384794e-10,1.729069e-05,-9.200397e-10,-9.981705e-11,2.9948353624687128e-05
PART_002_R214G39B40A255,12406,-2.233339e-10,3.493505e-10,-8.527304e-11,1.796493e-05,5.624072e-09,-1.039722e-10,3.111617304402408e-05
PART_002_R214G39B40A255,12407,-2.844e-10,3.66636e-10,-5.256808e-11,1.894307e-05,3.463108e-10,-8.305271e-11,3.281035970211009e-05
PART_002_R214G39B40A255,12408,-3.267388e-10,3.94383e-10,-2.991247e-11,2.02513e-05,2.241137e-09,-2.976927e-11,3.5076280739765135e-05
PART_003_R247G182B210A255,12409,-2.362862e-05,7.801009e-06,7.793937e-06,1.962376e-05,-6.532474e-10,2.573824e-08,4.629122181384424e-05
PART_003_R247G182B210A255,12410,-2.362854e-05,7.797869e-06,7.798311e-06,1.832519e-05,-6.786858e-09,6.642646e-08,4.466636558440603e-05
PART_003_R247G182B210A255,12411,-2.36284e-05,7.796937e-06,7.796995e-06,1.735795e-05,-1.166976e-09,8.709153e-08,4.349105277793665e-05
PART_003_R247G182B210A255,12412,-2.362834e-05,7.797579e-06,7.796513e-06,1.669969e-05,-5.852972e-09,7.922449e-08,4.271080374707147e-05
PART_003_R247G182B210A255,12413,-2.362833e-05,7.796458e-06,7.797241e-06,1.631715e-05,-1.123622e-09,4.651835e-08,4.226460167909756e-05
PART_001_R158G218B229A255,12414,-2.362841e-05,7.797989e-06,7.795526e-06,1.619288e-05,-1.294697e-09,-3.682094e-10,4.2120888528988656e-05
PART_001_R158G218B229A255,12415,-2.362856e-05,7.79654e-06,7.797332e-06,1.631648e-05,-1.524609e-09,-4.717092e-08,4.2264063225724556e-05
PART_002_R214G39B40A255,12416,-2.362875e-05,7.797738e-06,7.796642e-06,1.669843e-05,3.683304e-09,-7.985412e-08,4.27097362426981e-05
PART_002_R214G39B40A255,12417,-2.362897e-05,7.797135e-06,7.797215e-06,1.735623e-05,-6.966212e-10,-8.755298e-08,4.34895590577013e-05
PART_002_R214G39B40A255,12418,-2.362912e-05,7.798007e-06,7.798502e-06,1.832316e-05,5.687091e-09,-6.675397e-08,4.4664391976275275e-05
PART_002_R214G39B40A255,12419,-2.362917e-05,7.800971e-06,7.794217e-06,1.96217e-05,1.249328e-10,-2.585003e-08,4.628905774708598e-05
PART_003_R247G182B210A255,12420,-4.725669e-05,1.559669e-05,1.559765e-05,1.772589e-05,-3.405648e-09,5.842523e-08,6.995169420239168e-05
PART_003_R247G182B210A255,12421,-4.725663e-05,1.559652e-05,1.559147e-05,1.645358e-05,2.849812e-12,1.613181e-07,6.90104342621816e-05
PART_003_R247G182B210A255,12422,-4.725662e-05,1.559479e-05,1.559463e-05,1.553659e-05,-6.88355e-09,2.066625e-07,6.837086250435124e-05
PART_003_R247G182B210A255,12423,-4.725657e-05,1.559246e-05,1.559495e-05,1.492271e-05,2.03701e-10,1.865253e-07,6.795824650949363e-05
PART_001_R158G218B229A255,12424,-4.725663e-05,1.559582e-05,1.559117e-05,1.457655e-05,-2.019752e-09,1.09952e-07,6.77318384440073e-05
PART_001_R158G218B229A255,12425,-4.725677e-05,1.559475e-05,1.559284e-05,1.446412e-05,-1.135344e-09,-6.622399e-10,6.765963221050794e-05
PART_001_R158G218B229A255,12426,-4.725705e-05,1.559597e-05,1.559133e-05,1.457595e-05,-3.148044e-10,-1.112143e-07,6.773199072818973e-05
PART_001_R158G218B229A255,12427,-4.725734e-05,1.559274e-05,1.559523e-05,1.492158e-05,-2.076555e-09,-1.876521e-07,6.795848262625531e-05
PART_002_R214G39B40A255,12428,-4.725768e-05,1.559518e-05,1.559501e-05,1.553514e-05,5.308067e-09,-2.075535e-07,6.83712100929471e-05
PART_002_R214G39B40A255,12429,-4.725788e-05,1.559703e-05,1.559187e-05,1.645211e-05,-8.324163e-10,-1.619165e-07,6.901093992760907e-05
PART_002_R214G39B40A255,12430,-4.725796e-05,1.559714e-05,1.559812e-05,1.772471e-05,3.044787e-09,-5.862772e-08,6.99523521274413e-05
PART_003_R247G182B210A255,12431,-7.088528e-05,2.340329e-05,2.337985e-05,1.452132e-05,6.834669e-10,1.261696e-07,9.757447831953894e-05
PART_003_R247G182B210A255,12432,-7.088496e-05,2.339233e-05,2.339485e-05,1.332008e-05,-8.518223e-09,3.182942e-07,9.706195310088361e-05
PART_003_R247G182B210A255,12433,-7.088488e-05,2.33878e-05,2.339313e-05,1.249457e-05,2.818768e-09,4.057758e-07,9.672992050273978e-05
PART_001_R158G218B229A255,12434,-7.088472e-05,2.339342e-05,2.338664e-05,1.198407e-05,2.903276e-10,3.619727e-07,9.65348403235485e-05
PART_001_R158G218B229A255,12435,-7.088488e-05,2.339343e-05,2.338778e-05,1.170249e-05,-1.251042e-10,2.062596e-07,9.6430490725922e-05
PART_001_R158G218B229A255,12436,-7.088502e-05,2.339387e-05,2.338584e-05,1.161115e-05,-8.904459e-10,-8.469728e-10,9.639610221437675e-05
PART_001_R158G218B229A255,12437,-7.088543e-05,2.339362e-05,2.338797e-05,1.170202e-05,-1.712133e-09,-2.079967e-07,9.64310543191846e-05
PART_001_R158G218B229A255,12438,-7.088579e-05,2.33938e-05,2.338704e-05,1.198318e-05,-1.723322e-09,-3.634094e-07,9.653595093570084e-05
PART_001_R158G218B229A255,12439,-7.088625e-05,2.338827e-05,2.339359e-05,1.249339e-05,-4.016751e-09,-4.06981e-07,9.673126702396412e-05
PART_002_R214G39B40A255,12440,-7.088646e-05,2.339269e-05,2.339543e-05,1.331867e-05,7.895535e-09,-3.190179e-07,9.706329312921432e-05
PART_002_R214G39B40A255,12441,-7.088658e-05,2.340327e-05,2.338039e-05,1.451987e-05,-1.011806e-09,-1.264594e-07,9.757533929333987e-05
PART_003_R247G182B210A255,12442,-9.451331e-05,3.119174e-05,3.120089e-05,9.932962e-06,-7.777811e-09,2.312763e-07,0.00012688207805035623
PART_003_R247G182B210A255,12443,-9.451308e-05,3.118484e-05,3.118803e-05,8.856551e-06,7.519237e-09,6.333563e-07,0.00012663683175103178
PART_001_R158G218B229A255,12444,-9.451325e-05,3.119142e-05,3.118124e-05,8.267209e-06,5.151732e-09,7.741086e-07,0.00012651965276527024
PART_001_R158G218B229A255,12445,-9.451305e-05,3.119376e-05,3.118089e-05,7.925428e-06,1.233843e-09,6.403966e-07,0.00012645256800200157
PART_001_R158G218B229A255,12446,-9.451329e-05,3.119172e-05,3.118112e-05,7.736925e-06,7.756917e-10,3.573212e-07,0.00012641352870973097
PART_001_R158G218B229A255,12447,-9.451341e-05,3.119488e-05,3.118027e-05,7.679278e-06,-5.704188e-10,-8.858389e-10,0.00012640273622510477
PART_001_R158G218B229A255,12448,-9.451389e-05,3.119194e-05,3.118128e-05,7.736609e-06,-1.983271e-09,-3.593172e-07,0.00012641427324588028
PART_001_R158G218B229A255,12449,-9.451427e-05,3.119417e-05,3.118134e-05,7.924838e-06,-2.115159e-09,-6.418965e-07,0.0001264541201041226
PART_001_R158G218B229A255,12450,-9.451478e-05,3.1192e-05,3.118165e-05,8.266474e-06,-5.86342e-09,-7.754837e-07,0.0001265215459324692
PART_001_R158G218B229A255,12451,-9.4515e-05,3.118561e-05,3.118872e-05,8.85581e-06,-7.764125e-09,-6.341303e-07,0.00012663931834057954
PART_002_R214G39B40A255,12452,-9.451513e-05,3.119259e-05,3.12014e-05,9.932384e-06,7.689755e-09,-2.315607e-07,0.0001268844207318945
PART_003_R247G182B210A255,12453,-0.0001181423,3.901055e-05,3.89513e-05,3.648289e-06,1.187137e-08,6.234708e-07,0.00015725395726501988
PART_001_R158G218B229A255,12454,-0.0001181417,3.898787e-05,3.896998e-05,3.135143e-06,7.354626e-09,1.348063e-06,0.00015723177283599052
PART_001_R158G218B229A255,12455,-0.0001181418,3.899889e-05,3.896996e-05,2.938952e-06,1.322675e-09,1.372291e-06,0.0001572266296784634
PART_001_R158G218B229A255,12456,-0.0001181415,3.898876e-05,3.897551e-05,2.809368e-06,1.616416e-09,1.070032e-06,0.00015720988953066804
PART_001_R158G218B229A255,12457,-0.0001181417,3.899555e-05,3.897385e-05,2.747347e-06,3.401175e-11,5.768852e-07,0.00015720161597880644
PART_001_R158G218B229A255,12458,-0.0001181418,3.89893e-05,3.897649e-05,2.724504e-06,-1.858973e-10,-7.561527e-10,0.00015719554277991512
PART_001_R158G218B229A255,12459,-0.0001181423,3.89958e-05,3.897388e-05,2.747231e-06,-4.871366e-10,-5.788225e-07,0.00015720237093192298
PART_001_R158G218B229A255,12460,-0.0001181427,3.898923e-05,3.897585e-05,2.809168e-06,-1.886786e-09,-1.071323e-06,0.00015721150932254753
PART_001_R158G218B229A255,12461,-0.0001181432,3.899945e-05,3.89701e-05,2.938669e-06,-1.602557e-09,-1.37366e-06,0.00015722839862198414
PART_001_R158G218B229A255,12462,-0.0001181434,3.898829e-05,3.897064e-05,3.134849e-06,-7.395083e-09,-1.348686e-06,0.0001572340096799991
PART_001_R158G218B229A255,12463,-0.0001181435,3.90106e-05,3.895155e-05,3.64795e-06,-1.200643e-08,-6.238021e-07,0.00015725528646553662
PART_003_R247G182B210A255,12464,0.0001135975,-3.750913e-05,-3.745269e-05,3.647955e-06,1.16482e-08,-6.233779e-07,0.0001512143422144199
PART_000_R31G119B180A255,12465,0.0001135975,-3.748777e-05,-3.747158e-05,3.135008e-06,7.024124e-09,-1.347432e-06,0.00015119274021938592
PART_000_R31G119B180A255,12466,0.0001135976,-3.749866e-05,-3.747097e-05,2.938842e-06,1.348217e-09,-1.371821e-06,0.000151186814101655
PART_000_R31G119B180A255,12467,0.0001135977,-3.748902e-05,-3.747712e-05,2.809317e-06,1.423829e-09,-1.069206e-06,0.00015117045202853977
PART_000_R31G119B180A255,12468,0.000113598,-3.749557e-05,-3.747513e-05,2.747263e-06,2.559743e-11,-5.765051e-07,0.00015116156388756422
PART_000_R31G119B180A255,12469,0.0001135984,-3.748963e-05,-3.747815e-05,2.724417e-06,-3.446513e-10,1.36988e-09,0.00015115596515004835
PART_000_R31G119B180A255,12470,0.000113599,-3.749595e-05,-3.747533e-05,2.747104e-06,-5.009162e-10,5.78886e-07,0.0001511628718691666
PART_000_R31G119B180A255,12471,0.0001135994,-3.748969e-05,-3.747739e-05,2.809009e-06,-1.976358e-09,1.071562e-06,0.0001511726536589037
PART_000_R31G119B180A255,12472,0.0001135999,-3.749959e-05,-3.747162e-05,2.93847e-06,-1.541413e-09,1.373485e-06,0.00015118992564298702
PART_000_R31G119B180A255,12473,0.0001136002,-3.748893e-05,-3.747215e-05,3.134611e-06,-7.216021e-09,1.34868e-06,0.00015119631125767565
PART_000_R31G119B180A255,12474,0.0001136004,-3.751048e-05,-3.745368e-05,3.647656e-06,-1.146799e-08,6.237075e-07,0.0001512183910547737
PART_003_R247G182B210A255,12475,9.087828e-05,-2.999267e-05,-3.000066e-05,9.932941e-06,-7.543045e-09,-2.311204e-07,0.00012209382764076165
PART_003_R247G182B210A255,12476,9.087799e-05,-2.998557e-05,-2.998872e-05,8.856449e-06,7.064298e-09,-6.330117e-07,0.00012183962078826752
PART_000_R31G119B180A255,12477,9.087787e-05,-2.99916e-05,-2.998188e-05,8.267067e-06,4.908072e-09,-7.736521e-07,0.00012171722514353252
PART_000_R31G119B180A255,12478,9.0878e-05,-2.999381e-05,-2.998208e-05,7.925258e-06,9.505006e-10,-6.397585e-07,0.00012164799128042647
PART_000_R31G119B180A255,12479,9.087829e-05,-2.99919e-05,-2.998206e-05,7.736749e-06,6.006891e-10,-3.568787e-07,0.00012160743196187117
PART_000_R31G119B180A255,12480,9.087871e-05,-2.9995e-05,-2.998164e-05,7.679045e-06,-8.934776e-10,1.413117e-09,0.00012159663761638223
PART_000_R31G119B180A255,12481,9.087923e-05,-2.999223e-05,-2.998237e-05,7.736295e-06,-2.117512e-09,3.595235e-07,0.00012160862104731474
PART_000_R31G119B180A255,12482,9.087975e-05,-2.999444e-05,-2.998264e-05,7.924422e-06,-2.379053e-09,6.421534e-07,0.00012165019574173905
PART_000_R31G119B180A255,12483,9.088025e-05,-2.999239e-05,-2.998268e-05,8.265941e-06,-5.773542e-09,7.754871e-07,0.00012172018363481836
PART_000_R31G119B180A255,12484,9.088054e-05,-2.998625e-05,-2.998961e-05,8.855155e-06,-7.670684e-09,6.34194e-07,0.00012184266552171805
PART_002_R214G39B40A255,12485,9.088062e-05,-2.99929e-05,-3.000159e-05,9.931556e-06,7.412985e-09,2.315606e-07,0.0001220963830059276
PART_003_R247G182B210A255,12486,6.815801e-05,-2.250202e-05,-2.248046e-05,1.452029e-05,8.275088e-10,-1.26098e-07,9.407364691246494e-05
PART_003_R247G182B210A255,12487,6.815801e-05,-2.249185e-05,-2.249519e-05,1.331948e-05,-8.242589e-09,-3.179715e-07,9.35426590575875e-05
PART_003_R247G182B210A255,12488,6.815809e-05,-2.24878e-05,-2.249337e-05,1.24943e-05,2.666553e-09,-4.053593e-07,9.319870100925283e-05
PART_000_R31G119B180A255,12489,6.815823e-05,-2.24933e-05,-2.248749e-05,1.198387e-05,-3.157255e-11,-3.614774e-07,9.299679918133484e-05
PART_000_R31G119B180A255,12490,6.815848e-05,-2.249334e-05,-2.248845e-05,1.170228e-05,-3.776171e-10,-2.058258e-07,9.288846198870731e-05
PART_000_R31G119B180A255,12491,6.815885e-05,-2.249381e-05,-2.248689e-05,1.161084e-05,-1.343325e-09,1.251085e-09,9.285317616097367e-05
PART_000_R31G119B180A255,12492,6.81593e-05,-2.249362e-05,-2.248875e-05,1.17016e-05,-2.007061e-09,2.082369e-07,9.288930442256173e-05
PART_000_R31G119B180A255,12493,6.815977e-05,-2.249383e-05,-2.248805e-05,1.198259e-05,-2.170009e-09,3.636014e-07,9.299836165194397e-05
PART_000_R31G119B180A255,12494,6.816019e-05,-2.248855e-05,-2.24941e-05,1.249264e-05,-4.135905e-09,4.07044e-07,9.320081793190895e-05
PART_002_R214G39B40A255,12495,6.81605e-05,-2.249282e-05,-2.249602e-05,1.331778e-05,7.268137e-09,3.190839e-07,9.35452292869859e-05
PART_002_R214G39B40A255,12496,6.816055e-05,-2.250296e-05,-2.248136e-05,1.451886e-05,-9.626889e-10,1.264623e-07,9.407632033770864e-05
PART_003_R247G182B210A255,12497,4.543869e-05,-1.499662e-05,-1.499771e-05,1.772626e-05,-3.321577e-09,-5.831655e-08,6.778763668098729e-05
PART_003_R247G182B210A255,12498,4.543859e-05,-1.499627e-05,-1.499186e-05,1.645373e-05,-2.64513e-10,-1.610843e-07,6.681586145773188e-05
PART_003_R247G182B210A255,12499,4.543856e-05,-1.499447e-05,-1.49949e-05,1.553656e-05,-6.747349e-09,-2.063044e-07,6.615481095404955e-05
PART_003_R247G182B210A255,12500,4.543868e-05,-1.499225e-05,-1.499539e-05,1.492261e-05,-1.976338e-10,-1.861346e-07,6.572856205384482e-05
PART_000_R31G119B180A255,12501,4.543889e-05,-1.499553e-05,-1.499178e-05,1.457644e-05,-2.264935e-09,-1.095872e-07,6.549462846980434e-05
PART_000_R31G119B180A255,12502,4.543918e-05,-1.499454e-05,-1.499352e-05,1.44639e-05,-1.695882e-09,9.322935e-10,6.542007407936773e-05
PART_000_R31G119B180A255,12503,4.543949e-05,-1.499575e-05,-1.4992e-05,1.457558e-05,-7.677841e-10,1.113892e-07,6.549481992653623e-05
PART_000_R31G119B180A255,12504,4.543982e-05,-1.499266e-05,-1.49958e-05,1.492102e-05,-2.648023e-09,1.877263e-07,6.572891802582493e-05
PART_002_R214G39B40A255,12505,4.544009e-05,-1.4995e-05,-1.499544e-05,1.553439e-05,4.726714e-09,2.075715e-07,6.615517997682353e-05
PART_002_R214G39B40A255,12506,4.544026e-05,-1.499671e-05,-1.499247e-05,1.645115e-05,-1.237725e-09,1.619121e-07,6.681594695993967e-05
PART_002_R214G39B40A255,12507,4.544023e-05,-1.499668e-05,-1.499838e-05,1.77236e-05,2.898036e-09,5.862928e-08,6.778724927475932e-05
PART_003_R247G182B210A255,12508,2.271887e-05,-7.499856e-06,-7.494237e-06,1.962289e-05,-4.715289e-10,-2.566257e-08,4.547721457873886e-05
PART_003_R247G182B210A255,12509,2.27189e-05,-7.497041e-06,-7.498375e-06,1.832479e-05,-6.638779e-09,-6.620375e-08,4.382294452706634e-05
PART_003_R247G182B210A255,12510,2.271903e-05,-7.496321e-06,-7.497296e-06,1.735794e-05,-1.213814e-09,-8.676757e-08,4.2625271029701326e-05
PART_003_R247G182B210A255,12511,2.271914e-05,-7.497019e-06,-7.496853e-06,1.669977e-05,-6.058255e-09,-7.893157e-08,4.1829140604400805e-05
PART_003_R247G182B210A255,12512,2.271929e-05,-7.495982e-06,-7.497712e-06,1.63172e-05,-1.449871e-09,-4.624698e-08,4.137359553656534e-05
PART_000_R31G119B180A255,12513,2.271945e-05,-7.49748e-06,-7.496056e-06,1.619279e-05,-1.918207e-09,4.883682e-10,4.122668052912726e-05
PART_000_R31G119B180A255,12514,2.271961e-05,-7.496096e-06,-7.497822e-06,1.631623e-05,-2.001634e-09,4.721762e-08,4.1372766757074625e-05
PART_002_R214G39B40A255,12515,2.271974e-05,-7.497236e-06,-7.497079e-06,1.669796e-05,2.800326e-09,7.976632e-08,4.182756998143317e-05
PART_002_R214G39B40A255,12516,2.271984e-05,-7.496623e-06,-7.49756e-06,1.735558e-05,-1.118987e-09,8.745765e-08,4.262316707638459e-05
PART_002_R214G39B40A255,12517,2.271988e-05,-7.497403e-06,-7.498721e-06,1.832235e-05,4.975282e-09,6.664981e-08,4.382080498390598e-05
PART_002_R214G39B40A255,12518,2.271984e-05,-7.50015e-06,-7.494588e-06,1.962086e-05,9.260345e-11,2.581564e-08,4.547544594325488e-05
PART_003_R247G182B210A255,12519,-5.395619e-10,5.647158e-10,-1.466424e-11,2.025375e-05,-2.647651e-09,5.301352e-11,3.508052435670557e-05
PART_003_R247G182B210A255,12520,-4.389952e-10,4.68035e-10,-4.623397e-11,1.894553e-05,-1.684547e-09,1.331675e-10,3.281462067630396e-05
PART_003_R247G182B210A255,12521,-3.126751e-10,3.838858e-10,-1.099946e-10,1.796708e-05,-7.424944e-09,1.590051e-10,3.1119898088353784e-05
PART_003_R247G182B210A255,12522,-1.902581e-10,3.283795e-10,-1.800264e-10,1.729235e-05,-1.747552e-09,1.48398e-10,2.9951228940715657e-05
PART_003_R247G182B210A255,12523,-1.076269e-10,3.002917e-10,-2.349627e-10,1.690101e-05,-4.319188e-09,7.781352e-11,2.9273408979467604e-05
PART_003_R247G182B210A255,12524,-7.86488e-11,2.926969e-10,-2.504741e-10,1.677146e-05,-1.991403e-09,1.897012e-12,2.904902104586481e-05
PART_002_R214G39B40A255,12525,-1.087333e-10,3.019956e-10,-2.368909e-10,1.690002e-05,7.234446e-10,-9.297491e-11,2.9271693320254125e-05
PART_002_R214G39B40A255,12526,-1.978604e-10,3.320809e-10,-1.75575e-10,1.729048e-05,-1.649748e-09,-1.455619e-10,2.99479899891344e-05
PART_002_R214G39B40A255,12527,-3.167219e-10,3.875715e-10,-1.139116e-10,1.796453e-05,4.934966e-09,-1.698688e-10,3.111547987586336e-05
PART_002_R214G39B40A255,12528,-4.502308e-10,4.633056e-10,-3.842726e-11,1.894249e-05,-1.884628e-10,-1.301959e-10,3.280935511383363e-05
PART_002_R214G39B40A255,12529,-5.416827e-10,5.448199e-10,-1.641587e-11,2.025065e-05,2.109188e-09,-5.141007e-11,3.5075154889282246e-05
PART_003_R247G182B210A255,12530,-2.271986e-05,7.500869e-06,7.494214e-06,1.962327e-05,-4.750025e-10,2.575185e-08,4.5478693398754194e-05
PART_003_R247G182B210A255,12531,-2.271972e-05,7.49799e-06,7.498264e-06,1.832512e-05,-6.641383e-09,6.646643e-08,4.3824213992926006e-05
PART_003_R247G182B210A255,12532,-2.271964e-05,7.497229e-06,7.497075e-06,1.735824e-05,-1.209896e-09,8.708968e-08,4.26263154015273e-05
PART_003_R247G182B210A255,12533,-2.271952e-05,7.497887e-06,7.496469e-06,1.670004e-05,-6.054153e-09,7.923725e-08,4.1829915050352604e-05
PART_003_R247G182B210A255,12534,-2.271952e-05,7.496817e-06,7.497232e-06,1.631746e-05,-1.444318e-09,4.640435e-08,4.137420126786389e-05
PART_001_R158G218B229A255,12535,-2.271962e-05,7.498303e-06,7.495531e-06,1.619306e-05,-1.915827e-09,-4.801145e-10,4.122723253177281e-05
PART_001_R158G218B229A255,12536,-2.271983e-05,7.496935e-06,7.497335e-06,1.63165e-05,-1.999873e-09,-4.741003e-08,4.137337605045707e-05
PART_002_R214G39B40A255,12537,-2.272014e-05,7.49811e-06,7.49671e-06,1.669824e-05,2.79965e-09,-8.005916e-08,4.1828378389398746e-05
PART_002_R214G39B40A255,12538,-2.272045e-05,7.497542e-06,7.49732e-06,1.735588e-05,-1.116981e-09,-8.780611e-08,4.2624208818136716e-05
PART_002_R214G39B40A255,12539,-2.272073e-05,7.498382e-06,7.498634e-06,1.832269e-05,4.976611e-09,-6.691132e-08,4.3822126346524715e-05
PART_002_R214G39B40A255,12540,-2.272084e-05,7.501223e-06,7.494545e-06,1.962126e-05,9.595045e-11,-2.591963e-08,4.547697066765789e-05
PART_003_R247G182B210A255,12541,-4.543938e-05,1.499745e-05,1.499762e-05,1.772695e-05,-3.31185e-09,5.843135e-08,6.778912331059785e-05
PART_003_R247G182B210A255,12542,-4.543914e-05,1.499693e-05,1.499175e-05,1.64543e-05,-2.647342e-10,1.613736e-07,6.681703087560299e-05
PART_003_R247G182B210A255,12543,-4.543885e-05,1.499498e-05,1.499462e-05,1.553707e-05,-6.737274e-09,2.066587e-07,6.615554356667203e-05
PART_003_R247G182B210A255,12544,-4.543875e-05,1.499267e-05,1.4995e-05,1.492309e-05,-1.921895e-10,1.864575e-07,6.572896985809933e-05
PART_001_R158G218B229A255,12545,-4.543877e-05,1.49959e-05,1.499122e-05,1.45769e-05,-2.250771e-09,1.097681e-07,6.54947381763676e-05
PART_001_R158G218B229A255,12546,-4.543901e-05,1.49949e-05,1.499297e-05,1.446435e-05,-1.695965e-09,-9.316387e-10,6.542012777553208e-05
PART_001_R158G218B229A255,12547,-4.543937e-05,1.499612e-05,1.499144e-05,1.457605e-05,-7.612168e-10,-1.115803e-07,6.549493635682989e-05
PART_001_R158G218B229A255,12548,-4.54399e-05,1.499308e-05,1.499542e-05,1.49215e-05,-2.654461e-09,-1.880489e-07,6.572933960861057e-05
PART_002_R214G39B40A255,12549,-4.544038e-05,1.499552e-05,1.499514e-05,1.553491e-05,4.733247e-09,-2.079335e-07,6.615591512229914e-05
PART_002_R214G39B40A255,12550,-4.544082e-05,1.499735e-05,1.499238e-05,1.645173e-05,-1.238064e-09,-1.621983e-07,6.68171327534157e-05
PART_002_R214G39B40A255,12551,-4.544092e-05,1.499745e-05,1.499829e-05,1.772428e-05,2.90446e-09,-5.873939e-08,6.778870125621214e-05
PART_003_R247G182B210A255,12552,-6.815826e-05,2.250248e-05,2.248021e-05,1.452107e-05,8.176544e-10,1.26217e-07,9.407435077987168e-05
PART_003_R247G182B210A255,12553,-6.815832e-05,2.249232e-05,2.249519e-05,1.332011e-05,-8.252005e-09,3.182753e-07,9.35434594239818e-05
PART_003_R247G182B210A255,12554,-6.815807e-05,2.248828e-05,2.24929e-05,1.249486e-05,2.681804e-09,4.057816e-07,9.31989171222478e-05
PART_001_R158G218B229A255,12555,-6.815812e-05,2.249376e-05,2.248715e-05,1.198439e-05,-2.484236e-11,3.618106e-07,9.299695540203814e-05
PART_001_R158G218B229A255,12556,-6.81581e-05,2.249379e-05,2.24877e-05,1.170279e-05,-3.571445e-10,2.060721e-07,9.288813921333687e-05
PART_001_R158G218B229A255,12557,-6.81585e-05,2.249425e-05,2.248636e-05,1.161134e-05,-1.345825e-09,-1.290294e-09,9.285297816888919e-05
PART_001_R158G218B229A255,12558,-6.815893e-05,2.249407e-05,2.248802e-05,1.170211e-05,-1.998987e-09,-2.084026e-07,9.288900062562687e-05
PART_001_R158G218B229A255,12559,-6.815964e-05,2.24943e-05,2.248766e-05,1.198313e-05,-2.182529e-09,-3.640017e-07,9.299848740299707e-05
PART_001_R158G218B229A255,12560,-6.816021e-05,2.248903e-05,2.249368e-05,1.249322e-05,-4.130034e-09,-4.074131e-07,9.320110459938227e-05
PART_002_R214G39B40A255,12561,-6.816078e-05,2.249332e-05,2.249596e-05,1.331844e-05,7.266607e-09,-3.194255e-07,9.354599921463921e-05
PART_002_R214G39B40A255,12562,-6.816085e-05,2.250348e-05,2.248116e-05,1.451966e-05,-9.527106e-10,-1.265752e-07,9.407713458008402e-05
PART_003_R247G182B210A255,12563,-9.087813e-05,2.999289e-05,3.000024e-05,9.933612e-06,-7.534466e-09,2.3128e-07,0.00012209374478481388
PART_003_R247G182B210A255,12564,-9.087803e-05,2.99857e-05,2.998883e-05,8.856964e-06,7.072788e-09,6.333755e-07,0.00012183989748978607
PART_001_R158G218B229A255,12565,-9.087742e-05,2.999162e-05,2.998121e-05,8.267521e-06,4.920826e-09,7.741876e-07,0.00012171655834192484
PART_001_R158G218B229A255,12566,-9.087751e-05,2.999377e-05,2.998177e-05,7.925674e-06,9.654125e-10,6.401242e-07,0.00012164741765574626
PART_001_R158G218B229A255,12567,-9.087742e-05,2.999183e-05,2.99811e-05,7.737161e-06,6.14376e-10,3.572054e-07,0.00012160613698694818
PART_001_R158G218B229A255,12568,-9.087793e-05,2.999491e-05,2.99811e-05,7.679449e-06,-8.911552e-10,-1.494143e-09,0.00012159562576989341
PART_001_R158G218B229A255,12569,-9.087839e-05,2.999215e-05,2.998145e-05,7.736709e-06,-2.116628e-09,-3.596753e-07,0.00012160736963876933
PART_001_R158G218B229A255,12570,-9.08792e-05,2.999439e-05,2.998224e-05,7.924848e-06,-2.389997e-09,-6.426572e-07,0.0001216495169839478
PART_001_R158G218B229A255,12571,-9.087986e-05,2.999241e-05,2.998213e-05,8.266401e-06,-5.775621e-09,-7.75902e-07,0.00012171963490738997
PART_001_R158G218B229A255,12572,-9.088048e-05,2.998635e-05,2.998957e-05,8.85568e-06,-7.672606e-09,-6.346256e-07,0.00012184275697045054
PART_002_R214G39B40A255,12573,-9.088052e-05,2.999304e-05,3.00013e-05,9.932227e-06,7.418311e-09,-2.316899e-07,0.0001220963742138508
PART_003_R247G182B210A255,12574,-0.0001135972,3.75091e-05,3.745225e-05,3.648208e-06,1.162339e-08,6.236034e-07,0.00015121382890530334
PART_001_R158G218B229A255,12575,-0.0001135975,3.748785e-05,3.747171e-05,3.135204e-06,7.031035e-09,1.347923e-06,0.00015119287045851763
PART_001_R158G218B229A255,12576,-0.000113597,3.74988e-05,3.74702e-05,2.939008e-06,1.343698e-09,1.372486e-06,0.00015118592764761326
PART_001_R158G218B229A255,12577,-0.0001135972,3.748918e-05,3.747676e-05,2.809475e-06,1.440689e-09,1.069655e-06,0.00015116987075449893
PART_001_R158G218B229A255,12578,-0.0001135971,3.749572e-05,3.747401e-05,2.747417e-06,2.285264e-11,5.768961e-07,0.00015116019260904016
PART_001_R158G218B229A255,12579,-0.0001135976,3.748977e-05,3.747751e-05,2.724568e-06,-3.355644e-10,-1.464643e-09,0.0001511549238754779
PART_001_R158G218B229A255,12580,-0.000113598,3.749609e-05,3.747427e-05,2.74726e-06,-5.084596e-10,-5.790676e-07,0.00015116142334323004
PART_001_R158G218B229A255,12581,-0.0001135988,3.748985e-05,3.747691e-05,2.809167e-06,-1.976323e-09,-1.072172e-06,0.0001511719159333078
PART_001_R158G218B229A255,12582,-0.0001135995,3.749973e-05,3.747098e-05,2.938644e-06,-1.549104e-09,-1.374008e-06,0.00015118930060397949
PART_001_R158G218B229A255,12583,-0.0001136001,3.748903e-05,3.747211e-05,3.134809e-06,-7.215075e-09,-1.349255e-06,0.000151196269028373
PART_001_R158G218B229A255,12584,-0.0001136002,3.751053e-05,3.745339e-05,3.647924e-06,-1.146722e-08,-6.239013e-07,0.00015121809323132422
PART_003_R247G182B210A255,12585,0.000109054,-3.600986e-05,-3.595473e-05,3.648144e-06,1.08347e-08,-6.23199e-07,0.00014517789602381585
PART_000_R31G119B180A255,12586,0.0001090534,-3.598869e-05,-3.597241e-05,3.135075e-06,6.793911e-09,-1.347437e-06,0.0001451543310928984
PART_000_R31G119B180A255,12587,0.0001090534,-3.599877e-05,-3.597215e-05,2.938921e-06,1.102387e-09,-1.371376e-06,0.00014514759809086238
PART_000_R31G119B180A255,12588,0.0001090535,-3.598947e-05,-3.597786e-05,2.809343e-06,1.415271e-09,-1.068974e-06,0.00014513057802838534
PART_000_R31G119B180A255,12589,0.0001090539,-3.599584e-05,-3.597608e-05,2.747315e-06,-1.836807e-10,-5.758337e-07,0.0001451213259801669
PART_000_R31G119B180A255,12590,0.0001090545,-3.599022e-05,-3.597903e-05,2.72442e-06,-3.538962e-10,1.801027e-09,0.00014511586845618823
PART_000_R31G119B180A255,12591,0.0001090552,-3.599639e-05,-3.59763e-05,2.747081e-06,-7.264658e-10,5.796539e-07,0.00014512304240977514
PART_000_R31G119B180A255,12592,0.0001090561,-3.59905e-05,-3.597851e-05,2.808931e-06,-1.931106e-09,1.072055e-06,0.00014513406010868354
PART_000_R31G119B180A255,12593,0.0001090568,-3.600006e-05,-3.597284e-05,2.938344e-06,-1.68369e-09,1.3741e-06,0.00014515202714251096
PART_000_R31G119B180A255,12594,0.0001090574,-3.598981e-05,-3.597373e-05,3.13445e-06,-6.877898e-09,1.348962e-06,0.00014515954875918418
PART_000_R31G119B180A255,12595,0.0001090575,-3.60104e-05,-3.595577e-05,3.647433e-06,-1.114207e-08,6.238657e-07,0.00014518213676485977
PART_003_R247G182B210A255,12596,8.724214e-05,-2.87917e-05,-2.880044e-05,9.932404e-06,-7.142275e-09,-2.311444e-07,0.00011730722322683152
PART_003_R247G182B210A255,12597,8.724209e-05,-2.878541e-05,-2.878904e-05,8.856298e-06,6.948043e-09,-6.328536e-07,0.0001170440329444834
PART_000_R31G119B180A255,12598,8.724216e-05,-2.879154e-05,-2.878241e-05,8.26713e-06,4.550242e-09,-7.733911e-07,0.00011691702617741945
PART_000_R31G119B180A255,12599,8.724232e-05,-2.879373e-05,-2.878263e-05,7.925398e-06,8.342566e-10,-6.394335e-07,0.00011684493763412873
PART_000_R31G119B180A255,12600,8.724271e-05,-2.879191e-05,-2.878261e-05,7.736855e-06,1.898036e-10,-3.563479e-07,0.00011680287552336652
PART_000_R31G119B180A255,12601,8.724331e-05,-2.879495e-05,-2.878232e-05,7.679076e-06,-1.113314e-09,1.962977e-09,0.00011679176777513159
PART_000_R31G119B180A255,12602,8.724407e-05,-2.879239e-05,-2.878304e-05,7.736215e-06,-2.542536e-09,3.602177e-07,0.00011680458703834975
PART_000_R31G119B180A255,12603,8.724492e-05,-2.879461e-05,-2.878349e-05,7.924201e-06,-2.571369e-09,6.427719e-07,0.00011684819492892908
PART_000_R31G119B180A255,12604,8.724568e-05,-2.879279e-05,-2.878355e-05,8.265593e-06,-5.96335e-09,7.760805e-07,0.00011692143303215504
PART_000_R31G119B180A255,12605,8.724631e-05,-2.878705e-05,-2.87904e-05,8.8547e-06,-7.44687e-09,6.345891e-07,0.00011704936893671505
PART_002_R214G39B40A255,12606,8.724652e-05,-2.879351e-05,-2.880188e-05,9.931056e-06,6.972769e-09,2.31706e-07,0.00011731282417623462
PART_003_R247G182B210A255,12607,6.543178e-05,-2.160269e-05,-2.158116e-05,1.452108e-05,5.125662e-10,-1.260232e-07,9.05856419031785e-05
PART_003_R247G182B210A255,12608,6.543149e-05,-2.159248e-05,-2.159522e-05,1.331997e-05,-7.998843e-09,-3.179056e-07,9.003320495242298e-05
PART_003_R247G182B210A255,12609,6.543135e-05,-2.158829e-05,-2.159347e-05,1.249457e-05,2.266721e-09,-4.051736e-07,8.967554786620702e-05
PART_000_R31G119B180A255,12610,6.543149e-05,-2.159355e-05,-2.158779e-05,1.198411e-05,-2.230023e-10,-3.611663e-07,8.946566021028993e-05
PART_000_R31G119B180A255,12611,6.543184e-05,-2.159366e-05,-2.158877e-05,1.170247e-05,-8.89135e-10,-2.054098e-07,8.935313152710034e-05
PART_000_R31G119B180A255,12612,6.543236e-05,-2.159416e-05,-2.15873e-05,1.161093e-05,-1.729701e-09,1.76997e-09,8.931662405852271e-05
PART_000_R31G119B180A255,12613,6.543302e-05,-2.159406e-05,-2.158921e-05,1.170151e-05,-2.651981e-09,2.088096e-07,8.935433637936867e-05
PART_000_R31G119B180A255,12614,6.543373e-05,-2.159434e-05,-2.158859e-05,1.198232e-05,-2.578566e-09,3.641799e-07,8.946792983118476e-05
PART_000_R31G119B180A255,12615,6.54344e-05,-2.158932e-05,-2.159454e-05,1.249214e-05,-4.602043e-09,4.075537e-07,8.967854360233306e-05
PART_002_R214G39B40A255,12616,6.543484e-05,-2.159338e-05,-2.159643e-05,1.331709e-05,6.744778e-09,3.194447e-07,9.003620078152657e-05
PART_002_R214G39B40A255,12617,6.543497e-05,-2.160297e-05,-2.158247e-05,1.451803e-05,-1.179002e-09,1.266079e-07,9.058800593907266e-05
PART_003_R247G182B210A255,12618,4.362035e-05,-1.439589e-05,-1.43977e-05,1.772541e-05,-3.173286e-09,-5.832544e-08,6.563969706810419e-05
PART_003_R247G182B210A255,12619,4.362038e-05,-1.439583e-05,-1.439203e-05,1.645347e-05,-1.039678e-10,-1.609864e-07,6.46365836862081e-05
PART_003_R247G182B210A255,12620,4.362051e-05,-1.439432e-05,-1.439499e-05,1.553674e-05,-6.770178e-09,-2.06149e-07,6.39535602569023e-05
PART_003_R247G182B210A255,12621,4.362067e-05,-1.439222e-05,-1.439542e-05,1.492293e-05,-4.273232e-10,-1.859014e-07,6.35127251464947e-05
PART_000_R31G119B180A255,12622,4.362094e-05,-1.439538e-05,-1.439202e-05,1.457668e-05,-2.8369e-09,-1.09278e-07,6.327063387901102e-05
PART_000_R31G119B180A255,12623,4.362133e-05,-1.439447e-05,-1.439369e-05,1.446402e-05,-2.182361e-09,1.31415e-09,6.319344460523313e-05
PART_000_R31G119B180A255,12624,4.362181e-05,-1.439568e-05,-1.439234e-05,1.457548e-05,-1.649628e-09,1.118001e-07,6.327089960069477e-05
PART_000_R31G119B180A255,12625,4.36223e-05,-1.43928e-05,-1.439601e-05,1.492067e-05,-3.192201e-09,1.881441e-07,6.351317557569717e-05
PART_002_R214G39B40A255,12626,4.362276e-05,-1.439513e-05,-1.439577e-05,1.553377e-05,3.710575e-09,2.079371e-07,6.395417482829226e-05
PART_002_R214G39B40A255,12627,4.362306e-05,-1.439685e-05,-1.439293e-05,1.645037e-05,-1.521252e-09,1.621783e-07,6.463749272275028e-05
PART_002_R214G39B40A255,12628,4.362313e-05,-1.439682e-05,-1.439871e-05,1.772275e-05,2.475368e-09,5.872585e-08,6.564085790516693e-05
PART_003_R247G182B210A255,12629,2.180986e-05,-7.19995e-06,-7.194321e-06,1.962413e-05,-7.614977e-10,-2.56167e-08,4.4684753740594165e-05
PART_003_R247G182B210A255,12630,2.180991e-05,-7.197156e-06,-7.198424e-06,1.832562e-05,-6.490213e-09,-6.612853e-08,4.2999359890178625e-05
PART_003_R247G182B210A255,12631,2.180996e-05,-7.196408e-06,-7.197279e-06,1.735842e-05,-1.580782e-09,-8.666857e-08,4.1777522980252024e-05
PART_003_R247G182B210A255,12632,2.181015e-05,-7.197108e-06,-7.196973e-06,1.670019e-05,-6.095609e-09,-7.876275e-08,4.096492232394648e-05
PART_003_R247G182B210A255,12633,2.181034e-05,-7.196148e-06,-7.197734e-06,1.631755e-05,-2.129665e-09,-4.60855e-08,4.049958088836671e-05
PART_000_R31G119B180A255,12634,2.181057e-05,-7.197614e-06,-7.196242e-06,1.619302e-05,-2.469858e-09,7.054191e-10,4.034943186200316e-05
PART_000_R31G119B180A255,12635,2.18108e-05,-7.196313e-06,-7.197909e-06,1.63162e-05,-2.949568e-09,4.74011e-08,4.0498405110658755e-05
PART_002_R214G39B40A255,12636,2.1811e-05,-7.197425e-06,-7.197261e-06,1.669766e-05,1.941186e-09,7.997219e-08,4.096265018295021e-05
PART_002_R214G39B40A255,12637,2.181114e-05,-7.196821e-06,-7.197709e-06,1.735497e-05,-2.023185e-09,8.76031e-08,4.177434077908776e-05
PART_002_R214G39B40A255,12638,2.181119e-05,-7.197499e-06,-7.198865e-06,1.832149e-05,4.358704e-09,6.67672e-08,4.2995210003743905e-05
PART_002_R214G39B40A255,12639,2.181111e-05,-7.20002e-06,-7.19489e-06,1.961984e-05,-2.857793e-10,2.585466e-08,4.468012123538879e-05
PART_003_R247G182B210A255,12640,-8.629626e-10,7.714609e-10,3.375856e-11,2.025293e-05,-2.569606e-09,6.85688e-11,3.5079104073326286e-05
PART_003_R247G182B210A255,12641,-7.119292e-10,7.060528e-10,-2.403492e-11,1.894534e-05,-1.475894e-09,1.861784e-10,3.2814291570808385e-05
PART_003_R247G182B210A255,12642,-5.24096e-10,6.622193e-10,-1.234163e-10,1.796741e-05,-7.47114e-09,2.42768e-10,3.112046971122806e-05
PART_003_R247G182B210A255,12643,-3.546368e-10,6.254584e-10,-2.270635e-10,1.729282e-05,-1.966991e-09,2.030372e-10,2.995204305619002e-05
PART_003_R247G182B210A255,12644,-2.341707e-10,5.987457e-10,-2.986632e-10,1.690141e-05,-4.907067e-09,1.249727e-10,2.9274102087010284e-05
PART_003_R247G182B210A255,12645,-1.924859e-10,5.892906e-10,-3.314634e-10,1.677171e-05,-2.570401e-09,-1.124184e-11,2.9049454203697215e-05
PART_002_R214G39B40A255,12646,-2.399035e-10,6.01476e-10,-2.954122e-10,1.690001e-05,-3.69569e-10,-1.220343e-10,2.9271675989126856e-05
PART_002_R214G39B40A255,12647,-3.588953e-10,6.298905e-10,-2.311823e-10,1.729019e-05,-2.37547e-09,-2.230552e-10,2.994748785213646e-05
PART_002_R214G39B40A255,12648,-5.389429e-10,6.688599e-10,-1.145903e-10,1.796392e-05,3.745158e-09,-2.423148e-10,3.111442284022481e-05
PART_002_R214G39B40A255,12649,-7.215988e-10,7.233528e-10,-2.910092e-11,1.89417e-05,-6.135969e-10,-2.008531e-10,3.280798682466423e-05
PART_002_R214G39B40A255,12650,-8.875635e-10,8.06876e-10,4.401074e-11,2.024983e-05,1.652141e-09,-7.571501e-11,3.5073734552412116e-05
PART_003_R247G182B210A255,12651,-2.181143e-05,7.201426e-06,7.194348e-06,1.962469e-05,-7.553534e-10,2.57888e-08,4.468699900493033e-05
PART_003_R247G182B210A255,12652,-2.181116e-05,7.198358e-06,7.198372e-06,1.83261e-05,-6.481366e-09,6.652367e-08,4.30012065711661e-05
PART_003_R247G182B210A255,12653,-2.181079e-05,7.197382e-06,7.196995e-06,1.735886e-05,-1.573342e-09,8.717126e-08,4.177889038951985e-05
PART_003_R247G182B210A255,12654,-2.181062e-05,7.197932e-06,7.196509e-06,1.670059e-05,-6.084564e-09,7.917596e-08,4.096587419548276e-05
PART_003_R247G182B210A255,12655,-2.181056e-05,7.196896e-06,7.1971e-06,1.631794e-05,-2.121981e-09,4.634701e-08,4.050025155884583e-05
PART_001_R158G218B229A255,12656,-2.181071e-05,7.19834e-06,7.195561e-06,1.619341e-05,-2.464328e-09,-7.319375e-10,4.035001828482394e-05
PART_001_R158G218B229A255,12657,-2.181103e-05,7.197064e-06,7.197286e-06,1.63166e-05,-2.949965e-09,-4.764326e-08,4.0499099987364396e-05
PART_002_R214G39B40A255,12658,-2.181147e-05,7.198258e-06,7.196778e-06,1.669808e-05,1.940369e-09,-8.043162e-08,4.0963623283563766e-05
PART_002_R214G39B40A255,12659,-2.1812e-05,7.197803e-06,7.197457e-06,1.735541e-05,-2.026668e-09,-8.80937e-08,4.177574290725511e-05
PART_002_R214G39B40A255,12660,-2.181244e-05,7.19869e-06,7.198787e-06,1.832197e-05,4.36006e-09,-6.718113e-08,4.299704442111891e-05
PART_002_R214G39B40A255,12661,-2.181271e-05,7.201445e-06,7.194959e-06,1.96204e-05,-2.879708e-10,-2.601103e-08,4.468238316241332e-05
PART_003_R247G182B210A255,12662,-4.362153e-05,1.439701e-05,1.439772e-05,1.772638e-05,-3.189242e-09,5.847806e-08,6.564203006212253e-05
PART_003_R247G182B210A255,12663,-4.362128e-05,1.439687e-05,1.43919e-05,1.645429e-05,-9.667674e-11,1.613988e-07,6.463842921108281e-05
PART_003_R247G182B210A255,12664,-4.362108e-05,1.439529e-05,1.439469e-05,1.553748e-05,-6.760772e-09,2.066783e-07,6.395492567151717e-05
PART_003_R247G182B210A255,12665,-4.362088e-05,1.439314e-05,1.439485e-05,1.492363e-05,-4.023217e-10,1.863543e-07,6.35135741778903e-05
PART_001_R158G218B229A255,12666,-4.362094e-05,1.439625e-05,1.439135e-05,1.457736e-05,-2.828032e-09,1.095494e-07,6.327119705039819e-05
PART_001_R158G218B229A255,12667,-4.362121e-05,1.439533e-05,1.439289e-05,1.44647e-05,-2.166525e-09,-1.323226e-09,6.319382894533195e-05
PART_001_R158G218B229A255,12668,-4.362181e-05,1.439656e-05,1.439167e-05,1.457616e-05,-1.657518e-09,-1.120692e-07,6.327146733983149e-05
PART_001_R158G218B229A255,12669,-4.362251e-05,1.439372e-05,1.439542e-05,1.492138e-05,-3.189328e-09,-1.88614e-07,6.35140226520532e-05
PART_002_R214G39B40A255,12670,-4.362335e-05,1.439612e-05,1.439549e-05,1.553452e-05,3.6985e-09,-2.084681e-07,6.395558380615222e-05
PART_002_R214G39B40A255,12671,-4.362397e-05,1.439792e-05,1.439277e-05,1.645121e-05,-1.514664e-09,-1.626072e-07,6.463936257838947e-05
PART_002_R214G39B40A255,12672,-4.362436e-05,1.439801e-05,1.439876e-05,1.772374e-05,2.471674e-09,-5.889064e-08,6.564329546244351e-05
PART_003_R247G182B210A255,12673,-6.54325e-05,2.160343e-05,2.15813e-05,1.452223e-05,5.250074e-10,1.262165e-07,9.05873102632544e-05
PART_003_R247G182B210A255,12674,-6.543175e-05,2.159303e-05,2.159483e-05,1.332094e-05,-7.97677e-09,3.184024e-07,9.003396936987037e-05
PART_003_R247G182B210A255,12675,-6.543141e-05,2.158865e-05,2.159325e-05,1.249542e-05,2.278004e-09,4.057411e-07,8.967603699906344e-05
PART_001_R158G218B229A255,12676,-6.543101e-05,2.159379e-05,2.158696e-05,1.198491e-05,-1.868869e-10,3.617253e-07,8.946523470662757e-05
PART_001_R158G218B229A255,12677,-6.543124e-05,2.159383e-05,2.158812e-05,1.170324e-05,-8.811413e-10,2.056619e-07,8.935261775814217e-05
PART_001_R158G218B229A255,12678,-6.543155e-05,2.159432e-05,2.158626e-05,1.161171e-05,-1.707675e-09,-1.712109e-09,8.931571043563956e-05
PART_001_R158G218B229A255,12679,-6.543241e-05,2.159424e-05,2.158852e-05,1.170229e-05,-2.666246e-09,-2.091651e-07,8.935380291671404e-05
PART_001_R158G218B229A255,12680,-6.543329e-05,2.159458e-05,2.158781e-05,1.198313e-05,-2.57547e-09,-3.646425e-07,8.946757038188841e-05
PART_001_R158G218B229A255,12681,-6.54344e-05,2.158968e-05,2.159424e-05,1.249301e-05,-4.620646e-09,-4.081932e-07,8.967894499904527e-05
PART_002_R214G39B40A255,12682,-6.543515e-05,2.15939e-05,2.159612e-05,1.331807e-05,6.754555e-09,-3.198901e-07,9.003704151512794e-05
PART_002_R214G39B40A255,12683,-6.543563e-05,2.160364e-05,2.158253e-05,1.45192e-05,-1.185133e-09,-1.268086e-07,9.05895541449014e-05
PART_003_R247G182B210A255,12684,-8.724238e-05,2.879193e-05,2.880072e-05,9.933373e-06,-7.16209e-09,2.313443e-07,0.00011730796020704867
PART_003_R247G182B210A255,12685,-8.724181e-05,2.878567e-05,2.878839e-05,8.857065e-06,6.94644e-09,6.334625e-07,0.00011704374604186623
PART_001_R158G218B229A255,12686,-8.724189e-05,2.879183e-05,2.878225e-05,8.267797e-06,4.572162e-09,7.740342e-07,0.00011691697702651712
PART_001_R158G218B229A255,12687,-8.724141e-05,2.8794e-05,2.87815e-05,7.926039e-06,8.600171e-10,6.401345e-07,0.00011684374903662936
PART_001_R158G218B229A255,12688,-8.724179e-05,2.879215e-05,2.878194e-05,7.73747e-06,2.067126e-10,3.565947e-07,0.00011680187256680175
PART_001_R158G218B229A255,12689,-8.724209e-05,2.879517e-05,2.8781e-05,7.679699e-06,-1.101577e-09,-1.835455e-09,0.00011679013231031636
PART_001_R158G218B229A255,12690,-8.724309e-05,2.879262e-05,2.87823e-05,7.736838e-06,-2.551559e-09,-3.606788e-07,0.00011680348833410628
PART_001_R158G218B229A255,12691,-8.724407e-05,2.879488e-05,2.878249e-05,7.924849e-06,-2.577681e-09,-6.432575e-07,0.00011684712834986465
PART_001_R158G218B229A255,12692,-8.724529e-05,2.879308e-05,2.878321e-05,8.266281e-06,-5.982079e-09,-7.768755e-07,0.00011692118298092135
PART_001_R158G218B229A255,12693,-8.724614e-05,2.878734e-05,2.878995e-05,8.855487e-06,-7.444024e-09,-6.350941e-07,0.00011704930792155437
PART_002_R214G39B40A255,12694,-8.724667e-05,2.879382e-05,2.880195e-05,9.932055e-06,6.97289e-09,-2.31947e-07,0.00011731341563685624
PART_003_R247G182B210A255,12695,-0.000109054,3.600992e-05,3.595503e-05,3.648566e-06,1.087413e-08,6.235151e-07,0.00014517811167548178
PART_001_R158G218B229A255,12696,-0.0001090528,3.598864e-05,3.597164e-05,3.13537e-06,6.790376e-09,1.348262e-06,0.00014515336408948244
PART_001_R158G218B229A255,12697,-0.0001090527,3.599858e-05,3.597191e-05,2.93919e-06,1.131005e-09,1.372195e-06,0.00014514672334589435
PART_001_R158G218B229A255,12698,-0.000109052,3.598917e-05,3.597652e-05,2.809593e-06,1.41233e-09,1.06982e-06,0.0001451282928072575
PART_001_R158G218B229A255,12699,-0.0001090524,3.59955e-05,3.597527e-05,2.747558e-06,-1.629674e-10,5.761331e-07,0.00014511926956011875
PART_001_R158G218B229A255,12700,-0.0001090527,3.598985e-05,3.597748e-05,2.724668e-06,-3.610826e-10,-1.648511e-09,0.0001451131239511109
PART_001_R158G218B229A255,12701,-0.0001090537,3.599604e-05,3.59754e-05,2.747325e-06,-7.207096e-10,-5.801999e-07,0.00014512093906373613
PART_001_R158G218B229A255,12702,-0.0001090547,3.59902e-05,3.597731e-05,2.809189e-06,-1.943021e-09,-1.072644e-06,0.00014513193958840508
PART_001_R158G218B229A255,12703,-0.0001090559,3.599985e-05,3.59724e-05,2.938613e-06,-1.686665e-09,-1.375089e-06,0.00014515084752810467
PART_001_R158G218B229A255,12704,-0.0001090568,3.598972e-05,3.597319e-05,3.134755e-06,-6.882091e-09,-1.349655e-06,0.0001451586736404421
PART_001_R158G218B229A255,12705,-0.0001090573,3.601034e-05,3.595584e-05,3.647849e-06,-1.114213e-08,-6.242199e-07,0.00014518197784130045
PART_003_R247G182B210A255,12706,0.0001045086,-3.450761e-05,-3.445615e-05,3.647833e-06,1.088432e-08,-6.232898e-07,0.0001391382097033248
PART_000_R31G119B180A255,12707,0.0001045087,-3.448816e-05,-3.447365e-05,3.135048e-06,6.428906e-09,-1.346977e-06,0.00013911520117857753
PART_000_R31G119B180A255,12708,0.0001045086,-3.449828e-05,-3.447297e-05,2.938927e-06,1.247845e-09,-1.371231e-06,0.00013910768407089926
PART_000_R31G119B180A255,12709,0.0001045089,-3.448945e-05,-3.447874e-05,2.809446e-06,1.117825e-09,-1.068221e-06,0.00013909045617022749
PART_000_R31G119B180A255,12710,0.0001045094,-3.449557e-05,-3.447696e-05,2.747358e-06,-1.514705e-10,-5.753691e-07,0.00013908066805043152
PART_000_R31G119B180A255,12711,0.0001045103,-3.449029e-05,-3.447984e-05,2.724463e-06,-6.60839e-10,2.822332e-09,0.00013907544605179953
PART_000_R31G119B180A255,12712,0.0001045114,-3.449636e-05,-3.447744e-05,2.747046e-06,-7.515727e-10,5.803581e-07,0.00013908334517407338
PART_000_R31G119B180A255,12713,0.0001045126,-3.44909e-05,-3.447945e-05,2.808835e-06,-2.190021e-09,1.073086e-06,0.00013909530822615098
PART_000_R31G119B180A255,12714,0.0001045139,-3.450029e-05,-3.447446e-05,2.938175e-06,-1.625878e-09,1.374743e-06,0.0001391147847350804
PART_000_R31G119B180A255,12715,0.0001045148,-3.44907e-05,-3.447511e-05,3.13422e-06,-6.815704e-09,1.349579e-06,0.00013912331369102552
PART_000_R31G119B180A255,12716,0.0001045154,-3.451063e-05,-3.445844e-05,3.647172e-06,-1.05271e-08,6.240054e-07,0.00013914761242767064
PART_003_R247G182B210A255,12717,8.360743e-05,-2.759342e-05,-2.760037e-05,9.933058e-06,-6.986986e-09,-2.310326e-07,0.00011252803709861512
PART_003_R247G182B210A255,12718,8.36068e-05,-2.758657e-05,-2.758925e-05,8.856668e-06,6.36206e-09,-6.327763e-07,0.0001122532252566603
PART_000_R31G119B180A255,12719,8.360647e-05,-2.759192e-05,-2.758291e-05,8.267376e-06,4.351515e-09,-7.731435e-07,0.00011212012285703336
PART_000_R31G119B180A255,12720,8.360662e-05,-2.759397e-05,-2.758307e-05,7.925607e-06,4.271816e-10,-6.38924e-07,0.0001120447663207132
PART_000_R31G119B180A255,12721,8.360713e-05,-2.75923e-05,-2.758314e-05,7.737055e-06,-3.011186e-11,-3.55753e-07,0.00011200116280764464
PART_000_R31G119B180A255,12722,8.360797e-05,-2.759532e-05,-2.758288e-05,7.679183e-06,-1.700573e-09,2.830977e-09,0.00011198972309998675
PART_000_R31G119B180A255,12723,8.360911e-05,-2.759299e-05,-2.758379e-05,7.736165e-06,-2.847596e-09,3.610841e-07,0.00011200366059178558
PART_000_R31G119B180A255,12724,8.361035e-05,-2.759528e-05,-2.758427e-05,7.923959e-06,-3.166729e-09,6.43743e-07,0.00011204944674056365
PART_000_R31G119B180A255,12725,8.36116e-05,-2.759364e-05,-2.758463e-05,8.265136e-06,-6.020215e-09,7.768766e-07,0.00011212649849703074
PART_000_R31G119B180A255,12726,8.361249e-05,-2.758814e-05,-2.759122e-05,8.854057e-06,-7.565815e-09,6.351909e-07,0.00011226003817059945
PART_002_R214G39B40A255,12727,8.361294e-05,-2.759419e-05,-2.760247e-05,9.930212e-06,6.718799e-09,2.31937e-07,0.00011253415249278425
PART_003_R247G182B210A255,12728,6.270423e-05,-2.070111e-05,-2.068172e-05,1.452006e-05,8.712219e-10,-1.260703e-07,8.710555664017428e-05
PART_003_R247G182B210A255,12729,6.270419e-05,-2.06919e-05,-2.069523e-05,1.331966e-05,-7.684195e-09,-3.177733e-07,8.653166294284792e-05
PART_003_R247G182B210A255,12730,6.270425e-05,-2.06883e-05,-2.069346e-05,1.249477e-05,2.189529e-09,-4.049501e-07,8.616030134509386e-05
PART_000_R31G119B180A255,12731,6.270442e-05,-2.069339e-05,-2.068804e-05,1.198445e-05,-6.942029e-10,-3.60794e-07,8.594195836097559e-05
PART_000_R31G119B180A255,12732,6.270484e-05,-2.06935e-05,-2.068898e-05,1.170279e-05,-1.256568e-09,-2.048553e-07,8.582480968729384e-05
PART_000_R31G119B180A255,12733,6.270558e-05,-2.069406e-05,-2.068769e-05,1.161109e-05,-2.54094e-09,2.468227e-09,8.578706783431615e-05
PART_000_R31G119B180A255,12734,6.270653e-05,-2.069408e-05,-2.068959e-05,1.170145e-05,-3.236195e-09,2.096133e-07,8.582651653612818e-05
PART_000_R31G119B180A255,12735,6.270762e-05,-2.069449e-05,-2.068919e-05,1.198193e-05,-3.498937e-09,3.650007e-07,8.594515461731674e-05
PART_000_R31G119B180A255,12736,6.270866e-05,-2.068986e-05,-2.069498e-05,1.249146e-05,-4.991208e-09,4.082973e-07,8.616466838800016e-05
PART_002_R214G39B40A255,12737,6.270951e-05,-2.069393e-05,-2.069699e-05,1.331616e-05,5.788775e-09,3.199953e-07,8.653702485448764e-05
PART_002_R214G39B40A255,12738,6.270983e-05,-2.070316e-05,-2.068368e-05,1.451699e-05,-1.121076e-09,1.268006e-07,8.711130598316452e-05
PART_003_R247G182B210A255,12739,4.180275e-05,-1.37967e-05,-1.379762e-05,1.772677e-05,-3.113932e-09,-5.825859e-08,6.351437103381599e-05
PART_003_R247G182B210A255,12740,4.180256e-05,-1.379625e-05,-1.379222e-05,1.645433e-05,-5.230303e-10,-1.609296e-07,6.24765255878442e-05
PART_003_R247G182B210A255,12741,4.180246e-05,-1.379452e-05,-1.379496e-05,1.553727e-05,-6.586287e-09,-2.059849e-07,6.176889463652813e-05
PART_003_R247G182B210A255,12742,4.180262e-05,-1.37925e-05,-1.379543e-05,1.49234e-05,-1.023795e-09,-1.856157e-07,6.131237424443477e-05
PART_000_R31G119B180A255,12743,4.180299e-05,-1.379559e-05,-1.379214e-05,1.457714e-05,-3.218181e-09,-1.088697e-07,6.106164848300036e-05
PART_000_R31G119B180A255,12744,4.180353e-05,-1.379478e-05,-1.379386e-05,1.446429e-05,-3.194236e-09,1.819758e-09,6.098170234925874e-05
PART_000_R31G119B180A255,12745,4.180421e-05,-1.379602e-05,-1.379258e-05,1.457548e-05,-2.460888e-09,1.123845e-07,6.106198558663099e-05
PART_000_R31G119B180A255,12746,4.180496e-05,-1.379334e-05,-1.379626e-05,1.492028e-05,-4.361677e-09,1.887327e-07,6.131300434211674e-05
PART_002_R214G39B40A255,12747,4.180564e-05,-1.379563e-05,-1.379607e-05,1.5533e-05,2.774389e-09,2.084721e-07,6.176955854064718e-05
PART_002_R214G39B40A255,12748,4.180614e-05,-1.379722e-05,-1.379351e-05,1.64492e-05,-2.370753e-09,1.625643e-07,6.247667731901572e-05
PART_002_R214G39B40A255,12749,4.180622e-05,-1.3797e-05,-1.379907e-05,1.772135e-05,2.305357e-09,5.88768e-08,6.351363893025613e-05
PART_003_R247G182B210A255,12750,2.090037e-05,-6.899224e-06,-6.894516e-06,1.962291e-05,-3.538118e-10,-2.562265e-08,4.390745185935953e-05
PART_003_R247G182B210A255,12751,2.090047e-05,-6.89673e-06,-6.898276e-06,1.832527e-05,-6.316632e-09,-6.606022e-08,4.219226324786968e-05
PART_003_R247G182B210A255,12752,2.090071e-05,-6.896146e-06,-6.897354e-06,1.735881e-05,-1.523576e-09,-8.65177e-08,4.094760188699015e-05
PART_003_R247G182B210A255,12753,2.09009e-05,-6.896824e-06,-6.896933e-06,1.670075e-05,-6.520639e-09,-7.860614e-08,4.011832879823646e-05
PART_003_R247G182B210A255,12754,2.090118e-05,-6.895909e-06,-6.89781e-06,1.631808e-05,-2.610506e-09,-4.582745e-08,3.964311451340392e-05
PART_000_R31G119B180A255,12755,2.090148e-05,-6.897344e-06,-6.896318e-06,1.619333e-05,-3.601014e-09,9.445074e-10,3.9489466269970226e-05
PART_000_R31G119B180A255,12756,2.090181e-05,-6.89614e-06,-6.89803e-06,1.631621e-05,-3.831421e-09,4.771181e-08,3.964141225388168e-05
PART_002_R214G39B40A255,12757,2.090213e-05,-6.897264e-06,-6.89739e-06,1.669722e-05,3.737632e-10,8.022478e-08,4.011509173811062e-05
PART_002_R214G39B40A255,12758,2.090238e-05,-6.89676e-06,-6.897892e-06,1.735411e-05,-2.86358e-09,8.786316e-08,4.094315865597977e-05
PART_002_R214G39B40A255,12759,2.090252e-05,-6.897483e-06,-6.898997e-06,1.83203e-05,3.134681e-09,6.692766e-08,4.2187627356612997e-05
PART_002_R214G39B40A255,12760,2.090246e-05,-6.899884e-06,-6.895252e-06,1.961856e-05,-3.422517e-10,2.592018e-08,4.390338572629398e-05
PART_003_R247G182B210A255,12761,-1.303407e-09,1.057252e-09,1.148078e-10,2.025467e-05,-2.493119e-09,1.197883e-10,3.5082117857290164e-05
PART_003_R247G182B210A255,12762,-1.011259e-09,8.541563e-10,2.150691e-11,1.894652e-05,-1.8796e-09,2.864434e-10,3.281633547177198e-05
PART_003_R247G182B210A255,12763,-7.066468e-10,6.94908e-10,-1.214499e-10,1.796816e-05,-7.282864e-09,3.29039e-10,3.1121768624044324e-05
PART_003_R247G182B210A255,12764,-4.410725e-10,5.932166e-10,-2.599294e-10,1.72935e-05,-2.58151e-09,2.959744e-10,2.9953220994086708e-05
PART_003_R247G182B210A255,12765,-2.677765e-10,5.410284e-10,-3.65207e-10,1.690207e-05,-5.296115e-09,1.532656e-10,2.9275245444131352e-05
PART_003_R247G182B210A255,12766,-2.091805e-10,5.266036e-10,-3.924145e-10,1.677216e-05,-3.733541e-09,7.768657e-13,2.9050234004643758e-05
PART_002_R214G39B40A255,12767,-2.707729e-10,5.435048e-10,-3.679146e-10,1.690015e-05,-1.408166e-09,-1.846246e-10,2.9271918571732504e-05
PART_002_R214G39B40A255,12768,-4.560525e-10,5.984631e-10,-2.507401e-10,1.728987e-05,-3.813723e-09,-2.955584e-10,2.99469340448044e-05
PART_002_R214G39B40A255,12769,-7.179076e-10,7.015984e-10,-1.262215e-10,1.796317e-05,2.613196e-09,-3.521465e-10,3.111312346471001e-05
PART_002_R214G39B40A255,12770,-1.036962e-09,8.492067e-10,3.929275e-11,1.894049e-05,-1.695488e-09,-2.821182e-10,3.280589117626694e-05
PART_002_R214G39B40A255,12771,-1.310596e-09,1.024908e-09,1.149422e-10,2.024839e-05,1.479157e-09,-1.144142e-10,3.5071240404876985e-05
PART_003_R247G182B210A255,12772,-2.090278e-05,6.90114e-06,6.89475e-06,1.962365e-05,-3.573079e-10,2.581891e-08,4.391065086455162e-05
PART_003_R247G182B210A255,12773,-2.090236e-05,6.898453e-06,6.898269e-06,1.832591e-05,-6.309816e-09,6.662286e-08,4.219491030192256e-05
PART_003_R247G182B210A255,12774,-2.090206e-05,6.897737e-06,6.897104e-06,1.735939e-05,-1.504045e-09,8.718316e-08,4.09497153760965e-05
PART_003_R247G182B210A255,12775,-2.090173e-05,6.898311e-06,6.896357e-06,1.670131e-05,-6.503298e-09,7.921705e-08,4.011992250976651e-05
PART_003_R247G182B210A255,12776,-2.090168e-05,6.897323e-06,6.897059e-06,1.631863e-05,-2.595229e-09,4.613509e-08,3.9644377781759186e-05
PART_001_R158G218B229A255,12777,-2.090186e-05,6.898731e-06,6.895483e-06,1.619387e-05,-3.594837e-09,-9.317985e-10,3.949059245292759e-05
PART_001_R158G218B229A255,12778,-2.090232e-05,6.897559e-06,6.897265e-06,1.631676e-05,-3.830935e-09,-4.809424e-08,3.9642679692793264e-05
PART_002_R214G39B40A255,12779,-2.090299e-05,6.89876e-06,6.896847e-06,1.669778e-05,3.657125e-10,-8.081692e-08,4.011672079425773e-05
PART_002_R214G39B40A255,12780,-2.090373e-05,6.898365e-06,6.897608e-06,1.735471e-05,-2.870321e-09,-8.858548e-08,4.094529136795203e-05
PART_002_R214G39B40A255,12781,-2.090447e-05,6.899243e-06,6.899043e-06,1.832096e-05,3.125471e-09,-6.749462e-08,4.2190369964311324e-05
PART_002_R214G39B40A255,12782,-2.090491e-05,6.901885e-06,6.895452e-06,1.961933e-05,-3.410944e-10,-2.615244e-08,4.390666680117461e-05
PART_003_R247G182B210A255,12783,-4.180459e-05,1.379829e-05,1.379773e-05,1.772812e-05,-3.079689e-09,5.851553e-08,6.351785688964645e-05
PART_003_R247G182B210A255,12784,-4.180389e-05,1.379748e-05,1.379216e-05,1.645548e-05,-5.0007e-10,1.615518e-07,6.247914322943745e-05
PART_003_R247G182B210A255,12785,-4.180316e-05,1.379545e-05,1.379457e-05,1.553832e-05,-6.546509e-09,2.067084e-07,6.177056731854688e-05
PART_003_R247G182B210A255,12786,-4.180282e-05,1.379324e-05,1.379479e-05,1.492438e-05,-9.991675e-10,1.862608e-07,6.131332237959509e-05
PART_001_R158G218B229A255,12787,-4.18028e-05,1.379623e-05,1.379123e-05,1.457812e-05,-3.182498e-09,1.092181e-07,6.106205639477828e-05
PART_001_R158G218B229A255,12788,-4.180326e-05,1.37954e-05,1.379295e-05,1.446525e-05,-3.192404e-09,-1.817027e-09,6.098200715168115e-05
PART_001_R158G218B229A255,12789,-4.180402e-05,1.379667e-05,1.379167e-05,1.457646e-05,-2.451765e-09,-1.127634e-07,6.106239819403996e-05
PART_001_R158G218B229A255,12790,-4.180518e-05,1.379409e-05,1.379565e-05,1.492128e-05,-4.384917e-09,-1.893754e-07,6.131400328759954e-05
PART_002_R214G39B40A255,12791,-4.180635e-05,1.379657e-05,1.379566e-05,1.553406e-05,2.770435e-09,-2.092186e-07,6.177124343286112e-05
PART_002_R214G39B40A255,12792,-4.180749e-05,1.379843e-05,1.379349e-05,1.645037e-05,-2.39107e-09,-1.631787e-07,6.247933729347606e-05
PART_002_R214G39B40A255,12793,-4.180805e-05,1.379851e-05,1.379915e-05,1.772271e-05,2.309127e-09,-5.912152e-08,6.351707608928865e-05
PART_003_R247G182B210A255,12794,-6.270513e-05,2.070204e-05,2.068147e-05,1.452166e-05,8.575472e-10,1.263284e-07,8.71075453179218e-05
PART_003_R247G182B210A255,12795,-6.270492e-05,2.069275e-05,2.069529e-05,1.332097e-05,-7.684288e-09,3.184225e-07,8.65334171230708e-05
PART_003_R247G182B210A255,12796,-6.270423e-05,2.068907e-05,2.069271e-05,1.249597e-05,2.241675e-09,4.058047e-07,8.616082576155621e-05
PART_001_R158G218B229A255,12797,-6.27041e-05,2.06941e-05,2.068746e-05,1.198557e-05,-6.686536e-10,3.614535e-07,8.594218786600431e-05
PART_001_R158G218B229A255,12798,-6.2704e-05,2.069414e-05,2.068772e-05,1.17039e-05,-1.206845e-09,2.053288e-07,8.582414980857633e-05
PART_001_R158G218B229A255,12799,-6.270476e-05,2.069468e-05,2.068676e-05,1.161219e-05,-2.544475e-09,-2.541192e-09,8.57865667809333e-05
PART_001_R158G218B229A255,12800,-6.270571e-05,2.069472e-05,2.068837e-05,1.170257e-05,-3.222248e-09,-2.099356e-07,8.582589851326165e-05
PART_001_R158G218B229A255,12801,-6.270725e-05,2.069519e-05,2.068852e-05,1.198308e-05,-3.533946e-09,-3.657858e-07,8.594530122262454e-05
PART_001_R158G218B229A255,12802,-6.270871e-05,2.069064e-05,2.069433e-05,1.249268e-05,-4.995582e-09,-4.090525e-07,8.616532101198305e-05
PART_002_R214G39B40A255,12803,-6.271018e-05,2.069481e-05,2.069692e-05,1.331752e-05,5.764266e-09,-3.207175e-07,8.653869678679595e-05
PART_002_R214G39B40A255,12804,-6.271083e-05,2.070419e-05,2.068355e-05,1.451861e-05,-1.110498e-09,-1.270526e-07,8.711350550507434e-05
PART_003_R247G182B210A255,12805,-8.360738e-05,2.759385e-05,2.759973e-05,9.93448e-06,-6.95324e-09,2.3138e-07,0.00011252826260583044
PART_003_R247G182B210A255,12806,-8.360681e-05,2.758677e-05,2.758941e-05,8.857781e-06,6.39672e-09,6.335416e-07,0.00011225368987966479
PART_001_R158G218B229A255,12807,-8.360545e-05,2.759188e-05,2.758175e-05,8.268373e-06,4.389817e-09,7.742159e-07,0.00011211875907975974
PART_001_R158G218B229A255,12808,-8.360541e-05,2.759377e-05,2.758247e-05,7.92654e-06,4.657878e-10,6.396356e-07,0.00011204337874455785
PART_001_R158G218B229A255,12809,-8.360522e-05,2.759202e-05,2.758148e-05,7.737986e-06,1.955974e-12,3.563788e-07,0.0001119985025585408
PART_001_R158G218B229A255,12810,-8.360618e-05,2.7595e-05,2.758187e-05,7.680101e-06,-1.693895e-09,-2.98305e-09,0.00011198747440544459
PART_001_R158G218B229A255,12811,-8.360725e-05,2.75927e-05,2.758222e-05,7.737102e-06,-2.845708e-09,-3.613684e-07,0.0001120010876826106
PART_001_R158G218B229A255,12812,-8.360901e-05,2.759507e-05,2.758348e-05,7.924912e-06,-3.194272e-09,-6.447154e-07,0.00011204783970591154
PART_001_R158G218B229A255,12813,-8.361069e-05,2.759359e-05,2.758371e-05,8.266147e-06,-6.032932e-09,-7.777117e-07,0.00011212535602608798
PART_001_R158G218B229A255,12814,-8.361229e-05,2.758829e-05,2.759107e-05,8.855188e-06,-7.584387e-09,-6.360868e-07,0.00011226012289786349
PART_002_R214G39B40A255,12815,-8.361298e-05,2.759451e-05,2.760212e-05,9.931637e-06,6.72348e-09,-2.322205e-07,0.00011253455617812609
PART_003_R247G182B210A255,12816,-0.000104508,3.450752e-05,3.445538e-05,3.648403e-06,1.082005e-08,6.237732e-07,0.0001391372323061803
PART_001_R158G218B229A255,12817,-0.0001045082,3.448813e-05,3.447371e-05,3.135476e-06,6.452188e-09,1.348011e-06,0.0001391147755970838
PART_001_R158G218B229A255,12818,-0.0001045071,3.449828e-05,3.447155e-05,2.939313e-06,1.237795e-09,1.372547e-06,0.00013910553947547825
PART_001_R158G218B229A255,12819,-0.0001045073,3.448941e-05,3.447795e-05,2.809809e-06,1.157929e-09,1.069091e-06,0.00013908848467946507
PART_001_R158G218B229A255,12820,-0.000104507,3.449547e-05,3.447497e-05,2.747725e-06,-1.57528e-10,5.761087e-07,0.00013907725629131408
PART_001_R158G218B229A255,12821,-0.000104508,3.449016e-05,3.44786e-05,2.724817e-06,-6.409839e-10,-2.994888e-09,0.00013907248365324
PART_001_R158G218B229A255,12822,-0.0001045091,3.449625e-05,3.447556e-05,2.747418e-06,-7.657556e-10,-5.8069e-07,0.00013908007857847476
PART_001_R158G218B229A255,12823,-0.0001045108,3.449084e-05,3.447844e-05,2.809201e-06,-2.192431e-09,-1.074249e-06,0.00013909302403086602
PART_001_R158G218B229A255,12824,-0.0001045126,3.450027e-05,3.44733e-05,2.938577e-06,-1.642028e-09,-1.37578e-06,0.0001391129526686234
PART_001_R158G218B229A255,12825,-0.0001045141,3.449071e-05,3.447483e-05,3.134656e-06,-6.821153e-09,-1.350767e-06,0.0001391225435279702
PART_001_R158G218B229A255,12826,-0.0001045149,3.451064e-05,3.445798e-05,3.647769e-06,-1.052362e-08,-6.244283e-07,0.00013914694096820145
PART_003_R247G182B210A255,12827,9.996567e-05,-3.300945e-05,-3.295836e-05,3.648163e-06,9.709653e-09,-6.229845e-07,0.0001331040320277309
PART_000_R31G119B180A255,12828,9.996443e-05,-3.298946e-05,-3.297424e-05,3.135153e-06,6.262491e-09,-1.347065e-06,0.0001330775900088891
PART_000_R31G119B180A255,12829,9.996408e-05,-3.299838e-05,-3.297415e-05,2.939089e-06,8.499076e-10,-1.370478e-06,0.0001330689446880862
PART_000_R31G119B180A255,12830,9.996419e-05,-3.298981e-05,-3.297936e-05,2.809525e-06,1.207624e-09,-1.067828e-06,0.00013305065923311765
PART_000_R31G119B180A255,12831,9.996492e-05,-3.299578e-05,-3.297787e-05,2.747505e-06,-5.226933e-10,-5.741442e-07,0.0001330406028842435
PART_000_R31G119B180A255,12832,9.996621e-05,-3.299087e-05,-3.298076e-05,2.724519e-06,-6.553814e-10,3.670718e-09,0.00013303574738135186
PART_000_R31G119B180A255,12833,9.996776e-05,-3.29969e-05,-3.297841e-05,2.747054e-06,-1.196984e-09,5.818314e-07,0.0001330443427542165
PART_000_R31G119B180A255,12834,9.996978e-05,-3.299194e-05,-3.29808e-05,2.808728e-06,-2.16735e-09,1.074124e-06,0.00013305813021392382
PART_000_R31G119B180A255,12835,9.99715e-05,-3.300112e-05,-3.297582e-05,2.93796e-06,-1.973652e-09,1.375988e-06,0.00013307865707906563
PART_000_R31G119B180A255,12836,9.997318e-05,-3.299202e-05,-3.297717e-05,3.133915e-06,-6.433245e-09,1.350224e-06,0.00013308908222215159
PART_000_R31G119B180A255,12837,9.997385e-05,-3.301097e-05,-3.296088e-05,3.646727e-06,-1.033615e-08,6.24344e-07,0.0001331141211143404
PART_003_R247G182B210A255,12838,7.997062e-05,-2.63914e-05,-2.640003e-05,9.932033e-06,-6.448791e-09,-2.311308e-07,0.00010774921579682151
PART_003_R247G182B210A255,12839,7.997037e-05,-2.638587e-05,-2.63895e-05,8.856424e-06,6.480333e-09,-6.32586e-07,0.00010746415789739088
PART_000_R31G119B180A255,12840,7.997028e-05,-2.639162e-05,-2.638327e-05,8.267561e-06,3.935516e-09,-7.727811e-07,0.00010732574263653653
PART_000_R31G119B180A255,12841,7.99704e-05,-2.639363e-05,-2.638348e-05,7.925968e-06,3.574049e-10,-6.384037e-07,0.00010724697184725408
PART_000_R31G119B180A255,12842,7.997103e-05,-2.639206e-05,-2.638351e-05,7.73738e-06,-6.968699e-10,-3.548245e-07,0.00010720156917488934
PART_000_R31G119B180A255,12843,7.997221e-05,-2.639505e-05,-2.63835e-05,7.679392e-06,-2.064331e-09,3.863436e-09,0.000107189947446059
PART_000_R31G119B180A255,12844,7.997381e-05,-2.639302e-05,-2.638441e-05,7.736155e-06,-3.706161e-09,3.62414e-07,0.00010720506114664481
PART_000_R31G119B180A255,12845,7.997575e-05,-2.639545e-05,-2.638526e-05,7.923657e-06,-3.604824e-09,6.449997e-07,0.00010725366895510996
PART_000_R31G119B180A255,12846,7.997762e-05,-2.639419e-05,-2.638567e-05,8.264538e-06,-6.631865e-09,7.780953e-07,0.00010733489619568362
PART_000_R31G119B180A255,12847,7.99793e-05,-2.638928e-05,-2.639238e-05,8.853196e-06,-7.434833e-09,6.360512e-07,0.00010747537229935488
PART_002_R214G39B40A255,12848,7.998016e-05,-2.639527e-05,-2.640319e-05,9.929192e-06,6.115346e-09,2.322573e-07,0.00010776132500896633
PART_003_R247G182B210A255,12849,5.997829e-05,-1.980256e-05,-1.97824e-05,1.452139e-05,3.044373e-10,-1.259713e-07,8.364230963090223e-05
PART_003_R247G182B210A255,12850,5.99776e-05,-1.979286e-05,-1.979511e-05,1.332048e-05,-7.400649e-09,-3.177646e-07,8.304284693356891e-05
PART_003_R247G182B210A255,12851,5.997716e-05,-1.97888e-05,-1.97934e-05,1.24953e-05,1.684074e-09,-4.047249e-07,8.26550924070015e-05
PART_000_R31G119B180A255,12852,5.997723e-05,-1.979361e-05,-1.978814e-05,1.198501e-05,-8.659921e-10,-3.603233e-07,8.242731035720744e-05
PART_000_R31G119B180A255,12853,5.997779e-05,-1.979379e-05,-1.978913e-05,1.170331e-05,-2.095508e-09,-2.041451e-07,8.230528959645621e-05
PART_000_R31G119B180A255,12854,5.997878e-05,-1.979443e-05,-1.978795e-05,1.161148e-05,-3.188237e-09,3.415481e-09,8.226619970653802e-05
PART_000_R31G119B180A255,12855,5.998018e-05,-1.979461e-05,-1.978999e-05,1.170148e-05,-4.48769e-09,2.107164e-07,8.230768948616935e-05
PART_000_R31G119B180A255,12856,5.998178e-05,-1.97952e-05,-1.978975e-05,1.198157e-05,-4.321008e-09,3.661593e-07,8.243183921270264e-05
PART_000_R31G119B180A255,12857,5.99834e-05,-1.979092e-05,-1.979558e-05,1.24906e-05,-6.080599e-09,4.093589e-07,8.266112751249694e-05
PART_002_R214G39B40A255,12858,5.998466e-05,-1.979482e-05,-1.979762e-05,1.331485e-05,5.036225e-09,3.207743e-07,8.304910159397998e-05
PART_002_R214G39B40A255,12859,5.998528e-05,-1.980343e-05,-1.978518e-05,1.451529e-05,-1.616582e-09,1.271204e-07,8.364754539464803e-05
PART_003_R247G182B210A255,12860,3.998396e-05,-1.319539e-05,-1.319755e-05,1.772511e-05,-2.874396e-09,-5.832109e-08,6.140608227900127e-05
PART_003_R247G182B210A255,12861,3.998395e-05,-1.31955e-05,-1.319225e-05,1.645386e-05,-3.28767e-11,-1.608505e-07,6.0333632619001095e-05
PART_003_R247G182B210A255,12862,3.998405e-05,-1.319422e-05,-1.319492e-05,1.553769e-05,-6.677268e-09,-2.058046e-07,5.96016128761468e-05
PART_003_R247G182B210A255,12863,3.998421e-05,-1.319232e-05,-1.319526e-05,1.492413e-05,-1.220039e-09,-1.852821e-07,5.9128602656317076e-05
PART_000_R31G119B180A255,12864,3.998464e-05,-1.319527e-05,-1.319223e-05,1.45778e-05,-4.201517e-09,-1.083524e-07,5.886860965004433e-05
PART_000_R31G119B180A255,12865,3.998538e-05,-1.319457e-05,-1.319387e-05,1.446477e-05,-3.998957e-09,2.508185e-09,5.8785700955539754e-05
PART_000_R31G119B180A255,12866,3.998636e-05,-1.319587e-05,-1.319286e-05,1.457551e-05,-4.10155e-09,1.13178e-07,5.8869045107324344e-05
PART_000_R31G119B180A255,12867,3.998748e-05,-1.319347e-05,-1.319643e-05,1.49198e-05,-5.441209e-09,1.89575e-07,5.9129350311484406e-05
PART_002_R214G39B40A255,12868,3.998859e-05,-1.319585e-05,-1.319648e-05,1.55319e-05,9.483439e-10,2.092423e-07,5.9602594467490224e-05
PART_002_R214G39B40A255,12869,3.998945e-05,-1.319756e-05,-1.319408e-05,1.644767e-05,-2.977536e-09,1.631431e-07,6.03351503930569e-05
PART_002_R214G39B40A255,12870,3.998981e-05,-1.319737e-05,-1.319965e-05,1.771958e-05,1.543861e-09,5.909243e-08,6.140812989618533e-05
PART_003_R247G182B210A255,12871,1.999126e-05,-6.599569e-06,-6.594446e-06,1.96249e-05,-8.895698e-10,-2.555632e-08,4.315493077408284e-05
PART_003_R247G182B210A255,12872,1.999139e-05,-6.596991e-06,-6.598292e-06,1.83266e-05,-6.060284e-09,-6.597634e-08,4.140751826505531e-05
PART_003_R247G182B210A255,12873,1.999144e-05,-6.596288e-06,-6.597172e-06,1.735964e-05,-2.018278e-09,-8.641363e-08,4.0137569700848595e-05
PART_003_R247G182B210A255,12874,1.999171e-05,-6.596962e-06,-6.596985e-06,1.670164e-05,-6.513236e-09,-7.8356e-08,3.929136002465818e-05
PART_003_R247G182B210A255,12875,1.999203e-05,-6.596134e-06,-6.597686e-06,1.631893e-05,-3.739761e-09,-4.557697e-08,3.8805932985857305e-05
PART_000_R31G119B180A255,12876,1.999247e-05,-6.597549e-06,-6.596439e-06,1.619398e-05,-4.512041e-09,1.340948e-09,3.864886321643287e-05
PART_000_R31G119B180A255,12877,1.999293e-05,-6.596458e-06,-6.59803e-06,1.631637e-05,-5.629061e-09,4.806998e-08,3.8803558758988576e-05
PART_002_R214G39B40A255,12878,1.999341e-05,-6.597591e-06,-6.59755e-06,1.669681e-05,-1.098335e-09,8.066104e-08,3.928676823957504e-05
PART_002_R214G39B40A255,12879,1.999381e-05,-6.597121e-06,-6.598033e-06,1.7353e-05,-4.688626e-09,8.819287e-08,4.0131098790142475e-05
PART_002_R214G39B40A255,12880,1.999402e-05,-6.597724e-06,-6.599179e-06,1.831856e-05,2.120133e-09,6.720279e-08,4.13990582696844e-05
PART_002_R214G39B40A255,12881,1.999394e-05,-6.599835e-06,-6.595615e-06,1.96164e-05,-1.123832e-09,2.601507e-08,4.3145430138649926e-05
PART_003_R247G182B210A255,12882,-1.857129e-09,1.287658e-09,2.64148e-10,2.025298e-05,-2.351278e-09,1.326503e-10,3.507919071184582e-05
PART_003_R247G182B210A255,12883,-1.462706e-09,1.138809e-09,1.169085e-10,1.894608e-05,-1.307091e-09,3.58424e-10,3.2815573326756536e-05
PART_003_R247G182B210A255,12884,-1.048637e-09,1.040354e-09,-8.118543e-11,1.796878e-05,-7.38838e-09,4.506924e-10,3.1122842603430305e-05
PART_003_R247G182B210A255,12885,-7.04417e-10,9.663483e-10,-2.712419e-10,1.729447e-05,-2.761579e-09,3.661372e-10,2.9954901156224642e-05
PART_003_R247G182B210A255,12886,-4.767888e-10,9.179335e-10,-3.908459e-10,1.690297e-05,-6.34049e-09,2.189813e-10,2.9276804932314052e-05
PART_003_R247G182B210A255,12887,-3.993647e-10,9.011653e-10,-4.476125e-10,1.677284e-05,-4.690977e-09,-2.277639e-11,2.9051412233669567e-05
PART_002_R214G39B40A255,12888,-4.874828e-10,9.212678e-10,-3.841686e-10,1.690032e-05,-3.377652e-09,-2.212065e-10,2.927221352288385e-05
PART_002_R214G39B40A255,12889,-7.142608e-10,9.715622e-10,-2.759089e-10,1.728944e-05,-5.192528e-09,-4.070745e-10,2.994618991157536e-05
PART_002_R214G39B40A255,12890,-1.07548e-09,1.045167e-09,-6.247886e-11,1.796202e-05,4.586275e-10,-4.556106e-10,3.111113132096064e-05
PART_002_R214G39B40A255,12891,-1.481483e-09,1.156241e-09,1.115583e-10,1.893886e-05,-2.538391e-09,-3.912636e-10,3.2803068139759634e-05
PART_002_R214G39B40A255,12892,-1.908319e-09,1.336276e-09,2.889425e-10,2.024654e-05,6.155256e-10,-1.525684e-10,3.5068036091965256e-05
PART_003_R247G182B210A255,12893,-1.999472e-05,6.602064e-06,6.594879e-06,1.962587e-05,-8.644021e-10,2.590784e-08,4.315928878624663e-05
PART_003_R247G182B210A255,12894,-1.9994e-05,6.598939e-06,6.598506e-06,1.832744e-05,-6.022474e-09,6.674399e-08,4.141100740207373e-05
PART_003_R247G182B210A255,12895,-1.999313e-05,6.597823e-06,6.596923e-06,1.736042e-05,-1.985539e-09,8.734756e-08,4.0140133267660164e-05
PART_003_R247G182B210A255,12896,-1.999272e-05,6.598239e-06,6.596423e-06,1.670238e-05,-6.480314e-09,7.909613e-08,3.929323354250633e-05
PART_003_R247G182B210A255,12897,-1.999255e-05,6.597278e-06,6.59683e-06,1.631967e-05,-3.717721e-09,4.603861e-08,3.880732312179267e-05
PART_001_R158G218B229A255,12898,-1.999283e-05,6.598656e-06,6.595512e-06,1.619472e-05,-4.500671e-09,-1.396751e-09,3.865010308132446e-05
PART_001_R158G218B229A255,12899,-1.999348e-05,6.597606e-06,6.597198e-06,1.631711e-05,-5.633502e-09,-4.850339e-08,3.880497899580196e-05
PART_002_R214G39B40A255,12900,-1.999441e-05,6.598877e-06,6.596954e-06,1.669758e-05,-1.110223e-09,-8.149887e-08,3.928866556318522e-05
PART_002_R214G39B40A255,12901,-1.999558e-05,6.598668e-06,6.597854e-06,1.735379e-05,-4.711237e-09,-8.911074e-08,4.013375574851848e-05
PART_002_R214G39B40A255,12902,-1.999664e-05,6.599655e-06,6.599353e-06,1.831942e-05,2.105247e-09,-6.800773e-08,4.140256286266049e-05
PART_002_R214G39B40A255,12903,-1.999746e-05,6.602235e-06,6.596141e-06,1.961737e-05,-1.136786e-09,-2.63292e-08,4.314982518384514e-05
PART_003_R247G182B210A255,12904,-3.998668e-05,1.319732e-05,1.31979e-05,1.772684e-05,-2.897779e-09,5.86196e-08,6.141092415993332e-05
PART_003_R247G182B210A255,12905,-3.998591e-05,1.319719e-05,1.319229e-05,1.645534e-05,9.913565e-12,1.616398e-07,6.0337339834068975e-05
PART_003_R247G182B210A255,12906,-3.998521e-05,1.319574e-05,1.319458e-05,1.553904e-05,-6.629975e-09,2.067879e-07,5.960424030459045e-05
PART_003_R247G182B210A255,12907,-3.998466e-05,1.319371e-05,1.31945e-05,1.492545e-05,-1.151558e-09,1.860857e-07,5.9130297717348676e-05
PART_001_R158G218B229A255,12908,-3.998467e-05,1.319656e-05,1.319127e-05,1.457909e-05,-4.174228e-09,1.088333e-07,5.886974694704153e-05
PART_001_R158G218B229A255,12909,-3.99852e-05,1.319582e-05,1.319275e-05,1.446606e-05,-3.965701e-09,-2.533823e-09,5.878654926210442e-05
PART_001_R158G218B229A255,12910,-3.99864e-05,1.319717e-05,1.319192e-05,1.457681e-05,-4.122748e-09,-1.136503e-07,5.887021234254573e-05
PART_001_R158G218B229A255,12911,-3.998793e-05,1.319486e-05,1.319565e-05,1.492113e-05,-5.450983e-09,-1.904256e-07,5.913104432960788e-05
PART_002_R214G39B40A255,12912,-3.99898e-05,1.319738e-05,1.319619e-05,1.553329e-05,8.986229e-10,-2.102271e-07,5.960532449722837e-05
PART_002_R214G39B40A255,12913,-3.999142e-05,1.319929e-05,1.319408e-05,1.644918e-05,-2.994058e-09,-1.639758e-07,6.033889121411171e-05
PART_002_R214G39B40A255,12914,-3.999262e-05,1.319941e-05,1.320007e-05,1.772134e-05,1.521039e-09,-5.942281e-08,6.141315361577538e-05
PART_003_R247G182B210A255,12915,-5.998008e-05,1.980389e-05,1.978286e-05,1.45235e-05,3.543619e-10,1.26363e-07,8.36459712973836e-05
PART_003_R247G182B210A255,12916,-5.99783e-05,1.979376e-05,1.979463e-05,1.33223e-05,-7.315679e-09,3.187148e-07,8.30446078255018e-05
PART_003_R247G182B210A255,12917,-5.997726e-05,1.978932e-05,1.979314e-05,1.249691e-05,1.731826e-09,4.05763e-07,8.265605982807838e-05
PART_001_R158G218B229A255,12918,-5.997634e-05,1.979387e-05,1.978689e-05,1.198657e-05,-7.741467e-10,3.613164e-07,8.242666369333431e-05
PART_001_R158G218B229A255,12919,-5.997663e-05,1.979393e-05,1.978817e-05,1.170484e-05,-2.072505e-09,2.045764e-07,8.230442395848804e-05
PART_001_R158G218B229A255,12920,-5.997727e-05,1.979453e-05,1.978638e-05,1.161302e-05,-3.140293e-09,-3.308471e-09,8.226467507062773e-05
PART_001_R158G218B229A255,12921,-5.997898e-05,1.979474e-05,1.978897e-05,1.170302e-05,-4.521035e-09,-2.113389e-07,8.230675687110586e-05
PART_001_R158G218B229A255,12922,-5.998095e-05,1.979546e-05,1.978859e-05,1.198315e-05,-4.327082e-09,-3.669742e-07,8.243130044999359e-05
PART_001_R158G218B229A255,12923,-5.998341e-05,1.979143e-05,1.979516e-05,1.249225e-05,-6.142569e-09,-4.105314e-07,8.266194603663659e-05
PART_002_R214G39B40A255,12924,-5.998544e-05,1.979568e-05,1.979732e-05,1.331667e-05,5.025284e-09,-3.216281e-07,8.305100518062419e-05
PART_002_R214G39B40A255,12925,-5.998694e-05,1.980464e-05,1.978547e-05,1.451744e-05,-1.646361e-09,-1.275183e-07,8.365096523734509e-05
PART_003_R247G182B210A255,12926,-7.99713e-05,2.639183e-05,2.640062e-05,9.933911e-06,-6.489022e-09,2.315154e-07,0.00010775091238734359
PART_003_R247G182B210A255,12927,-7.996981e-05,2.63862e-05,2.638845e-05,8.857914e-06,6.496618e-09,6.337408e-07,0.00010746363617206603
PART_001_R158G218B229A255,12928,-7.996949e-05,2.639189e-05,2.638302e-05,8.268892e-06,3.997035e-09,7.739344e-07,0.00010732530225794413
PART_001_R158G218B229A255,12929,-7.996842e-05,2.63938e-05,2.638165e-05,7.927271e-06,4.192752e-10,6.396459e-07,0.00010724449639799592
PART_001_R158G218B229A255,12930,-7.996896e-05,2.639212e-05,2.638247e-05,7.738645e-06,-6.57974e-10,3.552269e-07,0.00010719930730431618
PART_001_R158G218B229A255,12931,-7.996965e-05,2.639508e-05,2.638142e-05,7.680678e-06,-2.037906e-09,-3.617011e-09,0.00010718666674397165
PART_001_R158G218B229A255,12932,-7.997165e-05,2.639308e-05,2.638322e-05,7.737434e-06,-3.725125e-09,-3.632164e-07,0.00010720264270883028
PART_001_R158G218B229A255,12933,-7.997389e-05,2.63956e-05,2.638367e-05,7.924976e-06,-3.62194e-09,-6.458237e-07,0.00010725141768331466
PART_001_R158G218B229A255,12934,-7.99766e-05,2.639445e-05,2.638504e-05,8.26591e-06,-6.685269e-09,-7.795359e-07,0.00010733405043224182
PART_001_R158G218B229A255,12935,-7.997895e-05,2.638966e-05,2.639173e-05,8.854727e-06,-7.448171e-09,-6.37002e-07,0.0001074752875429652
PART_002_R214G39B40A255,12936,-7.998063e-05,2.639581e-05,2.640332e-05,9.931119e-06,6.101249e-09,-2.327275e-07,0.0001077626554157704
PART_003_R247G182B210A255,12937,-9.996547e-05,3.300946e-05,3.295877e-05,3.648994e-06,9.817702e-09,6.236067e-07,0.0001331041190028546
PART_001_R158G218B229A255,12938,-9.996284e-05,3.298918e-05,3.297287e-05,3.135756e-06,6.255607e-09,1.348612e-06,0.00013307526711640446
PART_001_R158G218B229A255,12939,-9.996214e-05,3.299774e-05,3.297362e-05,2.939638e-06,9.204094e-10,1.37194e-06,0.0001330665035026794
PART_001_R158G218B229A255,12940,-9.996087e-05,3.298892e-05,3.29771e-05,2.810057e-06,1.198558e-09,1.069302e-06,0.0001330458372888069
PART_001_R158G218B229A255,12941,-9.996156e-05,3.299477e-05,3.297651e-05,2.748017e-06,-4.769598e-10,5.746324e-07,0.00013303609900352397
PART_001_R158G218B229A255,12942,-9.996226e-05,3.298981e-05,3.297825e-05,2.725053e-06,-6.694496e-10,-3.376378e-09,0.00013303004886901305
PART_001_R158G218B229A255,12943,-9.996428e-05,3.299588e-05,3.297688e-05,2.747569e-06,-1.185517e-09,-5.827637e-07,0.0001330396351326226
PART_001_R158G218B229A255,12944,-9.996659e-05,3.299105e-05,3.297882e-05,2.809275e-06,-2.189e-09,-1.075101e-06,0.00013305356714849077
PART_001_R158G218B229A255,12945,-9.996927e-05,3.300045e-05,3.297487e-05,2.938512e-06,-1.986769e-09,-1.377757e-06,0.00013307571130373317
PART_001_R158G218B229A255,12946,-9.997173e-05,3.299164e-05,3.297622e-05,3.134533e-06,-6.44253e-09,-1.351516e-06,0.0001330870523633517
PART_001_R158G218B229A255,12947,-9.997327e-05,3.301079e-05,3.296082e-05,3.647547e-06,-1.034534e-08,-6.250324e-07,0.0001331134989869144
PART_003_R247G182B210A255,12948,9.541932e-05,-3.15056e-05,-3.145946e-05,3.647575e-06,1.029435e-08,-6.232027e-07,0.00012706361006588733
PART_000_R31G119B180A255,12949,9.541904e-05,-3.148817e-05,-3.147559e-05,3.135146e-06,5.848302e-09,-1.346299e-06,0.00012703845363693135
PART_000_R31G119B180A255,12950,9.54186e-05,-3.149748e-05,-3.147474e-05,2.939142e-06,1.231599e-09,-1.370291e-06,0.00012702895170758454
PART_000_R31G119B180A255,12951,9.541884e-05,-3.148938e-05,-3.148022e-05,2.809783e-06,7.295964e-10,-1.066491e-06,0.00012701035690232607
PART_000_R31G119B180A255,12952,9.541977e-05,-3.149505e-05,-3.147876e-05,2.747661e-06,-4.002421e-10,-5.732768e-07,0.00012699976071174426
PART_000_R31G119B180A255,12953,9.542141e-05,-3.149057e-05,-3.148161e-05,2.724691e-06,-1.224344e-09,5.553716e-09,0.00012699521855812516
PART_000_R31G119B180A255,12954,9.542393e-05,-3.149664e-05,-3.14798e-05,2.747076e-06,-1.235519e-09,5.83207e-07,0.00012700532943839442
PART_000_R31G119B180A255,12955,9.542657e-05,-3.149231e-05,-3.148186e-05,2.808623e-06,-2.743037e-09,1.076083e-06,0.00012702052937722593
PART_000_R31G119B180A255,12956,9.542969e-05,-3.150157e-05,-3.147794e-05,2.937693e-06,-1.925039e-09,1.377314e-06,0.00012704379973481022
PART_000_R31G119B180A255,12957,9.543207e-05,-3.149342e-05,-3.147889e-05,3.133502e-06,-6.604912e-09,1.351467e-06,0.0001270557831028331
PART_000_R31G119B180A255,12958,9.543402e-05,-3.151197e-05,-3.146442e-05,3.646213e-06,-9.576517e-09,6.246602e-07,0.00012708385357789413
PART_003_R247G182B210A255,12959,7.633656e-05,-2.519449e-05,-2.520003e-05,9.933147e-06,-6.435397e-09,-2.309772e-07,0.00010298193545678625
PART_003_R247G182B210A255,12960,7.633503e-05,-2.518754e-05,-2.518953e-05,8.85707e-06,5.689313e-09,-6.325901e-07,0.00010268192600473902
PART_000_R31G119B180A255,12961,7.633403e-05,-2.519196e-05,-2.518362e-05,8.268084e-06,3.886381e-09,-7.724546e-07,0.00010253562176634674
PART_000_R31G119B180A255,12962,7.6334e-05,-2.519374e-05,-2.518369e-05,7.926515e-06,-2.278796e-10,-6.375859e-07,0.00010245277060360155
PART_000_R31G119B180A255,12963,7.63348e-05,-2.519232e-05,-2.518393e-05,7.737974e-06,-9.412798e-10,-3.537802e-07,0.00010240560806016187
PART_000_R31G119B180A255,12964,7.633639e-05,-2.519535e-05,-2.518392e-05,7.679827e-06,-3.118563e-09,5.432661e-09,0.00010239371658579353
PART_000_R31G119B180A255,12965,7.633875e-05,-2.519367e-05,-2.518524e-05,7.7363e-06,-4.293829e-09,3.64061e-07,0.00010241057149257962
PART_000_R31G119B180A255,12966,7.634151e-05,-2.519635e-05,-2.518613e-05,7.923396e-06,-4.834285e-09,6.468657e-07,0.00010246216564776334
PART_000_R31G119B180A255,12967,7.634447e-05,-2.519546e-05,-2.51871e-05,8.263818e-06,-6.963058e-09,7.797092e-07,0.00010254854766915667
PART_000_R31G119B180A255,12968,7.63469e-05,-2.519092e-05,-2.519362e-05,8.852028e-06,-8.00137e-09,6.37294e-07,0.00010269613854419175
PART_002_R214G39B40A255,12969,7.634846e-05,-2.519647e-05,-2.520445e-05,9.927552e-06,5.902989e-09,2.327536e-07,0.00010299521685163631
PART_003_R247G182B210A255,12970,5.72501e-05,-1.889992e-05,-1.888285e-05,1.451945e-05,1.132068e-09,-1.26139e-07,8.018738665424943e-05
PART_003_R247G182B210A255,12971,5.724974e-05,-1.889178e-05,-1.889501e-05,1.331998e-05,-6.928033e-09,-3.176747e-07,7.95634684556429e-05
PART_003_R247G182B210A255,12972,5.724947e-05,-1.888859e-05,-1.889316e-05,1.249584e-05,1.861429e-09,-4.044869e-07,7.915984489405642e-05
PART_000_R31G119B180A255,12973,5.724947e-05,-1.889319e-05,-1.888817e-05,1.198586e-05,-1.536293e-09,-3.597707e-07,7.89220710111685e-05
PART_000_R31G119B180A255,12974,5.72501e-05,-1.889335e-05,-1.88891e-05,1.170421e-05,-2.570683e-09,-2.03216e-07,7.879461207168926e-05
PART_000_R31G119B180A255,12975,5.725146e-05,-1.889408e-05,-1.888819e-05,1.161209e-05,-4.628545e-09,4.670801e-09,7.875415437662215e-05
PART_000_R31G119B180A255,12976,5.725341e-05,-1.889448e-05,-1.889029e-05,1.170171e-05,-5.551367e-09,2.122207e-07,7.879788934642192e-05
PART_000_R31G119B180A255,12977,5.725582e-05,-1.889535e-05,-1.889043e-05,1.198111e-05,-6.156472e-09,3.677573e-07,7.89282768931183e-05
PART_000_R31G119B180A255,12978,5.725829e-05,-1.889167e-05,-1.889619e-05,1.24895e-05,-6.978228e-09,4.108568e-07,7.916836497628656e-05
PART_002_R214G39B40A255,12979,5.726049e-05,-1.889582e-05,-1.889857e-05,1.331312e-05,3.379466e-09,3.219241e-07,7.95739996624221e-05
PART_002_R214G39B40A255,12980,5.726169e-05,-1.890417e-05,-1.888687e-05,1.451322e-05,-1.539892e-09,1.275344e-07,8.01989421746955e-05
PART_003_R247G182B210A255,12981,3.816662e-05,-1.259701e-05,-1.259737e-05,1.772729e-05,-2.807791e-09,-5.824649e-08,5.9327439180007285e-05
PART_003_R247G182B210A255,12982,3.816611e-05,-1.259632e-05,-1.259233e-05,1.645523e-05,-6.326629e-10,-1.608712e-07,5.8215317539439354e-05
PART_003_R247G182B210A255,12983,3.816565e-05,-1.259452e-05,-1.259465e-05,1.553868e-05,-6.230477e-09,-2.056591e-07,5.745502753587252e-05
PART_003_R247G182B210A255,12984,3.816572e-05,-1.259265e-05,-1.259507e-05,1.49252e-05,-2.058321e-09,-1.848796e-07,5.6964219518907174e-05
PART_000_R31G119B180A255,12985,3.816624e-05,-1.259553e-05,-1.25921e-05,1.457898e-05,-4.694941e-09,-1.076948e-07,5.669442676829138e-05
PART_000_R31G119B180A255,12986,3.816723e-05,-1.259495e-05,-1.259389e-05,1.446562e-05,-5.794937e-09,3.410401e-09,5.660837158190288e-05
PART_000_R31G119B180A255,12987,3.816863e-05,-1.259637e-05,-1.259297e-05,1.457588e-05,-5.508187e-09,1.142742e-07,5.669497981022596e-05
PART_000_R31G119B180A255,12988,3.81703e-05,-1.259429e-05,-1.259669e-05,1.491934e-05,-7.760682e-09,1.907371e-07,5.6965207621489494e-05
PART_002_R214G39B40A255,12989,3.817196e-05,-1.259673e-05,-1.259684e-05,1.553062e-05,-6.587461e-10,2.103397e-07,5.74560586127114e-05
PART_002_R214G39B40A255,12990,3.817333e-05,-1.259835e-05,-1.259489e-05,1.644545e-05,-4.75343e-09,1.639661e-07,5.821535048009106e-05
PART_002_R214G39B40A255,12991,3.81739e-05,-1.259789e-05,-1.26003e-05,1.771673e-05,1.333063e-09,5.942093e-08,5.932583913588359e-05
PART_003_R247G182B210A255,12992,1.908149e-05,-6.298558e-06,-6.294619e-06,1.962244e-05,3.501809e-11,-2.561785e-08,4.241661588901392e-05
PART_003_R247G182B210A255,12993,1.908162e-05,-6.296432e-06,-6.297916e-06,1.832588e-05,-5.70769e-09,-6.595978e-08,4.0640004548231e-05
PART_003_R247G182B210A255,12994,1.908193e-05,-6.295983e-06,-6.297166e-06,1.736042e-05,-1.580959e-09,-8.624557e-08,3.934772371851598e-05
PART_003_R247G182B210A255,12995,1.908214e-05,-6.296608e-06,-6.29671e-06,1.670286e-05,-7.20127e-09,-7.817547e-08,3.8484523188110334e-05
PART_003_R247G182B210A255,12996,1.908256e-05,-6.2958e-06,-6.297647e-06,1.632022e-05,-4.346241e-09,-4.516095e-08,3.798898460449787e-05
PART_000_R31G119B180A255,12997,1.90831e-05,-6.297201e-06,-6.296331e-06,1.61949e-05,-6.510797e-09,1.752849e-09,3.7828059600837345e-05
PART_000_R31G119B180A255,12998,1.908379e-05,-6.296246e-06,-6.298067e-06,1.631674e-05,-7.189332e-09,4.867618e-08,3.798562522292709e-05
PART_002_R214G39B40A255,12999,1.908453e-05,-6.29746e-06,-6.297598e-06,1.669623e-05,-3.971566e-09,8.11859e-08,3.8478059053226034e-05
PART_002_R214G39B40A255,13000,1.90852e-05,-6.297183e-06,-6.29821e-06,1.735149e-05,-6.325069e-09,8.876481e-08,3.9338757082234254e-05
PART_002_R214G39B40A255,13001,1.908568e-05,-6.297928e-06,-6.29935e-06,1.831621e-05,-1.579951e-10,6.757476e-08,4.0630382695983534e-05
PART_002_R214G39B40A255,13002,1.908574e-05,-6.299947e-06,-6.296079e-06,1.961366e-05,-1.2237e-09,2.616976e-08,4.2407829022884645e-05
PART_003_R247G182B210A255,13003,-2.546384e-09,1.544562e-09,4.813871e-10,2.025558e-05,-2.191792e-09,2.23609e-10,3.508369409694265e-05
PART_003_R247G182B210A255,13004,-1.886533e-09,1.169783e-09,2.715937e-10,1.894784e-05,-1.856402e-09,5.020342e-10,3.2818621855499376e-05
PART_003_R247G182B210A255,13005,-1.288555e-09,9.081573e-10,9.770157e-12,1.797001e-05,-6.881634e-09,5.463811e-10,3.1124972687951115e-05
PART_003_R247G182B210A255,13006,-8.178528e-10,7.528082e-10,-2.113769e-10,1.729583e-05,-3.618555e-09,4.744801e-10,2.9957257017392898e-05
PART_003_R247G182B210A255,13007,-5.234851e-10,6.747221e-10,-3.751366e-10,1.690446e-05,-6.863482e-09,2.369072e-10,2.927938603258761e-05
PART_003_R247G182B210A255,13008,-4.282597e-10,6.529814e-10,-4.092306e-10,1.677397e-05,-6.741002e-09,-4.115861e-12,2.9053370650493277e-05
PART_002_R214G39B40A255,13009,-5.295925e-10,6.757386e-10,-3.775395e-10,1.690086e-05,-5.132238e-09,-2.99203e-10,2.9273149587969465e-05
PART_002_R214G39B40A255,13010,-8.43732e-10,7.546686e-10,-1.922298e-10,1.728902e-05,-7.977468e-09,-4.83261e-10,2.994546428492617e-05
PART_002_R214G39B40A255,13011,-1.312079e-09,9.126746e-10,7.872607e-12,1.796063e-05,-1.51266e-09,-5.929634e-10,3.1108723883585636e-05
PART_002_R214G39B40A255,13012,-1.932958e-09,1.154618e-09,3.115248e-10,1.893639e-05,-4.732424e-09,-4.945874e-10,3.2798790743844176e-05
PART_002_R214G39B40A255,13013,-2.5499e-09,1.472109e-09,4.90043e-10,2.02434e-05,3.700059e-10,-2.068306e-10,3.506259751373508e-05
PART_003_R247G182B210A255,13014,-1.908623e-05,6.301345e-06,6.295583e-06,1.962359e-05,3.436622e-11,2.595259e-08,4.242217095402763e-05
PART_003_R247G182B210A255,13015,-1.908516e-05,6.298839e-06,6.298348e-06,1.832689e-05,-5.670126e-09,6.692883e-08,4.06444727853827e-05
PART_003_R247G182B210A255,13016,-1.90844e-05,6.298143e-06,6.29717e-06,1.736136e-05,-1.519948e-09,8.734499e-08,3.935126618548124e-05
PART_003_R247G182B210A255,13017,-1.908365e-05,6.298585e-06,6.296175e-06,1.670378e-05,-7.150341e-09,7.915995e-08,3.848719838280459e-05
PART_003_R247G182B210A255,13018,-1.908353e-05,6.29766e-06,6.296867e-06,1.632113e-05,-4.310023e-09,4.562884e-08,3.7991167845882195e-05
PART_001_R158G218B229A255,13019,-1.908386e-05,6.299018e-06,6.295422e-06,1.619582e-05,-6.497021e-09,-1.734729e-09,3.7830055825278816e-05
PART_001_R158G218B229A255,13020,-1.908476e-05,6.29811e-06,6.297262e-06,1.631766e-05,-7.194883e-09,-4.929898e-08,3.7987815093479054e-05
PART_002_R214G39B40A255,13021,-1.908611e-05,6.299442e-06,6.297133e-06,1.669716e-05,-4.001303e-09,-8.214533e-08,3.848081844543352e-05
PART_002_R214G39B40A255,13022,-1.908767e-05,6.299341e-06,6.298156e-06,1.735245e-05,-6.360896e-09,-8.998237e-08,3.9342308272158326e-05
PART_002_R214G39B40A255,13023,-1.908934e-05,6.300361e-06,6.299896e-06,1.831724e-05,-2.021972e-10,-6.856666e-08,4.0634997955096575e-05
PART_002_R214G39B40A255,13024,-1.909056e-05,6.302848e-06,6.296988e-06,1.961482e-05,-1.233598e-09,-2.659056e-08,4.2413465025382204e-05
PART_003_R247G182B210A255,13025,-3.817049e-05,1.259942e-05,1.259808e-05,1.772939e-05,-2.706374e-09,5.872085e-08,5.933396925226438e-05
PART_003_R247G182B210A255,13026,-3.816868e-05,1.259805e-05,1.259259e-05,1.645708e-05,-5.365167e-10,1.619611e-07,5.82200039487734e-05
PART_003_R247G182B210A255,13027,-3.816701e-05,1.259573e-05,1.25944e-05,1.55404e-05,-6.113294e-09,2.068446e-07,5.745806142131005e-05
PART_003_R247G182B210A255,13028,-3.816614e-05,1.259352e-05,1.25944e-05,1.492686e-05,-1.986418e-09,1.859157e-07,5.6965997812288775e-05
PART_001_R158G218B229A255,13029,-3.816603e-05,1.259624e-05,1.259108e-05,1.458065e-05,-4.613422e-09,1.082211e-07,5.6695391447658635e-05
PART_001_R158G218B229A255,13030,-3.816687e-05,1.259561e-05,1.259284e-05,1.446728e-05,-5.789574e-09,-3.401882e-09,5.6609146596860166e-05
PART_001_R158G218B229A255,13031,-3.816841e-05,1.259707e-05,1.259192e-05,1.457755e-05,-5.498709e-09,-1.148819e-07,5.6695918020600434e-05
PART_001_R158G218B229A255,13032,-3.817076e-05,1.259516e-05,1.259606e-05,1.492103e-05,-7.827007e-09,-1.917633e-07,5.696706272613058e-05
PART_002_R214G39B40A255,13033,-3.817332e-05,1.259793e-05,1.259653e-05,1.553236e-05,-7.0282e-10,-2.115858e-07,5.7459078285467234e-05
PART_002_R214G39B40A255,13034,-3.817597e-05,1.260003e-05,1.259525e-05,1.644731e-05,-4.836747e-09,-1.65034e-07,5.822012785216581e-05
PART_002_R214G39B40A255,13035,-3.817773e-05,1.260016e-05,1.260096e-05,1.771886e-05,1.319995e-09,-5.98629e-08,5.9332280344096414e-05
PART_003_R247G182B210A255,13036,-5.725228e-05,1.89014e-05,1.888284e-05,1.45221e-05,1.118131e-09,1.265859e-07,8.019159650902385e-05
PART_003_R247G182B210A255,13037,-5.72512e-05,1.889296e-05,1.889536e-05,1.332215e-05,-6.890452e-09,3.187834e-07,7.95667009918121e-05
PART_003_R247G182B210A255,13038,-5.724946e-05,1.888957e-05,1.88922e-05,1.249788e-05,2.007323e-09,4.05891e-07,7.916083254987645e-05
PART_001_R158G218B229A255,13039,-5.724887e-05,1.889399e-05,1.888753e-05,1.198782e-05,-1.468005e-09,3.607906e-07,7.892247644954548e-05
PART_001_R158G218B229A255,13040,-5.724861e-05,1.889401e-05,1.888746e-05,1.170618e-05,-2.459056e-09,2.039632e-07,7.879358261232213e-05
PART_001_R158G218B229A255,13041,-5.724999e-05,1.889469e-05,1.888709e-05,1.161405e-05,-4.635444e-09,-4.804838e-09,7.875336346101878e-05
PART_001_R158G218B229A255,13042,-5.725197e-05,1.889514e-05,1.888872e-05,1.170369e-05,-5.527715e-09,-2.126924e-07,7.8796944247912e-05
PART_001_R158G218B229A255,13043,-5.725511e-05,1.889614e-05,1.888962e-05,1.198311e-05,-6.243963e-09,-3.690083e-07,7.892851073646854e-05
PART_001_R158G218B229A255,13044,-5.725839e-05,1.889265e-05,1.889544e-05,1.249157e-05,-7.020737e-09,-4.120806e-07,7.916957057226553e-05
PART_002_R214G39B40A255,13045,-5.726182e-05,1.889705e-05,1.889868e-05,1.331538e-05,3.282412e-09,-3.231719e-07,7.957706332529893e-05
PART_002_R214G39B40A255,13046,-5.726406e-05,1.890578e-05,1.888711e-05,1.451588e-05,-1.54172e-09,-1.279843e-07,8.020351767147587e-05
PART_003_R247G182B210A255,13047,-7.633686e-05,2.519518e-05,2.519917e-05,9.935585e-06,-6.327642e-09,2.316049e-07,0.00010298285714527563
PART_003_R247G182B210A255,13048,-7.633495e-05,2.518771e-05,2.518991e-05,8.85902e-06,5.797666e-09,6.338691e-07,0.00010268264714738997
PART_001_R158G218B229A255,13049,-7.633199e-05,2.519161e-05,2.518185e-05,8.269877e-06,3.984789e-09,7.742147e-07,0.00010253302615015176
PART_001_R158G218B229A255,13050,-7.633157e-05,2.519303e-05,2.518297e-05,7.928227e-06,-1.407138e-10,6.386341e-07,0.00010245007115458065
PART_001_R158G218B229A255,13051,-7.633123e-05,2.519144e-05,2.518159e-05,7.739707e-06,-8.729752e-10,3.547873e-07,0.00010240087616988649
PART_001_R158G218B229A255,13052,-7.633301e-05,2.51944e-05,2.518265e-05,7.681539e-06,-3.103433e-09,-5.714832e-09,0.00010238964998182418
PART_001_R158G218B229A255,13053,-7.633527e-05,2.519278e-05,2.518307e-05,7.738045e-06,-4.287935e-09,-3.644141e-07,0.00010240600403811863
PART_001_R158G218B229A255,13054,-7.633883e-05,2.519564e-05,2.518503e-05,7.925144e-06,-4.897227e-09,-6.484001e-07,0.00010245904787916996
PART_001_R158G218B229A255,13055,-7.634265e-05,2.519509e-05,2.518582e-05,8.265632e-06,-7.003535e-09,-7.810101e-07,0.00010254639715731794
PART_001_R158G218B229A255,13056,-7.63464e-05,2.519099e-05,2.519339e-05,8.854003e-06,-8.072063e-09,-6.388209e-07,0.0001026961043213498
PART_002_R214G39B40A255,13057,-7.634897e-05,2.519698e-05,2.52042e-05,9.93e-06,5.897485e-09,-2.332471e-07,0.00010299655912825371
PART_003_R247G182B210A255,13058,-9.541795e-05,3.150531e-05,3.145819e-05,3.648609e-06,1.013342e-08,6.240451e-07,0.000127061564499791
PART_001_R158G218B229A255,13059,-9.54175e-05,3.148775e-05,3.147556e-05,3.135912e-06,5.914359e-09,1.34803e-06,0.0001270368023171158
PART_001_R158G218B229A255,13060,-9.541515e-05,3.149696e-05,3.147241e-05,2.939871e-06,1.205941e-09,1.372403e-06,0.00012702420074100105
PART_001_R158G218B229A255,13061,-9.541515e-05,3.148868e-05,3.147907e-05,2.810468e-06,8.201759e-10,1.067768e-06,0.00012700582346441956
PART_001_R158G218B229A255,13062,-9.541483e-05,3.149419e-05,3.147584e-05,2.748378e-06,-4.162437e-10,5.744426e-07,0.00012699299827896186
PART_001_R158G218B229A255,13063,-9.541675e-05,3.148964e-05,3.14799e-05,2.725368e-06,-1.182433e-09,-5.861876e-09,0.00012698928635497794
PART_001_R158G218B229A255,13064,-9.541908e-05,3.149576e-05,3.147709e-05,2.747801e-06,-1.260088e-09,-5.83593e-07,0.00012699874187908683
PART_001_R158G218B229A255,13065,-9.542257e-05,3.149157e-05,3.148029e-05,2.809315e-06,-2.751797e-09,-1.077881e-06,0.0001270154704162218
PART_001_R158G218B229A255,13066,-9.542646e-05,3.150101e-05,3.147611e-05,2.93845e-06,-1.956236e-09,-1.378889e-06,0.00012703948302759634
PART_001_R158G218B229A255,13067,-9.543011e-05,3.149306e-05,3.14782e-05,3.134286e-06,-6.632157e-09,-1.353471e-06,0.00012705342283760688
PART_001_R158G218B229A255,13068,-9.543298e-05,3.151184e-05,3.146374e-05,3.647289e-06,-9.567397e-09,-6.253901e-07,0.0001270825139690184
PART_003_R247G182B210A255,13069,9.087755e-05,-3.000956e-05,-2.996206e-05,3.648167e-06,8.378164e-09,-6.226729e-07,0.00012103323603563959
PART_000_R31G119B180A255,13070,9.087457e-05,-2.99901e-05,-2.997579e-05,3.135329e-06,5.819349e-09,-1.346551e-06,0.00012100194068589682
PART_000_R31G119B180A255,13071,9.087331e-05,-2.99974e-05,-2.997597e-05,2.939505e-06,5.669941e-10,-1.368947e-06,0.00012099042463517372
PART_000_R31G119B180A255,13072,9.087317e-05,-2.998936e-05,-2.998077e-05,2.810025e-06,1.055783e-09,-1.065757e-06,0.00012097028255506123
PART_000_R31G119B180A255,13073,9.087438e-05,-2.999492e-05,-2.997982e-05,2.748068e-06,-1.054186e-09,-5.710377e-07,0.0001209594835999487
PART_000_R31G119B180A255,13074,9.087689e-05,-2.999088e-05,-2.99829e-05,2.724934e-06,-1.15832e-09,7.143007e-09,0.00012095589823011745
PART_000_R31G119B180A255,13075,9.088011e-05,-2.999711e-05,-2.998102e-05,2.747233e-06,-2.088995e-09,5.858643e-07,0.00012096705853595562
PART_000_R31G119B180A255,13076,9.088444e-05,-2.999357e-05,-2.998382e-05,2.80855e-06,-2.751545e-09,1.078027e-06,0.00012098539227809192
PART_000_R31G119B180A255,13077,9.088852e-05,-3.000293e-05,-2.997963e-05,2.937383e-06,-2.676381e-09,1.379618e-06,0.00012101041761286663
PART_000_R31G119B180A255,13078,9.089274e-05,-2.999549e-05,-2.998187e-05,3.132982e-06,-6.135472e-09,1.352764e-06,0.00012102584266689824
PART_000_R31G119B180A255,13079,9.089526e-05,-3.001315e-05,-2.99676e-05,3.645379e-06,-9.654864e-09,6.25329e-07,0.00012105526861041588
PART_003_R247G182B210A255,13080,7.269884e-05,-2.399067e-05,-2.399956e-05,9.931257e-06,-5.57599e-09,-2.312544e-07,9.821288672411476e-05
PART_003_R247G182B210A255,13081,7.269775e-05,-2.398598e-05,-2.398971e-05,8.856769e-06,6.329702e-09,-6.323905e-07,9.790112990014791e-05
PART_000_R31G119B180A255,13082,7.269693e-05,-2.399124e-05,-2.398372e-05,8.26864e-06,3.437875e-09,-7.719579e-07,9.774852527923257e-05
PART_000_R31G119B180A255,13083,7.269667e-05,-2.399289e-05,-2.398397e-05,7.927462e-06,-1.107784e-10,-6.367195e-07,9.766145001059011e-05
PART_000_R31G119B180A255,13084,7.26976e-05,-2.39915e-05,-2.398415e-05,7.738913e-06,-2.005578e-09,-3.521701e-07,9.761206818123075e-05
PART_000_R31G119B180A255,13085,7.269981e-05,-2.399457e-05,-2.398462e-05,7.680609e-06,-3.671002e-09,7.295911e-09,9.76002898431058e-05
PART_000_R31G119B180A255,13086,7.270305e-05,-2.399338e-05,-2.398593e-05,7.736657e-06,-5.936749e-09,3.664598e-07,9.761890088779356e-05
PART_000_R31G119B180A255,13087,7.270719e-05,-2.399643e-05,-2.398747e-05,7.923178e-06,-5.707382e-09,6.492153e-07,9.767455413284333e-05
PART_000_R31G119B180A255,13088,7.271151e-05,-2.399628e-05,-2.398853e-05,8.262938e-06,-8.402424e-09,7.820214e-07,9.776661259735857e-05
PART_000_R31G119B180A255,13089,7.271567e-05,-2.399273e-05,-2.39955e-05,8.850543e-06,-8.052568e-09,6.390158e-07,9.792346027788719e-05
PART_002_R214G39B40A255,13090,7.271845e-05,-2.399853e-05,-2.400606e-05,9.925607e-06,4.955481e-09,2.334071e-07,9.823756455210712e-05
PART_003_R247G182B210A255,13091,5.4525e-05,-1.800296e-05,-1.79836e-05,1.452164e-05,8.767383e-11,-1.260232e-07,7.67566475668282e-05
PART_003_R247G182B210A255,13092,5.452317e-05,-1.799343e-05,-1.799468e-05,1.332139e-05,-6.462353e-09,-3.178495e-07,7.610144169244607e-05
PART_003_R247G182B210A255,13093,5.452178e-05,-1.798915e-05,-1.799288e-05,1.249694e-05,1.304988e-09,-4.042577e-07,7.567771306805266e-05
PART_000_R31G119B180A255,13094,5.452146e-05,-1.799334e-05,-1.798798e-05,1.198725e-05,-1.504385e-09,-3.590713e-07,7.542862095726046e-05
PART_000_R31G119B180A255,13095,5.452223e-05,-1.799356e-05,-1.798905e-05,1.170563e-05,-3.896854e-09,-2.020248e-07,7.529542205312258e-05
PART_000_R31G119B180A255,13096,5.452402e-05,-1.799442e-05,-1.798829e-05,1.161335e-05,-5.638326e-09,6.332909e-09,7.525350191140722e-05
PART_000_R31G119B180A255,13097,5.452682e-05,-1.799512e-05,-1.79907e-05,1.170226e-05,-7.892225e-09,2.142276e-07,7.52999189143219e-05
PART_000_R31G119B180A255,13098,5.453026e-05,-1.79964e-05,-1.799107e-05,1.19809e-05,-7.703186e-09,3.699232e-07,7.543716904839165e-05
PART_000_R31G119B180A255,13099,5.453401e-05,-1.799332e-05,-1.799711e-05,1.248819e-05,-9.284754e-09,4.129163e-07,7.568926553041975e-05
PART_002_R214G39B40A255,13100,5.453727e-05,-1.799745e-05,-1.799964e-05,1.33108e-05,2.192357e-09,3.23491e-07,7.611366897563032e-05
PART_002_R214G39B40A255,13101,5.453937e-05,-1.800513e-05,-1.798915e-05,1.450995e-05,-2.617652e-09,1.281953e-07,7.676725046638725e-05
PART_003_R247G182B210A255,13102,3.634748e-05,-1.199495e-05,-1.199727e-05,1.772409e-05,-2.313135e-09,-5.845526e-08,5.7267294891702765e-05
PART_003_R247G182B210A255,13103,3.634704e-05,-1.199529e-05,-1.199212e-05,1.645444e-05,6.627546e-10,-1.609253e-07,5.6117297814548865e-05
PART_003_R247G182B210A255,13104,3.634676e-05,-1.199418e-05,-1.19944e-05,1.553965e-05,-6.282322e-09,-2.055162e-07,5.533015552693121e-05
PART_003_R247G182B210A255,13105,3.634665e-05,-1.199233e-05,-1.199458e-05,1.492691e-05,-1.976199e-09,-1.844455e-07,5.482066903819852e-05
PART_000_R31G119B180A255,13106,3.634721e-05,-1.199501e-05,-1.199198e-05,1.458067e-05,-6.292115e-09,-1.068538e-07,5.4540314921214536e-05
PART_000_R31G119B180A255,13107,3.634852e-05,-1.199458e-05,-1.199368e-05,1.446709e-05,-7.026872e-09,4.600587e-09,5.4450914597105646e-05
PART_000_R31G119B180A255,13108,3.635049e-05,-1.199616e-05,-1.199316e-05,1.457648e-05,-8.508772e-09,1.157297e-07,5.454095012127758e-05
PART_000_R31G119B180A255,13109,3.635292e-05,-1.199453e-05,-1.199682e-05,1.491893e-05,-9.773329e-09,1.923385e-07,5.482172314230396e-05
PART_002_R214G39B40A255,13110,3.635553e-05,-1.19973e-05,-1.19974e-05,1.552884e-05,-4.06167e-09,2.11864e-07,5.533145875624171e-05
PART_002_R214G39B40A255,13111,3.63578e-05,-1.199929e-05,-1.199571e-05,1.644263e-05,-5.973908e-09,1.65155e-07,5.6119490618124864e-05
PART_002_R214G39B40A255,13112,3.635914e-05,-1.199897e-05,-1.200139e-05,1.771318e-05,-1.365432e-10,5.987538e-08,5.727045335625712e-05
PART_003_R247G182B210A255,13113,1.817253e-05,-5.999637e-06,-5.994285e-06,1.962538e-05,-9.390808e-10,-2.553663e-08,4.170890667614344e-05
PART_003_R247G182B210A255,13114,1.817262e-05,-5.997203e-06,-5.997887e-06,1.832787e-05,-5.047474e-09,-6.592544e-08,3.989915346985091e-05
PART_003_R247G182B210A255,13115,1.817244e-05,-5.99643e-06,-5.99666e-06,1.736186e-05,-2.097341e-09,-8.622204e-08,3.858062596518832e-05
PART_003_R247G182B210A255,13116,1.817271e-05,-5.997003e-06,-5.996616e-06,1.670474e-05,-6.851798e-09,-7.784845e-08,3.770051737524191e-05
PART_003_R247G182B210A255,13117,1.817311e-05,-5.996273e-06,-5.99722e-06,1.632219e-05,-6.138328e-09,-4.480803e-08,3.719448560482277e-05
PART_000_R31G119B180A255,13118,1.817387e-05,-5.997664e-06,-5.9963e-06,1.619663e-05,-7.903773e-09,2.452535e-09,3.7030025159667965e-05
PART_000_R31G119B180A255,13119,1.817483e-05,-5.996886e-06,-5.997871e-06,1.631751e-05,-1.050465e-08,4.934557e-08,3.718987359879423e-05
PART_002_R214G39B40A255,13120,1.817594e-05,-5.998203e-06,-5.997677e-06,1.669588e-05,-6.512395e-09,8.207383e-08,3.7691564533190786e-05
PART_002_R214G39B40A255,13121,1.817703e-05,-5.99805e-06,-5.998316e-06,1.73496e-05,-9.933747e-09,8.947274e-08,3.856800612269234e-05
PART_002_R214G39B40A255,13122,1.817779e-05,-5.998699e-06,-5.999587e-06,1.831289e-05,-1.923275e-09,6.819202e-08,3.988262619093598e-05
PART_002_R214G39B40A255,13123,1.817799e-05,-6.000371e-06,-5.996583e-06,1.96092e-05,-2.836682e-09,2.638984e-08,4.169011699066167e-05
PART_003_R247G182B210A255,13124,-3.204058e-09,1.478873e-09,8.324299e-10,2.025204e-05,-1.838655e-09,1.941399e-10,3.5077562658490264e-05
PART_003_R247G182B210A255,13125,-2.415464e-09,1.248926e-09,5.333152e-10,1.894682e-05,-3.854088e-10,5.387778e-10,3.2816855074355315e-05
PART_003_R247G182B210A255,13126,-1.692156e-09,1.111636e-09,2.114474e-10,1.797113e-05,-6.88481e-09,6.567874e-10,3.112691263319064e-05
PART_003_R247G182B210A255,13127,-1.137274e-09,1.015846e-09,-6.733347e-11,1.729778e-05,-3.46796e-09,5.064073e-10,2.996063449114142e-05
PART_003_R247G182B210A255,13128,-8.001966e-10,9.578334e-10,-2.14833e-10,1.690643e-05,-8.570102e-09,2.933799e-10,2.9282799542343854e-05
PART_003_R247G182B210A255,13129,-6.883703e-10,9.367597e-10,-2.934374e-10,1.677568e-05,-8.210286e-09,-4.398696e-11,2.9056333608605805e-05
PART_002_R214G39B40A255,13130,-8.171882e-10,9.567409e-10,-2.007664e-10,1.690158e-05,-8.663749e-09,-3.116789e-10,2.927439918077881e-05
PART_002_R214G39B40A255,13131,-1.154396e-09,1.012477e-09,-6.78562e-11,1.728854e-05,-1.04985e-08,-5.8542e-10,2.9944635265769567e-05
PART_002_R214G39B40A255,13132,-1.732054e-09,1.096938e-09,2.507577e-10,1.795854e-05,-5.537169e-09,-6.757028e-10,3.110510531200022e-05
PART_002_R214G39B40A255,13133,-2.448171e-09,1.248157e-09,5.331697e-10,1.89331e-05,-6.368179e-09,-6.100422e-10,3.279309319260362e-05
PART_002_R214G39B40A255,13134,-3.312558e-09,1.540994e-09,8.897062e-10,2.023932e-05,-1.336934e-09,-2.46049e-10,3.50555309266752e-05
PART_003_R247G182B210A255,13135,-1.81787e-05,6.002669e-06,5.995756e-06,1.96266e-05,-8.621194e-10,2.613333e-08,4.1715510574154464e-05
PART_003_R247G182B210A255,13136,-1.817703e-05,5.999288e-06,5.998904e-06,1.832898e-05,-4.934226e-09,6.711591e-08,3.9904300252924516e-05
PART_003_R247G182B210A255,13137,-1.817521e-05,5.997886e-06,5.996908e-06,1.736293e-05,-2.001658e-09,8.758969e-08,3.858434880012619e-05
PART_003_R247G182B210A255,13138,-1.817438e-05,5.998101e-06,5.996459e-06,1.670579e-05,-6.771632e-09,7.885658e-08,3.770329163873694e-05
PART_003_R247G182B210A255,13139,-1.817405e-05,5.997196e-06,5.996662e-06,1.632326e-05,-6.086013e-09,4.543899e-08,3.719662595369649e-05
PART_001_R158G218B229A255,13140,-1.817459e-05,5.998537e-06,5.995674e-06,1.619771e-05,-7.883211e-09,-2.566025e-09,3.703199297112021e-05
PART_001_R158G218B229A255,13141,-1.817581e-05,5.997803e-06,5.997366e-06,1.631858e-05,-1.052056e-08,-4.993811e-08,3.71920552663616e-05
PART_002_R214G39B40A255,13142,-1.817761e-05,5.99929e-06,5.997465e-06,1.669696e-05,-6.554319e-09,-8.328014e-08,3.769435938499782e-05
PART_002_R214G39B40A255,13143,-1.817993e-05,5.999495e-06,5.998713e-06,1.735067e-05,-1.000807e-08,-9.082044e-08,3.857185475861719e-05
PART_002_R214G39B40A255,13144,-1.81822e-05,6.000719e-06,6.000545e-06,1.831401e-05,-1.98676e-09,-6.944713e-08,3.9887751640779056e-05
PART_002_R214G39B40A255,13145,-1.818422e-05,6.00317e-06,5.998256e-06,1.961043e-05,-2.879581e-09,-2.689537e-08,4.1696763563116965e-05
PART_003_R247G182B210A255,13146,-3.63525e-05,1.199734e-05,1.199849e-05,1.772642e-05,-2.346494e-09,5.890419e-08,5.7275221128706264e-05
PART_003_R247G182B210A255,13147,-3.635049e-05,1.199722e-05,1.199283e-05,1.645646e-05,7.973389e-10,1.621072e-07,5.612319396117994e-05
PART_003_R247G182B210A255,13148,-3.634871e-05,1.199582e-05,1.199443e-05,1.554155e-05,-6.140618e-09,2.069491e-07,5.5334205606255345e-05
PART_003_R247G182B210A255,13149,-3.634746e-05,1.199375e-05,1.199412e-05,1.492882e-05,-1.813528e-09,1.855278e-07,5.4823377695890555e-05
PART_001_R158G218B229A255,13150,-3.634736e-05,1.199627e-05,1.199125e-05,1.458259e-05,-6.228143e-09,1.075088e-07,5.454222663106566e-05
PART_001_R158G218B229A255,13151,-3.634838e-05,1.199578e-05,1.199277e-05,1.446903e-05,-6.962068e-09,-4.666463e-09,5.4452465485096296e-05
PART_001_R158G218B229A255,13152,-3.635068e-05,1.199742e-05,1.199248e-05,1.457841e-05,-8.560388e-09,-1.163585e-07,5.454292722733347e-05
PART_001_R158G218B229A255,13153,-3.635372e-05,1.199593e-05,1.19963e-05,1.492086e-05,-9.820768e-09,-1.935389e-07,5.4824405106745955e-05
PART_002_R214G39B40A255,13154,-3.635756e-05,1.199891e-05,1.199755e-05,1.55308e-05,-4.207797e-09,-2.132933e-07,5.5335668506339035e-05
PART_002_R214G39B40A255,13155,-3.636124e-05,1.200124e-05,1.199632e-05,1.644468e-05,-6.066407e-09,-1.664445e-07,5.612537104715676e-05
PART_002_R214G39B40A255,13156,-3.636437e-05,1.200149e-05,1.200278e-05,1.771551e-05,-2.135021e-10,-6.0405e-08,5.7278683969450836e-05
PART_003_R247G182B210A255,13157,-5.452866e-05,1.800477e-05,1.798489e-05,1.452456e-05,2.411701e-10,1.266708e-07,7.676323054966425e-05
PART_003_R247G182B210A255,13158,-5.452454e-05,1.79944e-05,1.799435e-05,1.332401e-05,-6.208673e-09,3.193067e-07,7.610444629696912e-05
PART_003_R247G182B210A255,13159,-5.452197e-05,1.798943e-05,1.799297e-05,1.249934e-05,1.437971e-09,4.057066e-07,7.567928470786132e-05
PART_001_R158G218B229A255,13160,-5.452004e-05,1.799317e-05,1.798665e-05,1.198965e-05,-1.294698e-09,3.604491e-07,7.542769900999634e-05
PART_001_R158G218B229A255,13161,-5.452042e-05,1.799317e-05,1.798834e-05,1.170803e-05,-3.849027e-09,2.02534e-07,7.529427283219153e-05
PART_001_R158G218B229A255,13162,-5.45217e-05,1.799396e-05,1.798671e-05,1.161578e-05,-5.539678e-09,-6.141422e-09,7.52514086213912e-05
PART_001_R158G218B229A255,13163,-5.452494e-05,1.799472e-05,1.798987e-05,1.170468e-05,-7.965858e-09,-2.150868e-07,7.529865183888476e-05
PART_001_R158G218B229A255,13164,-5.452896e-05,1.799622e-05,1.798995e-05,1.198333e-05,-7.735111e-09,-3.70982e-07,7.543646794861355e-05
PART_001_R158G218B229A255,13165,-5.453402e-05,1.799358e-05,1.799691e-05,1.249065e-05,-9.452315e-09,-4.146098e-07,7.569054943598933e-05
PART_002_R214G39B40A255,13166,-5.45388e-05,1.799833e-05,1.799967e-05,1.33134e-05,2.107503e-09,-3.247706e-07,7.611694114991274e-05
PART_002_R214G39B40A255,13167,-5.45428e-05,1.800674e-05,1.799012e-05,1.451296e-05,-2.713869e-09,-1.288334e-07,7.677342051254536e-05
PART_003_R247G182B210A255,13168,-7.270044e-05,2.399125e-05,2.400088e-05,9.934119e-06,-5.661013e-09,2.318159e-07,9.821626963829295e-05
PART_003_R247G182B210A255,13169,-7.26967e-05,2.398617e-05,2.398821e-05,8.85905e-06,6.398089e-09,6.341476e-07,9.790009929363292e-05
PART_001_R158G218B229A255,13170,-7.269532e-05,2.399115e-05,2.398375e-05,8.27075e-06,3.584907e-09,7.734764e-07,9.774747469070056e-05
PART_001_R158G218B229A255,13171,-7.269313e-05,2.399253e-05,2.398164e-05,7.929596e-06,2.171763e-11,6.384644e-07,9.765716793933543e-05
PART_001_R158G218B229A255,13172,-7.269399e-05,2.399091e-05,2.398331e-05,7.741009e-06,-1.928536e-09,3.525491e-07,9.760828697045005e-05
PART_001_R158G218B229A255,13173,-7.269547e-05,2.399391e-05,2.398225e-05,7.682757e-06,-3.615706e-09,-6.830056e-09,9.759499673190903e-05
PART_001_R158G218B229A255,13174,-7.269926e-05,2.399278e-05,2.398481e-05,7.738775e-06,-5.973928e-09,-3.675794e-07,9.761481134405236e-05
PART_001_R158G218B229A255,13175,-7.270387e-05,2.399604e-05,2.398563e-05,7.925335e-06,-5.743662e-09,-6.501647e-07,9.76707074934963e-05
PART_001_R158G218B229A255,13176,-7.270944e-05,2.399616e-05,2.398782e-05,8.265113e-06,-8.53569e-09,-7.840763e-07,9.776475561482565e-05
PART_001_R158G218B229A255,13177,-7.271504e-05,2.399298e-05,2.399482e-05,8.852887e-06,-8.118544e-09,-6.403781e-07,9.792328810468047e-05
PART_002_R214G39B40A255,13178,-7.271961e-05,2.399927e-05,2.400646e-05,9.928508e-06,4.893698e-09,-2.341473e-07,9.824015252907042e-05
PART_003_R247G182B210A255,13179,-9.087689e-05,3.000939e-05,2.996268e-05,3.649466e-06,8.661491e-09,6.236404e-07,0.00012103293390349993
PART_001_R158G218B229A255,13180,-9.087106e-05,2.99892e-05,2.997354e-05,3.136319e-06,5.804664e-09,1.348846e-06,0.0001209970155380636
PART_001_R158G218B229A255,13181,-9.08691e-05,2.999571e-05,2.997534e-05,2.940409e-06,7.312752e-10,1.370868e-06,0.00012098519144581169
PART_001_R158G218B229A255,13182,-9.086681e-05,2.998716e-05,2.997771e-05,2.810952e-06,1.02377e-09,1.067751e-06,0.00012096141830031645
PART_001_R158G218B229A255,13183,-9.086809e-05,2.999244e-05,2.997845e-05,2.748942e-06,-9.579847e-10,5.715035e-07,0.00012095134131810666
PART_001_R158G218B229A255,13184,-9.086973e-05,2.998831e-05,2.997985e-05,2.725879e-06,-1.186567e-09,-6.586177e-09,0.00012094599963834988
PART_001_R158G218B229A255,13185,-9.087358e-05,2.999461e-05,2.997935e-05,2.748113e-06,-2.066162e-09,-5.871173e-07,0.00012095852862169563
PART_001_R158G218B229A255,13186,-9.08783e-05,2.999135e-05,2.998127e-05,2.809497e-06,-2.784993e-09,-1.07908e-06,0.00012097696934145642
PART_001_R158G218B229A255,13187,-9.088373e-05,3.000119e-05,2.997821e-05,2.938295e-06,-2.71547e-09,-1.382078e-06,0.0001210042050899962
PART_001_R158G218B229A255,13188,-9.088949e-05,2.999441e-05,2.998044e-05,3.133987e-06,-6.154387e-09,-1.354574e-06,0.0001210214818766911
PART_001_R158G218B229A255,13189,-9.089387e-05,3.001267e-05,2.99673e-05,3.646664e-06,-9.693063e-09,-6.264035e-07,0.00012105362383826531
PART_003_R247G182B210A255,13190,8.632951e-05,-2.85028e-05,-2.846266e-05,3.647092e-06,1.007458e-08,-6.231105e-07,0.00011499095880537221
PART_000_R31G119B180A255,13191,8.632794e-05,-2.848741e-05,-2.847737e-05,3.135455e-06,5.330659e-09,-1.345128e-06,0.00011496231285833677
PART_000_R31G119B180A255,13192,8.632633e-05,-2.849565e-05,-2.847632e-05,2.93973e-06,1.442774e-09,-1.368517e-06,0.00011494960859392803
PART_000_R31G119B180A255,13193,8.632626e-05,-2.848795e-05,-2.848194e-05,2.810682e-06,2.570609e-10,-1.063198e-06,0.00011492912507592375
PART_000_R31G119B180A255,13194,8.632786e-05,-2.849307e-05,-2.848125e-05,2.748548e-06,-7.057528e-10,-5.693356e-07,0.00011491790505086731
PART_000_R31G119B180A255,13195,8.633101e-05,-2.848959e-05,-2.848437e-05,2.725478e-06,-2.193194e-09,1.050446e-08,0.00011491499416752885
PART_000_R31G119B180A255,13196,8.633603e-05,-2.849612e-05,-2.848342e-05,2.747495e-06,-2.115769e-09,5.882676e-07,0.00011492888602379143
PART_000_R31G119B180A255,13197,8.634157e-05,-2.849361e-05,-2.848547e-05,2.808555e-06,-3.921977e-09,1.081359e-06,0.00011494936222135915
PART_000_R31G119B180A255,13198,8.634835e-05,-2.85036e-05,-2.848284e-05,2.937055e-06,-2.633468e-09,1.381937e-06,0.00011497910536240288
PART_000_R31G119B180A255,13199,8.635426e-05,-2.849776e-05,-2.848432e-05,3.132315e-06,-6.772864e-09,1.354977e-06,0.00011499732729489638
PART_000_R31G119B180A255,13200,8.635971e-05,-2.851564e-05,-2.847279e-05,3.644439e-06,-8.609827e-09,6.259257e-07,0.00011503237302257476
PART_003_R247G182B210A255,13201,6.906628e-05,-2.279637e-05,-2.279982e-05,9.933192e-06,-5.868174e-09,-2.310192e-07,9.346244446788666e-05
PART_003_R247G182B210A255,13202,6.906233e-05,-2.278854e-05,-2.278948e-05,8.857971e-06,5.200831e-09,-6.325512e-07,9.313033907044803e-05
PART_000_R31G119B180A255,13203,6.905956e-05,-2.279135e-05,-2.278398e-05,8.269844e-06,3.794817e-09,-7.714042e-07,9.296703166613715e-05
PART_000_R31G119B180A255,13204,6.90589e-05,-2.279256e-05,-2.278405e-05,7.928888e-06,-9.082082e-10,-6.352982e-07,9.2874763683468e-05
PART_000_R31G119B180A255,13205,6.906005e-05,-2.279129e-05,-2.278477e-05,7.740544e-06,-2.166806e-09,-3.502858e-07,9.282341305041092e-05
PART_000_R31G119B180A255,13206,6.906301e-05,-2.279449e-05,-2.278526e-05,7.681973e-06,-5.510456e-09,1.002676e-08,9.281158907668378e-05
PART_000_R31G119B180A255,13207,6.906763e-05,-2.279386e-05,-2.278728e-05,7.737519e-06,-6.958964e-09,3.693391e-07,9.283289244622453e-05
PART_000_R31G119B180A255,13208,6.907337e-05,-2.279757e-05,-2.27888e-05,7.923208e-06,-8.109857e-09,6.524681e-07,9.289280381956606e-05
PART_000_R31G119B180A255,13209,6.907987e-05,-2.279818e-05,-2.279075e-05,8.262035e-06,-9.216407e-09,7.849353e-07,9.299207366878969e-05
PART_000_R31G119B180A255,13210,6.908586e-05,-2.279536e-05,-2.279759e-05,8.848612e-06,-9.511081e-09,6.413308e-07,9.315842140530616e-05
PART_002_R214G39B40A255,13211,6.90905e-05,-2.280082e-05,-2.280865e-05,9.922598e-06,4.842998e-09,2.343733e-07,9.34894270909329e-05
PART_003_R247G182B210A255,13212,5.179622e-05,-1.709872e-05,-1.708395e-05,1.451804e-05,1.927741e-09,-1.26463e-07,7.333392014366314e-05
PART_003_R247G182B210A255,13213,5.179461e-05,-1.709169e-05,-1.709445e-05,1.332072e-05,-5.538627e-09,-3.178916e-07,7.265081185154106e-05
PART_003_R247G182B210A255,13214,5.179317e-05,-1.708872e-05,-1.709233e-05,1.249835e-05,2.135527e-09,-4.040203e-07,7.220858270098136e-05
PART_000_R31G119B180A255,13215,5.17925e-05,-1.709251e-05,-1.708782e-05,1.198934e-05,-2.37163e-09,-3.58197e-07,7.194747602975669e-05
PART_000_R31G119B180A255,13216,5.179327e-05,-1.709257e-05,-1.708887e-05,1.1708e-05,-4.370324e-09,-2.004585e-07,7.180777457014988e-05
PART_000_R31G119B180A255,13217,5.179572e-05,-1.709359e-05,-1.708859e-05,1.161524e-05,-8.115945e-09,8.501769e-09,7.176443705586227e-05
PART_000_R31G119B180A255,13218,5.179955e-05,-1.70947e-05,-1.709111e-05,1.17035e-05,-9.698507e-09,2.168453e-07,7.181383884864122e-05
PART_000_R31G119B180A255,13219,5.180454e-05,-1.709658e-05,-1.709207e-05,1.198074e-05,-1.122297e-08,3.72772e-07,7.195891370180082e-05
PART_000_R31G119B180A255,13220,5.181002e-05,-1.709453e-05,-1.709812e-05,1.248671e-05,-1.107637e-08,4.156607e-07,7.222435088187286e-05
PART_002_R214G39B40A255,13221,5.181538e-05,-1.709943e-05,-1.710131e-05,1.330784e-05,-8.652497e-10,3.256917e-07,7.267045234898719e-05
PART_002_R214G39B40A255,13222,5.181909e-05,-1.710717e-05,-1.709183e-05,1.450604e-05,-2.473821e-09,1.290075e-07,7.335596608786596e-05
PART_003_R247G182B210A255,13223,3.453111e-05,-1.139833e-05,-1.139698e-05,1.772742e-05,-2.18086e-09,-5.839157e-08,5.524713529547113e-05
PART_003_R247G182B210A255,13224,3.452949e-05,-1.139709e-05,-1.139209e-05,1.645661e-05,-1.182561e-10,-1.611423e-07,5.405144846567205e-05
PART_003_R247G182B210A255,13225,3.452794e-05,-1.139485e-05,-1.139377e-05,1.554159e-05,-5.055287e-09,-2.054806e-07,5.3231596337328726e-05
PART_003_R247G182B210A255,13226,3.452749e-05,-1.139289e-05,-1.139416e-05,1.492934e-05,-3.037376e-09,-1.838732e-07,5.270196062846897e-05
PART_000_R31G119B180A255,13227,3.452811e-05,-1.139545e-05,-1.139156e-05,1.458357e-05,-6.725186e-09,-1.058163e-07,5.241059057427628e-05
PART_000_R31G119B180A255,13228,3.452982e-05,-1.139516e-05,-1.139358e-05,1.446944e-05,-1.011805e-08,6.149002e-09,5.231754706907315e-05
PART_000_R31G119B180A255,13229,3.453258e-05,-1.139701e-05,-1.139318e-05,1.457799e-05,-1.082513e-08,1.176559e-07,5.241132129139975e-05
PART_000_R31G119B180A255,13230,3.45361e-05,-1.139595e-05,-1.139717e-05,1.491876e-05,-1.42021e-08,1.944566e-07,5.2703239946055355e-05
PART_002_R214G39B40A255,13231,3.453993e-05,-1.139905e-05,-1.139791e-05,1.552697e-05,-6.842534e-09,2.139392e-07,5.323284096166768e-05
PART_002_R214G39B40A255,13232,3.454344e-05,-1.140111e-05,-1.139696e-05,1.643866e-05,-9.580443e-09,1.667722e-07,5.4050748043704656e-05
PART_002_R214G39B40A255,13233,3.45456e-05,-1.140049e-05,-1.140265e-05,1.770766e-05,-3.801709e-10,6.0541e-08,5.524343489145595e-05
PART_003_R247G182B210A255,13234,1.726293e-05,-5.698637e-06,-5.694506e-06,1.962049e-05,1.130122e-09,-2.575523e-08,4.1012578549450135e-05
PART_003_R247G182B210A255,13235,1.726271e-05,-5.696849e-06,-5.697102e-06,1.832649e-05,-4.147729e-09,-6.610966e-08,3.917577093739982e-05
PART_003_R247G182B210A255,13236,1.726281e-05,-5.696413e-06,-5.696526e-06,1.736347e-05,-6.464279e-10,-8.611114e-08,3.783676827016679e-05
PART_003_R247G182B210A255,13237,1.726275e-05,-5.696822e-06,-5.695914e-06,1.670733e-05,-7.777907e-09,-7.770949e-08,3.6939735041347985e-05
PART_003_R247G182B210A255,13238,1.726326e-05,-5.696033e-06,-5.696991e-06,1.632517e-05,-6.66824e-09,-4.416078e-08,3.642376479013051e-05
PART_000_R31G119B180A255,13239,1.726415e-05,-5.69743e-06,-5.695865e-06,1.619903e-05,-1.13256e-08,3.125927e-09,3.625499078220169e-05
PART_000_R31G119B180A255,13240,1.726555e-05,-5.696866e-06,-5.697758e-06,1.631895e-05,-1.310265e-08,5.047237e-08,3.641738014401919e-05
PART_002_R214G39B40A255,13241,1.726723e-05,-5.698417e-06,-5.697575e-06,1.669539e-05,-1.177234e-08,8.30865e-08,3.6927372955336435e-05
PART_002_R214G39B40A255,13242,1.726896e-05,-5.698666e-06,-5.698463e-06,1.734717e-05,-1.297071e-08,9.06488e-08,3.781937676705534e-05
PART_002_R214G39B40A255,13243,1.727047e-05,-5.699702e-06,-5.699844e-06,1.830847e-05,-6.278496e-09,6.898809e-08,3.915669394937593e-05
PART_002_R214G39B40A255,13244,1.727115e-05,-5.701413e-06,-5.697262e-06,1.96036e-05,-2.974006e-09,2.673101e-08,4.099449814262371e-05
PART_003_R247G182B210A255,13245,-3.929339e-09,1.266584e-09,1.296267e-09,2.025541e-05,-1.439371e-09,3.416538e-10,3.508339972868331e-05
PART_003_R247G182B210A255,13246,-2.705992e-09,6.811507e-10,9.112033e-10,1.894915e-05,-9.849656e-10,6.803437e-10,3.282089081319177e-05
PART_003_R247G182B210A255,13247,-1.758288e-09,3.416847e-10,5.292288e-10,1.79731e-05,-5.442041e-09,6.609955e-10,3.113032389531261e-05
PART_003_R247G182B210A255,13248,-1.117288e-09,1.780476e-10,2.756033e-10,1.730042e-05,-4.494437e-09,5.410096e-10,2.9965207488367984e-05
PART_003_R247G182B210A255,13249,-7.45571e-10,1.04935e-10,9.26315e-11,1.690961e-05,-9.029013e-09,2.41433e-10,2.92883078465357e-05
PART_003_R247G182B210A255,13250,-6.344705e-10,8.386021e-11,8.054386e-11,1.677826e-05,-1.170749e-08,-1.701481e-11,2.906080586620513e-05
PART_002_R214G39B40A255,13251,-7.539275e-10,9.431314e-11,9.50455e-11,1.690317e-05,-1.151967e-08,-3.575913e-10,2.9277156066784205e-05
PART_002_R214G39B40A255,13252,-1.15192e-09,1.55111e-10,3.15756e-10,1.728815e-05,-1.574065e-08,-5.72469e-10,2.994396662933878e-05
PART_002_R214G39B40A255,13253,-1.793279e-09,3.173891e-10,5.426342e-10,1.795613e-05,-8.982098e-09,-7.47335e-10,3.110093346543726e-05
PART_002_R214G39B40A255,13254,-2.759911e-09,6.094901e-10,9.985326e-10,1.892821e-05,-1.074355e-08,-6.606867e-10,3.278462691275407e-05
PART_002_R214G39B40A255,13255,-3.870917e-09,1.05569e-09,1.329923e-09,2.02327e-05,-1.668066e-09,-2.912014e-10,3.50440648636745e-05
PART_003_R247G182B210A255,13256,-1.727024e-05,5.700756e-06,5.697103e-06,1.96216e-05,1.133671e-09,2.614745e-08,4.101958522621958e-05
PART_003_R247G182B210A255,13257,-1.726785e-05,5.6985e-06,5.69872e-06,1.832747e-05,-4.038217e-09,6.735229e-08,3.9181123167733394e-05
PART_003_R247G182B210A255,13258,-1.72663e-05,5.697808e-06,5.697577e-06,1.736444e-05,-4.965771e-10,8.741887e-08,3.7840972609555635e-05
PART_003_R247G182B210A255,13259,-1.726489e-05,5.698041e-06,5.696273e-06,1.670836e-05,-7.657224e-09,7.884965e-08,3.694296027857717e-05
PART_003_R247G182B210A255,13260,-1.726473e-05,5.697148e-06,5.69716e-06,1.632623e-05,-6.59581e-09,4.460925e-08,3.642652296525088e-05
PART_001_R158G218B229A255,13261,-1.726538e-05,5.698499e-06,5.695898e-06,1.620011e-05,-1.129958e-08,-3.101058e-09,3.625756638785993e-05
PART_001_R158G218B229A255,13262,-1.726701e-05,5.697966e-06,5.69789e-06,1.632002e-05,-1.312452e-08,-5.122813e-08,3.6420130772312745e-05
PART_002_R214G39B40A255,13263,-1.726948e-05,5.699601e-06,5.698085e-06,1.669641e-05,-1.185249e-08,-8.419326e-08,3.693069009347059e-05
PART_002_R214G39B40A255,13264,-1.727241e-05,5.699986e-06,5.699423e-06,1.734817e-05,-1.307749e-08,-9.21877e-08,3.7823551666440116e-05
PART_002_R214G39B40A255,13265,-1.72758e-05,5.701306e-06,5.7017e-06,1.830945e-05,-6.41117e-09,-7.030311e-08,3.91622175325768e-05
PART_002_R214G39B40A255,13266,-1.727863e-05,5.703673e-06,5.699783e-06,1.960466e-05,-3.014878e-09,-2.732415e-08,4.100155135357718e-05
PART_003_R247G182B210A255,13267,-3.453765e-05,1.14006e-05,1.139915e-05,1.772944e-05,-1.914686e-09,5.90995e-08,5.5256364539246236e-05
PART_003_R247G182B210A255,13268,-3.453344e-05,1.139821e-05,1.139329e-05,1.645854e-05,1.601365e-10,1.626091e-07,5.405756611466003e-05
PART_003_R247G182B210A255,13269,-3.452995e-05,1.13952e-05,1.13944e-05,1.554354e-05,-4.770578e-09,2.068698e-07,5.323547711681562e-05
PART_003_R247G182B210A255,13270,-3.452816e-05,1.139279e-05,1.139428e-05,1.493131e-05,-2.87439e-09,1.850518e-07,5.2704239730583375e-05
PART_001_R158G218B229A255,13271,-3.452798e-05,1.139514e-05,1.139142e-05,1.458562e-05,-6.560205e-09,1.06318e-07,5.2411993879071616e-05
PART_001_R158G218B229A255,13272,-3.452951e-05,1.139479e-05,1.139344e-05,1.44715e-05,-1.011116e-08,-6.125411e-09,5.231876040701031e-05
PART_001_R158G218B229A255,13273,-3.453243e-05,1.139668e-05,1.1393e-05,1.458005e-05,-1.082105e-08,-1.183572e-07,5.241269016548325e-05
PART_001_R158G218B229A255,13274,-3.453684e-05,1.139582e-05,1.139742e-05,1.492076e-05,-1.436086e-08,-1.956016e-07,5.270564851213831e-05
PART_002_R214G39B40A255,13275,-3.454192e-05,1.139935e-05,1.139844e-05,1.552891e-05,-6.989699e-09,-2.154723e-07,5.323663261658722e-05
PART_002_R214G39B40A255,13276,-3.454752e-05,1.140211e-05,1.139842e-05,1.644059e-05,-9.819648e-09,-1.681722e-07,5.405703552920396e-05
PART_002_R214G39B40A255,13277,-3.455198e-05,1.140242e-05,1.140472e-05,1.770975e-05,-4.432787e-10,-6.11611e-08,5.525241657690139e-05
PART_003_R247G182B210A255,13278,-5.180037e-05,1.710021e-05,1.708476e-05,1.45211e-05,1.917675e-09,1.270265e-07,7.334071926928068e-05
PART_003_R247G182B210A255,13279,-5.179705e-05,1.709259e-05,1.709575e-05,1.332321e-05,-5.412344e-09,3.192643e-07,7.26555562338495e-05
PART_003_R247G182B210A255,13280,-5.179317e-05,1.708921e-05,1.709172e-05,1.250084e-05,2.487243e-09,4.057076e-07,7.220984691982339e-05
PART_001_R158G218B229A255,13281,-5.179169e-05,1.709268e-05,1.708805e-05,1.199185e-05,-2.23122e-09,3.591946e-07,7.194816184994051e-05
PART_001_R158G218B229A255,13282,-5.179131e-05,1.709251e-05,1.708783e-05,1.171059e-05,-4.143031e-09,2.013162e-07,7.180664101594479e-05
PART_001_R158G218B229A255,13283,-5.179381e-05,1.709345e-05,1.708846e-05,1.161785e-05,-8.137848e-09,-8.746914e-09,7.176374162379651e-05
PART_001_R158G218B229A255,13284,-5.179766e-05,1.709463e-05,1.709022e-05,1.17061e-05,-9.656325e-09,-2.172192e-07,7.18128400065036e-05
PART_001_R158G218B229A255,13285,-5.180354e-05,1.709672e-05,1.709202e-05,1.19833e-05,-1.141653e-08,-3.741884e-07,7.195930028490518e-05
PART_001_R158G218B229A255,13286,-5.181023e-05,1.709498e-05,1.709792e-05,1.248922e-05,-1.121592e-08,-4.170321e-07,7.222599620938555e-05
PART_002_R214G39B40A255,13287,-5.181759e-05,1.710034e-05,1.710216e-05,1.331043e-05,-1.144997e-09,-3.273236e-07,7.26748276636072e-05
PART_002_R214G39B40A255,13288,-5.18236e-05,1.710881e-05,1.709314e-05,1.450896e-05,-2.522268e-09,-1.296137e-07,7.336332463947017e-05
PART_003_R247G182B210A255,13289,-6.906734e-05,2.279716e-05,2.279885e-05,9.936175e-06,-5.562695e-09,2.319305e-07,9.346435578927506e-05
PART_003_R247G182B210A255,13290,-6.906216e-05,2.278825e-05,2.279066e-05,8.86048e-06,5.488392e-09,6.340425e-07,9.31313568031641e-05
PART_001_R158G218B229A255,13291,-6.90561e-05,2.279006e-05,2.27819e-05,8.272285e-06,4.014109e-09,7.735481e-07,9.296265370759127e-05
PART_001_R158G218B229A255,13292,-6.905504e-05,2.279061e-05,2.278421e-05,7.931292e-06,-7.404843e-10,6.361172e-07,9.287069380602069e-05
PART_001_R158G218B229A255,13293,-6.905468e-05,2.278903e-05,2.27827e-05,7.74305e-06,-2.038466e-09,3.515328e-07,9.281659843072605e-05
PART_001_R158G218B229A255,13294,-6.905793e-05,2.27921e-05,2.278499e-05,7.684446e-06,-5.484078e-09,-1.054883e-08,9.280585952879928e-05
PART_001_R158G218B229A255,13295,-6.906242e-05,2.279158e-05,2.278556e-05,7.740039e-06,-6.937852e-09,-3.693641e-07,9.28263886846916e-05
PART_001_R158G218B229A255,13296,-6.906905e-05,2.279559e-05,2.278824e-05,7.925664e-06,-8.238518e-09,-6.541869e-07,9.288794036843923e-05
PART_001_R158G218B229A255,13297,-6.907684e-05,2.279684e-05,2.278963e-05,8.264492e-06,-9.313207e-09,-7.862071e-07,9.298855213717245e-05
PART_001_R158G218B229A255,13298,-6.908492e-05,2.27949e-05,2.279757e-05,8.851137e-06,-9.71511e-09,-6.432861e-07,9.315801770233442e-05
PART_002_R214G39B40A255,13299,-6.909202e-05,2.280134e-05,2.280895e-05,9.92562e-06,4.80304e-09,-2.350014e-07,9.349229124267992e-05
PART_003_R247G182B210A255,13300,-8.6327e-05,2.850207e-05,2.846068e-05,3.648506e-06,9.676342e-09,6.242102e-07,0.00011498725250697114
PART_001_R158G218B229A255,13301,-8.632444e-05,2.848606e-05,2.847749e-05,3.136479e-06,5.49994e-09,1.347159e-06,0.0001149583583830427
PART_001_R158G218B229A255,13302,-8.631972e-05,2.849389e-05,2.847322e-05,2.940806e-06,1.368143e-09,1.370919e-06,0.00011494074801079178
PART_001_R158G218B229A255,13303,-8.631962e-05,2.848575e-05,2.848139e-05,2.811679e-06,4.516368e-10,1.064186e-06,0.00011492121884565155
PART_001_R158G218B229A255,13304,-8.631958e-05,2.849053e-05,2.847839e-05,2.749665e-06,-7.53373e-10,5.707057e-07,0.00011490703546947735
PART_001_R158G218B229A255,13305,-8.632325e-05,2.848692e-05,2.848355e-05,2.726485e-06,-2.108844e-09,-1.105038e-08,0.0001149055689579619
PART_001_R158G218B229A255,13306,-8.632791e-05,2.849356e-05,2.848093e-05,2.748622e-06,-2.152445e-09,-5.881798e-07,0.00011491833007113701
PART_001_R158G218B229A255,13307,-8.633434e-05,2.849134e-05,2.848413e-05,2.809568e-06,-3.94503e-09,-1.083261e-06,0.00011494046447272484
PART_001_R158G218B229A255,13308,-8.634214e-05,2.850176e-05,2.848073e-05,2.938165e-06,-2.684371e-09,-1.383336e-06,0.00011497106575151771
PART_001_R158G218B229A255,13309,-8.634993e-05,2.849649e-05,2.848317e-05,3.133375e-06,-6.861633e-09,-1.357471e-06,0.00011499196950391718
PART_001_R158G218B229A255,13310,-8.635775e-05,2.851513e-05,2.847196e-05,3.645886e-06,-8.587984e-09,-6.268251e-07,0.00011502989944126295
PART_003_R247G182B210A255,13311,8.178995e-05,-2.701066e-05,-2.696601e-05,3.648198e-06,6.613796e-09,-6.220606e-07,0.00010896699426017412
PART_000_R31G119B180A255,13312,8.178266e-05,-2.699018e-05,-2.697697e-05,3.135814e-06,5.584491e-09,-1.345369e-06,0.00010892669159613355
PART_000_R31G119B180A255,13313,8.177922e-05,-2.69948e-05,-2.697796e-05,2.940595e-06,2.986434e-10,-1.36564e-06,0.0001089104777833962
PART_000_R31G119B180A255,13314,8.177859e-05,-2.698676e-05,-2.698312e-05,2.81136e-06,1.110129e-09,-1.06138e-06,0.00010888799883071256
PART_000_R31G119B180A255,13315,8.178077e-05,-2.699175e-05,-2.698355e-05,2.749611e-06,-1.855377e-09,-5.650676e-07,0.00010887703263859346
PART_000_R31G119B180A255,13316,8.178557e-05,-2.698879e-05,-2.698746e-05,2.726239e-06,-1.948092e-09,1.334908e-08,0.00010887614251301367
PART_000_R31G119B180A255,13317,8.179182e-05,-2.699587e-05,-2.698608e-05,2.748113e-06,-3.701059e-09,5.925976e-07,0.00010889171911544743
PART_000_R31G119B180A255,13318,8.180036e-05,-2.699476e-05,-2.698926e-05,2.808741e-06,-3.942167e-09,1.08432e-06,0.00010891728130617695
PART_000_R31G119B180A255,13319,8.180901e-05,-2.700552e-05,-2.698553e-05,2.936741e-06,-4.148483e-09,1.385508e-06,0.00010894980233232858
PART_000_R31G119B180A255,13320,8.181862e-05,-2.700098e-05,-2.698906e-05,3.131552e-06,-6.113371e-09,1.357041e-06,0.00010897409326692042
PART_000_R31G119B180A255,13321,8.182601e-05,-2.701833e-05,-2.697742e-05,3.642966e-06,-9.223099e-09,6.270523e-07,0.00010901207568202359
PART_003_R247G182B210A255,13322,6.542729e-05,-2.158947e-05,-2.159921e-05,9.929811e-06,-4.270795e-09,-2.316207e-07,8.870585435956207e-05
PART_003_R247G182B210A255,13323,6.54236e-05,-2.158556e-05,-2.158971e-05,8.857861e-06,6.944031e-09,-6.321545e-07,8.836028030864531e-05
PART_000_R31G119B180A255,13324,6.542075e-05,-2.158985e-05,-2.158393e-05,8.271419e-06,3.383456e-09,-7.704394e-07,8.818933794073763e-05
PART_000_R31G119B180A255,13325,6.54195e-05,-2.159055e-05,-2.158469e-05,7.931289e-06,-2.997014e-10,-6.335078e-07,8.809176459080104e-05
PART_000_R31G119B180A255,13326,6.542095e-05,-2.158916e-05,-2.158553e-05,7.743027e-06,-3.831035e-09,-3.473751e-07,8.803788310987876e-05
PART_000_R31G119B180A255,13327,6.542497e-05,-2.159246e-05,-2.158699e-05,7.684289e-06,-6.245885e-09,1.325566e-08,8.802671585865888e-05
PART_000_R31G119B180A255,13328,6.543122e-05,-2.159267e-05,-2.158891e-05,7.739025e-06,-9.962053e-09,3.732651e-07,8.805070151411237e-05
PART_000_R31G119B180A255,13329,6.543937e-05,-2.15972e-05,-2.159132e-05,7.923659e-06,-9.66738e-09,6.562666e-07,8.811639024993066e-05
PART_000_R31G119B180A255,13330,6.54485e-05,-2.15993e-05,-2.159316e-05,8.261076e-06,-1.220925e-08,7.887385e-07,8.82235113308376e-05
PART_000_R31G119B180A255,13331,6.545804e-05,-2.159835e-05,-2.160084e-05,8.84634e-06,-9.859687e-09,6.443145e-07,8.840277555481567e-05
PART_002_R214G39B40A255,13332,6.546577e-05,-2.160483e-05,-2.161197e-05,9.91912e-06,3.182832e-09,2.35544e-07,8.875384170539247e-05
PART_003_R247G182B210A255,13333,4.907317e-05,-1.620487e-05,-1.618503e-05,1.452164e-05,-5.26137e-11,-1.262862e-07,6.994719231708757e-05
PART_003_R247G182B210A255,13334,4.906829e-05,-1.61947e-05,-1.619386e-05,1.332321e-05,-4.583864e-09,-3.183439e-07,6.922449645319081e-05
PART_003_R247G182B210A255,13335,4.906451e-05,-1.618938e-05,-1.619192e-05,1.250074e-05,1.706824e-09,-4.03656e-07,6.87570377223005e-05
PART_000_R31G119B180A255,13336,4.906311e-05,-1.619249e-05,-1.618753e-05,1.199272e-05,-1.708197e-09,-3.569687e-07,6.848231870996302e-05
PART_000_R31G119B180A255,13337,4.906409e-05,-1.619252e-05,-1.618908e-05,1.171157e-05,-6.389101e-09,-1.983833e-07,6.833594576535099e-05
PART_000_R31G119B180A255,13338,4.906726e-05,-1.619371e-05,-1.618905e-05,1.16187e-05,-9.536351e-09,1.129485e-08,6.829109265162758e-05
PART_000_R31G119B180A255,13339,4.90726e-05,-1.619538e-05,-1.619212e-05,1.170559e-05,-1.39119e-08,2.201794e-07,6.83440193401364e-05
PART_000_R31G119B180A255,13340,4.90795e-05,-1.619813e-05,-1.619329e-05,1.198145e-05,-1.390975e-08,3.76362e-07,6.849776650321796e-05
PART_000_R31G119B180A255,13341,4.908749e-05,-1.619725e-05,-1.619982e-05,1.24851e-05,-1.565614e-08,4.191955e-07,6.877809346899724e-05
PART_002_R214G39B40A255,13342,4.909521e-05,-1.620254e-05,-1.620328e-05,1.330409e-05,-2.778046e-09,3.284868e-07,6.92471273195888e-05
PART_002_R214G39B40A255,13343,4.910131e-05,-1.620969e-05,-1.619562e-05,1.450005e-05,-4.745593e-09,1.302425e-07,6.996723018735826e-05
PART_003_R247G182B210A255,13344,3.271228e-05,-1.079557e-05,-1.079701e-05,1.772135e-05,-1.063277e-09,-5.891293e-08,5.32460779594069e-05
PART_003_R247G182B210A255,13345,3.271022e-05,-1.079606e-05,-1.079154e-05,1.645543e-05,2.981731e-09,-1.61503e-07,5.20098219307381e-05
PART_003_R247G182B210A255,13346,3.270857e-05,-1.07948e-05,-1.079333e-05,1.554387e-05,-4.810334e-09,-2.053782e-07,5.116093770962027e-05
PART_003_R247G182B210A255,13347,3.270757e-05,-1.079257e-05,-1.079336e-05,1.493321e-05,-2.098481e-09,-1.832628e-07,5.061027165940783e-05
PART_000_R31G119B180A255,13348,3.270812e-05,-1.079476e-05,-1.07914e-05,1.458762e-05,-9.199518e-09,-1.04408e-07,5.030689156254028e-05
PART_000_R31G119B180A255,13349,3.27104e-05,-1.079467e-05,-1.079336e-05,1.447331e-05,-1.179361e-08,8.110689e-09,5.021020660647731e-05
PART_000_R31G119B180A255,13350,3.271415e-05,-1.079686e-05,-1.079356e-05,1.458024e-05,-1.6158e-08,1.201088e-07,5.030764030208835e-05
PART_000_R31G119B180A255,13351,3.271914e-05,-1.07966e-05,-1.079748e-05,1.491913e-05,-1.767978e-08,1.97201e-07,5.0611429980499116e-05
PART_002_R214G39B40A255,13352,3.272486e-05,-1.080052e-05,-1.079887e-05,1.552447e-05,-1.318052e-08,2.166369e-07,5.116205343953903e-05
PART_002_R214G39B40A255,13353,3.273039e-05,-1.080352e-05,-1.079827e-05,1.643384e-05,-1.184165e-08,1.689781e-07,5.20122309397392e-05
PART_002_R214G39B40A255,13354,3.273453e-05,-1.080338e-05,-1.080477e-05,1.770086e-05,-3.297523e-09,6.140526e-08,5.325019066118675e-05
PART_003_R247G182B210A255,13355,1.635493e-05,-5.401525e-06,-5.393778e-06,1.962438e-05,-6.660544e-10,-2.565907e-08,4.035499590600716e-05
PART_003_R247G182B210A255,13356,1.635445e-05,-5.398987e-06,-5.39709e-06,1.832927e-05,-2.41817e-09,-6.621427e-08,3.848467676064829e-05
PART_003_R247G182B210A255,13357,1.635338e-05,-5.397806e-06,-5.39548e-06,1.736598e-05,-8.882324e-10,-8.631401e-08,3.711896605956682e-05
PART_003_R247G182B210A255,13358,1.635324e-05,-5.398016e-06,-5.395658e-06,1.671128e-05,-6.384134e-09,-7.72975e-08,3.6206139512150034e-05
PART_003_R247G182B210A255,13359,1.635357e-05,-5.397242e-06,-5.396117e-06,1.632955e-05,-9.393423e-09,-4.369083e-08,3.567971349722464e-05
PART_000_R31G119B180A255,13360,1.635483e-05,-5.398621e-06,-5.395684e-06,1.620318e-05,-1.321846e-08,4.316547e-09,3.550744225606473e-05
PART_000_R31G119B180A255,13361,1.635672e-05,-5.398362e-06,-5.397307e-06,1.632131e-05,-1.900852e-08,5.162179e-08,3.567106952525597e-05
PART_002_R214G39B40A255,13362,1.635919e-05,-5.400224e-06,-5.39757e-06,1.669567e-05,-1.599662e-08,8.47479e-08,3.6189402588662245e-05
PART_002_R214G39B40A255,13363,1.636189e-05,-5.400842e-06,-5.398551e-06,1.734422e-05,-1.987641e-08,9.200784e-08,3.7095271055777185e-05
PART_002_R214G39B40A255,13364,1.636421e-05,-5.40193e-06,-5.400198e-06,1.830244e-05,-9.315635e-09,7.024882e-08,3.845361035636374e-05
PART_002_R214G39B40A255,13365,1.63656e-05,-5.403323e-06,-5.398119e-06,1.959475e-05,-6.262118e-09,2.719213e-08,4.031919851326314e-05
PART_003_R247G182B210A255,13366,-3.949048e-09,-7.609316e-11,1.978034e-09,2.024809e-05,-5.405218e-10,1.532454e-10,3.507072103715581e-05
PART_003_R247G182B210A255,13367,-2.758908e-09,-2.056452e-10,1.483722e-09,1.89469e-05,2.486629e-09,5.11486e-10,3.2816993949040124e-05
PART_003_R247G182B210A255,13368,-1.841456e-09,-2.240572e-10,1.094436e-09,1.797504e-05,-4.959052e-09,5.985701e-10,3.1133683854359115e-05
PART_003_R247G182B210A255,13369,-1.219549e-09,-2.324023e-10,8.19697e-10,1.730422e-05,-3.333166e-09,3.857462e-10,2.997178884086726e-05
PART_003_R247G182B210A255,13370,-9.072613e-10,-2.321521e-10,7.52402e-10,1.691372e-05,-1.164071e-08,2.031902e-10,2.9295429361032537e-05
PART_003_R247G182B210A255,13371,-8.11233e-10,-2.392277e-10,6.833851e-10,1.678217e-05,-1.372263e-08,-7.870504e-11,2.9067580848483933e-05
PART_002_R214G39B40A255,13372,-9.258498e-10,-2.569899e-10,7.82495e-10,1.690519e-05,-1.77089e-08,-2.572389e-10,2.928066409843543e-05
PART_002_R214G39B40A255,13373,-1.23489e-09,-2.806203e-10,8.381752e-10,1.728793e-05,-2.006826e-08,-5.246094e-10,2.9943593360107767e-05
PART_002_R214G39B40A255,13374,-1.872646e-09,-3.187919e-10,1.175227e-09,1.79525e-05,-1.646327e-08,-6.442277e-10,3.109465532982972e-05
PART_002_R214G39B40A255,13375,-2.800859e-09,-2.808122e-10,1.502991e-09,1.892187e-05,-1.372965e-08,-6.592952e-10,3.2773649075628355e-05
PART_002_R214G39B40A255,13376,-4.177406e-09,1.709383e-12,2.101948e-09,2.022409e-05,-5.081887e-09,-2.818929e-10,3.5029152963675336e-05
PART_003_R247G182B210A255,13377,-1.636318e-05,5.402232e-06,5.397385e-06,1.962471e-05,-4.651333e-10,2.646354e-08,4.0361089125906696e-05
PART_003_R247G182B210A255,13378,-1.635972e-05,5.398348e-06,5.399968e-06,1.832975e-05,-2.14195e-09,6.748879e-08,3.848898098091011e-05
PART_003_R247G182B210A255,13379,-1.635633e-05,5.396471e-06,5.397364e-06,1.736663e-05,-6.676051e-10,8.758215e-08,3.712177667220587e-05
PART_003_R247G182B210A255,13380,-1.635502e-05,5.396406e-06,5.397321e-06,1.671201e-05,-6.225903e-09,7.800455e-08,3.62082399677319e-05
PART_003_R247G182B210A255,13381,-1.635461e-05,5.39553e-06,5.397453e-06,1.633038e-05,-9.291092e-09,4.417213e-08,3.56813741968317e-05
PART_001_R158G218B229A255,13382,-1.635569e-05,5.396877e-06,5.397053e-06,1.620404e-05,-1.318907e-08,-4.536231e-09,3.5509031528949565e-05
PART_001_R158G218B229A255,13383,-1.635782e-05,5.3966e-06,5.398757e-06,1.632212e-05,-1.904919e-08,-5.20479e-08,3.5672759045562915e-05
PART_002_R214G39B40A255,13384,-1.636092e-05,5.398515e-06,5.39915e-06,1.669641e-05,-1.609933e-08,-8.583364e-08,3.619143586035958e-05
PART_002_R214G39B40A255,13385,-1.636505e-05,5.399382e-06,5.40075e-06,1.734482e-05,-2.006183e-08,-9.324528e-08,3.709819281140282e-05
PART_002_R214G39B40A255,13386,-1.636937e-05,5.401021e-06,5.403009e-06,1.830291e-05,-9.488243e-09,-7.160607e-08,3.8457748290229904e-05
PART_002_R214G39B40A255,13387,-1.637374e-05,5.403337e-06,5.402151e-06,1.959513e-05,-6.373502e-09,-2.776857e-08,4.0325240864165037e-05
PART_003_R247G182B210A255,13388,-3.271937e-05,1.079611e-05,1.08001e-05,1.772268e-05,-1.127765e-09,5.93079e-08,5.325468390254015e-05
PART_003_R247G182B210A255,13389,-3.271471e-05,1.07961e-05,1.079396e-05,1.645657e-05,3.299221e-09,1.626081e-07,5.2015698819050135e-05
PART_003_R247G182B210A255,13390,-3.271093e-05,1.079456e-05,1.079483e-05,1.554514e-05,-4.485319e-09,2.066651e-07,5.11646531435427e-05
PART_003_R247G182B210A255,13391,-3.270865e-05,1.079216e-05,1.079466e-05,1.493473e-05,-1.768867e-09,1.839813e-07,5.061293575947478e-05
PART_001_R158G218B229A255,13392,-3.270856e-05,1.079422e-05,1.079258e-05,1.458923e-05,-9.087023e-09,1.048823e-07,5.03089521899435e-05
PART_001_R158G218B229A255,13393,-3.271058e-05,1.079406e-05,1.079448e-05,1.447498e-05,-1.168073e-08,-8.267376e-09,5.02120277027614e-05
PART_001_R158G218B229A255,13394,-3.271465e-05,1.079629e-05,1.079484e-05,1.458186e-05,-1.626839e-08,-1.205098e-07,5.0309791252987e-05
PART_001_R158G218B229A255,13395,-3.272018e-05,1.07961e-05,1.079867e-05,1.492062e-05,-1.780551e-08,-1.981924e-07,5.061395028869918e-05
PART_002_R214G39B40A255,13396,-3.272734e-05,1.080017e-05,1.080065e-05,1.552576e-05,-1.352835e-08,-2.178922e-07,5.116596203580387e-05
PART_002_R214G39B40A255,13397,-3.273484e-05,1.080346e-05,1.080051e-05,1.643493e-05,-1.211531e-08,-1.703353e-07,5.20179141508739e-05
PART_002_R214G39B40A255,13398,-3.274207e-05,1.080407e-05,1.080827e-05,1.770191e-05,-3.500289e-09,-6.199868e-08,5.325911791925336e-05
PART_003_R247G182B210A255,13399,-4.907936e-05,1.620599e-05,1.618815e-05,1.452338e-05,3.524081e-10,1.27085e-07,6.99560340805677e-05
PART_003_R247G182B210A255,13400,-4.907029e-05,1.619442e-05,1.619441e-05,1.33252e-05,-3.938559e-09,3.19864e-07,6.922767921380385e-05
PART_003_R247G182B210A255,13401,-4.906482e-05,1.618804e-05,1.619358e-05,1.250281e-05,1.985147e-09,4.046977e-07,6.875863142843582e-05
PART_001_R158G218B229A255,13402,-4.906139e-05,1.61905e-05,1.618756e-05,1.1995e-05,-1.287928e-09,3.580636e-07,6.848096104217807e-05
PART_001_R158G218B229A255,13403,-4.906215e-05,1.619023e-05,1.619051e-05,1.171398e-05,-6.32922e-09,1.984306e-07,6.83349222068521e-05
PART_001_R158G218B229A255,13404,-4.906481e-05,1.619132e-05,1.61894e-05,1.162115e-05,-9.348495e-09,-1.096622e-08,6.828902707915979e-05
PART_001_R158G218B229A255,13405,-4.907053e-05,1.619306e-05,1.619335e-05,1.170802e-05,-1.405972e-08,-2.208648e-07,6.834277752609501e-05
PART_001_R158G218B229A255,13406,-4.9078e-05,1.619609e-05,1.619373e-05,1.198372e-05,-1.398694e-08,-3.769072e-07,6.849677498376262e-05
PART_001_R158G218B229A255,13407,-4.908748e-05,1.619582e-05,1.620098e-05,1.248719e-05,-1.60369e-08,-4.206697e-07,6.877912146987542e-05
PART_002_R214G39B40A255,13408,-4.909753e-05,1.620206e-05,1.620453e-05,1.330598e-05,-3.045901e-09,-3.296844e-07,6.925078457881072e-05
PART_002_R214G39B40A255,13409,-4.910704e-05,1.621042e-05,1.619819e-05,1.4502e-05,-4.998316e-09,-1.309654e-07,6.997533451614347e-05
PART_003_R247G182B210A255,13410,-6.54307e-05,2.158981e-05,2.160224e-05,9.932466e-06,-4.473407e-09,2.32044e-07,8.87117479024942e-05
PART_003_R247G182B210A255,13411,-6.542192e-05,2.158493e-05,2.158803e-05,8.859991e-06,7.121894e-09,6.339574e-07,8.835816802903345e-05
PART_001_R158G218B229A255,13412,-6.54184e-05,2.158858e-05,2.158556e-05,8.273574e-06,3.680246e-09,7.711595e-07,8.818782228016283e-05
PART_001_R158G218B229A255,13413,-6.541466e-05,2.158879e-05,2.158324e-05,7.933676e-06,-5.7398e-11,6.34998e-07,8.808607600277314e-05
PART_001_R158G218B229A255,13414,-6.54164e-05,2.158699e-05,2.158707e-05,7.745417e-06,-3.71118e-09,3.469641e-07,8.803370081315453e-05
PART_001_R158G218B229A255,13415,-6.541968e-05,2.15902e-05,2.158645e-05,7.6868e-06,-6.14096e-09,-1.240019e-08,8.802076006133555e-05
PART_001_R158G218B229A255,13416,-6.542635e-05,2.159048e-05,2.158993e-05,7.741438e-06,-1.002655e-08,-3.742257e-07,8.804595883649157e-05
PART_001_R158G218B229A255,13417,-6.543496e-05,2.159538e-05,2.159083e-05,7.926053e-06,-9.719563e-09,-6.56282e-07,8.811153989828921e-05
PART_001_R158G218B229A255,13418,-6.544531e-05,2.159797e-05,2.159339e-05,8.263298e-06,-1.250069e-08,-7.904522e-07,8.822049166869349e-05
PART_001_R158G218B229A255,13419,-6.545716e-05,2.159778e-05,2.16008e-05,8.848506e-06,-1.005191e-08,-6.453662e-07,8.840228200933446e-05
PART_002_R214G39B40A255,13420,-6.546829e-05,2.160533e-05,2.161318e-05,9.921638e-06,2.993483e-09,-2.363435e-07,8.875800354269936e-05
PART_003_R247G182B210A255,13421,-8.178868e-05,2.701001e-05,2.69672e-05,3.649476e-06,7.334937e-09,6.230329e-07,0.00010896614062682213
PART_001_R158G218B229A255,13422,-8.17761e-05,2.698798e-05,2.69738e-05,3.136926e-06,5.541891e-09,1.347492e-06,0.00010891763509671281
PART_001_R158G218B229A255,13423,-8.177193e-05,2.699104e-05,2.697841e-05,2.941616e-06,6.607477e-10,1.36656e-06,0.00010890166160583424
PART_001_R158G218B229A255,13424,-8.176861e-05,2.69821e-05,2.698066e-05,2.81256e-06,9.96969e-10,1.062815e-06,0.00010887460924371033
PART_001_R158G218B229A255,13425,-8.177153e-05,2.698659e-05,2.698457e-05,2.750668e-06,-1.664793e-09,5.646024e-07,0.00010886580655961694
PART_001_R158G218B229A255,13426,-8.177533e-05,2.698348e-05,2.698622e-05,2.727502e-06,-2.00695e-09,-1.232349e-08,0.00010886273480136293
PART_001_R158G218B229A255,13427,-8.178215e-05,2.699066e-05,2.698653e-05,2.749183e-06,-3.656455e-09,-5.935242e-07,0.00010887977707171847
PART_001_R158G218B229A255,13428,-8.17908e-05,2.699002e-05,2.69878e-05,2.809952e-06,-3.974132e-09,-1.084019e-06,0.0001089047204719133
PART_001_R158G218B229A255,13429,-8.180062e-05,2.700165e-05,2.69845e-05,2.937774e-06,-4.245746e-09,-1.387346e-06,0.00010893913016643906
PART_001_R158G218B229A255,13430,-8.181256e-05,2.699844e-05,2.698746e-05,3.132649e-06,-6.141279e-09,-1.358275e-06,0.00010896611588987101
PART_001_R158G218B229A255,13431,-8.182342e-05,2.701722e-05,2.697684e-05,3.644239e-06,-9.340921e-09,-6.281752e-07,0.00010900879353878871
PART_003_R247G182B210A255,13432,7.723855e-05,-2.549842e-05,-2.546568e-05,3.646271e-06,1.064186e-08,-6.226487e-07,0.0001029202203595844
PART_000_R31G119B180A255,13433,7.723319e-05,-2.548479e-05,-2.547904e-05,3.136418e-06,4.962263e-09,-1.34201e-06,0.00010288492221877089
PART_000_R31G119B180A255,13434,7.722907e-05,-2.549109e-05,-2.547857e-05,2.941306e-06,2.160386e-09,-1.363722e-06,0.00010286728557131933
PART_000_R31G119B180A255,13435,7.722871e-05,-2.548296e-05,-2.54861e-05,2.812983e-06,-2.867706e-10,-1.055719e-06,0.00010284498979938089
PART_000_R31G119B180A255,13436,7.723202e-05,-2.548716e-05,-2.548783e-05,2.750889e-06,-9.95126e-10,-5.61327e-07,0.00010283455742121164
PART_000_R31G119B180A255,13437,7.723816e-05,-2.548498e-05,-2.549207e-05,2.727717e-06,-3.791485e-09,1.914815e-08,0.00010283527756547161
PART_000_R31G119B180A255,13438,7.724745e-05,-2.549281e-05,-2.549213e-05,2.749079e-06,-3.613856e-09,5.960303e-07,0.0001028553803334242
PART_000_R31G119B180A255,13439,7.725784e-05,-2.54935e-05,-2.54933e-05,2.809213e-06,-6.177586e-09,1.088837e-06,0.00010288366812634122
PART_000_R31G119B180A255,13440,7.727104e-05,-2.550593e-05,-2.549135e-05,2.936581e-06,-4.050158e-09,1.388318e-06,0.00010292356455380903
PART_000_R31G119B180A255,13441,7.728403e-05,-2.550437e-05,-2.549293e-05,3.130629e-06,-7.651672e-09,1.360058e-06,0.00010295256853949235
PART_000_R31G119B180A255,13442,7.729777e-05,-2.552338e-05,-2.548549e-05,3.641367e-06,-7.599697e-09,6.278191e-07,0.00010300124142077282
PART_003_R247G182B210A255,13443,6.179766e-05,-2.039993e-05,-2.040013e-05,9.933255e-06,-5.268318e-09,-2.310316e-07,8.397993281800894e-05
PART_003_R247G182B210A255,13444,6.178773e-05,-2.038942e-05,-2.038917e-05,8.860249e-06,5.211644e-09,-6.321796e-07,8.360487132665877e-05
PART_000_R31G119B180A255,13445,6.178115e-05,-2.038913e-05,-2.038466e-05,8.274262e-06,4.652492e-09,-7.68701e-07,8.341912633000228e-05
PART_000_R31G119B180A255,13446,6.177938e-05,-2.038902e-05,-2.038564e-05,7.934831e-06,-1.333864e-09,-6.304352e-07,8.33153360477521e-05
PART_000_R31G119B180A255,13447,6.178132e-05,-2.038754e-05,-2.038799e-05,7.747131e-06,-3.643296e-09,-3.436467e-07,8.32596358691693e-05
PART_000_R31G119B180A255,13448,6.178685e-05,-2.039112e-05,-2.03897e-05,7.687926e-06,-9.356211e-09,1.781186e-08,8.324911948824114e-05
PART_000_R31G119B180A255,13449,6.179532e-05,-2.039223e-05,-2.039265e-05,7.741881e-06,-1.153707e-08,3.776162e-07,8.327704509347004e-05
PART_000_R31G119B180A255,13450,6.180622e-05,-2.039821e-05,-2.039455e-05,7.924868e-06,-1.412354e-08,6.609765e-07,8.334860120891517e-05
PART_000_R31G119B180A255,13451,6.181913e-05,-2.040193e-05,-2.03973e-05,8.260527e-06,-1.373276e-08,7.929467e-07,8.346566853251162e-05
PART_000_R31G119B180A255,13452,6.183242e-05,-2.040258e-05,-2.04046e-05,8.843541e-06,-1.302397e-08,6.478776e-07,8.365790901679035e-05
PART_002_R214G39B40A255,13453,6.184459e-05,-2.040914e-05,-2.041696e-05,9.913907e-06,3.346211e-09,2.371293e-07,8.403180805358163e-05
PART_003_R247G182B210A255,13454,4.634423e-05,-1.52983e-05,-1.528538e-05,1.451513e-05,3.927602e-09,-1.271972e-07,6.656666456006067e-05
PART_003_R247G182B210A255,13455,4.633892e-05,-1.529221e-05,-1.529366e-05,1.332268e-05,-2.602838e-09,-3.183868e-07,6.581239313573576e-05
PART_003_R247G182B210A255,13456,4.633455e-05,-1.528872e-05,-1.529128e-05,1.250431e-05,3.946378e-09,-4.030166e-07,6.532339387392027e-05
PART_000_R31G119B180A255,13457,4.633239e-05,-1.529086e-05,-1.528792e-05,1.199762e-05,-2.710285e-09,-3.551385e-07,6.503422811061712e-05
PART_000_R31G119B180A255,13458,4.633341e-05,-1.529046e-05,-1.528974e-05,1.171734e-05,-6.535286e-09,-1.955392e-07,6.488035133999968e-05
PART_000_R31G119B180A255,13459,4.633778e-05,-1.529189e-05,-1.529071e-05,1.162362e-05,-1.365174e-08,1.487727e-08,6.483417579882853e-05
PART_000_R31G119B180A255,13460,4.634483e-05,-1.529431e-05,-1.529382e-05,1.170957e-05,-1.669187e-08,2.241965e-07,6.489104016598292e-05
PART_000_R31G119B180A255,13461,4.635439e-05,-1.529827e-05,-1.529566e-05,1.198263e-05,-2.036376e-08,3.806888e-07,6.505440691860392e-05
PART_000_R31G119B180A255,13462,4.636552e-05,-1.529928e-05,-1.530195e-05,1.248379e-05,-1.880681e-08,4.234197e-07,6.5351252193761e-05
PART_002_R214G39B40A255,13463,4.637745e-05,-1.530643e-05,-1.530637e-05,1.329948e-05,-8.522311e-09,3.321071e-07,6.584722438268272e-05
PART_002_R214G39B40A255,13464,4.638744e-05,-1.531442e-05,-1.530019e-05,1.449308e-05,-4.334691e-09,1.316037e-07,6.660662002469499e-05
PART_003_R247G182B210A255,13465,3.089843e-05,-1.02025e-05,-1.019675e-05,1.77262e-05,-7.633843e-10,-5.881589e-08,5.13002439426453e-05
PART_003_R247G182B210A255,13466,3.089374e-05,-1.019995e-05,-1.019153e-05,1.645885e-05,2.028859e-09,-1.619138e-07,5.001105188250791e-05
PART_003_R247G182B210A255,13467,3.088949e-05,-1.01964e-05,-1.019237e-05,1.554776e-05,-1.724417e-09,-2.05389e-07,4.9124432649079065e-05
PART_003_R247G182B210A255,13468,3.088775e-05,-1.019373e-05,-1.019308e-05,1.493864e-05,-3.27717e-09,-1.821804e-07,4.85515168961142e-05
PART_000_R31G119B180A255,13469,3.088838e-05,-1.019566e-05,-1.019122e-05,1.459425e-05,-9.078697e-09,-1.026848e-07,4.823612990547408e-05
PART_000_R31G119B180A255,13470,3.089127e-05,-1.01957e-05,-1.019383e-05,1.447903e-05,-1.693487e-08,1.065325e-08,4.8135126515999445e-05
PART_000_R31G119B180A255,13471,3.089643e-05,-1.019844e-05,-1.019414e-05,1.458465e-05,-1.964251e-08,1.231333e-07,4.8236856662169686e-05
PART_000_R31G119B180A255,13472,3.090332e-05,-1.019924e-05,-1.019849e-05,1.492025e-05,-2.576863e-08,2.005401e-07,4.8552588329002607e-05
PART_002_R214G39B40A255,13473,3.091141e-05,-1.02041e-05,-1.019992e-05,1.552233e-05,-1.775187e-08,2.200307e-07,4.912522456947034e-05
PART_002_R214G39B40A255,13474,3.091963e-05,-1.020761e-05,-1.020042e-05,1.642721e-05,-1.891045e-08,1.717373e-07,5.000803391382621e-05
PART_002_R214G39B40A255,13475,3.092607e-05,-1.020731e-05,-1.020726e-05,1.769062e-05,-3.418559e-09,6.260114e-08,5.1291702967233646e-05
PART_003_R247G182B210A255,13476,1.544703e-05,-5.101569e-06,-5.094318e-06,1.961487e-05,3.851693e-09,-2.622745e-08,3.9702990555412455e-05
PART_003_R247G182B210A255,13477,1.544523e-05,-5.09979e-06,-5.09566e-06,1.832675e-05,-2.520232e-10,-6.684251e-08,3.781052384675695e-05
PART_003_R247G182B210A255,13478,1.54442e-05,-5.098905e-06,-5.095313e-06,1.736926e-05,2.843735e-09,-8.629858e-08,3.6428578486517224e-05
PART_003_R247G182B210A255,13479,1.54432e-05,-5.098651e-06,-5.09441e-06,1.671663e-05,-7.42597e-09,-7.723833e-08,3.549979944854402e-05
PART_003_R247G182B210A255,13480,1.544362e-05,-5.097622e-06,-5.095871e-06,1.633605e-05,-9.266731e-09,-4.264973e-08,3.4964438529406425e-05
PART_000_R31G119B180A255,13481,1.544504e-05,-5.099033e-06,-5.094975e-06,1.620879e-05,-1.887148e-08,5.347428e-09,3.4787229812446834e-05
PART_000_R31G119B180A255,13482,1.544773e-05,-5.099129e-06,-5.097219e-06,1.632537e-05,-2.2947e-08,5.354243e-08,3.495278917187939e-05
PART_002_R214G39B40A255,13483,1.54513e-05,-5.101544e-06,-5.097408e-06,1.669594e-05,-2.537685e-08,8.644139e-08,3.547706291081762e-05
PART_002_R214G39B40A255,13484,1.545537e-05,-5.103005e-06,-5.098755e-06,1.734076e-05,-2.50802e-08,9.414898e-08,3.639634293281093e-05
PART_002_R214G39B40A255,13485,1.545946e-05,-5.105033e-06,-5.100721e-06,1.829454e-05,-1.757961e-08,7.17283e-08,3.777428570147294e-05
PART_002_R214G39B40A255,13486,1.546223e-05,-5.106865e-06,-5.099278e-06,1.95838e-05,-6.273665e-09,2.785883e-08,3.966749024954407e-05
PART_003_R247G182B210A255,13487,-3.829008e-09,-1.843604e-09,2.79049e-09,2.025138e-05,3.96311e-10,3.894713e-10,3.507641959004163e-05
PART_003_R247G182B210A255,13488,-2.030196e-09,-2.531391e-09,2.226881e-09,1.894941e-05,2.06681e-09,5.197251e-10,3.282134141343525e-05
PART_003_R247G182B210A255,13489,-9.694045e-10,-2.754925e-09,1.856984e-09,1.797806e-05,-1.322238e-09,2.639476e-10,3.1138913689592246e-05
PART_003_R247G182B210A255,13490,-5.147584e-10,-2.728051e-09,1.78834e-09,1.730922e-05,-4.299598e-09,1.233571e-10,2.998044966025088e-05
PART_003_R247G182B210A255,13491,-3.293703e-10,-2.676008e-09,1.741997e-09,1.692017e-05,-1.147463e-08,-4.637141e-11,2.9306601102014054e-05
PART_003_R247G182B210A255,13492,-2.95237e-10,-2.668235e-09,1.831868e-09,1.678764e-05,-1.947061e-08,-4.194253e-11,2.9077065237594904e-05
PART_002_R214G39B40A255,13493,-3.275981e-10,-2.732032e-09,1.761564e-09,1.69091e-05,-2.200246e-08,-1.482034e-10,2.9287445364691397e-05
PART_002_R214G39B40A255,13494,-5.291061e-10,-2.844662e-09,1.870928e-09,1.728794e-05,-2.954075e-08,-1.960543e-10,2.9943634433602402e-05
PART_002_R214G39B40A255,13495,-9.826204e-10,-2.897643e-09,1.91718e-09,1.794862e-05,-2.217667e-08,-4.035245e-10,3.1087945786833686e-05
PART_002_R214G39B40A255,13496,-1.99588e-09,-2.816816e-09,2.409859e-09,1.891262e-05,-2.218425e-08,-4.515067e-10,3.2757641650902175e-05
PART_002_R214G39B40A255,13497,-3.481023e-09,-2.500855e-09,2.882669e-09,2.021072e-05,-5.352608e-09,-2.424157e-10,3.500599563078519e-05
PART_003_R247G182B210A255,13498,-1.545388e-05,5.097283e-06,5.099957e-06,1.96141e-05,3.837503e-09,2.625978e-08,3.9705744306713756e-05
PART_003_R247G182B210A255,13499,-1.544924e-05,5.095638e-06,5.099809e-06,1.83261e-05,-2.076697e-11,6.751278e-08,3.781176033558801e-05
PART_003_R247G182B210A255,13500,-1.544669e-05,5.095044e-06,5.099105e-06,1.736884e-05,3.136148e-09,8.672533e-08,3.642936555022493e-05
PART_003_R247G182B210A255,13501,-1.544457e-05,5.094988e-06,5.097723e-06,1.67165e-05,-7.196658e-09,7.756429e-08,3.550030910836732e-05
PART_003_R247G182B210A255,13502,-1.544475e-05,5.094093e-06,5.099449e-06,1.633606e-05,-9.158189e-09,4.243163e-08,3.496513017888313e-05
PART_001_R158G218B229A255,13503,-1.544607e-05,5.095506e-06,5.098551e-06,1.620883e-05,-1.883383e-08,-5.307179e-09,3.47879082653632e-05
PART_001_R158G218B229A255,13504,-1.544881e-05,5.095503e-06,5.100747e-06,1.632538e-05,-2.299803e-08,-5.389573e-08,3.495341122021376e-05
PART_002_R214G39B40A255,13505,-1.545282e-05,5.097686e-06,5.101044e-06,1.669575e-05,-2.554694e-08,-8.670544e-08,3.547761311527672e-05
PART_002_R214G39B40A255,13506,-1.545766e-05,5.098805e-06,5.102416e-06,1.734032e-05,-2.531665e-08,-9.498839e-08,3.639686222765456e-05
PART_002_R214G39B40A255,13507,-1.546376e-05,5.100587e-06,5.105346e-06,1.829374e-05,-1.789167e-08,-7.258588e-08,3.777551842053469e-05
PART_002_R214G39B40A255,13508,-1.546947e-05,5.102755e-06,5.104822e-06,1.958269e-05,-6.377472e-09,-2.834972e-08,3.966997283282166e-05
PART_003_R247G182B210A255,13509,-3.090642e-05,1.020072e-05,1.02018e-05,1.772457e-05,-1.313411e-10,5.955773e-08,5.1306268060864263e-05
PART_003_R247G182B210A255,13510,-3.089751e-05,1.019663e-05,1.019492e-05,1.645806e-05,2.678275e-09,1.629605e-07,5.0013408012934417e-05
PART_003_R247G182B210A255,13511,-3.089106e-05,1.019231e-05,1.019568e-05,1.554763e-05,-1.157102e-09,2.057466e-07,4.912530048486512e-05
PART_003_R247G182B210A255,13512,-3.088815e-05,1.018933e-05,1.019617e-05,1.493885e-05,-3.003652e-09,1.824019e-07,4.855149777598881e-05
PART_001_R158G218B229A255,13513,-3.088841e-05,1.019115e-05,1.019467e-05,1.459473e-05,-8.803094e-09,1.024224e-07,4.8236137874848125e-05
PART_001_R158G218B229A255,13514,-3.089128e-05,1.019117e-05,1.019743e-05,1.447958e-05,-1.694725e-08,-1.059098e-08,4.8135234728738155e-05
PART_001_R158G218B229A255,13515,-3.089641e-05,1.019385e-05,1.019751e-05,1.458509e-05,-1.964551e-08,-1.233237e-07,4.823672051023198e-05
PART_001_R158G218B229A255,13516,-3.090385e-05,1.019469e-05,1.02019e-05,1.492043e-05,-2.607967e-08,-2.006558e-07,4.855272273973503e-05
PART_002_R214G39B40A255,13517,-3.091286e-05,1.019979e-05,1.020303e-05,1.552205e-05,-1.809215e-08,-2.207032e-07,4.912567990164356e-05
PART_002_R214G39B40A255,13518,-3.092355e-05,1.02039e-05,1.020442e-05,1.642632e-05,-1.946049e-08,-1.7258e-07,5.001050873541793e-05
PART_002_R214G39B40A255,13519,-3.093345e-05,1.020461e-05,1.021211e-05,1.768917e-05,-3.58773e-09,-6.310206e-08,5.129698589932598e-05
PART_003_R247G182B210A255,13520,-4.635025e-05,1.529745e-05,1.52881e-05,1.451522e-05,3.896542e-09,1.274174e-07,6.657316413385566e-05
PART_003_R247G182B210A255,13521,-4.634209e-05,1.529055e-05,1.529733e-05,1.33226e-05,-2.35771e-09,3.188721e-07,6.581626163678749e-05
PART_003_R247G182B210A255,13522,-4.633452e-05,1.528659e-05,1.529265e-05,1.250481e-05,4.674461e-09,4.036393e-07,6.532330608057028e-05
PART_001_R158G218B229A255,13523,-4.633205e-05,1.52884e-05,1.529156e-05,1.199856e-05,-2.523422e-09,3.546049e-07,6.503497649756773e-05
PART_001_R158G218B229A255,13524,-4.633225e-05,1.528775e-05,1.529228e-05,1.171851e-05,-6.137123e-09,1.957865e-07,6.487980501692945e-05
PART_001_R158G218B229A255,13525,-4.633683e-05,1.528909e-05,1.529477e-05,1.162491e-05,-1.373227e-08,-1.532661e-08,6.483456602229508e-05
PART_001_R158G218B229A255,13526,-4.634383e-05,1.529157e-05,1.529666e-05,1.171071e-05,-1.660029e-08,-2.236319e-07,6.489074918472875e-05
PART_001_R158G218B229A255,13527,-4.635372e-05,1.52957e-05,1.529881e-05,1.198355e-05,-2.0723e-08,-3.809048e-07,6.505455934245021e-05
PART_001_R158G218B229A255,13528,-4.636589e-05,1.5297e-05,1.530411e-05,1.24842e-05,-1.912526e-08,-4.235103e-07,6.535178196515706e-05
PART_002_R214G39B40A255,13529,-4.638019e-05,1.530466e-05,1.530925e-05,1.329935e-05,-9.179527e-09,-3.330606e-07,6.585024712330671e-05
PART_002_R214G39B40A255,13530,-4.639416e-05,1.531368e-05,1.530388e-05,1.449245e-05,-4.493664e-09,-1.319972e-07,6.661380133307641e-05
PART_003_R247G182B210A255,13531,-6.180009e-05,2.039999e-05,2.039943e-05,9.933816e-06,-4.471109e-09,2.319134e-07,8.398220426190606e-05
PART_003_R247G182B210A255,13532,-6.178787e-05,2.038757e-05,2.039268e-05,8.86121e-06,5.873615e-09,6.323099e-07,8.360613351138405e-05
PART_001_R158G218B229A255,13533,-6.177663e-05,2.038564e-05,2.038367e-05,8.275693e-06,5.05706e-09,7.696222e-07,8.341291909150771e-05
PART_001_R158G218B229A255,13534,-6.17753e-05,2.038448e-05,2.038967e-05,7.936449e-06,-1.093155e-09,6.289643e-07,8.331148987917867e-05
PART_001_R158G218B229A255,13535,-6.177607e-05,2.038259e-05,2.03895e-05,7.74905e-06,-3.45221e-09,3.443691e-07,8.32533021013351e-05
PART_001_R158G218B229A255,13536,-6.178208e-05,2.038594e-05,2.039417e-05,7.689789e-06,-9.330876e-09,-1.878269e-08,8.324457763371459e-05
PART_001_R158G218B229A255,13537,-6.179038e-05,2.038724e-05,2.039486e-05,7.743791e-06,-1.145929e-08,-3.761286e-07,8.327131072383476e-05
PART_001_R158G218B229A255,13538,-6.180135e-05,2.039362e-05,2.039722e-05,7.926505e-06,-1.43415e-08,-6.611729e-07,8.33433231791541e-05
PART_001_R158G218B229A255,13539,-6.181547e-05,2.039833e-05,2.039822e-05,8.261888e-06,-1.389972e-08,-7.92251e-07,8.346112754723232e-05
PART_001_R158G218B229A255,13540,-6.183118e-05,2.040043e-05,2.04058e-05,8.844432e-06,-1.351337e-08,-6.48869e-07,8.365652914598813e-05
PART_002_R214G39B40A255,13541,-6.18481e-05,2.040883e-05,2.041885e-05,9.914597e-06,3.228413e-09,-2.374083e-07,8.403626400698573e-05
PART_003_R247G182B210A255,13542,-7.723474e-05,2.549698e-05,2.546295e-05,3.64712e-06,9.654416e-09,6.232281e-07,0.00010291443758806649
PART_001_R158G218B229A255,13543,-7.722719e-05,2.548167e-05,2.548039e-05,3.136942e-06,5.362382e-09,1.342242e-06,0.0001028781055383331
PART_001_R158G218B229A255,13544,-7.721897e-05,2.548706e-05,2.547613e-05,2.942206e-06,1.927225e-09,1.364072e-06,0.00010285406145487572
PART_001_R158G218B229A255,13545,-7.722e-05,2.54781e-05,2.548943e-05,2.813738e-06,1.061569e-10,1.053907e-06,0.00010283553357656868
PART_001_R158G218B229A255,13546,-7.722199e-05,2.548178e-05,2.548874e-05,2.752011e-06,-1.142416e-09,5.618568e-07,0.00010282240507609479
PART_001_R158G218B229A255,13547,-7.722913e-05,2.547938e-05,2.549643e-05,2.728532e-06,-3.633268e-09,-2.012456e-08,0.00010282570404543227
PART_001_R158G218B229A255,13548,-7.723776e-05,2.548739e-05,2.549379e-05,2.750192e-06,-3.648775e-09,-5.939194e-07,0.0001028438761096394
PART_001_R158G218B229A255,13549,-7.724804e-05,2.548852e-05,2.549515e-05,2.809991e-06,-6.226651e-09,-1.088618e-06,0.00010287237471744718
PART_001_R158G218B229A255,13550,-7.726173e-05,2.550175e-05,2.549081e-05,2.93748e-06,-4.099511e-09,-1.38685e-06,0.00010291192926167243
PART_001_R158G218B229A255,13551,-7.72765e-05,2.550136e-05,2.54919e-05,3.1312e-06,-7.893164e-09,-1.361027e-06,0.00010294312472344085
PART_001_R158G218B229A255,13552,-7.729495e-05,2.552214e-05,2.548498e-05,3.642114e-06,-7.543244e-09,-6.280687e-07,0.00010299763715063388
PART_003_R247G182B210A255,13553,7.270201e-05,-2.401307e-05,-2.397017e-05,3.648405e-06,3.901341e-09,-6.200609e-07,9.690585901913766e-05
PART_000_R31G119B180A255,13554,7.268499e-05,-2.398807e-05,-2.397779e-05,3.137175e-06,5.768789e-09,-1.340659e-06,9.68483589784912e-05
PART_000_R31G119B180A255,13555,7.26778e-05,-2.398776e-05,-2.398204e-05,2.943384e-06,1.060739e-10,-1.356085e-06,9.682553910801941e-05
PART_000_R31G119B180A255,13556,7.267758e-05,-2.397855e-05,-2.399075e-05,2.814693e-06,1.655243e-09,-1.050056e-06,9.680218061223902e-05
PART_000_R31G119B180A255,13557,7.268279e-05,-2.398256e-05,-2.399552e-05,2.753469e-06,-3.026704e-09,-5.525499e-07,9.679412987253289e-05
PART_000_R31G119B180A255,13558,7.269212e-05,-2.398097e-05,-2.400191e-05,2.729708e-06,-3.096602e-09,2.400399e-08,9.67991052529595e-05
PART_000_R31G119B180A255,13559,7.270335e-05,-2.399004e-05,-2.400061e-05,2.750862e-06,-6.44511e-09,6.018025e-07,9.682159975513614e-05
PART_000_R31G119B180A255,13560,7.271806e-05,-2.399317e-05,-2.400262e-05,2.810258e-06,-6.073516e-09,1.091276e-06,9.685680889439786e-05
PART_000_R31G119B180A255,13561,7.273384e-05,-2.400772e-05,-2.399695e-05,2.936603e-06,-6.938223e-09,1.391701e-06,9.689978943011768e-05
PART_000_R31G119B180A255,13562,7.275324e-05,-2.400874e-05,-2.400086e-05,3.129785e-06,-6.528693e-09,1.361634e-06,9.693847163522045e-05
PART_000_R31G119B180A255,13563,7.27719e-05,-2.402824e-05,-2.399249e-05,3.638898e-06,-9.274395e-09,6.291033e-07,9.699340227030772e-05
PART_003_R247G182B210A255,13564,5.815646e-05,-1.918755e-05,-1.919924e-05,9.927315e-06,-2.005997e-09,-2.31967e-07,7.923898256843101e-05
PART_003_R247G182B210A255,13565,5.814611e-05,-1.918386e-05,-1.918987e-05,8.861099e-06,9.14828e-09,-6.302843e-07,7.88488319626465e-05
PART_000_R31G119B180A255,13566,5.81392e-05,-1.918587e-05,-1.918534e-05,8.278343e-06,4.344149e-09,-7.655802e-07,7.865415915715096e-05
PART_000_R31G119B180A255,13567,5.813671e-05,-1.918431e-05,-1.918891e-05,7.940535e-06,3.080809e-10,-6.255636e-07,7.854442125121777e-05
PART_000_R31G119B180A255,13568,5.813995e-05,-1.918242e-05,-1.919244e-05,7.753091e-06,-6.205219e-09,-3.378677e-07,7.848692637879179e-05
PART_000_R31G119B180A255,13569,5.814733e-05,-1.918616e-05,-1.919609e-05,7.693831e-06,-1.010555e-08,2.315053e-08,7.847817350268751e-05
PART_000_R31G119B180A255,13570,5.815858e-05,-1.918874e-05,-1.919863e-05,7.746252e-06,-1.675552e-08,3.829564e-07,7.851004421847607e-05
PART_000_R31G119B180A255,13571,5.817289e-05,-1.919635e-05,-1.9201e-05,7.927515e-06,-1.652488e-08,6.653911e-07,7.85889599381149e-05
PART_000_R31G119B180A255,13572,5.819e-05,-1.920295e-05,-1.920242e-05,8.260299e-06,-1.947282e-08,7.974906e-07,7.871616366269079e-05
PART_000_R31G119B180A255,13573,5.82097e-05,-1.920724e-05,-1.921042e-05,8.840659e-06,-1.367995e-08,6.516894e-07,7.892639107582049e-05
PART_002_R214G39B40A255,13574,5.822884e-05,-1.921653e-05,-1.922328e-05,9.90805e-06,2.314443e-10,2.387518e-07,7.93283524856095e-05
PART_003_R247G182B210A255,13575,4.362526e-05,-1.441002e-05,-1.438736e-05,1.4521e-05,1.966045e-11,-1.266038e-07,6.32408536254602e-05
PART_003_R247G182B210A255,13576,4.361311e-05,-1.439749e-05,-1.439294e-05,1.332726e-05,-6.295353e-10,-3.186351e-07,6.243490969261588e-05
PART_003_R247G182B210A255,13577,4.360447e-05,-1.438939e-05,-1.439155e-05,1.250958e-05,4.002327e-09,-4.014581e-07,6.191417768416238e-05
PART_000_R31G119B180A255,13578,4.36013e-05,-1.439034e-05,-1.438897e-05,1.20054e-05,-6.05909e-10,-3.521097e-07,6.160934746873708e-05
PART_000_R31G119B180A255,13579,4.360304e-05,-1.438962e-05,-1.43925e-05,1.172554e-05,-9.513254e-09,-1.915264e-07,6.144827763653995e-05
PART_000_R31G119B180A255,13580,4.360869e-05,-1.439125e-05,-1.439398e-05,1.163204e-05,-1.530869e-08,1.932942e-08,6.140086542488551e-05
PART_000_R31G119B180A255,13581,4.361823e-05,-1.439471e-05,-1.43979e-05,1.171536e-05,-2.392816e-08,2.288816e-07,6.146213579691221e-05
PART_000_R31G119B180A255,13582,4.363068e-05,-1.440037e-05,-1.439929e-05,1.198623e-05,-2.449777e-08,3.853318e-07,6.163599973054772e-05
PART_000_R31G119B180A255,13583,4.364602e-05,-1.440366e-05,-1.440575e-05,1.24827e-05,-2.738981e-08,4.281732e-07,6.195072494849734e-05
PART_002_R214G39B40A255,13584,4.366248e-05,-1.441215e-05,-1.441011e-05,1.329415e-05,-1.136557e-08,3.360659e-07,6.247468817542647e-05
PART_002_R214G39B40A255,13585,4.3678e-05,-1.441998e-05,-1.44067e-05,1.448263e-05,-9.014956e-09,1.335416e-07,6.32763571509943e-05
PART_003_R247G182B210A255,13586,2.908177e-05,-9.599493e-06,-9.597365e-06,1.771505e-05,1.721321e-09,-5.984145e-08,4.9372437042034304e-05
PART_003_R247G182B210A255,13587,2.907505e-05,-9.599663e-06,-9.590647e-06,1.645743e-05,8.87507e-09,-1.62575e-07,4.8041704284042574e-05
PART_003_R247G182B210A255,13588,2.907009e-05,-9.597288e-06,-9.592271e-06,1.555295e-05,-7.829575e-10,-2.047706e-07,4.7125160034446436e-05
PART_003_R247G182B210A255,13589,2.90673e-05,-9.593718e-06,-9.592787e-06,1.494699e-05,-3.320643e-10,-1.80842e-07,4.652928069778555e-05
PART_000_R31G119B180A255,13590,2.906783e-05,-9.594889e-06,-9.592339e-06,1.460323e-05,-1.277535e-08,-1.000469e-07,4.620065750739932e-05
PART_000_R31G119B180A255,13591,2.907185e-05,-9.595193e-06,-9.595101e-06,1.448814e-05,-1.873975e-08,1.369729e-08,4.6096169855695244e-05
PART_000_R31G119B180A255,13592,2.907852e-05,-9.598604e-06,-9.596118e-06,1.459074e-05,-2.873002e-08,1.266725e-07,4.62011198025873e-05
PART_000_R31G119B180A255,13593,2.908788e-05,-9.600848e-06,-9.600085e-06,1.49232e-05,-3.112612e-08,2.043913e-07,4.652979780718238e-05
PART_002_R214G39B40A255,13594,2.909919e-05,-9.607452e-06,-9.602079e-06,1.551952e-05,-2.923727e-08,2.238876e-07,4.7124469625823904e-05
PART_002_R214G39B40A255,13595,2.911142e-05,-9.613042e-06,-9.602815e-06,1.641966e-05,-2.259072e-08,1.751481e-07,4.804266116533919e-05
PART_002_R214G39B40A255,13596,2.912244e-05,-9.614092e-06,-9.611353e-06,1.767826e-05,-9.232069e-09,6.39735e-08,4.937598589324772e-05
PART_003_R247G182B210A255,13597,1.454179e-05,-4.808209e-06,-4.793094e-06,1.961916e-05,3.721304e-10,-2.602294e-08,3.910072331608205e-05
PART_003_R247G182B210A255,13598,1.453923e-05,-4.804929e-06,-4.795996e-06,1.833037e-05,3.853612e-09,-6.703326e-08,3.717586157413084e-05
PART_003_R247G182B210A255,13599,1.453577e-05,-4.802561e-06,-4.793616e-06,1.737377e-05,3.414061e-09,-8.676906e-08,3.576820401031129e-05
PART_003_R247G182B210A255,13600,1.453448e-05,-4.801762e-06,-4.794411e-06,1.672464e-05,-3.583347e-09,-7.651727e-08,3.4826807499289604e-05
PART_003_R247G182B210A255,13601,1.453444e-05,-4.800586e-06,-4.794826e-06,1.634517e-05,-1.326891e-08,-4.195259e-08,3.4281648867674915e-05
PART_000_R31G119B180A255,13602,1.453649e-05,-4.801925e-06,-4.795245e-06,1.62179e-05,-2.090919e-08,7.289527e-09,3.410142916281832e-05
PART_000_R31G119B180A255,13603,1.454001e-05,-4.802572e-06,-4.796923e-06,1.633122e-05,-3.299411e-08,5.521459e-08,3.4266089592250496e-05
PART_002_R214G39B40A255,13604,1.454502e-05,-4.805707e-06,-4.797713e-06,1.669828e-05,-3.178916e-08,8.911428e-08,3.479684655558471e-05
PART_002_R214G39B40A255,13605,1.455103e-05,-4.808074e-06,-4.79911e-06,1.733667e-05,-3.771375e-08,9.628055e-08,3.572553582394949e-05
PART_002_R214G39B40A255,13606,1.455697e-05,-4.81057e-06,-4.801411e-06,1.828431e-05,-2.237134e-08,7.393521e-08,3.711994314980445e-05
PART_002_R214G39B40A255,13607,1.456193e-05,-4.812374e-06,-4.801001e-06,1.956708e-05,-1.285544e-08,2.867985e-08,3.903534633428726e-05
PART_003_R247G182B210A255,13608,-9.288657e-10,-6.870872e-09,3.875877e-09,2.023693e-05,2.506477e-09,-2.393684e-10,3.5051392460737926e-05
PART_003_R247G182B210A255,13609,3.58318e-11,-6.167033e-09,3.257799e-09,1.894484e-05,9.594514e-09,-2.379591e-10,3.2813430680939194e-05
PART_003_R247G182B210A255,13610,4.053963e-10,-5.51706e-09,3.068764e-09,1.798139e-05,3.033344e-10,-3.17135e-10,3.1144682010204475e-05
PART_003_R247G182B210A255,13611,4.728598e-10,-5.099667e-09,3.100774e-09,1.731632e-05,-8.025238e-10,-5.036615e-10,2.9992746961948455e-05
PART_003_R247G182B210A255,13612,3.021488e-10,-4.84598e-09,3.396654e-09,1.692819e-05,-1.526098e-08,-3.547327e-10,2.9320497968289034e-05
PART_003_R247G182B210A255,13613,2.171834e-10,-4.787229e-09,3.431916e-09,1.679584e-05,-2.170095e-08,-1.218842e-10,2.9091273403231366e-05
PART_002_R214G39B40A255,13614,3.113163e-10,-4.952657e-09,3.458247e-09,1.691378e-05,-3.242053e-08,2.454741e-10,2.9295581054080766e-05
PART_002_R214G39B40A255,13615,5.140895e-10,-5.303289e-09,3.172242e-09,1.728885e-05,-3.623029e-08,2.978496e-10,2.994523330192186e-05
PART_002_R214G39B40A255,13616,4.899521e-10,-5.868253e-09,3.225249e-09,1.794265e-05,-3.565669e-08,2.390912e-10,3.107764384147902e-05
PART_002_R214G39B40A255,13617,3.877024e-11,-6.462926e-09,3.322257e-09,1.890111e-05,-2.704542e-08,-5.217123e-11,3.273771749023238e-05
PART_002_R214G39B40A255,13618,-1.392076e-09,-6.745349e-09,4.119302e-09,2.019352e-05,-1.213685e-08,-6.791318e-11,3.497621020681272e-05
PART_003_R247G182B210A255,13619,-1.454642e-05,4.797962e-06,4.80031e-06,1.9615e-05,8.380075e-10,2.672574e-08,3.909600185423401e-05
PART_003_R247G182B210A255,13620,-1.454012e-05,4.793431e-06,4.80241e-06,1.832732e-05,4.408393e-09,6.711553e-08,3.717049122326149e-05
PART_003_R247G182B210A255,13621,-1.45347e-05,4.790959e-06,4.799307e-06,1.737153e-05,3.806649e-09,8.617281e-08,3.576275968698021e-05
PART_003_R247G182B210A255,13622,-1.453349e-05,4.790599e-06,4.800847e-06,1.672279e-05,-3.36881e-09,7.524348e-08,3.482227288544341e-05
PART_003_R247G182B210A255,13623,-1.453359e-05,4.789759e-06,4.801528e-06,1.634357e-05,-1.312482e-08,4.135526e-08,3.4277716670885936e-05
PART_001_R158G218B229A255,13624,-1.453583e-05,4.791171e-06,4.802317e-06,1.621639e-05,-2.088997e-08,-7.680938e-09,3.4097857860864636e-05
PART_001_R158G218B229A255,13625,-1.453922e-05,4.791546e-06,4.803867e-06,1.632956e-05,-3.30696e-08,-5.450075e-08,3.426211641876589e-05
PART_002_R214G39B40A255,13626,-1.454379e-05,4.794145e-06,4.804038e-06,1.669637e-05,-3.196461e-08,-8.850165e-08,3.479195330090515e-05
PART_002_R214G39B40A255,13627,-1.455015e-05,4.795953e-06,4.805452e-06,1.73342e-05,-3.807438e-08,-9.560248e-08,3.571989358253732e-05
PART_002_R214G39B40A255,13628,-1.455727e-05,4.798112e-06,4.807783e-06,1.828115e-05,-2.272066e-08,-7.402897e-08,3.71138440115189e-05
PART_002_R214G39B40A255,13629,-1.45656e-05,4.800037e-06,4.809055e-06,1.956306e-05,-1.309443e-08,-2.880396e-08,3.903005982754811e-05
PART_003_R247G182B210A255,13630,-2.908669e-05,9.590979e-06,9.603776e-06,1.770998e-05,1.510412e-09,5.94328e-08,4.9370010933615805e-05
PART_003_R247G182B210A255,13631,-2.907719e-05,9.59152e-06,9.596686e-06,1.6453e-05,9.430174e-09,1.619294e-07,4.8038021186179326e-05
PART_003_R247G182B210A255,13632,-2.907055e-05,9.589651e-06,9.597537e-06,1.554942e-05,-2.282978e-10,2.039219e-07,4.7121059171923775e-05
PART_003_R247G182B210A255,13633,-2.906767e-05,9.586417e-06,9.599161e-06,1.494433e-05,1.834226e-10,1.792749e-07,4.652662278647328e-05
PART_001_R158G218B229A255,13634,-2.906846e-05,9.587791e-06,9.599273e-06,1.460094e-05,-1.268175e-08,9.928009e-08,4.6198940713237864e-05
PART_001_R158G218B229A255,13635,-2.907265e-05,9.588081e-06,9.602456e-06,1.448594e-05,-1.857877e-08,-1.403837e-08,4.6094870385906194e-05
PART_001_R158G218B229A255,13636,-2.907923e-05,9.591367e-06,9.603305e-06,1.458839e-05,-2.891798e-08,-1.257047e-07,4.61994604576617e-05
PART_001_R158G218B229A255,13637,-2.908809e-05,9.593256e-06,9.606267e-06,1.492034e-05,-3.133944e-08,-2.034069e-07,4.652662342551675e-05
PART_002_R214G39B40A255,13638,-2.909981e-05,9.599352e-06,9.608024e-06,1.551583e-05,-2.989834e-08,-2.228979e-07,4.7120435988635226e-05
PART_002_R214G39B40A255,13639,-2.911334e-05,9.604467e-06,9.608443e-06,1.641478e-05,-2.318225e-08,-1.750668e-07,4.803801725141442e-05
PART_002_R214G39B40A255,13640,-2.912832e-05,9.605715e-06,9.618676e-06,1.767199e-05,-9.6748e-09,-6.404225e-08,4.937345383818415e-05
PART_003_R247G182B210A255,13641,-4.363322e-05,1.440655e-05,1.439406e-05,1.451463e-05,9.678507e-10,1.269947e-07,6.324525261873882e-05
PART_003_R247G182B210A255,13642,-4.361466e-05,1.439218e-05,1.439589e-05,1.332332e-05,7.973652e-10,3.185127e-07,6.243272880725988e-05
PART_003_R247G182B210A255,13643,-4.360487e-05,1.438293e-05,1.43976e-05,1.25069e-05,4.368884e-09,3.994134e-07,6.191269771507812e-05
PART_001_R158G218B229A255,13644,-4.360047e-05,1.438327e-05,1.439399e-05,1.200351e-05,7.436421e-11,3.50835e-07,6.160647545159004e-05
PART_001_R158G218B229A255,13645,-4.360302e-05,1.438238e-05,1.440063e-05,1.172413e-05,-9.575651e-09,1.895692e-07,6.144785543098508e-05
PART_001_R158G218B229A255,13646,-4.360883e-05,1.438392e-05,1.440124e-05,1.163065e-05,-1.499161e-08,-1.879335e-08,6.140017572497267e-05
PART_001_R158G218B229A255,13647,-4.361799e-05,1.438735e-05,1.44057e-05,1.17139e-05,-2.417096e-08,-2.280844e-07,6.146127547524206e-05
PART_001_R158G218B229A255,13648,-4.363028e-05,1.439315e-05,1.440512e-05,1.198417e-05,-2.457851e-08,-3.831548e-07,6.163372728937744e-05
PART_001_R158G218B229A255,13649,-4.364586e-05,1.439693e-05,1.441096e-05,1.24798e-05,-2.808383e-08,-4.268717e-07,6.194808517410369e-05
PART_002_R214G39B40A255,13650,-4.366459e-05,1.440638e-05,1.441442e-05,1.328984e-05,-1.196187e-08,-3.353676e-07,6.247320943571325e-05
PART_002_R214G39B40A255,13651,-4.368501e-05,1.441565e-05,1.44125e-05,1.447675e-05,-9.576809e-09,-1.336342e-07,6.327943114796972e-05
PART_003_R247G182B210A255,13652,-5.816316e-05,1.918642e-05,1.92061e-05,9.924989e-06,-2.566906e-09,2.310949e-07,7.924743912259248e-05
PART_003_R247G182B210A255,13653,-5.814414e-05,1.918092e-05,1.918902e-05,8.859233e-06,9.466406e-09,6.300151e-07,7.884440599409497e-05
PART_001_R158G218B229A255,13654,-5.813777e-05,1.918189e-05,1.919198e-05,8.277266e-06,4.796658e-09,7.618038e-07,7.865361136724896e-05
PART_001_R158G218B229A255,13655,-5.813352e-05,1.917974e-05,1.919236e-05,7.940239e-06,6.231246e-10,6.243618e-07,7.85406117540557e-05
PART_001_R158G218B229A255,13656,-5.813837e-05,1.91773e-05,1.920184e-05,7.752922e-06,-6.124765e-09,3.345429e-07,7.848738767668734e-05
PART_001_R158G218B229A255,13657,-5.814588e-05,1.918097e-05,1.920327e-05,7.693899e-06,-9.93436e-09,-2.164167e-08,7.847774565820727e-05
PART_001_R158G218B229A255,13658,-5.815648e-05,1.918359e-05,1.920709e-05,7.746054e-06,-1.683323e-08,-3.82185e-07,7.850953811740468e-05
PART_001_R158G218B229A255,13659,-5.817057e-05,1.919164e-05,1.920636e-05,7.927113e-06,-1.650535e-08,-6.615454e-07,7.858677770634527e-05
PART_001_R158G218B229A255,13660,-5.818713e-05,1.919883e-05,1.920645e-05,8.259154e-06,-2.00016e-08,-7.95561e-07,7.871287931904485e-05
PART_001_R158G218B229A255,13661,-5.820931e-05,1.920426e-05,1.921281e-05,8.838568e-06,-1.409173e-08,-6.500152e-07,7.892497568674969e-05
PART_002_R214G39B40A255,13662,-5.823379e-05,1.921537e-05,1.922659e-05,9.904818e-06,-2.472006e-10,-2.386885e-07,7.933302380340732e-05
PART_003_R247G182B210A255,13663,-7.270088e-05,2.401144e-05,2.397308e-05,3.647525e-06,5.697931e-09,6.196396e-07,9.690526146528162e-05
PART_001_R158G218B229A255,13664,-7.267516e-05,2.398366e-05,2.397457e-05,3.137082e-06,5.608826e-09,1.339223e-06,9.683467063649695e-05
PART_001_R158G218B229A255,13665,-7.266887e-05,2.398071e-05,2.398721e-05,2.943278e-06,8.513452e-10,1.351378e-06,9.681547864119284e-05
PART_001_R158G218B229A255,13666,-7.266689e-05,2.39702e-05,2.399356e-05,2.815225e-06,1.273083e-09,1.047568e-06,9.678870713150408e-05
PART_001_R158G218B229A255,13667,-7.267487e-05,2.397348e-05,2.400539e-05,2.753593e-06,-2.682952e-09,5.486303e-07,9.678656133607069e-05
PART_001_R158G218B229A255,13668,-7.268385e-05,2.397175e-05,2.400926e-05,2.730392e-06,-3.222381e-09,-2.218307e-08,9.678997158153366e-05
PART_001_R158G218B229A255,13669,-7.269468e-05,2.398088e-05,2.400942e-05,2.751008e-06,-6.358989e-09,-6.003809e-07,9.681275465743792e-05
PART_001_R158G218B229A255,13670,-7.270829e-05,2.398469e-05,2.40074e-05,2.810725e-06,-6.023992e-09,-1.085709e-06,9.684506038327746e-05
PART_001_R158G218B229A255,13671,-7.272301e-05,2.400052e-05,2.399938e-05,2.936498e-06,-7.143137e-09,-1.388536e-06,9.688645056658551e-05
PART_001_R158G218B229A255,13672,-7.274453e-05,2.400381e-05,2.400067e-05,3.129541e-06,-6.523104e-09,-1.358645e-06,9.692707294559336e-05
PART_001_R158G218B229A255,13673,-7.276864e-05,2.402619e-05,2.399212e-05,3.638076e-06,-9.589466e-09,-6.288313e-07,9.698884383714542e-05
PART_003_R247G182B210A255,13674,6.814225e-05,-2.248984e-05,-2.246772e-05,3.644899e-06,1.288807e-08,-6.198363e-07,9.084701646623153e-05
PART_000_R31G119B180A255,13675,6.812815e-05,-2.247694e-05,-2.248087e-05,3.139143e-06,4.817646e-09,-1.330896e-06,9.079931170332535e-05
PART_000_R31G119B180A255,13676,6.812107e-05,-2.247929e-05,-2.248519e-05,2.945224e-06,3.825054e-09,-1.347659e-06,9.077682215482148e-05
PART_000_R31G119B180A255,13677,6.812322e-05,-2.246902e-05,-2.250082e-05,2.818487e-06,-9.275871e-10,-1.035688e-06,9.075728814303783e-05
PART_000_R31G119B180A255,13678,6.813226e-05,-2.247161e-05,-2.251025e-05,2.756461e-06,-1.11187e-09,-5.433205e-07,9.075375205743722e-05
PART_000_R31G119B180A255,13679,6.814482e-05,-2.247123e-05,-2.251807e-05,2.733251e-06,-6.285913e-09,3.356797e-08,9.076304671737855e-05
PART_000_R31G119B180A255,13680,6.81603e-05,-2.248172e-05,-2.251839e-05,2.753524e-06,-5.942253e-09,6.044713e-07,9.07917558101346e-05
PART_000_R31G119B180A255,13681,6.817665e-05,-2.248797e-05,-2.251479e-05,2.811994e-06,-1.008851e-08,1.093839e-06,9.082850517068511e-05
PART_000_R31G119B180A255,13682,6.819804e-05,-2.250601e-05,-2.250922e-05,2.937317e-06,-6.505746e-09,1.390916e-06,9.088015965607635e-05
PART_000_R31G119B180A255,13683,6.822251e-05,-2.251262e-05,-2.250734e-05,3.128811e-06,-9.755332e-09,1.362752e-06,9.092482995238474e-05
PART_000_R31G119B180A255,13684,6.825372e-05,-2.253684e-05,-2.250488e-05,3.63635e-06,-6.432175e-09,6.288476e-07,9.099934470234279e-05
PART_003_R247G182B210A255,13685,5.453109e-05,-1.800595e-05,-1.80015e-05,9.933474e-06,-4.720189e-09,-2.298149e-07,7.454850522020858e-05
PART_003_R247G182B210A255,13686,5.450806e-05,-1.798898e-05,-1.79891e-05,8.865978e-06,6.176388e-09,-6.281564e-07,7.411362939393901e-05
PART_000_R31G119B180A255,13687,5.44953e-05,-1.798257e-05,-1.798877e-05,8.284844e-06,7.379041e-09,-7.587151e-07,7.389948626643862e-05
PART_000_R31G119B180A255,13688,5.449369e-05,-1.797965e-05,-1.799477e-05,7.948705e-06,-1.048022e-09,-6.173307e-07,7.378461943167027e-05
PART_000_R31G119B180A255,13689,5.449871e-05,-1.797722e-05,-1.800254e-05,7.762481e-06,-5.157804e-09,-3.295427e-07,7.372713455589589e-05
PART_000_R31G119B180A255,13690,5.450963e-05,-1.798148e-05,-1.800749e-05,7.702336e-06,-1.51535e-08,3.034108e-08,7.372128993393348e-05
PART_000_R31G119B180A255,13691,5.45236e-05,-1.798552e-05,-1.801083e-05,7.753793e-06,-1.872698e-08,3.876255e-07,7.375787456226174e-05
PART_000_R31G119B180A255,13692,5.454161e-05,-1.799595e-05,-1.80108e-05,7.931881e-06,-2.430531e-08,6.694087e-07,7.384351913948692e-05
PART_000_R31G119B180A255,13693,5.456363e-05,-1.80057e-05,-1.801144e-05,8.261745e-06,-2.163856e-08,8.003784e-07,7.398254355128087e-05
PART_000_R31G119B180A255,13694,5.458956e-05,-1.801332e-05,-1.801725e-05,8.837366e-06,-1.996046e-08,6.549647e-07,7.420949247937353e-05
PART_002_R214G39B40A255,13695,5.461803e-05,-1.80238e-05,-1.803214e-05,9.899484e-06,1.216766e-09,2.404907e-07,7.464324638128614e-05
PART_003_R247G182B210A255,13696,4.089677e-05,-1.349975e-05,-1.348789e-05,1.450941e-05,8.435635e-09,-1.28003e-07,5.9916230601323214e-05
PART_003_R247G182B210A255,13697,4.088253e-05,-1.34939e-05,-1.349335e-05,1.332785e-05,3.500398e-09,-3.17349e-07,5.907591012925795e-05
PART_003_R247G182B210A255,13698,4.087274e-05,-1.348821e-05,-1.349221e-05,1.25179e-05,8.846232e-09,-3.982163e-07,5.853118629726138e-05
PART_000_R31G119B180A255,13699,4.086899e-05,-1.348697e-05,-1.349298e-05,1.201611e-05,-1.65504e-09,-3.469453e-07,5.821012732247412e-05
PART_000_R31G119B180A255,13700,4.087153e-05,-1.348536e-05,-1.349806e-05,1.173838e-05,-8.62101e-09,-1.856528e-07,5.804166006576814e-05
PART_000_R31G119B180A255,13701,4.087968e-05,-1.348734e-05,-1.350182e-05,1.164325e-05,-2.185115e-08,2.48999e-08,5.799361526858995e-05
PART_000_R31G119B180A255,13702,4.089154e-05,-1.349209e-05,-1.350517e-05,1.172558e-05,-2.75228e-08,2.335808e-07,5.805966200760081e-05
PART_000_R31G119B180A255,13703,4.09077e-05,-1.349999e-05,-1.350648e-05,1.199106e-05,-3.569419e-08,3.897805e-07,5.8244021561661073e-05
PART_000_R31G119B180A255,13704,4.092748e-05,-1.350669e-05,-1.351107e-05,1.248334e-05,-3.20322e-08,4.323591e-07,5.8578003708425135e-05
PART_002_R214G39B40A255,13705,4.095122e-05,-1.351911e-05,-1.351592e-05,1.328782e-05,-2.202944e-08,3.403568e-07,5.9134512472261906e-05
PART_002_R214G39B40A255,13706,4.097503e-05,-1.352944e-05,-1.351454e-05,1.447094e-05,-7.617855e-09,1.351566e-07,5.9985036841310814e-05
PART_003_R247G182B210A255,13707,2.72728e-05,-9.012487e-06,-8.997445e-06,1.772171e-05,2.301128e-09,-5.931791e-08,4.752119593768963e-05
PART_003_R247G182B210A255,13708,2.7261e-05,-9.00716e-06,-8.991328e-06,1.646298e-05,7.560843e-09,-1.62321e-07,4.612996672652244e-05
PART_003_R247G182B210A255,13709,2.725155e-05,-9.000669e-06,-8.991804e-06,1.556078e-05,6.169988e-09,-2.038478e-07,4.5171235135857215e-05
PART_003_R247G182B210A255,13710,2.72478e-05,-8.996038e-06,-8.99454e-06,1.49585e-05,-1.488937e-09,-1.777685e-07,4.45525137367635e-05
PART_000_R31G119B180A255,13711,2.724905e-05,-8.996671e-06,-8.994997e-06,1.46173e-05,-1.100289e-08,-9.675703e-08,4.42121753039193e-05
PART_000_R31G119B180A255,13712,2.7254e-05,-8.997026e-06,-8.999048e-06,1.450063e-05,-2.692569e-08,1.762925e-08,4.410235944092044e-05
PART_000_R31G119B180A255,13713,2.726302e-05,-9.001478e-06,-9.00003e-06,1.460155e-05,-3.314689e-08,1.304587e-07,4.421234497365268e-05
PART_000_R31G119B180A255,13714,2.727497e-05,-9.005646e-06,-9.003852e-06,1.492781e-05,-4.51057e-08,2.081894e-07,4.455190994079179e-05
PART_002_R214G39B40A255,13715,2.729007e-05,-9.0143e-06,-9.005012e-06,1.551856e-05,-3.58527e-08,2.279552e-07,4.516975794449199e-05
PART_002_R214G39B40A255,13716,2.730717e-05,-9.021337e-06,-9.00684e-06,1.640952e-05,-3.588698e-08,1.786915e-07,4.6121043701544703e-05
PART_002_R214G39B40A255,13717,2.73235e-05,-9.022745e-06,-9.016099e-06,1.766032e-05,-8.506551e-09,6.569987e-08,4.7502440849236944e-05
PART_003_R247G182B210A255,13718,1.36392e-05,-4.51165e-06,-4.494721e-06,1.960165e-05,9.984108e-09,-2.72079e-08,3.849445329652177e-05
PART_003_R247G182B210A255,13719,1.363268e-05,-4.508809e-06,-4.493727e-06,1.832637e-05,8.409448e-09,-6.825613e-08,3.655710521433202e-05
PART_003_R247G182B210A255,13720,1.36287e-05,-4.506308e-06,-4.494092e-06,1.738035e-05,1.167855e-08,-8.642149e-08,3.5141281147503486e-05
PART_003_R247G182B210A255,13721,1.362573e-05,-4.504465e-06,-4.493119e-06,1.673521e-05,-4.573034e-09,-7.619783e-08,3.418651249506713e-05
PART_003_R247G182B210A255,13722,1.362594e-05,-4.50264e-06,-4.495814e-06,1.635836e-05,-1.118332e-08,-4.002923e-08,3.363502224780144e-05
PART_000_R31G119B180A255,13723,1.362824e-05,-4.504072e-06,-4.495322e-06,1.622967e-05,-2.983118e-08,8.720757e-09,3.344894049259636e-05
PART_000_R31G119B180A255,13724,1.363309e-05,-4.505302e-06,-4.498076e-06,1.634089e-05,-3.804301e-08,5.800969e-08,3.3614858971899306e-05
PART_002_R214G39B40A255,13725,1.363987e-05,-4.509573e-06,-4.498332e-06,1.670086e-05,-4.775152e-08,9.119633e-08,3.4146542355488504e-05
PART_002_R214G39B40A255,13726,1.364827e-05,-4.513601e-06,-4.499927e-06,1.733277e-05,-4.550631e-08,9.940512e-08,3.508441255030443e-05
PART_002_R214G39B40A255,13727,1.365783e-05,-4.51815e-06,-4.502744e-06,1.827116e-05,-3.761551e-08,7.606069e-08,3.649128568383996e-05
PART_002_R214G39B40A255,13728,1.366613e-05,-4.521339e-06,-4.503185e-06,1.9547e-05,-1.196727e-08,2.974315e-08,3.842802224279856e-05
PART_003_R247G182B210A255,13729,2.278716e-09,-1.224968e-08,4.967102e-09,2.023778e-05,4.438055e-09,2.048905e-10,3.505286770807466e-05
PART_003_R247G182B210A255,13730,3.955404e-09,-1.251723e-08,4.413314e-09,1.89466e-05,9.641858e-09,-5.762019e-10,3.281648234763499e-05
PART_003_R247G182B210A255,13731,4.124023e-09,-1.203543e-08,4.476082e-09,1.798601e-05,8.373123e-09,-1.413526e-09,3.115269090179822e-05
PART_003_R247G182B210A255,13732,3.308547e-09,-1.127415e-08,5.119675e-09,1.732546e-05,-1.321346e-09,-1.458721e-09,3.0008581216089405e-05
PART_003_R247G182B210A255,13733,2.585466e-09,-1.079098e-08,5.570339e-09,1.694049e-05,-1.324299e-08,-9.866999e-10,2.9341802281679112e-05
PART_000_R31G119B180A255,13734,2.327594e-09,-1.06945e-08,5.914004e-09,1.680638e-05,-3.070489e-08,-6.801565e-11,2.9109556568895465e-05
PART_002_R214G39B40A255,13735,2.656089e-09,-1.098763e-08,5.627986e-09,1.692233e-05,-3.79423e-08,7.28584e-10,2.9310413061991453e-05
PART_002_R214G39B40A255,13736,3.439284e-09,-1.167361e-08,5.272337e-09,1.729003e-05,-5.243267e-08,1.342756e-09,2.994735254790839e-05
PART_002_R214G39B40A255,13737,4.28072e-09,-1.254309e-08,4.641905e-09,1.793716e-05,-4.40373e-08,1.239074e-09,3.106817082323374e-05
PART_002_R214G39B40A255,13738,4.428263e-09,-1.346457e-08,4.770381e-09,1.888462e-05,-4.271493e-08,8.092813e-10,3.2709210013170924e-05
PART_002_R214G39B40A255,13739,3.625454e-09,-1.421511e-08,5.170957e-09,2.016809e-05,-1.154874e-08,2.069304e-10,3.493216728518138e-05
PART_003_R247G182B210A255,13740,-1.363338e-05,4.485827e-06,4.504948e-06,1.959398e-05,9.82113e-09,2.572883e-08,3.8476316316425095e-05
PART_003_R247G182B210A255,13741,-1.362572e-05,4.486061e-06,4.502268e-06,1.831964e-05,8.724536e-09,6.603808e-08,3.653999660534867e-05
PART_003_R247G182B210A255,13742,-1.362291e-05,4.486082e-06,4.50346e-06,1.737449e-05,1.205651e-08,8.322162e-08,3.512677772279476e-05
PART_003_R247G182B210A255,13743,-1.362105e-05,4.485799e-06,4.503159e-06,1.673019e-05,-4.286201e-09,7.335184e-08,3.417435567610884e-05
PART_003_R247G182B210A255,13744,-1.362296e-05,4.484921e-06,4.507439e-06,1.635372e-05,-1.11387e-08,3.76713e-08,3.362500137907041e-05
PART_001_R158G218B229A255,13745,-1.362578e-05,4.486528e-06,4.507393e-06,1.622504e-05,-2.981003e-08,-8.61391e-09,3.343938855987518e-05
PART_001_R158G218B229A255,13746,-1.362988e-05,4.48723e-06,4.509634e-06,1.633616e-05,-3.810267e-08,-5.659683e-08,3.3604470061354e-05
PART_002_R214G39B40A255,13747,-1.363524e-05,4.490223e-06,4.509024e-06,1.669556e-05,-4.800248e-08,-8.815956e-08,3.4133985109432355e-05
PART_002_R214G39B40A255,13748,-1.364174e-05,4.492251e-06,4.509108e-06,1.73267e-05,-4.586404e-08,-9.684427e-08,3.506887001417651e-05
PART_002_R214G39B40A255,13749,-1.36511e-05,4.494434e-06,4.512168e-06,1.826379e-05,-3.818942e-08,-7.427516e-08,3.6473298626882474e-05
PART_002_R214G39B40A255,13750,-1.366114e-05,4.495841e-06,4.513289e-06,1.953804e-05,-1.21501e-08,-2.929481e-08,3.840834681457693e-05
PART_003_R247G182B210A255,13751,-2.727518e-05,8.996263e-06,9.007238e-06,1.770641e-05,3.661597e-09,5.943141e-08,4.7503444913010895e-05
PART_003_R247G182B210A255,13752,-2.725831e-05,8.989794e-06,8.998797e-06,1.645152e-05,8.774769e-09,1.606501e-07,4.611167589248888e-05
PART_003_R247G182B210A255,13753,-2.72485e-05,8.983444e-06,9.001098e-06,1.555178e-05,6.974988e-09,1.999523e-07,4.515625525489936e-05
PART_003_R247G182B210A255,13754,-2.724576e-05,8.979479e-06,9.004909e-06,1.495061e-05,-1.31182e-09,1.742702e-07,4.4540353935577675e-05
PART_001_R158G218B229A255,13755,-2.724864e-05,8.980553e-06,9.007497e-06,1.461005e-05,-1.072349e-08,9.398222e-08,4.4203154149300465e-05
PART_001_R158G218B229A255,13756,-2.72542e-05,8.981067e-06,9.012069e-06,1.449353e-05,-2.704014e-08,-1.74621e-08,4.4094322143535095e-05
PART_001_R158G218B229A255,13757,-2.726247e-05,8.98509e-06,9.012398e-06,1.45941e-05,-3.30981e-08,-1.286104e-07,4.4202854804147877e-05
PART_001_R158G218B229A255,13758,-2.727305e-05,8.988556e-06,9.014936e-06,1.491962e-05,-4.551703e-08,-2.043716e-07,4.453962335107737e-05
PART_002_R214G39B40A255,13759,-2.728659e-05,8.996349e-06,9.013927e-06,1.550891e-05,-3.636986e-08,-2.247099e-07,4.515333955586752e-05
PART_002_R214G39B40A255,13760,-2.730444e-05,9.002726e-06,9.015702e-06,1.639761e-05,-3.687652e-08,-1.76421e-07,4.6102319757159214e-05
PART_002_R214G39B40A255,13761,-2.732389e-05,9.003939e-06,9.025453e-06,1.764552e-05,-8.817377e-09,-6.516024e-08,4.7482620806341186e-05
PART_003_R247G182B210A255,13762,-4.090153e-05,1.349006e-05,1.349416e-05,1.449674e-05,8.198934e-09,1.265151e-07,5.990978815535104e-05
PART_003_R247G182B210A255,13763,-4.08845e-05,1.348399e-05,1.350215e-05,1.331668e-05,3.620721e-09,3.136198e-07,5.9069597735019473e-05
PART_003_R247G182B210A255,13764,-4.08725e-05,1.347849e-05,1.349909e-05,1.250891e-05,1.005142e-08,3.941913e-07,5.852379960609632e-05
PART_001_R158G218B229A255,13765,-4.087105e-05,1.347751e-05,1.35054e-05,1.200863e-05,-1.765675e-09,3.41008e-07,5.8208701973294484e-05
PART_001_R158G218B229A255,13766,-4.087508e-05,1.347596e-05,1.351084e-05,1.173137e-05,-8.124786e-09,1.834696e-07,5.8042302138360396e-05
PART_001_R158G218B229A255,13767,-4.088366e-05,1.347795e-05,1.351688e-05,1.163657e-05,-2.212089e-08,-2.571171e-08,5.799599288042594e-05
PART_001_R158G218B229A255,13768,-4.089541e-05,1.348256e-05,1.351853e-05,1.171838e-05,-2.725539e-08,-2.301053e-07,5.806068595988181e-05
PART_001_R158G218B229A255,13769,-4.090921e-05,1.34902e-05,1.351812e-05,1.198321e-05,-3.613862e-08,-3.851691e-07,5.824136304054319e-05
PART_001_R158G218B229A255,13770,-4.092799e-05,1.349653e-05,1.351949e-05,1.247385e-05,-3.249377e-08,-4.274846e-07,5.8571500660506196e-05
PART_002_R214G39B40A255,13771,-4.095243e-05,1.350873e-05,1.35234e-05,1.327586e-05,-2.327143e-08,-3.374516e-07,5.912618481363304e-05
PART_002_R214G39B40A255,13772,-4.098112e-05,1.351963e-05,1.352261e-05,1.445561e-05,-7.944668e-09,-1.342301e-07,5.997868284321261e-05
PART_003_R247G182B210A255,13773,-5.453551e-05,1.800285e-05,1.800175e-05,9.922337e-06,-2.766755e-09,2.296488e-07,7.454696797192446e-05
PART_003_R247G182B210A255,13774,-5.451016e-05,1.798323e-05,1.799847e-05,8.858652e-06,7.459833e-09,6.223502e-07,7.411468071337997e-05
PART_001_R158G218B229A255,13775,-5.449271e-05,1.797481e-05,1.799264e-05,8.279639e-06,7.866571e-09,7.540543e-07,7.3893146596709e-05
PART_001_R158G218B229A255,13776,-5.449473e-05,1.797064e-05,1.800943e-05,7.944269e-06,-9.868785e-10,6.082749e-07,7.378676380910116e-05
PART_001_R158G218B229A255,13777,-5.45013e-05,1.796798e-05,1.80157e-05,7.758719e-06,-5.045381e-09,3.276888e-07,7.373040372016029e-05
PART_001_R158G218B229A255,13778,-5.451271e-05,1.797194e-05,1.802503e-05,7.698429e-06,-1.519986e-08,-3.213978e-08,7.372704207715668e-05
PART_001_R158G218B229A255,13779,-5.452683e-05,1.797618e-05,1.802536e-05,7.74991e-06,-1.8439e-08,-3.819556e-07,7.376229782903918e-05
PART_001_R158G218B229A255,13780,-5.454142e-05,1.798684e-05,1.8023e-05,7.927234e-06,-2.45138e-08,-6.63469e-07,7.384319820300393e-05
PART_001_R158G218B229A255,13781,-5.456283e-05,1.799769e-05,1.801907e-05,8.25611e-06,-2.171752e-08,-7.928047e-07,7.397944277647508e-05
PART_001_R158G218B229A255,13782,-5.458938e-05,1.800718e-05,1.802231e-05,8.829618e-06,-2.092559e-08,-6.507889e-07,7.420591279001366e-05
PART_002_R214G39B40A255,13783,-5.462495e-05,1.802039e-05,1.803765e-05,9.888747e-06,9.920996e-10,-2.390196e-07,7.464672079831748e-05
PART_003_R247G182B210A255,13784,-6.813878e-05,2.248792e-05,2.246486e-05,3.642021e-06,1.041305e-08,6.174819e-07,9.084077587091735e-05
PART_001_R158G218B229A255,13785,-6.81218e-05,2.247138e-05,2.248677e-05,3.13663e-06,5.692745e-09,1.32323e-06,9.079254915352985e-05
PART_001_R158G218B229A255,13786,-6.811136e-05,2.247227e-05,2.248795e-05,2.943994e-06,3.085403e-09,1.339628e-06,9.076452920204068e-05
PART_001_R158G218B229A255,13787,-6.811937e-05,2.246089e-05,2.251616e-05,2.816896e-06,-2.090663e-10,1.024635e-06,9.07565274094153e-05
PART_001_R158G218B229A255,13788,-6.812984e-05,2.246302e-05,2.252449e-05,2.755865e-06,-1.560605e-09,5.402527e-07,9.075405669492361e-05
PART_001_R158G218B229A255,13789,-6.814413e-05,2.246234e-05,2.253776e-05,2.731809e-06,-6.023053e-09,-3.534697e-08,9.076763648073309e-05
PART_001_R158G218B229A255,13790,-6.815864e-05,2.247306e-05,2.253409e-05,2.752825e-06,-5.893195e-09,-5.968256e-07,9.079340760883172e-05
PART_001_R158G218B229A255,13791,-6.817103e-05,2.247974e-05,2.252743e-05,2.810434e-06,-1.015906e-08,-1.085617e-06,9.082466147135884e-05
PART_001_R158G218B229A255,13792,-6.819011e-05,2.249875e-05,2.251568e-05,2.935876e-06,-6.411561e-09,-1.379756e-06,9.087119666852297e-05
PART_001_R158G218B229A255,13793,-6.821359e-05,2.25072e-05,2.250894e-05,3.126299e-06,-1.032991e-08,-1.356193e-06,9.091346946530736e-05
PART_001_R158G218B229A255,13794,-6.825208e-05,2.253468e-05,2.250626e-05,3.632801e-06,-6.265867e-09,-6.260321e-07,9.099683530181454e-05
PART_003_R247G182B210A255,13795,6.360645e-05,-2.10152e-05,-2.097299e-05,3.648959e-06,-9.953025e-10,-6.123468e-07,8.484293232022002e-05
PART_000_R31G119B180A255,13796,6.357044e-05,-2.097838e-05,-2.097861e-05,3.1406e-06,6.671866e-09,-1.321325e-06,8.475464794075995e-05
PART_000_R31G119B180A255,13797,6.356085e-05,-2.096899e-05,-2.099505e-05,2.950079e-06,-7.020609e-11,-1.325091e-06,8.472823539994181e-05
PART_000_R31G119B180A255,13798,6.356805e-05,-2.095674e-05,-2.10182e-05,2.82226e-06,3.089059e-09,-1.017324e-06,8.471504661500037e-05
PART_000_R31G119B180A255,13799,6.358396e-05,-2.095914e-05,-2.103629e-05,2.762211e-06,-4.709525e-09,-5.239122e-07,8.472176318539332e-05
PART_000_R31G119B180A255,13800,6.360286e-05,-2.09594e-05,-2.10492e-05,2.737772e-06,-4.599277e-09,4.137498e-08,8.474000800681169e-05
PART_000_R31G119B180A255,13801,6.362078e-05,-2.097227e-05,-2.104587e-05,2.757783e-06,-1.071777e-08,6.083634e-07,8.477111735525803e-05
PART_000_R31G119B180A255,13802,6.364026e-05,-2.098253e-05,-2.103985e-05,2.815247e-06,-9.37543e-09,1.088404e-06,8.481274333377053e-05
PART_000_R31G119B180A255,13803,6.36624e-05,-2.100492e-05,-2.102296e-05,2.938465e-06,-1.170743e-08,1.386679e-06,8.486315794668702e-05
PART_000_R31G119B180A255,13804,6.369492e-05,-2.101646e-05,-2.102087e-05,3.12857e-06,-7.41862e-09,1.35741e-06,8.491927460656424e-05
PART_000_R31G119B180A255,13805,6.373593e-05,-2.104334e-05,-2.101461e-05,3.632294e-06,-1.023512e-08,6.282453e-07,8.50050281369871e-05
PART_003_R247G182B210A255,13806,5.088378e-05,-1.678286e-05,-1.679943e-05,9.922784e-06,2.23494e-09,-2.302953e-07,6.982434911527457e-05
PART_003_R247G182B210A255,13807,5.085952e-05,-1.677799e-05,-1.679148e-05,8.86949e-06,1.42123e-08,-6.195177e-07,6.93750743572982e-05
PART_000_R31G119B180A255,13808,5.084788e-05,-1.677506e-05,-1.679361e-05,8.294365e-06,6.978238e-09,-7.473048e-07,6.915332078521247e-05
PART_000_R31G119B180A255,13809,5.084755e-05,-1.676878e-05,-1.6808e-05,7.961066e-06,2.400606e-09,-6.024534e-07,6.903510785459244e-05
PART_000_R31G119B180A255,13810,5.085814e-05,-1.676567e-05,-1.682097e-05,7.775359e-06,-9.039518e-09,-3.168687e-07,6.898110189677691e-05
PART_000_R31G119B180A255,13811,5.087223e-05,-1.677011e-05,-1.682964e-05,7.715585e-06,-1.536097e-08,3.858592e-08,6.89790720666148e-05
PART_000_R31G119B180A255,13812,5.089056e-05,-1.677667e-05,-1.683171e-05,7.764117e-06,-2.720475e-08,3.91815e-07,6.902092990724416e-05
PART_000_R31G119B180A255,13813,5.091081e-05,-1.678987e-05,-1.682897e-05,7.940022e-06,-2.710337e-08,6.69117e-07,6.911228474301016e-05
PART_000_R31G119B180A255,13814,5.093725e-05,-1.680481e-05,-1.682376e-05,8.264202e-06,-3.189994e-08,8.004958e-07,6.926100852333499e-05
PART_000_R31G119B180A255,13815,5.097229e-05,-1.681915e-05,-1.682774e-05,8.83498e-06,-2.031775e-08,6.555883e-07,6.951059617657358e-05
PART_002_R214G39B40A255,13816,5.101438e-05,-1.683575e-05,-1.684281e-05,9.890064e-06,-4.869854e-09,2.41321e-07,6.998381305110593e-05
PART_003_R247G182B210A255,13817,3.818345e-05,-1.261974e-05,-1.259167e-05,1.451882e-05,3.439502e-10,-1.254742e-07,5.667428421086942e-05
PART_003_R247G182B210A255,13818,3.815655e-05,-1.260183e-05,-1.259316e-05,1.333622e-05,7.190387e-09,-3.145374e-07,5.576588911096901e-05
PART_003_R247G182B210A255,13819,3.81408e-05,-1.258789e-05,-1.259614e-05,1.252907e-05,9.925721e-09,-3.911947e-07,5.5183428214506e-05
PART_000_R31G119B180A255,13820,3.813748e-05,-1.258487e-05,-1.260055e-05,1.20327e-05,3.164613e-09,-3.377786e-07,5.484753670763236e-05
PART_000_R31G119B180A255,13821,3.814314e-05,-1.258242e-05,-1.261097e-05,1.175545e-05,-1.288119e-08,-1.769109e-07,5.4673555503884906e-05
PART_000_R31G119B180A255,13822,3.815375e-05,-1.258467e-05,-1.261591e-05,1.166161e-05,-2.296366e-08,3.146235e-08,5.4625610324082824e-05
PART_000_R31G119B180A255,13823,3.816919e-05,-1.259117e-05,-1.262006e-05,1.173889e-05,-3.920502e-08,2.378152e-07,5.46960724674746e-05
PART_000_R31G119B180A255,13824,3.818802e-05,-1.260212e-05,-1.261812e-05,1.200171e-05,-4.074896e-08,3.919515e-07,5.4891166936039726e-05
PART_000_R31G119B180A255,13825,3.8213e-05,-1.261295e-05,-1.262048e-05,1.24849e-05,-4.720358e-08,4.349446e-07,5.524357309665987e-05
PART_002_R214G39B40A255,13826,3.824348e-05,-1.262836e-05,-1.262306e-05,1.328173e-05,-2.52251e-08,3.429869e-07,5.58322702087245e-05
PART_002_R214G39B40A255,13827,3.827828e-05,-1.263952e-05,-1.262537e-05,1.445358e-05,-1.71303e-08,1.371843e-07,5.6733388172924536e-05
PART_003_R247G182B210A255,13828,2.546135e-05,-8.40982e-06,-8.399716e-06,1.770214e-05,7.485507e-09,-6.075713e-08,4.5683941917065554e-05
PART_003_R247G182B210A255,13829,2.544397e-05,-8.408501e-06,-8.39044e-06,1.646211e-05,2.172136e-08,-1.622017e-07,4.4254516719878663e-05
PART_003_R247G182B210A255,13830,2.543334e-05,-8.403124e-06,-8.394119e-06,1.557204e-05,8.091253e-09,-1.999826e-07,4.3268777941673306e-05
PART_003_R247G182B210A255,13831,2.542902e-05,-8.39654e-06,-8.398169e-06,1.497528e-05,5.492637e-09,-1.734785e-07,4.262735063215578e-05
PART_000_R31G119B180A255,13832,2.543078e-05,-8.395767e-06,-8.402101e-06,1.463556e-05,-1.633465e-08,-9.104904e-08,4.227379920468102e-05
PART_000_R31G119B180A255,13833,2.543839e-05,-8.396588e-06,-8.407183e-06,1.451984e-05,-2.77051e-08,2.195875e-08,4.21621315905757e-05
PART_000_R31G119B180A255,13834,2.544903e-05,-8.402175e-06,-8.408399e-06,1.461526e-05,-4.773883e-08,1.339271e-07,4.227283914743524e-05
PART_000_R31G119B180A255,13835,2.546417e-05,-8.408802e-06,-8.410476e-06,1.49372e-05,-5.181599e-08,2.112153e-07,4.262553999880247e-05
PART_002_R214G39B40A255,13836,2.548346e-05,-8.420733e-06,-8.410692e-06,1.551689e-05,-5.577023e-08,2.308801e-07,4.326251085448818e-05
PART_002_R214G39B40A255,13837,2.550706e-05,-8.431806e-06,-8.411513e-06,1.63993e-05,-4.053358e-08,1.82076e-07,4.425012792248987e-05
PART_002_R214G39B40A255,13838,2.55326e-05,-8.436254e-06,-8.423678e-06,1.763924e-05,-2.00606e-08,6.713473e-08,4.568259077321383e-05
PART_003_R247G182B210A255,13839,1.273936e-05,-4.224367e-06,-4.193e-06,1.960505e-05,2.699124e-09,-2.640186e-08,3.795145564971592e-05
PART_003_R247G182B210A255,13840,1.273159e-05,-4.219169e-06,-4.195489e-06,1.833093e-05,1.725188e-08,-6.764261e-08,3.598626127969137e-05
PART_003_R247G182B210A255,13841,1.27235e-05,-4.214272e-06,-4.192271e-06,1.738881e-05,1.372379e-08,-8.642044e-08,3.454925565911801e-05
PART_003_R247G182B210A255,13842,1.272034e-05,-4.211223e-06,-4.195313e-06,1.67507e-05,4.22234e-09,-7.402997e-08,3.358843616257802e-05
PART_000_R31G119B180A255,13843,1.272002e-05,-4.209026e-06,-4.196514e-06,1.637602e-05,-1.685665e-08,-3.857068e-08,3.302890169911683e-05
PART_000_R31G119B180A255,13844,1.272353e-05,-4.210249e-06,-4.198678e-06,1.624801e-05,-3.071993e-08,1.172179e-08,3.2841342764505736e-05
PART_000_R31G119B180A255,13845,1.272952e-05,-4.212479e-06,-4.200055e-06,1.635338e-05,-5.409839e-08,5.958544e-08,3.3002114182742634e-05
PART_002_R214G39B40A255,13846,1.273839e-05,-4.218152e-06,-4.200712e-06,1.670842e-05,-5.58681e-08,9.43123e-08,3.3537722694179315e-05
PART_002_R214G39B40A255,13847,1.27499e-05,-4.224057e-06,-4.201728e-06,1.732812e-05,-6.741028e-08,1.014267e-07,3.4475678762040414e-05
PART_002_R214G39B40A255,13848,1.276283e-05,-4.229902e-06,-4.204394e-06,1.825561e-05,-4.372392e-08,7.894578e-08,3.58907573470164e-05
PART_002_R214G39B40A255,13849,1.277636e-05,-4.23389e-06,-4.206862e-06,1.951747e-05,-2.494402e-08,3.082453e-08,3.783766913022437e-05
PART_003_R247G182B210A255,13850,1.351943e-08,-2.599998e-08,6.23756e-09,2.021178e-05,8.931538e-09,-1.451205e-09,3.500785233307654e-05
PART_003_R247G182B210A255,13851,1.190857e-08,-2.234578e-08,5.851235e-09,1.893863e-05,2.471354e-08,-2.569542e-09,3.280271289813152e-05
PART_003_R247G182B210A255,13852,9.578467e-09,-1.959579e-08,6.508475e-09,1.799192e-05,1.192957e-08,-3.009667e-09,3.1162939222332575e-05
PART_003_R247G182B210A255,13853,7.560816e-09,-1.798196e-08,7.468923e-09,1.73382e-05,6.762238e-09,-2.882712e-09,3.0030656834780046e-05
PART_000_R31G119B180A255,13854,5.905799e-09,-1.705918e-08,8.642953e-09,1.695506e-05,-1.842429e-08,-1.800292e-09,2.9367053046540036e-05
PART_000_R31G119B180A255,13855,5.279833e-09,-1.682976e-08,8.975278e-09,1.682224e-05,-3.189292e-08,-1.246332e-10,2.9137036767139513e-05
PART_000_R31G119B180A255,13856,6.059523e-09,-1.739756e-08,8.743588e-09,1.693167e-05,-5.445757e-08,1.680241e-09,2.9326675105037113e-05
PART_002_R214G39B40A255,13857,7.874484e-09,-1.863129e-08,7.634897e-09,1.729414e-05,-6.098055e-08,2.688444e-09,2.995452735142798e-05
PART_002_R214G39B40A255,13858,1.015463e-08,-2.066358e-08,6.764502e-09,1.792811e-05,-6.719657e-08,2.939605e-09,3.105262973331809e-05
PART_002_R214G39B40A255,13859,1.218814e-08,-2.320389e-08,5.97965e-09,1.886561e-05,-4.901722e-08,2.025429e-09,3.267632191353593e-05
PART_002_R214G39B40A255,13860,1.265112e-08,-2.566009e-08,6.648284e-09,2.013622e-05,-2.491175e-08,7.341059e-10,3.487700108774749e-05
PART_003_R247G182B210A255,13861,-1.272222e-05,4.183238e-06,4.204811e-06,1.958757e-05,3.660134e-09,2.627803e-08,3.791016333832593e-05
PART_003_R247G182B210A255,13862,-1.271265e-05,4.178581e-06,4.207228e-06,1.831723e-05,1.807473e-08,6.370842e-08,3.594960763951475e-05
PART_003_R247G182B210A255,13863,-1.270617e-05,4.175915e-06,4.204842e-06,1.737754e-05,1.410631e-08,8.020897e-08,3.4517395115313956e-05
PART_003_R247G182B210A255,13864,-1.270769e-05,4.175586e-06,4.211155e-06,1.674043e-05,4.178536e-09,6.740068e-08,3.356168150704258e-05
PART_000_R31G119B180A255,13865,-1.271044e-05,4.174982e-06,4.214218e-06,1.63662e-05,-1.683842e-08,3.510047e-08,3.3005205438620115e-05
PART_000_R31G119B180A255,13866,-1.271518e-05,4.176556e-06,4.217474e-06,1.62384e-05,-3.078413e-08,-1.23e-08,3.2818954827478093e-05
PART_000_R31G119B180A255,13867,-1.271983e-05,4.177813e-06,4.218205e-06,1.634332e-05,-5.415339e-08,-5.572047e-08,3.297794623704826e-05
PART_002_R214G39B40A255,13868,-1.272486e-05,4.181267e-06,4.216367e-06,1.669779e-05,-5.594378e-08,-8.866859e-08,3.350960034581506e-05
PART_002_R214G39B40A255,13869,-1.273234e-05,4.184078e-06,4.215524e-06,1.731606e-05,-6.785119e-08,-9.494306e-08,3.444236920072061e-05
PART_002_R214G39B40A255,13870,-1.274169e-05,4.186378e-06,4.216174e-06,1.824149e-05,-4.416367e-08,-7.463946e-08,3.58516833555257e-05
PART_002_R214G39B40A255,13871,-1.275538e-05,4.186781e-06,4.220197e-06,1.950039e-05,-2.534662e-08,-2.924195e-08,3.779423498783391e-05
PART_003_R247G182B210A255,13872,-2.544961e-05,8.374968e-06,8.410748e-06,1.767755e-05,6.661056e-09,5.769566e-08,4.563782468491869e-05
PART_003_R247G182B210A255,13873,-2.54331e-05,8.377814e-06,8.402785e-06,1.644049e-05,2.216277e-08,1.558822e-07,4.4215001154200856e-05
PART_003_R247G182B210A255,13874,-2.54248e-05,8.375842e-06,8.406876e-06,1.555308e-05,8.501014e-09,1.926042e-07,4.3235861622496186e-05
PART_003_R247G182B210A255,13875,-2.542494e-05,8.371375e-06,8.415399e-06,1.49585e-05,5.803971e-09,1.655641e-07,4.2603206415541376e-05
PART_001_R158G218B229A255,13876,-2.542998e-05,8.371901e-06,8.42159e-06,1.461961e-05,-1.667011e-08,8.684785e-08,4.225484186198124e-05
PART_001_R158G218B229A255,13877,-2.543903e-05,8.372883e-06,8.428256e-06,1.450393e-05,-2.757431e-08,-2.259299e-08,4.214518433509639e-05
PART_001_R158G218B229A255,13878,-2.544822e-05,8.377851e-06,8.428391e-06,1.459897e-05,-4.788061e-08,-1.291604e-07,4.225354308557931e-05
PART_001_R158G218B229A255,13879,-2.545956e-05,8.382768e-06,8.427332e-06,1.491965e-05,-5.183823e-08,-2.044365e-07,4.259970202637616e-05
PART_002_R214G39B40A255,13880,-2.547486e-05,8.392045e-06,8.424909e-06,1.549709e-05,-5.657241e-08,-2.230051e-07,4.322868870123565e-05
PART_002_R214G39B40A255,13881,-2.549539e-05,8.39982e-06,8.422916e-06,1.637586e-05,-4.137536e-08,-1.770067e-07,4.420717295004348e-05
PART_002_R214G39B40A255,13882,-2.552284e-05,8.401564e-06,8.43667e-06,1.761059e-05,-2.083416e-08,-6.521361e-08,4.5634088907186826e-05
PART_003_R247G182B210A255,13883,-3.818805e-05,1.260217e-05,1.260451e-05,1.448651e-05,2.307441e-09,1.239901e-07,5.665146383622091e-05
PART_003_R247G182B210A255,13884,-3.815379e-05,1.258305e-05,1.260107e-05,1.331264e-05,9.862441e-09,3.086624e-07,5.574142800741966e-05
PART_003_R247G182B210A255,13885,-3.814094e-05,1.256908e-05,1.26119e-05,1.250996e-05,9.642283e-09,3.797456e-07,5.5168918438709875e-05
PART_001_R158G218B229A255,13886,-3.814079e-05,1.256639e-05,1.261786e-05,1.201541e-05,3.740597e-09,3.295684e-07,5.4838551874016815e-05
PART_001_R158G218B229A255,13887,-3.81501e-05,1.256447e-05,1.263437e-05,1.173939e-05,-1.364443e-08,1.695863e-07,5.46721511786856e-05
PART_001_R158G218B229A255,13888,-3.816339e-05,1.256681e-05,1.264001e-05,1.164525e-05,-2.254478e-08,-3.06298e-08,5.4627025206968386e-05
PART_001_R158G218B229A255,13889,-3.817579e-05,1.257294e-05,1.264294e-05,1.172242e-05,-3.938548e-08,-2.325208e-07,5.469372131330526e-05
PART_001_R158G218B229A255,13890,-3.819211e-05,1.258319e-05,1.263694e-05,1.198374e-05,-4.042966e-08,-3.823437e-07,5.488293622317698e-05
PART_001_R158G218B229A255,13891,-3.821218e-05,1.259338e-05,1.263488e-05,1.24646e-05,-4.796034e-08,-4.247774e-07,5.522646147894043e-05
PART_002_R214G39B40A255,13892,-3.824169e-05,1.260848e-05,1.263358e-05,1.325698e-05,-2.607458e-08,-3.361221e-07,5.58086040706681e-05
PART_002_R214G39B40A255,13893,-3.828087e-05,1.261996e-05,1.263687e-05,1.442246e-05,-1.815873e-08,-1.347477e-07,5.670831536091943e-05
PART_003_R247G182B210A255,13894,-5.089616e-05,1.67775e-05,1.681439e-05,9.902787e-06,5.107344e-10,2.250515e-07,6.983243957075187e-05
PART_003_R247G182B210A255,13895,-5.085927e-05,1.677003e-05,1.67938e-05,8.853223e-06,1.440462e-08,6.120312e-07,6.93656498093663e-05
PART_001_R158G218B229A255,13896,-5.085325e-05,1.67661e-05,1.681251e-05,8.280862e-06,7.176025e-09,7.301027e-07,6.915803780528247e-05
PART_001_R158G218B229A255,13897,-5.085604e-05,1.675992e-05,1.682543e-05,7.949443e-06,2.326183e-09,5.930592e-07,6.90433774212237e-05
PART_001_R158G218B229A255,13898,-5.087122e-05,1.675647e-05,1.684922e-05,7.764044e-06,-9.430112e-09,3.059221e-07,6.899933112011122e-05
PART_001_R158G218B229A255,13899,-5.0889e-05,1.676114e-05,1.685722e-05,7.70463e-06,-1.515645e-08,-3.608113e-08,6.900100770166806e-05
PART_001_R158G218B229A255,13900,-5.090296e-05,1.676745e-05,1.685831e-05,7.752527e-06,-2.713609e-08,-3.855467e-07,6.903762996434098e-05
PART_001_R158G218B229A255,13901,-5.092105e-05,1.678076e-05,1.684999e-05,7.927873e-06,-2.654526e-08,-6.551963e-07,6.912358742003176e-05
PART_001_R158G218B229A255,13902,-5.094053e-05,1.679569e-05,1.683795e-05,8.250003e-06,-3.251297e-08,-7.868482e-07,6.926115815161057e-05
PART_001_R158G218B229A255,13903,-5.097531e-05,1.681087e-05,1.683648e-05,8.817499e-06,-2.086469e-08,-6.455034e-07,6.950682739633139e-05
PART_002_R214G39B40A255,13904,-5.102351e-05,1.682963e-05,1.685099e-05,9.866618e-06,-5.897967e-09,-2.379133e-07,6.998370361753061e-05
PART_003_R247G182B210A255,13905,-6.360946e-05,2.101196e-05,2.098089e-05,3.63992e-06,3.418702e-09,6.067978e-07,8.484696929904994e-05
PART_001_R158G218B229A255,13906,-6.356151e-05,2.097135e-05,2.097851e-05,3.135511e-06,6.032427e-09,1.307819e-06,8.474098946080918e-05
PART_001_R158G218B229A255,13907,-6.355926e-05,2.095844e-05,2.101373e-05,2.945128e-06,1.309213e-09,1.303626e-06,8.472919991420902e-05
PART_001_R158G218B229A255,13908,-6.356991e-05,2.094506e-05,2.103743e-05,2.819126e-06,1.869885e-09,1.003253e-06,8.471987552247563e-05
PART_001_R158G218B229A255,13909,-6.359326e-05,2.094678e-05,2.106882e-05,2.757848e-06,-4.202102e-09,5.108998e-07,8.474049096511075e-05
PART_001_R158G218B229A255,13910,-6.361486e-05,2.094721e-05,2.108039e-05,2.734847e-06,-4.860597e-09,-3.830458e-08,8.476122953932938e-05
PART_001_R158G218B229A255,13911,-6.362895e-05,2.095989e-05,2.107648e-05,2.753464e-06,-1.05427e-08,-5.998938e-07,8.478780750666096e-05
PART_001_R158G218B229A255,13912,-6.364422e-05,2.097069e-05,2.106288e-05,2.811717e-06,-8.923359e-09,-1.069165e-06,8.482121774410016e-05
PART_001_R158G218B229A255,13913,-6.365791e-05,2.099434e-05,2.103668e-05,2.933467e-06,-1.203103e-08,-1.3679e-06,8.485881787056909e-05
PART_001_R158G218B229A255,13914,-6.36889e-05,2.100893e-05,2.102664e-05,3.122837e-06,-7.151183e-09,-1.341414e-06,8.491099681245327e-05
PART_001_R158G218B229A255,13915,-6.373619e-05,2.104062e-05,2.101675e-05,3.62355e-06,-1.099535e-08,-6.226825e-07,8.500375502344814e-05
PART_003_R247G182B210A255,13916,5.902328e-05,-1.94685e-05,-1.946492e-05,3.641967e-06,1.878796e-08,-6.072175e-07,7.875009529479255e-05
PART_000_R31G119B180A255,13917,5.899402e-05,-1.945431e-05,-1.948365e-05,3.145925e-06,4.691321e-09,-1.291106e-06,7.868376247408839e-05
PART_000_R31G119B180A255,13918,5.899173e-05,-1.944922e-05,-1.950837e-05,2.953852e-06,6.930278e-09,-1.293974e-06,7.866908473444635e-05
PART_000_R31G119B180A255,13919,5.90104e-05,-1.943436e-05,-1.955091e-05,2.83052e-06,-1.885891e-09,-9.787991e-07,7.86743056928597e-05
PART_000_R31G119B180A255,13920,5.903912e-05,-1.943467e-05,-1.958313e-05,2.768256e-06,-8.513181e-10,-4.9993e-07,7.869909460872239e-05
PART_000_R31G119B180A255,13921,5.90663e-05,-1.943711e-05,-1.96007e-05,2.74525e-06,-9.810667e-09,5.577749e-08,7.872911361738003e-05
PART_000_R31G119B180A255,13922,5.908736e-05,-1.945217e-05,-1.959696e-05,2.763945e-06,-9.07966e-09,6.027115e-07,7.876457758396314e-05
PART_000_R31G119B180A255,13923,5.910441e-05,-1.946745e-05,-1.957606e-05,2.819588e-06,-1.607888e-08,1.076673e-06,7.879981820419045e-05
PART_000_R31G119B180A255,13924,5.912682e-05,-1.94957e-05,-1.955081e-05,2.941735e-06,-1.000876e-08,1.367012e-06,7.885051969214051e-05
PART_000_R31G119B180A255,13925,5.916252e-05,-1.951708e-05,-1.953163e-05,3.128043e-06,-1.374597e-08,1.345863e-06,7.890762335523373e-05
PART_000_R31G119B180A255,13926,5.922495e-05,-1.95544e-05,-1.953183e-05,3.628364e-06,-4.691459e-09,6.221305e-07,7.902572193250652e-05
PART_003_R247G182B210A255,13927,4.726035e-05,-1.561215e-05,-1.560367e-05,9.932943e-06,-4.724483e-09,-2.223625e-07,6.518095305755037e-05
PART_003_R247G182B210A255,13928,4.72132e-05,-1.558194e-05,-1.559084e-05,8.878905e-06,8.373689e-09,-6.076348e-07,6.46637556601779e-05
PART_000_R31G119B180A255,13929,4.719625e-05,-1.556448e-05,-1.560653e-05,8.307954e-06,1.304611e-08,-7.225907e-07,6.442191636851846e-05
PART_000_R31G119B180A255,13930,4.720457e-05,-1.555682e-05,-1.563126e-05,7.978169e-06,4.162256e-10,-5.78876e-07,6.430885171175772e-05
PART_000_R31G119B180A255,13931,4.722158e-05,-1.555241e-05,-1.565532e-05,7.794594e-06,-6.332534e-09,-2.968501e-07,6.426177751527092e-05
PART_000_R31G119B180A255,13932,4.724464e-05,-1.555801e-05,-1.566879e-05,7.73303e-06,-2.297577e-08,4.882076e-08,6.426935809387271e-05
PART_000_R31G119B180A255,13933,4.726369e-05,-1.556664e-05,-1.566888e-05,7.781197e-06,-2.857432e-08,3.909734e-07,6.431319230296333e-05
PART_000_R31G119B180A255,13934,4.728625e-05,-1.558472e-05,-1.565811e-05,7.950941e-06,-3.97117e-08,6.633007e-07,6.440772762790934e-05
PART_000_R31G119B180A255,13935,4.731408e-05,-1.560494e-05,-1.564481e-05,8.271433e-06,-3.338332e-08,7.910714e-07,6.456348647295174e-05
PART_000_R31G119B180A255,13936,4.735576e-05,-1.562544e-05,-1.56398e-05,8.832424e-06,-3.212115e-08,6.513371e-07,6.482936931813597e-05
PART_002_R214G39B40A255,13937,4.741446e-05,-1.564518e-05,-1.565671e-05,9.876318e-06,-1.389149e-09,2.404709e-07,6.534557264101003e-05
PART_003_R247G182B210A255,13938,3.545359e-05,-1.170163e-05,-1.169236e-05,1.449801e-05,1.785687e-08,-1.264362e-07,5.3421002677913395e-05
PART_003_R247G182B210A255,13939,3.542209e-05,-1.169492e-05,-1.169573e-05,1.333993e-05,1.522195e-08,-3.065692e-07,5.2480421522082415e-05
PART_003_R247G182B210A255,13940,3.540697e-05,-1.16844e-05,-1.170276e-05,1.25465e-05,1.88983e-08,-3.776421e-07,5.1876150223142095e-05
PART_000_R31G119B180A255,13941,3.540676e-05,-1.167715e-05,-1.171764e-05,1.205396e-05,2.163355e-09,-3.220724e-07,5.152676691605771e-05
PART_000_R31G119B180A255,13942,3.541691e-05,-1.167345e-05,-1.173355e-05,1.178133e-05,-9.592371e-09,-1.634665e-07,5.134993083941701e-05
PART_000_R31G119B180A255,13943,3.54332e-05,-1.167628e-05,-1.174391e-05,1.168394e-05,-3.266436e-08,3.922572e-08,5.1303458679148245e-05
PART_000_R31G119B180A255,13944,3.545028e-05,-1.168487e-05,-1.174498e-05,1.17615e-05,-4.219085e-08,2.390858e-07,5.137834899657497e-05
PART_000_R31G119B180A255,13945,3.547197e-05,-1.169948e-05,-1.173964e-05,1.201409e-05,-5.894297e-08,3.900411e-07,5.158026374442656e-05
PART_000_R31G119B180A255,13946,3.549974e-05,-1.171587e-05,-1.173422e-05,1.249172e-05,-5.189236e-08,4.318111e-07,5.195071931593083e-05
PART_002_R214G39B40A255,13947,3.553983e-05,-1.173845e-05,-1.17338e-05,1.327432e-05,-4.460923e-08,3.431836e-07,5.257373818425156e-05
PART_002_R214G39B40A255,13948,3.558946e-05,-1.175487e-05,-1.173801e-05,1.443509e-05,-1.243641e-08,1.37078e-07,5.353372719189402e-05
PART_003_R247G182B210A255,13949,2.365793e-05,-7.829858e-06,-7.800416e-06,1.771069e-05,8.456546e-09,-5.825393e-08,4.394963722761434e-05
PART_003_R247G182B210A255,13950,2.363298e-05,-7.819956e-06,-7.793756e-06,1.647159e-05,1.895647e-08,-1.573357e-07,4.245561182614077e-05
PART_003_R247G182B210A255,13951,2.361707e-05,-7.808447e-06,-7.797272e-06,1.558715e-05,2.249474e-08,-1.941598e-07,4.142709754420082e-05
PART_003_R247G182B210A255,13952,2.361334e-05,-7.800009e-06,-7.808004e-06,1.499821e-05,4.443682e-09,-1.635881e-07,4.076725353873737e-05
PART_000_R31G119B180A255,13953,2.361904e-05,-7.798533e-06,-7.815918e-06,1.466286e-05,-1.074536e-08,-8.375706e-08,4.040581854408525e-05
PART_000_R31G119B180A255,13954,2.362812e-05,-7.799247e-06,-7.82331e-06,1.454429e-05,-3.984845e-08,2.739259e-08,4.028712377278803e-05
PART_000_R31G119B180A255,13955,2.364213e-05,-7.806652e-06,-7.82392e-06,1.463865e-05,-5.137541e-08,1.360534e-07,4.0404243791755793e-05
PART_000_R31G119B180A255,13956,2.365899e-05,-7.816486e-06,-7.823073e-06,1.494909e-05,-7.446943e-08,2.112169e-07,4.0761370341101235e-05
PART_002_R214G39B40A255,13957,2.368209e-05,-7.832026e-06,-7.819121e-06,1.552108e-05,-6.294432e-08,2.314742e-07,4.142001187965497e-05
PART_002_R214G39B40A255,13958,2.371245e-05,-7.845971e-06,-7.819327e-06,1.638547e-05,-6.462867e-08,1.833551e-07,4.2434161622242507e-05
PART_002_R214G39B40A255,13959,2.3748e-05,-7.851743e-06,-7.832003e-06,1.76101e-05,-1.595488e-08,6.847796e-08,4.391220861906667e-05
PART_003_R247G182B210A255,13960,1.184809e-05,-3.934773e-06,-3.897465e-06,1.957595e-05,2.284123e-08,-2.830924e-08,3.7392094805224554e-05
PART_003_R247G182B210A255,13961,1.183082e-05,-3.928607e-06,-3.892471e-06,1.832651e-05,2.542193e-08,-6.877019e-08,3.543148875937512e-05
PART_003_R247G182B210A255,13962,1.182166e-05,-3.922324e-06,-3.895786e-06,1.740165e-05,3.026681e-08,-8.349631e-08,3.39989978369734e-05
PART_000_R31G119B180A255,13963,1.181663e-05,-3.917603e-06,-3.896566e-06,1.677079e-05,3.436945e-09,-7.168456e-08,3.303073073264558e-05
PART_000_R31G119B180A255,13964,1.181772e-05,-3.914149e-06,-3.903161e-06,1.640084e-05,-1.022316e-08,-3.43206e-08,3.24697623422052e-05
PART_000_R31G119B180A255,13965,1.182185e-05,-3.915707e-06,-3.903665e-06,1.627036e-05,-4.379944e-08,1.334251e-08,3.227478065775151e-05
PART_000_R31G119B180A255,13966,1.182967e-05,-3.918816e-06,-3.906656e-06,1.637395e-05,-5.845999e-08,6.240013e-08,3.2437079205987405e-05
PART_000_R31G119B180A255,13967,1.184051e-05,-3.926522e-06,-3.905186e-06,1.671599e-05,-8.142952e-08,9.468137e-08,3.296335994623614e-05
PART_002_R214G39B40A255,13968,1.185496e-05,-3.935312e-06,-3.905051e-06,1.732661e-05,-7.639379e-08,1.03888e-07,3.390486550040417e-05
PART_002_R214G39B40A255,13969,1.187393e-05,-3.945057e-06,-3.907932e-06,1.823582e-05,-7.098396e-08,8.029398e-08,3.5317478659072245e-05
PART_002_R214G39B40A255,13970,1.189399e-05,-3.952158e-06,-3.910976e-06,1.948391e-05,-2.044491e-08,3.187973e-08,3.727361098588358e-05
PART_003_R247G182B210A255,13971,2.412387e-08,-3.775413e-08,6.958487e-09,2.020614e-05,1.241227e-08,-3.365573e-10,3.4998111449185946e-05
PART_003_R247G182B210A255,13972,2.323668e-08,-3.618242e-08,7.008504e-09,1.893885e-05,2.520697e-08,-3.314573e-09,3.280312312601074e-05
PART_003_R247G182B210A255,13973,2.006084e-08,-3.368104e-08,8.334792e-09,1.799957e-05,2.808312e-08,-5.231028e-09,3.117624743519579e-05
PART_000_R31G119B180A255,13974,1.569723e-08,-3.101806e-08,1.05815e-08,1.735452e-05,7.262971e-09,-4.93531e-09,3.0058946989565357e-05
PART_000_R31G119B180A255,13975,1.267774e-08,-2.951114e-08,1.210666e-08,1.697706e-05,-1.219943e-08,-2.867471e-09,2.9405168355422645e-05
PART_000_R31G119B180A255,13976,1.183719e-08,-2.925119e-08,1.286211e-08,1.684074e-05,-4.495367e-08,-7.946594e-12,2.9169150915960225e-05
PART_000_R31G119B180A255,13977,1.304291e-08,-3.008574e-08,1.219258e-08,1.694894e-05,-5.934333e-08,2.757587e-09,2.9356636612630397e-05
PART_000_R31G119B180A255,13978,1.64079e-08,-3.215979e-08,1.07679e-08,1.729776e-05,-8.694639e-08,4.876478e-09,2.996101417050924e-05
PART_002_R214G39B40A255,13979,2.088526e-08,-3.513958e-08,8.650113e-09,1.792253e-05,-7.662873e-08,5.137219e-09,3.104305949599535e-05
PART_002_R214G39B40A255,13980,2.516295e-08,-3.890923e-08,7.618946e-09,1.883878e-05,-7.691582e-08,4.012831e-09,3.263004721200201e-05
PART_002_R214G39B40A255,13981,2.834082e-08,-4.319438e-08,7.324257e-09,2.009225e-05,-2.055908e-08,1.42032e-09,3.4800874411765284e-05
PART_003_R247G182B210A255,13982,-1.17973e-05,3.85489e-06,3.912425e-06,1.955056e-05,2.202122e-08,2.296344e-08,3.73171694602618e-05
PART_003_R247G182B210A255,13983,-1.17879e-05,3.860934e-06,3.906686e-06,1.830402e-05,2.531231e-08,5.92886e-08,3.5365632700303984e-05
PART_003_R247G182B210A255,13984,-1.178896e-05,3.863435e-06,3.91387e-06,1.73813e-05,3.009085e-08,7.189523e-08,3.394313529547803e-05
PART_000_R31G119B180A255,13985,-1.179151e-05,3.863658e-06,3.918116e-06,1.675219e-05,3.276509e-09,6.176193e-08,3.2982705849031815e-05
PART_000_R31G119B180A255,13986,-1.179899e-05,3.863088e-06,3.928927e-06,1.638303e-05,-1.071438e-08,2.752534e-08,3.24276090835416e-05
PART_000_R31G119B180A255,13987,-1.180513e-05,3.8652e-06,3.930821e-06,1.625232e-05,-4.391045e-08,-1.294044e-08,3.2233706799629656e-05
PART_000_R31G119B180A255,13988,-1.181015e-05,3.866724e-06,3.932254e-06,1.635575e-05,-5.830094e-08,-5.675833e-08,3.239363384766186e-05
PART_000_R31G119B180A255,13989,-1.181465e-05,3.870602e-06,3.927813e-06,1.669655e-05,-8.142602e-08,-8.406938e-08,3.2913419932207844e-05
PART_002_R214G39B40A255,13990,-1.181975e-05,3.873215e-06,3.922751e-06,1.730539e-05,-7.641739e-08,-9.307343e-08,3.3845561703414825e-05
PART_002_R214G39B40A255,13991,-1.18305e-05,3.874783e-06,3.923573e-06,1.821125e-05,-7.162291e-08,-7.176694e-08,3.524775561683325e-05
PART_002_R214G39B40A255,13992,-1.184475e-05,3.873268e-06,3.925686e-06,1.94546e-05,-2.056845e-08,-2.88525e-08,3.7193156556364594e-05
PART_003_R247G182B210A255,13993,-2.363433e-05,7.777158e-06,7.816224e-06,1.765922e-05,1.104497e-08,5.645662e-08,4.3857317596563296e-05
PART_003_R247G182B210A255,13994,-2.36073e-05,7.768883e-06,7.807091e-06,1.643164e-05,2.044829e-08,1.484132e-07,4.237604103501307e-05
PART_003_R247G182B210A255,13995,-2.359829e-05,7.760801e-06,7.817246e-06,1.555373e-05,2.254776e-08,1.798235e-07,4.136447659154411e-05
PART_003_R247G182B210A255,13996,-2.360233e-05,7.756027e-06,7.832057e-06,1.496719e-05,3.369042e-09,1.513501e-07,4.071677288637941e-05
PART_001_R158G218B229A255,13997,-2.361482e-05,7.756478e-06,7.845793e-06,1.463284e-05,-1.114326e-08,7.545289e-08,4.036515470284063e-05
PART_001_R158G218B229A255,13998,-2.362596e-05,7.757844e-06,7.854356e-06,1.451446e-05,-4.029527e-08,-2.690869e-08,4.0249187226603145e-05
PART_001_R158G218B229A255,13999,-2.363746e-05,7.763875e-06,7.853502e-06,1.460796e-05,-5.089978e-08,-1.29289e-07,4.0362131826968386e-05
PART_001_R158G218B229A255,14000,-2.364762e-05,7.770947e-06,7.848412e-06,1.491686e-05,-7.428095e-08,-1.980444e-07,4.0709194869990756e-05
PART_002_R214G39B40A255,14001,-2.366193e-05,7.782382e-06,7.838228e-06,1.54855e-05,-6.288719e-08,-2.18494e-07,4.135288537704616e-05
PART_002_R214G39B40A255,14002,-2.368578e-05,7.791432e-06,7.835657e-06,1.634399e-05,-6.566607e-08,-1.728034e-07,4.235197111526182e-05
PART_002_R214G39B40A255,14003,-2.37185e-05,7.792123e-06,7.84672e-06,1.755991e-05,-1.618283e-08,-6.498522e-08,4.3814466796677834e-05
PART_003_R247G182B210A255,14004,-3.544617e-05,1.166883e-05,1.170364e-05,1.445049e-05,1.663316e-08,1.201335e-07,5.336626855763761e-05
PART_003_R247G182B210A255,14005,-3.541722e-05,1.166519e-05,1.171416e-05,1.329827e-05,1.372254e-08,2.912995e-07,5.243899733200295e-05
PART_003_R247G182B210A255,14006,-3.540597e-05,1.165765e-05,1.172129e-05,1.251021e-05,1.997328e-08,3.619005e-07,5.184490024847712e-05
PART_001_R158G218B229A255,14007,-3.541525e-05,1.165291e-05,1.174787e-05,1.202141e-05,1.915088e-10,3.02887e-07,5.15141573991018e-05
PART_001_R158G218B229A255,14008,-3.543393e-05,1.165045e-05,1.176856e-05,1.174907e-05,-9.71193e-09,1.554399e-07,5.1348891237545614e-05
PART_001_R158G218B229A255,14009,-3.545039e-05,1.165365e-05,1.178119e-05,1.165245e-05,-3.342076e-08,-4.052624e-08,5.130459580790286e-05
PART_001_R158G218B229A255,14010,-3.546773e-05,1.166154e-05,1.178092e-05,1.172867e-05,-4.124298e-08,-2.290869e-07,5.1377585383609194e-05
PART_001_R158G218B229A255,14011,-3.547955e-05,1.167439e-05,1.176859e-05,1.197992e-05,-5.86197e-08,-3.731466e-07,5.15647971574965e-05
PART_001_R158G218B229A255,14012,-3.550004e-05,1.168804e-05,1.17555e-05,1.245371e-05,-5.166872e-08,-4.148184e-07,5.1920243287102525e-05
PART_002_R214G39B40A255,14013,-3.553363e-05,1.170731e-05,1.175007e-05,1.322941e-05,-4.616627e-08,-3.294545e-07,5.252725144832982e-05
PART_002_R214G39B40A255,14014,-3.558459e-05,1.172135e-05,1.17525e-05,1.437943e-05,-1.274026e-08,-1.324651e-07,5.347601012568746e-05
PART_003_R247G182B210A255,14015,-4.726663e-05,1.560047e-05,1.560539e-05,9.887792e-06,-1.643836e-10,2.190389e-07,6.516157471128516e-05
PART_003_R247G182B210A255,14016,-4.722212e-05,1.556832e-05,1.56133e-05,8.847129e-06,1.017018e-08,5.852576e-07,6.466303934154254e-05
PART_001_R158G218B229A255,14017,-4.720544e-05,1.555009e-05,1.562313e-05,8.282056e-06,1.262677e-08,7.034255e-07,6.442133031615554e-05
PART_001_R158G218B229A255,14018,-4.72252e-05,1.554186e-05,1.566909e-05,7.954072e-06,-9.077283e-10,5.510561e-07,6.433054202050381e-05
PART_001_R158G218B229A255,14019,-4.725281e-05,1.553843e-05,1.569624e-05,7.771551e-06,-7.021637e-09,2.88261e-07,6.429707813172715e-05
PART_001_R158G218B229A255,14020,-4.727499e-05,1.554378e-05,1.571429e-05,7.709488e-06,-2.331924e-08,-5.191726e-08,6.430596006342377e-05
PART_001_R158G218B229A255,14021,-4.729593e-05,1.555247e-05,1.571207e-05,7.75768e-06,-2.75151e-08,-3.762546e-07,6.435020769291616e-05
PART_001_R158G218B229A255,14022,-4.730551e-05,1.556976e-05,1.569168e-05,7.925761e-06,-3.920347e-08,-6.413291e-07,6.442570742370442e-05
PART_001_R158G218B229A255,14023,-4.732676e-05,1.559008e-05,1.566845e-05,8.243984e-06,-3.239903e-08,-7.668212e-07,6.456874398747285e-05
PART_001_R158G218B229A255,14024,-4.736153e-05,1.56116e-05,1.565439e-05,8.799007e-06,-3.346436e-08,-6.324262e-07,6.482115683985714e-05
PART_002_R214G39B40A255,14025,-4.742666e-05,1.563398e-05,1.566907e-05,9.832313e-06,-1.530165e-09,-2.342151e-07,6.533793737430519e-05
PART_003_R247G182B210A255,14026,-5.902737e-05,1.946854e-05,1.946406e-05,3.627665e-06,1.247186e-08,5.962389e-07,7.875152744104632e-05
PART_001_R158G218B229A255,14027,-5.899811e-05,1.944746e-05,1.950247e-05,3.134031e-06,6.447339e-09,1.261486e-06,7.869095491825418e-05
PART_001_R158G218B229A255,14028,-5.899846e-05,1.944103e-05,1.952701e-05,2.945494e-06,4.628733e-09,1.264159e-06,7.867863353090315e-05
PART_001_R158G218B229A255,14029,-5.903391e-05,1.942567e-05,1.959478e-05,2.820906e-06,-8.354813e-10,9.44868e-07,7.871310851587026e-05
PART_001_R158G218B229A255,14030,-5.907288e-05,1.942665e-05,1.963053e-05,2.761131e-06,-2.153781e-09,4.876257e-07,7.875155328649335e-05
PART_001_R158G218B229A255,14031,-5.910206e-05,1.942889e-05,1.96551e-05,2.735842e-06,-9.480582e-09,-5.891983e-08,7.878699730092777e-05
PART_001_R158G218B229A255,14032,-5.912266e-05,1.94441e-05,1.964696e-05,2.756368e-06,-8.608978e-09,-5.829632e-07,7.881958789721144e-05
PART_001_R158G218B229A255,14033,-5.912552e-05,1.945898e-05,1.961502e-05,2.810042e-06,-1.602898e-08,-1.047955e-06,7.883396934106241e-05
PART_001_R158G218B229A255,14034,-5.913778e-05,1.948737e-05,1.957651e-05,2.932358e-06,-9.186005e-09,-1.332228e-06,7.886730451925949e-05
PART_001_R158G218B229A255,14035,-5.916295e-05,1.951046e-05,1.954284e-05,3.115959e-06,-1.492255e-08,-1.318053e-06,7.890750278115045e-05
PART_001_R158G218B229A255,14036,-5.92327e-05,1.95525e-05,1.953907e-05,3.611555e-06,-4.157557e-09,-6.107714e-07,7.903353085676982e-05
PART_003_R247G182B210A255,14037,5.447406e-05,-1.800797e-05,-1.796746e-05,3.648806e-06,-1.121493e-08,-5.845503e-07,7.274391312753434e-05
PART_000_R31G119B180A255,14038,5.440948e-05,-1.794586e-05,-1.798104e-05,3.147502e-06,8.657835e-09,-1.252055e-06,7.261036690151488e-05
PART_000_R31G119B180A255,14039,5.441462e-05,-1.79217e-05,-1.803745e-05,2.964603e-06,-7.829761e-10,-1.227778e-06,7.260728923034336e-05
PART_000_R31G119B180A255,14040,5.445812e-05,-1.790504e-05,-1.81071e-05,2.837266e-06,5.70933e-09,-9.231857e-07,7.264844528207379e-05
PART_000_R31G119B180A255,14041,5.450853e-05,-1.790593e-05,-1.81621e-05,2.779821e-06,-6.936813e-09,-4.561669e-07,7.270678562441689e-05
PART_000_R31G119B180A255,14042,5.454818e-05,-1.790916e-05,-1.819044e-05,2.754162e-06,-6.274134e-09,6.709468e-08,7.275504028628158e-05
PART_000_R31G119B180A255,14043,5.457083e-05,-1.79283e-05,-1.81779e-05,2.772422e-06,-1.640286e-08,5.917666e-07,7.279005615667038e-05
PART_000_R31G119B180A255,14044,5.45786e-05,-1.794895e-05,-1.814137e-05,2.827654e-06,-1.344411e-08,1.039916e-06,7.281119409235435e-05
PART_000_R31G119B180A255,14045,5.459066e-05,-1.798445e-05,-1.808557e-05,2.945118e-06,-1.887595e-08,1.331428e-06,7.284116928258009e-05
PART_000_R31G119B180A255,14046,5.462694e-05,-1.801366e-05,-1.80543e-05,3.130113e-06,-8.15587e-09,1.312113e-06,7.289834344661653e-05
PART_000_R31G119B180A255,14047,5.470327e-05,-1.805704e-05,-1.804111e-05,3.621147e-06,-1.291451e-08,6.125982e-07,7.302991400876193e-05
PART_003_R247G182B210A255,14048,4.359248e-05,-1.436554e-05,-1.439666e-05,9.911573e-06,1.027974e-08,-2.190693e-07,6.046320230895779e-05
PART_003_R247G182B210A255,14049,4.354651e-05,-1.435773e-05,-1.439806e-05,8.887233e-06,2.376457e-08,-5.757415e-07,5.994316286919965e-05
PART_000_R31G119B180A255,14050,4.35406e-05,-1.434644e-05,-1.44257e-05,8.327263e-06,1.145971e-08,-6.848851e-07,5.970712966546435e-05
PART_000_R31G119B180A255,14051,4.356034e-05,-1.433242e-05,-1.447456e-05,8.001552e-06,6.591492e-09,-5.351336e-07,5.9604987027786184e-05
PART_000_R31G119B180A255,14052,4.359693e-05,-1.432808e-05,-1.45156e-05,7.819088e-06,-1.172374e-08,-2.680121e-07,5.958048640600721e-05
PART_000_R31G119B180A255,14053,4.362495e-05,-1.433389e-05,-1.453509e-05,7.759081e-06,-2.137873e-08,5.988817e-08,5.959489138354302e-05
PART_000_R31G119B180A255,14054,4.364985e-05,-1.434665e-05,-1.453195e-05,7.80142e-06,-4.099384e-08,3.841528e-07,5.964402169073777e-05
PART_000_R31G119B180A255,14055,4.366468e-05,-1.436842e-05,-1.450686e-05,7.970499e-06,-4.06774e-08,6.405781e-07,5.973036506998609e-05
PART_000_R31G119B180A255,14056,4.369035e-05,-1.439677e-05,-1.447488e-05,8.279524e-06,-5.067705e-08,7.695471e-07,5.988399336815284e-05
PART_000_R31G119B180A255,14057,4.373822e-05,-1.442817e-05,-1.445826e-05,8.833168e-06,-2.945557e-08,6.343021e-07,6.01694627599248e-05
PART_002_R214G39B40A255,14058,4.381825e-05,-1.445946e-05,-1.447119e-05,9.860865e-06,-1.380137e-08,2.35821e-07,6.073592511591093e-05
PART_003_R247G182B210A255,14059,3.274038e-05,-1.082814e-05,-1.079867e-05,1.451127e-05,3.722783e-10,-1.169641e-07,5.028622825827604e-05
PART_003_R247G182B210A255,14060,3.269068e-05,-1.080191e-05,-1.07981e-05,1.335377e-05,2.135192e-08,-2.908947e-07,4.9261185929572656e-05
PART_003_R247G182B210A255,14061,3.267249e-05,-1.077867e-05,-1.081881e-05,1.256814e-05,2.195295e-08,-3.522854e-07,4.8620954701770315e-05
PART_000_R31G119B180A255,14062,3.268118e-05,-1.077013e-05,-1.084626e-05,1.208581e-05,1.155762e-08,-2.946892e-07,4.82679129515782e-05
PART_000_R31G119B180A255,14063,3.270264e-05,-1.076507e-05,-1.087704e-05,1.18129e-05,-1.504659e-08,-1.434861e-07,4.80938425645736e-05
PART_000_R31G119B180A255,14064,3.272387e-05,-1.076859e-05,-1.088971e-05,1.171987e-05,-3.108796e-08,4.746863e-08,4.80515584690879e-05
PART_000_R31G119B180A255,14065,3.27448e-05,-1.077987e-05,-1.089057e-05,1.178738e-05,-5.953306e-08,2.356943e-07,4.812724388354226e-05
PART_000_R31G119B180A255,14066,3.276344e-05,-1.079911e-05,-1.087317e-05,1.203939e-05,-6.197825e-08,3.775464e-07,4.8334329128666705e-05
PART_000_R31G119B180A255,14067,3.279257e-05,-1.082192e-05,-1.085737e-05,1.249943e-05,-7.746816e-08,4.201787e-07,4.8713715046945895e-05
PART_002_R214G39B40A255,14068,3.283762e-05,-1.084925e-05,-1.084708e-05,1.32703e-05,-4.487915e-08,3.349174e-07,4.936692164067638e-05
PART_002_R214G39B40A255,14069,3.290489e-05,-1.086772e-05,-1.08541e-05,1.440707e-05,-3.191234e-08,1.362664e-07,5.0380503644868813e-05
PART_003_R247G182B210A255,14070,2.185215e-05,-7.224794e-06,-7.20637e-06,1.767897e-05,1.8252e-08,-5.870103e-08,4.222064158475848e-05
PART_003_R247G182B210A255,14071,2.181621e-05,-7.221162e-06,-7.193849e-06,1.647304e-05,4.715514e-08,-1.520401e-07,4.070056241438718e-05
PART_003_R247G182B210A255,14072,2.180146e-05,-7.210625e-06,-7.207972e-06,1.561021e-05,2.504532e-08,-1.780854e-07,3.965800181287088e-05
PART_000_R31G119B180A255,14073,2.180292e-05,-7.199689e-06,-7.225718e-06,1.502883e-05,1.906323e-08,-1.497628e-07,3.8981694237694294e-05
PART_000_R31G119B180A255,14074,2.181196e-05,-7.196109e-06,-7.241762e-06,1.469677e-05,-1.7559e-08,-7.056048e-08,3.861082054654347e-05
PART_000_R31G119B180A255,14075,2.182779e-05,-7.197983e-06,-7.252927e-06,1.458103e-05,-3.674255e-08,3.267302e-08,3.849571235045179e-05
PART_000_R31G119B180A255,14076,2.184176e-05,-7.207119e-06,-7.251257e-06,1.466511e-05,-7.296407e-08,1.345086e-07,3.860554470065462e-05
PART_000_R31G119B180A255,14077,2.185984e-05,-7.22051e-06,-7.244339e-06,1.49724e-05,-7.943169e-08,2.061975e-07,3.897467184327584e-05
PART_002_R214G39B40A255,14078,2.188492e-05,-7.241266e-06,-7.233981e-06,1.552335e-05,-9.613308e-08,2.254875e-07,3.9638693519407154e-05
PART_002_R214G39B40A255,14079,2.192206e-05,-7.261581e-06,-7.228465e-06,1.637511e-05,-6.687529e-08,1.810848e-07,4.068493612868148e-05
PART_002_R214G39B40A255,14080,2.197272e-05,-7.272549e-06,-7.24486e-06,1.75768e-05,-3.922372e-08,6.783978e-08,4.220576821049019e-05
PART_003_R247G182B210A255,14081,1.095385e-05,-3.652581e-06,-3.595195e-06,1.957743e-05,6.274892e-09,-2.524746e-08,3.690992064068425e-05
PART_003_R247G182B210A255,14082,1.093678e-05,-3.644463e-06,-3.598457e-06,1.833314e-05,4.35519e-08,-6.363672e-08,3.4932418257126216e-05
PART_000_R31G119B180A255,14083,1.092326e-05,-3.636001e-06,-3.596281e-06,1.741905e-05,3.444664e-08,-7.966791e-08,3.349160900950825e-05
PART_000_R31G119B180A255,14084,1.092012e-05,-3.629099e-06,-3.606912e-06,1.679901e-05,2.159187e-08,-6.426964e-08,3.252678071340145e-05
PART_000_R31G119B180A255,14085,1.092202e-05,-3.625441e-06,-3.61193e-06,1.643301e-05,-1.730896e-08,-3.040449e-08,3.19619676870448e-05
PART_000_R31G119B180A255,14086,1.092888e-05,-3.626581e-06,-3.617907e-06,1.630477e-05,-4.040008e-08,1.76311e-08,3.176913076269536e-05
PART_000_R31G119B180A255,14087,1.093767e-05,-3.631446e-06,-3.617465e-06,1.639758e-05,-8.204506e-08,6.122753e-08,3.191753398768648e-05
PART_000_R31G119B180A255,14088,1.094991e-05,-3.641393e-06,-3.614793e-06,1.673576e-05,-8.810815e-08,9.500113e-08,3.244728116889306e-05
PART_000_R31G119B180A255,14089,1.096758e-05,-3.653367e-06,-3.611697e-06,1.732341e-05,-1.127413e-07,1.018136e-07,3.336967792200175e-05
PART_002_R214G39B40A255,14090,1.099063e-05,-3.665485e-06,-3.61199e-06,1.821674e-05,-7.471989e-08,8.140698e-08,3.477939072057169e-05
PART_002_R214G39B40A255,14091,1.102089e-05,-3.674868e-06,-3.61855e-06,1.943702e-05,-4.620098e-08,3.230289e-08,3.672252187249141e-05
PART_003_R247G182B210A255,14092,5.412505e-08,-6.914513e-08,7.44603e-09,2.016717e-05,2.114009e-08,-4.055743e-09,3.493074931662728e-05
PART_003_R247G182B210A255,14093,4.406076e-08,-5.746527e-08,8.058303e-09,1.892883e-05,5.353237e-08,-7.175522e-09,3.278594997312278e-05
PART_000_R31G119B180A255,14094,3.451605e-08,-4.95345e-08,1.059938e-08,1.801166e-05,3.430569e-08,-8.00771e-09,3.119726009076677e-05
PART_000_R31G119B180A255,14095,2.776277e-08,-4.537755e-08,1.330533e-08,1.737683e-05,2.365173e-08,-6.93435e-09,3.0097657485550582e-05
PART_000_R31G119B180A255,14096,2.317423e-08,-4.313438e-08,1.589612e-08,1.700227e-05,-1.817616e-08,-4.197264e-09,2.9448880566660594e-05
PART_000_R31G119B180A255,14097,2.148049e-08,-4.25918e-08,1.678795e-08,1.686984e-05,-4.199235e-08,1.154831e-10,2.921957599975876e-05
PART_000_R31G119B180A255,14098,2.387158e-08,-4.403644e-08,1.593563e-08,1.696561e-05,-8.345404e-08,4.423714e-09,2.938572537845961e-05
PART_000_R31G119B180A255,14099,2.907839e-08,-4.714159e-08,1.347858e-08,1.73105e-05,-9.391161e-08,7.115729e-09,2.9983190368012756e-05
PART_000_R31G119B180A255,14100,3.672558e-08,-5.240188e-08,1.081507e-08,1.791062e-05,-1.147664e-07,8.112595e-09,3.102284550933732e-05
PART_002_R214G39B40A255,14101,4.538031e-08,-5.961545e-08,8.160656e-09,1.881258e-05,-8.082637e-08,6.15289e-09,3.258477731327976e-05
PART_002_R214G39B40A255,14102,5.276886e-08,-6.803228e-08,7.966416e-09,2.00395e-05,-4.715661e-08,2.414094e-09,3.470968967679275e-05
PART_003_R247G182B210A255,14103,-1.087258e-05,3.543186e-06,3.60952e-06,1.952905e-05,7.948021e-09,2.350411e-08,3.6782172224303586e-05
PART_003_R247G182B210A255,14104,-1.086319e-05,3.541498e-06,3.615222e-06,1.829463e-05,4.384392e-08,5.168096e-08,3.4823220456574296e-05
PART_000_R31G119B180A255,14105,-1.086178e-05,3.541133e-06,3.617634e-06,1.738617e-05,3.364555e-08,6.262412e-08,3.339765674045119e-05
PART_000_R31G119B180A255,14106,-1.087395e-05,3.54235e-06,3.636149e-06,1.676798e-05,1.991188e-08,4.790756e-08,3.2445250394458536e-05
PART_000_R31G119B180A255,14107,-1.08852e-05,3.542908e-06,3.645927e-06,1.640227e-05,-1.816976e-08,2.201122e-08,3.188687990369597e-05
PART_000_R31G119B180A255,14108,-1.089503e-05,3.544892e-06,3.653957e-06,1.627443e-05,-4.07127e-08,-1.802064e-08,3.169661330347709e-05
PART_000_R31G119B180A255,14109,-1.089978e-05,3.547252e-06,3.651936e-06,1.636622e-05,-8.169174e-08,-5.134743e-08,3.184065745252167e-05
PART_000_R31G119B180A255,14110,-1.090087e-05,3.551284e-06,3.643428e-06,1.670347e-05,-8.711115e-08,-7.962471e-08,3.2361465363886394e-05
PART_000_R31G119B180A255,14111,-1.090392e-05,3.554221e-06,3.634869e-06,1.728826e-05,-1.123563e-07,-8.394593e-08,3.3270424997073495e-05
PART_002_R214G39B40A255,14112,-1.091039e-05,3.554603e-06,3.628839e-06,1.817692e-05,-7.438221e-08,-6.798659e-08,3.466333918453394e-05
PART_002_R214G39B40A255,14113,-1.092788e-05,3.549669e-06,3.63536e-06,1.93895e-05,-4.657207e-08,-2.701516e-08,3.658844340397611e-05
PART_003_R247G182B210A255,14114,-2.178828e-05,7.129352e-06,7.221069e-06,1.760883e-05,1.526687e-08,4.943389e-08,4.206079888942621e-05
PART_003_R247G182B210A255,14115,-2.176751e-05,7.141119e-06,7.214776e-06,1.641102e-05,4.540479e-08,1.331304e-07,4.056929463419127e-05
PART_003_R247G182B210A255,14116,-2.176721e-05,7.141734e-06,7.232116e-06,1.555379e-05,2.315962e-08,1.572889e-07,3.954977925182584e-05
PART_000_R31G119B180A255,14117,-2.178386e-05,7.13713e-06,7.260781e-06,1.497659e-05,1.714563e-08,1.292825e-07,3.8896797160961646e-05
PART_000_R31G119B180A255,14118,-2.180305e-05,7.137491e-06,7.282155e-06,1.464567e-05,-1.984413e-08,5.977349e-08,3.853908852962545e-05
PART_000_R31G119B180A255,14119,-2.182282e-05,7.139856e-06,7.296908e-06,1.452945e-05,-3.693801e-08,-3.34164e-08,3.8428272244890835e-05
PART_000_R31G119B180A255,14120,-2.183205e-05,7.147203e-06,7.292214e-06,1.461287e-05,-7.222714e-08,-1.220533e-07,3.8531658325317295e-05
PART_000_R31G119B180A255,14121,-2.183916e-05,7.155763e-06,7.278433e-06,1.491788e-05,-7.771152e-08,-1.876402e-07,3.888483753042346e-05
PART_002_R214G39B40A255,14122,-2.184925e-05,7.168595e-06,7.260711e-06,1.54641e-05,-9.548508e-08,-2.031979e-07,3.952572843607948e-05
PART_002_R214G39B40A255,14123,-2.187079e-05,7.178242e-06,7.247007e-06,1.63075e-05,-6.668856e-08,-1.651471e-07,4.054315450213203e-05
PART_002_R214G39B40A255,14124,-2.191276e-05,7.177707e-06,7.263605e-06,1.749515e-05,-4.00724e-08,-6.13413e-08,4.203591783110417e-05
PART_003_R247G182B210A255,14125,-3.272675e-05,1.077771e-05,1.082049e-05,1.441572e-05,3.760161e-09,1.10872e-07,5.017944659311803e-05
PART_003_R247G182B210A255,14126,-3.267398e-05,1.075406e-05,1.081382e-05,1.328195e-05,2.508515e-08,2.717821e-07,4.917364701647614e-05
PART_003_R247G182B210A255,14127,-3.267129e-05,1.073537e-05,1.085217e-05,1.250779e-05,1.764631e-08,3.193702e-07,4.856812772473955e-05
PART_001_R158G218B229A255,14128,-3.269554e-05,1.073022e-05,1.088761e-05,1.202783e-05,9.904765e-09,2.719727e-07,4.8237790878568906e-05
PART_001_R158G218B229A255,14129,-3.272592e-05,1.072784e-05,1.09279e-05,1.175736e-05,-1.840237e-08,1.25072e-07,4.808031955834754e-05
PART_001_R158G218B229A255,14130,-3.275667e-05,1.073198e-05,1.094632e-05,1.166272e-05,-3.08957e-08,-4.618799e-08,4.8048895457839576e-05
PART_001_R158G218B229A255,14131,-3.276746e-05,1.074197e-05,1.094051e-05,1.173022e-05,-5.860163e-08,-2.201696e-07,4.811131041080993e-05
PART_001_R158G218B229A255,14132,-3.277851e-05,1.075816e-05,1.091649e-05,1.19796e-05,-5.936931e-08,-3.527731e-07,4.830399810827319e-05
PART_001_R158G218B229A255,14133,-3.278966e-05,1.077669e-05,1.088846e-05,1.243474e-05,-7.6362e-08,-3.898062e-07,4.865439725742687e-05
PART_002_R214G39B40A255,14134,-3.282263e-05,1.079905e-05,1.086762e-05,1.319519e-05,-4.453216e-08,-3.142712e-07,4.92796933064165e-05
PART_002_R214G39B40A255,14135,-3.288708e-05,1.081276e-05,1.087412e-05,1.431423e-05,-3.322259e-08,-1.275013e-07,5.0270317541291335e-05
PART_003_R247G182B210A255,14136,-4.361437e-05,1.435124e-05,1.442805e-05,9.847154e-06,4.760874e-09,2.023612e-07,6.046066841191063e-05
PART_003_R247G182B210A255,14137,-4.355429e-05,1.434123e-05,1.440757e-05,8.834099e-06,2.225667e-08,5.514283e-07,5.9923067735859485e-05
PART_001_R158G218B229A255,14138,-4.356774e-05,1.43307e-05,1.446971e-05,8.280971e-06,9.305546e-09,6.359658e-07,5.972632752599553e-05
PART_001_R158G218B229A255,14139,-4.360605e-05,1.432001e-05,1.452306e-05,7.958495e-06,4.007424e-09,5.076905e-07,5.964912210597812e-05
PART_001_R158G218B229A255,14140,-4.365163e-05,1.431656e-05,1.45803e-05,7.776146e-06,-1.413449e-08,2.409397e-07,5.9642679652265615e-05
PART_001_R158G218B229A255,14141,-4.369364e-05,1.43236e-05,1.460574e-05,7.716412e-06,-2.134231e-08,-5.615343e-08,5.967485729231133e-05
PART_001_R158G218B229A255,14142,-4.37042e-05,1.433527e-05,1.459394e-05,7.757411e-06,-3.996044e-08,-3.646746e-07,5.970423843602239e-05
PART_001_R158G218B229A255,14143,-4.371267e-05,1.435559e-05,1.456084e-05,7.92577e-06,-3.7693e-08,-6.058991e-07,5.977827825455237e-05
PART_001_R158G218B229A255,14144,-4.371559e-05,1.438123e-05,1.451062e-05,8.230424e-06,-5.00259e-08,-7.282081e-07,5.989651400512685e-05
PART_001_R158G218B229A255,14145,-4.375262e-05,1.441067e-05,1.448016e-05,8.776025e-06,-2.898878e-08,-6.051092e-07,6.0159552328687145e-05
PART_002_R214G39B40A255,14146,-4.383452e-05,1.444231e-05,1.448966e-05,9.78586e-06,-1.561329e-08,-2.238491e-07,6.071565522312912e-05
PART_000_R31G119B180A255,14147,-5.449348e-05,1.800252e-05,1.798861e-05,3.618113e-06,-4.032793e-10,5.657243e-07,7.276602330489926e-05
PART_001_R158G218B229A255,14148,-5.44178e-05,1.79385e-05,1.799175e-05,3.129176e-06,6.192165e-09,1.209098e-06,7.261577689795766e-05
PART_001_R158G218B229A255,14149,-5.444802e-05,1.791189e-05,1.808759e-05,2.945973e-06,1.24771e-09,1.166789e-06,7.265549908311959e-05
PART_001_R158G218B229A255,14150,-5.451043e-05,1.789655e-05,1.816506e-05,2.823283e-06,2.067141e-09,8.8328e-07,7.2722336271114e-05
PART_001_R158G218B229A255,14151,-5.457662e-05,1.789792e-05,1.824167e-05,2.762096e-06,-6.618436e-09,4.235829e-07,7.280807755441254e-05
PART_001_R158G218B229A255,14152,-5.462808e-05,1.790253e-05,1.827391e-05,2.739899e-06,-6.735969e-09,-6.230993e-08,7.287178227071756e-05
PART_001_R158G218B229A255,14153,-5.463767e-05,1.792069e-05,1.825397e-05,2.754854e-06,-1.596752e-08,-5.668687e-07,7.2888554510341e-05
PART_001_R158G218B229A255,14154,-5.463486e-05,1.794048e-05,1.820556e-05,2.812124e-06,-1.148568e-08,-9.920448e-07,7.289146378857736e-05
PART_001_R158G218B229A255,14155,-5.462079e-05,1.797547e-05,1.812676e-05,2.926432e-06,-1.897556e-08,-1.275978e-06,7.288209927934332e-05
PART_001_R158G218B229A255,14156,-5.464312e-05,1.800687e-05,1.807638e-05,3.109502e-06,-6.723771e-09,-1.265758e-06,7.291700318224888e-05
PART_001_R158G218B229A255,14157,-5.472161e-05,1.805634e-05,1.80526e-05,3.591471e-06,-1.458107e-08,-5.934087e-07,7.304868829737559e-05
PART_003_R247G182B210A255,14158,4.982594e-05,-1.64092e-05,-1.64441e-05,3.631956e-06,3.311468e-08,-5.617706e-07,6.655771898691072e-05
PART_000_R31G119B180A255,14159,4.978432e-05,-1.639246e-05,-1.649023e-05,3.160051e-06,3.233959e-09,-1.161471e-06,6.648195783005113e-05
PART_000_R31G119B180A255,14160,4.982813e-05,-1.637705e-05,-1.658351e-05,2.969055e-06,1.169896e-08,-1.129956e-06,6.653656048435835e-05
PART_000_R31G119B180A255,14161,4.991136e-05,-1.635677e-05,-1.670225e-05,2.853708e-06,-3.454562e-09,-8.229786e-07,6.664039007131983e-05
PART_000_R31G119B180A255,14162,5.00012e-05,-1.635632e-05,-1.679555e-05,2.789605e-06,-1.310797e-10,-3.953593e-07,6.675682895555188e-05
PART_000_R31G119B180A255,14163,5.006057e-05,-1.636396e-05,-1.683568e-05,2.767514e-06,-1.357672e-08,8.312471e-08,6.683392228595971e-05
PART_000_R31G119B180A255,14164,5.007451e-05,-1.638537e-05,-1.681174e-05,2.784779e-06,-1.234766e-08,5.553375e-07,6.6855250944666e-05
PART_000_R31G119B180A255,14165,5.006557e-05,-1.641285e-05,-1.67401e-05,2.835505e-06,-2.371613e-08,9.783336e-07,6.684486400825502e-05
PART_000_R31G119B180A255,14166,5.004892e-05,-1.645513e-05,-1.664795e-05,2.954109e-06,-1.333082e-08,1.249078e-06,6.683195760644813e-05
PART_000_R31G119B180A255,14167,5.007241e-05,-1.649948e-05,-1.657064e-05,3.130049e-06,-2.034428e-08,1.257293e-06,6.686324907279062e-05
PART_000_R31G119B180A255,14168,5.017654e-05,-1.65621e-05,-1.655954e-05,3.614389e-06,-1.032421e-09,5.858568e-07,6.703802156972385e-05
PART_003_R247G182B210A255,14169,3.995317e-05,-1.320229e-05,-1.320264e-05,9.922488e-06,-6.812842e-09,-1.927496e-07,5.5865914770500994e-05
PART_003_R247G182B210A255,14170,3.987495e-05,-1.315081e-05,-1.319884e-05,8.901676e-06,1.113031e-08,-5.31963e-07,5.5252594419535965e-05
PART_000_R31G119B180A255,14171,3.987737e-05,-1.311726e-05,-1.326616e-05,8.35081e-06,2.279761e-08,-6.082218e-07,5.501511904821483e-05
PART_000_R31G119B180A255,14172,3.993292e-05,-1.310509e-05,-1.334755e-05,8.032827e-06,3.874496e-09,-4.712764e-07,5.495629323128367e-05
PART_000_R31G119B180A255,14173,3.998936e-05,-1.30989e-05,-1.341479e-05,7.853019e-06,-6.245279e-09,-2.206294e-07,5.495806635991795e-05
PART_000_R31G119B180A255,14174,4.003929e-05,-1.310765e-05,-1.344807e-05,7.789575e-06,-3.084053e-08,7.05311e-08,5.4998687364515794e-05
PART_000_R31G119B180A255,14175,4.005373e-05,-1.312265e-05,-1.343163e-05,7.835217e-06,-3.91663e-08,3.598798e-07,5.5034701009063164e-05
PART_000_R31G119B180A255,14176,4.006166e-05,-1.31515e-05,-1.338514e-05,7.991162e-06,-5.954182e-08,5.9874e-07,5.510707597320074e-05
PART_000_R31G119B180A255,14177,4.00685e-05,-1.318645e-05,-1.332279e-05,8.299348e-06,-4.676696e-08,7.161374e-07,5.5240851907162794e-05
PART_000_R31G119B180A255,14178,4.011277e-05,-1.322674e-05,-1.327785e-05,8.832111e-06,-5.14735e-08,6.014488e-07,5.552426358195067e-05
PART_000_R31G119B180A255,14179,4.02152e-05,-1.326275e-05,-1.328898e-05,9.836959e-06,-2.809795e-09,2.235866e-07,5.6140376152417124e-05
PART_003_R247G182B210A255,14180,2.999387e-05,-9.887234e-06,-9.897936e-06,1.447178e-05,3.673571e-08,-1.139862e-07,4.71091249607798e-05
PART_003_R247G182B210A255,14181,2.994017e-05,-9.881425e-06,-9.906157e-06,1.336226e-05,3.624804e-08,-2.603413e-07,4.6071706709919676e-05
PART_003_R247G182B210A255,14182,2.993623e-05,-9.865611e-06,-9.943993e-06,1.259891e-05,3.706768e-08,-3.073341e-07,4.542903832328544e-05
PART_000_R31G119B180A255,14183,2.996321e-05,-9.850819e-06,-1.000028e-05,1.212269e-05,1.185845e-08,-2.507495e-07,4.507990433334781e-05
PART_000_R31G119B180A255,14184,3.000112e-05,-9.845731e-06,-1.004618e-05,1.185898e-05,-6.592661e-09,-1.125179e-07,4.4919297712654627e-05
PART_000_R31G119B180A255,14185,3.003523e-05,-9.850529e-06,-1.007102e-05,1.175799e-05,-4.334777e-08,5.53975e-08,4.488298863079019e-05
PART_000_R31G119B180A255,14186,3.005201e-05,-9.864777e-06,-1.006076e-05,1.183151e-05,-5.792303e-08,2.208325e-07,4.495910984725966e-05
PART_000_R31G119B180A255,14187,3.006593e-05,-9.888849e-06,-1.003052e-05,1.206309e-05,-8.997629e-08,3.505322e-07,4.515542266239004e-05
PART_000_R31G119B180A255,14188,3.008515e-05,-9.918811e-06,-9.99049e-06,1.252013e-05,-7.673268e-08,3.8863e-07,4.5540325061235796e-05
PART_000_R31G119B180A255,14189,3.013499e-05,-9.956625e-06,-9.965799e-06,1.326206e-05,-8.029519e-08,3.164565e-07,4.621333098121254e-05
PART_000_R31G119B180A255,14190,3.022176e-05,-9.982444e-06,-9.971768e-06,1.437831e-05,-1.713502e-08,1.281607e-07,4.728854475302442e-05
PART_003_R247G182B210A255,14191,2.004155e-05,-6.641484e-06,-6.60637e-06,1.768799e-05,2.073761e-08,-4.981504e-08,4.061591183098826e-05
PART_003_R247G182B210A255,14192,2.000157e-05,-6.628715e-06,-6.604492e-06,1.649048e-05,3.952997e-08,-1.29956e-07,3.904344690180404e-05
PART_000_R31G119B180A255,14193,1.998909e-05,-6.613216e-06,-6.623506e-06,1.563648e-05,5.432425e-08,-1.562421e-07,3.796758007373564e-05
PART_000_R31G119B180A255,14194,1.99984e-05,-6.600217e-06,-6.658513e-06,1.507175e-05,1.936917e-08,-1.206752e-07,3.729018872178527e-05
PART_000_R31G119B180A255,14195,2.002298e-05,-6.597254e-06,-6.687835e-06,1.474494e-05,-3.911216e-09,-5.352455e-08,3.6922957057693265e-05
PART_000_R31G119B180A255,14196,2.004081e-05,-6.598985e-06,-6.701884e-06,1.462415e-05,-5.202564e-08,3.798338e-08,3.679728538890541e-05
PART_000_R31G119B180A255,14197,2.005797e-05,-6.610903e-06,-6.697796e-06,1.471159e-05,-7.148985e-08,1.274846e-07,3.6917616475270143e-05
PART_000_R31G119B180A255,14198,2.007171e-05,-6.628898e-06,-6.679822e-06,1.499638e-05,-1.143413e-07,1.89658e-07,3.7270714162301495e-05
PART_000_R31G119B180A255,14199,2.009373e-05,-6.654132e-06,-6.655666e-06,1.554184e-05,-9.827477e-08,2.099386e-07,3.795124139392378e-05
PART_000_R31G119B180A255,14200,2.013531e-05,-6.678238e-06,-6.643292e-06,1.635851e-05,-1.104395e-07,1.704958e-07,3.8999447389495734e-05
PART_000_R31G119B180A255,14201,2.01995e-05,-6.690707e-06,-6.657448e-06,1.753423e-05,-2.409918e-08,6.538162e-08,4.055307915470967e-05
PART_003_R247G182B210A255,14202,1.007731e-05,-3.370304e-06,-3.305788e-06,1.95386e-05,4.910887e-08,-2.683897e-08,3.640405148134885e-05
PART_003_R247G182B210A255,14203,1.004257e-05,-3.358765e-06,-3.295359e-06,1.833532e-05,5.572222e-08,-6.120185e-08,3.445754642251805e-05
PART_000_R31G119B180A255,14204,1.003002e-05,-3.346439e-06,-3.309282e-06,1.744304e-05,6.641051e-08,-6.692769e-08,3.3033916045083857e-05
PART_000_R31G119B180A255,14205,1.002892e-05,-3.338897e-06,-3.318332e-06,1.683713e-05,2.260476e-08,-5.444724e-08,3.207649157015405e-05
PART_000_R31G119B180A255,14206,1.003674e-05,-3.333437e-06,-3.336004e-06,1.647701e-05,-1.152884e-09,-2.017357e-08,3.15162301262648e-05
PART_000_R31G119B180A255,14207,1.004544e-05,-3.33581e-06,-3.338936e-06,1.634423e-05,-5.655512e-08,1.826846e-08,3.131312585251212e-05
PART_000_R31G119B180A255,14208,1.005553e-05,-3.341762e-06,-3.340166e-06,1.643945e-05,-8.129899e-08,6.063128e-08,3.1468451810402375e-05
PART_000_R31G119B180A255,14209,1.006781e-05,-3.354699e-06,-3.331237e-06,1.675246e-05,-1.271476e-07,8.696365e-08,3.196647173422472e-05
PART_000_R31G119B180A255,14210,1.008542e-05,-3.370604e-06,-3.322158e-06,1.733352e-05,-1.17213e-07,9.731746e-08,3.28912969318961e-05
PART_000_R31G119B180A255,14211,1.011546e-05,-3.388607e-06,-3.320694e-06,1.819133e-05,-1.236388e-07,7.687646e-08,3.4267833125972374e-05
PART_000_R31G119B180A255,14212,1.015492e-05,-3.4029e-06,-3.32563e-06,1.93891e-05,-2.99454e-08,3.147278e-08,3.620207313500825e-05
PART_003_R247G182B210A255,14213,7.819545e-08,-8.834865e-08,5.777415e-09,2.015282e-05,2.698475e-08,-8.027502e-10,3.49060391455862e-05
PART_000_R31G119B180A255,14214,6.893713e-08,-8.183179e-08,7.572676e-09,1.893126e-05,5.380271e-08,-7.324532e-09,3.279030200707084e-05
PART_000_R31G119B180A255,14215,5.822477e-08,-7.50261e-08,1.109628e-08,1.802711e-05,6.523579e-08,-1.054635e-08,3.122429955394223e-05
PART_000_R31G119B180A255,14216,4.706836e-08,-6.85037e-08,1.57062e-08,1.74071e-05,2.744704e-08,-9.666626e-09,3.0150201450034864e-05
PART_000_R31G119B180A255,14217,4.005885e-08,-6.51549e-08,1.875012e-08,1.704047e-05,-3.290469e-09,-4.947104e-09,2.9515118861179343e-05
PART_000_R31G119B180A255,14218,3.87069e-08,-6.474667e-08,1.970837e-08,1.690067e-05,-5.789741e-08,4.741219e-10,2.9273146302897876e-05
PART_000_R31G119B180A255,14219,4.145056e-08,-6.661455e-08,1.863821e-08,1.700061e-05,-8.293521e-08,5.840329e-09,2.944643766984389e-05
PART_000_R31G119B180A255,14220,4.966971e-08,-7.1343e-08,1.552386e-08,1.731897e-05,-1.335539e-07,1.011576e-08,2.9998427632699792e-05
PART_000_R31G119B180A255,14221,6.118637e-08,-7.865565e-08,1.13414e-08,1.791283e-05,-1.188412e-07,1.086032e-08,3.102686302624073e-05
PART_000_R31G119B180A255,14222,7.488839e-08,-8.881858e-08,8.332797e-09,1.877506e-05,-1.303152e-07,9.096394e-09,3.252045759829533e-05
PART_002_R214G39B40A255,14223,8.941651e-08,-1.020738e-07,6.260898e-09,1.997521e-05,-3.022375e-08,3.37765e-09,3.459851843914362e-05
PART_000_R31G119B180A255,14224,-9.914803e-06,3.178969e-06,3.320435e-06,1.947654e-05,4.607865e-08,1.419354e-08,3.621233224438026e-05
PART_000_R31G119B180A255,14225,-9.913322e-06,3.202613e-06,3.312356e-06,1.828017e-05,5.304381e-08,3.952668e-08,3.4292654464248064e-05
PART_000_R31G119B180A255,14226,-9.931544e-06,3.213346e-06,3.335338e-06,1.739168e-05,6.293677e-08,4.255492e-08,3.28912678704082e-05
PART_000_R31G119B180A255,14227,-9.950747e-06,3.217169e-06,3.352364e-06,1.67882e-05,1.989463e-08,3.451655e-08,3.194883824429742e-05
PART_000_R31G119B180A255,14228,-9.972763e-06,3.218135e-06,3.377552e-06,1.642924e-05,-3.694381e-09,7.691605e-09,3.1398854383134336e-05
PART_000_R31G119B180A255,14229,-9.985727e-06,3.221589e-06,3.383178e-06,1.629526e-05,-5.710766e-08,-1.681233e-08,3.1196323359244e-05
PART_000_R31G119B180A255,14230,-9.989021e-06,3.223871e-06,3.381043e-06,1.63905e-05,-7.98442e-08,-4.799775e-08,3.1347303266684805e-05
PART_000_R31G119B180A255,14231,-9.985591e-06,3.228052e-06,3.365966e-06,1.670147e-05,-1.252496e-07,-6.473222e-08,3.183266658032383e-05
PART_000_R31G119B180A255,14232,-9.979438e-06,3.22934e-06,3.346935e-06,1.727951e-05,-1.147452e-07,-7.360489e-08,3.2738953572598864e-05
PART_000_R31G119B180A255,14233,-9.982603e-06,3.226243e-06,3.339347e-06,1.813039e-05,-1.229033e-07,-5.729595e-08,3.409059499747589e-05
PART_000_R31G119B180A255,14234,-9.99445e-06,3.214773e-06,3.33939e-06,1.931684e-05,-2.924842e-08,-2.40977e-08,3.5994033209234314e-05
PART_000_R31G119B180A255,14235,-1.994771e-05,6.514758e-06,6.625927e-06,1.755932e-05,2.461974e-08,4.480099e-08,4.03511260520792e-05
PART_000_R31G119B180A255,14236,-1.991848e-05,6.511679e-06,6.62236e-06,1.638958e-05,3.867535e-08,1.080024e-07,3.882506085133455e-05
PART_000_R31G119B180A255,14237,-1.993067e-05,6.507615e-06,6.657372e-06,1.554948e-05,4.91452e-08,1.230643e-07,3.7793866224244266e-05
PART_000_R31G119B180A255,14238,-1.996279e-05,6.505313e-06,6.701535e-06,1.498793e-05,1.280891e-08,9.385915e-08,3.7144766273031e-05
PART_000_R31G119B180A255,14239,-2.000322e-05,6.507119e-06,6.742046e-06,1.466139e-05,-7.515615e-09,3.675852e-08,3.6796121428984704e-05
PART_000_R31G119B180A255,14240,-2.002551e-05,6.510476e-06,6.757858e-06,1.454041e-05,-5.318787e-08,-3.649504e-08,3.667515954364004e-05
PART_000_R31G119B180A255,14241,-2.003678e-05,6.519139e-06,6.751075e-06,1.462639e-05,-6.89476e-08,-1.11871e-07,3.6786893886881794e-05
PART_000_R31G119B180A255,14242,-2.003285e-05,6.529917e-06,6.723813e-06,1.490891e-05,-1.103838e-07,-1.602164e-07,3.7117501996013027e-05
PART_000_R31G119B180A255,14243,-2.00313e-05,6.543825e-06,6.687077e-06,1.544887e-05,-9.39826e-08,-1.79955e-07,3.7764945811317035e-05
PART_000_R31G119B180A255,14244,-2.004832e-05,6.55263e-06,6.667094e-06,1.625308e-05,-1.088899e-07,-1.445409e-07,3.877182701080877e-05
PART_000_R31G119B180A255,14245,-2.009026e-05,6.546676e-06,6.674061e-06,1.740813e-05,-2.288752e-08,-5.631577e-08,4.027500203231464e-05
PART_000_R31G119B180A255,14246,-2.994738e-05,9.805342e-06,9.912695e-06,1.434925e-05,3.198401e-08,9.683913e-08,4.6928585468882856e-05
PART_000_R31G119B180A255,14247,-2.991643e-05,9.813177e-06,9.940008e-06,1.325432e-05,2.716401e-08,2.202642e-07,4.594208814206587e-05
PART_000_R31G119B180A255,14248,-2.993333e-05,9.807743e-06,9.982169e-06,1.250052e-05,3.443078e-08,2.695455e-07,4.53357001224934e-05
PART_001_R158G218B229A255,14249,-2.998457e-05,9.801505e-06,1.0059e-05,1.203187e-05,2.651982e-09,2.056845e-07,4.502962812963395e-05
PART_001_R158G218B229A255,14250,-3.004762e-05,9.800546e-06,1.012027e-05,1.176561e-05,-1.034331e-08,9.406298e-08,4.490027363532455e-05
PART_001_R158G218B229A255,14251,-3.007877e-05,9.806608e-06,1.014306e-05,1.166604e-05,-4.491033e-08,-5.637621e-08,4.4862915050620906e-05
PART_001_R158G218B229A255,14252,-3.009772e-05,9.818843e-06,1.013489e-05,1.173708e-05,-5.440551e-08,-1.993159e-07,4.493831993485485e-05
PART_001_R158G218B229A255,14253,-3.008559e-05,9.837535e-06,1.008687e-05,1.196674e-05,-8.510396e-08,-3.091197e-07,4.5097553168451744e-05
PART_001_R158G218B229A255,14254,-3.008337e-05,9.858746e-06,1.003217e-05,1.241746e-05,-7.178158e-08,-3.491854e-07,4.5445470793442306e-05
PART_000_R31G119B180A255,14255,-3.010869e-05,9.884789e-06,9.995758e-06,1.314398e-05,-7.961925e-08,-2.802699e-07,4.607033769205738e-05
PART_000_R31G119B180A255,14256,-3.018057e-05,9.89896e-06,9.992206e-06,1.423395e-05,-1.603783e-08,-1.160773e-07,4.709534867642446e-05
PART_000_R31G119B180A255,14257,-3.995785e-05,1.317188e-05,1.320329e-05,9.799318e-06,3.491436e-09,1.835538e-07,5.579085062659048e-05
PART_000_R31G119B180A255,14258,-3.990172e-05,1.312404e-05,1.324729e-05,8.814452e-06,1.118635e-08,4.711809e-07,5.5245198352127085e-05
PART_001_R158G218B229A255,14259,-3.992318e-05,1.309626e-05,1.330947e-05,8.27554e-06,1.707615e-08,5.600112e-07,5.5034590490999144e-05
PART_001_R158G218B229A255,14260,-4.000439e-05,1.308651e-05,1.342682e-05,7.960148e-06,-3.085017e-09,4.048265e-07,5.502190825905721e-05
PART_001_R158G218B229A255,14261,-4.009518e-05,1.308517e-05,1.351062e-05,7.780687e-06,-1.036416e-08,1.983802e-07,5.506988170195303e-05
PART_001_R158G218B229A255,14262,-4.013758e-05,1.30942e-05,1.354199e-05,7.715454e-06,-3.193017e-08,-7.413155e-08,5.5102303154808625e-05
PART_001_R158G218B229A255,14263,-4.015903e-05,1.310858e-05,1.352901e-05,7.761632e-06,-3.535677e-08,-3.29056e-07,5.514587668662576e-05
PART_001_R158G218B229A255,14264,-4.013337e-05,1.313361e-05,1.345759e-05,7.914838e-06,-5.529268e-08,-5.428447e-07,5.516847607271993e-05
PART_001_R158G218B229A255,14265,-4.0119e-05,1.316459e-05,1.337686e-05,8.219769e-06,-4.0729e-08,-6.593147e-07,5.526752573533227e-05
PART_001_R158G218B229A255,14266,-4.013741e-05,1.320122e-05,1.331205e-05,8.73928e-06,-5.145858e-08,-5.50275e-07,5.550652799776925e-05
PART_001_R158G218B229A255,14267,-4.023464e-05,1.323603e-05,1.331181e-05,9.71672e-06,-1.641652e-09,-2.072509e-07,5.609405592214576e-05
PART_000_R31G119B180A255,14268,-4.985729e-05,1.642004e-05,1.644946e-05,3.591315e-06,1.654157e-08,5.307553e-07,6.658959206390758e-05
PART_001_R158G218B229A255,14269,-4.983014e-05,1.639116e-05,1.654028e-05,3.125576e-06,6.371809e-09,1.08158e-06,6.654303099802997e-05
PART_001_R158G218B229A255,14270,-4.989561e-05,1.637768e-05,1.663923e-05,2.943647e-06,4.846189e-09,1.05461e-06,6.6624942814391e-05
PART_001_R158G218B229A255,14271,-5.001755e-05,1.636054e-05,1.680269e-05,2.823357e-06,-3.00252e-09,7.413542e-07,6.67919028072071e-05
PART_001_R158G218B229A255,14272,-5.014032e-05,1.636506e-05,1.691131e-05,2.765077e-06,-3.607893e-09,3.642664e-07,6.69546681222517e-05
PART_001_R158G218B229A255,14273,-5.019849e-05,1.637324e-05,1.695489e-05,2.73715e-06,-1.351002e-08,-8.722562e-08,6.703248720975283e-05
PART_001_R158G218B229A255,14274,-5.021486e-05,1.639422e-05,1.692999e-05,2.75872e-06,-1.026784e-08,-5.133236e-07,6.705494882920027e-05
PART_001_R158G218B229A255,14275,-5.016994e-05,1.641834e-05,1.683166e-05,2.805601e-06,-2.272317e-08,-9.064837e-07,6.699084275262153e-05
PART_001_R158G218B229A255,14276,-5.012492e-05,1.645658e-05,1.671519e-05,2.924971e-06,-9.77221e-09,-1.166825e-06,6.69337938367441e-05
PART_001_R158G218B229A255,14277,-5.011522e-05,1.649925e-05,1.660715e-05,3.095176e-06,-2.223147e-08,-1.182535e-06,6.691505025261715e-05
PART_001_R158G218B229A255,14278,-5.021661e-05,1.656597e-05,1.658114e-05,3.566191e-06,7.202041e-10,-5.555369e-07,6.708207907755401e-05
PART_000_R31G119B180A255,14279,4.52163e-05,-1.495984e-05,-1.493248e-05,3.638862e-06,-3.535563e-08,-4.944906e-07,6.049779679927291e-05
PART_000_R31G119B180A255,14280,4.513694e-05,-1.485372e-05,-1.499233e-05,3.154607e-06,1.262551e-08,-1.036126e-06,6.03348124286285e-05
PART_000_R31G119B180A255,14281,4.522743e-05,-1.481271e-05,-1.516395e-05,2.991431e-06,-3.085155e-09,-9.484525e-07,6.0461351066635095e-05
PART_000_R31G119B180A255,14282,4.539999e-05,-1.479656e-05,-1.536435e-05,2.860652e-06,9.335272e-09,-6.719328e-07,6.069621692174455e-05
PART_000_R31G119B180A255,14283,4.554523e-05,-1.480014e-05,-1.550759e-05,2.8098e-06,-8.022728e-09,-3.038646e-07,6.0899241540792556e-05
PART_000_R31G119B180A255,14284,4.56263e-05,-1.480931e-05,-1.556632e-05,2.782516e-06,-7.727397e-09,9.564587e-08,6.100853375343818e-05
PART_000_R31G119B180A255,14285,4.563734e-05,-1.483672e-05,-1.552406e-05,2.797474e-06,-2.170446e-08,4.911986e-07,6.101928738805711e-05
PART_000_R31G119B180A255,14286,4.557047e-05,-1.486779e-05,-1.539447e-05,2.85269e-06,-1.644107e-08,8.501727e-07,6.09218761933751e-05
PART_000_R31G119B180A255,14287,4.551061e-05,-1.491904e-05,-1.523184e-05,2.958887e-06,-2.818786e-08,1.123156e-06,6.0834157314671246e-05
PART_000_R31G119B180A255,14288,4.549481e-05,-1.497071e-05,-1.510666e-05,3.137024e-06,-6.117674e-09,1.137477e-06,6.080889993661306e-05
PART_000_R31G119B180A255,14289,4.560407e-05,-1.504175e-05,-1.505345e-05,3.59787e-06,-1.91093e-08,5.493507e-07,6.0978403030400114e-05
PART_000_R31G119B180A255,14290,3.621967e-05,-1.189998e-05,-1.197856e-05,9.871217e-06,2.527953e-08,-1.768272e-07,5.110485915213011e-05
PART_000_R31G119B180A255,14291,3.616161e-05,-1.189238e-05,-1.201874e-05,8.911211e-06,4.064694e-08,-4.332883e-07,5.053781990924824e-05
PART_000_R31G119B180A255,14292,3.62148e-05,-1.18748e-05,-1.212609e-05,8.381862e-06,1.782808e-08,-5.0018e-07,5.0361448904769816e-05
PART_000_R31G119B180A255,14293,3.63149e-05,-1.185344e-05,-1.226887e-05,8.067151e-06,1.471786e-08,-3.564521e-07,5.035862124643699e-05
PART_000_R31G119B180A255,14294,3.642688e-05,-1.185193e-05,-1.238042e-05,7.891959e-06,-1.001978e-08,-1.593231e-07,5.0433750289907036e-05
PART_000_R31G119B180A255,14295,3.648195e-05,-1.186127e-05,-1.241903e-05,7.833336e-06,-2.557045e-08,7.972238e-08,5.048213959171348e-05
PART_000_R31G119B180A255,14296,3.650141e-05,-1.188223e-05,-1.239573e-05,7.865785e-06,-5.438279e-08,3.145645e-07,5.051735094970638e-05
PART_000_R31G119B180A255,14297,3.646625e-05,-1.191334e-05,-1.230166e-05,8.030348e-06,-5.337358e-08,5.090322e-07,5.053481609684207e-05
PART_000_R31G119B180A255,14298,3.644608e-05,-1.195796e-05,-1.219177e-05,8.312307e-06,-7.592799e-08,6.307978e-07,5.062427737547765e-05
PART_000_R31G119B180A255,14299,3.64724e-05,-1.201166e-05,-1.210851e-05,8.838525e-06,-3.732436e-08,5.288165e-07,5.0898043456890755e-05
PART_000_R31G119B180A255,14300,3.659478e-05,-1.20642e-05,-1.209925e-05,9.806018e-06,-3.017692e-08,2.01503e-07,5.155581024246832e-05
PART_000_R31G119B180A255,14301,2.724536e-05,-8.996939e-06,-9.005078e-06,1.447974e-05,-1.664249e-09,-8.335497e-08,4.407730417102807e-05
PART_000_R31G119B180A255,14302,2.718285e-05,-8.969647e-06,-9.016162e-06,1.337713e-05,4.690318e-08,-2.058673e-07,4.29611848212942e-05
PART_000_R31G119B180A255,14303,2.719618e-05,-8.939333e-06,-9.092191e-06,1.263428e-05,4.635265e-08,-2.326209e-07,4.231271846734175e-05
PART_000_R31G119B180A255,14304,2.726158e-05,-8.929103e-06,-9.183902e-06,1.217461e-05,3.020238e-08,-1.780611e-07,4.199777432374458e-05
PART_000_R31G119B180A255,14305,2.73325e-05,-8.923456e-06,-9.265463e-06,1.190964e-05,-9.193648e-09,-6.992587e-08,4.186340409290499e-05
PART_000_R31G119B180A255,14306,2.737519e-05,-8.930561e-06,-9.292333e-06,1.182112e-05,-3.462807e-08,6.111504e-08,4.184022317605387e-05
PART_000_R31G119B180A255,14307,2.739251e-05,-8.948345e-06,-9.278258e-06,1.187292e-05,-8.109097e-08,1.90372e-07,4.190206492435436e-05
PART_000_R31G119B180A255,14308,2.738182e-05,-8.977348e-06,-9.213225e-06,1.211517e-05,-8.427122e-08,2.931894e-07,4.2086010080034514e-05
PART_000_R31G119B180A255,14309,2.738417e-05,-9.014496e-06,-9.142895e-06,1.253501e-05,-1.206622e-07,3.332635e-07,4.244183342033676e-05
PART_000_R31G119B180A255,14310,2.742192e-05,-9.055612e-06,-9.088644e-06,1.326423e-05,-6.77499e-08,2.728019e-07,4.3126242393889974e-05
PART_000_R31G119B180A255,14311,2.752648e-05,-9.081748e-06,-9.090135e-06,1.433026e-05,-5.904913e-08,1.166913e-07,4.423335649518966e-05
PART_000_R31G119B180A255,14312,1.82207e-05,-6.013144e-06,-6.019195e-06,1.764377e-05,3.591753e-08,-4.35872e-08,3.900440103114745e-05
PART_000_R31G119B180A255,14313,1.816969e-05,-6.015167e-06,-6.007002e-06,1.649427e-05,9.732889e-08,-1.080243e-07,3.742934891773602e-05
PART_000_R31G119B180A255,14314,1.817204e-05,-6.002251e-06,-6.055782e-06,1.568122e-05,5.798362e-08,-1.048361e-07,3.637909186719093e-05
PART_000_R31G119B180A255,14315,1.821106e-05,-5.991206e-06,-6.115037e-06,1.512051e-05,5.00144e-08,-8.206847e-08,3.570264951589153e-05
PART_000_R31G119B180A255,14316,1.824602e-05,-5.986295e-06,-6.159655e-06,1.480338e-05,-6.86878e-09,-2.525927e-08,3.533918918117681e-05
PART_000_R31G119B180A255,14317,1.828018e-05,-5.991261e-06,-6.184321e-06,1.468967e-05,-3.992704e-08,4.227398e-08,3.523060207660331e-05
PART_000_R31G119B180A255,14318,1.829078e-05,-6.005532e-06,-6.170189e-06,1.475587e-05,-1.003374e-07,1.071366e-07,3.532152576658279e-05
PART_000_R31G119B180A255,14319,1.829439e-05,-6.026785e-06,-6.134691e-06,1.504818e-05,-1.112044e-07,1.586564e-07,3.5687692227821795e-05
PART_000_R31G119B180A255,14320,1.830694e-05,-6.058176e-06,-6.09085e-06,1.555016e-05,-1.548688e-07,1.753005e-07,3.633239082406024e-05
PART_000_R31G119B180A255,14321,1.834418e-05,-6.088099e-06,-6.059763e-06,1.635608e-05,-1.001981e-07,1.474701e-07,3.740192731896454e-05
PART_000_R31G119B180A255,14322,1.842448e-05,-6.10462e-06,-6.076064e-06,1.748534e-05,-7.37826e-08,5.714271e-08,3.8964273142283085e-05
PART_000_R31G119B180A255,14323,9.173069e-06,-3.076405e-06,-3.001341e-06,1.954301e-05,8.823875e-09,-1.753761e-08,3.598506119531186e-05
PART_000_R31G119B180A255,14324,9.148036e-06,-3.068409e-06,-3.011477e-06,1.834846e-05,9.554741e-08,-4.040233e-08,3.4037912702252913e-05
PART_000_R31G119B180A255,14325,9.139886e-06,-3.060688e-06,-3.018588e-06,1.748392e-05,7.589889e-08,-4.94048e-08,3.2640911664666704e-05
PART_000_R31G119B180A255,14326,9.149719e-06,-3.050095e-06,-3.051447e-06,1.68855e-05,5.969902e-08,-3.216484e-08,3.168952640874886e-05
PART_000_R31G119B180A255,14327,9.16415e-06,-3.046666e-06,-3.068022e-06,1.653528e-05,-3.624099e-09,-1.022573e-08,3.11385944574451e-05
PART_000_R31G119B180A255,14328,9.178935e-06,-3.048526e-06,-3.081744e-06,1.640846e-05,-4.355958e-08,2.360079e-08,3.0945728618974836e-05
PART_000_R31G119B180A255,14329,9.188359e-06,-3.057294e-06,-3.075061e-06,1.648107e-05,-1.126122e-07,4.922666e-08,3.106599782606668e-05
PART_000_R31G119B180A255,14330,9.195855e-06,-3.07266e-06,-3.059089e-06,1.680195e-05,-1.262181e-07,7.514711e-08,3.1580555000798004e-05
PART_000_R31G119B180A255,14331,9.212598e-06,-3.092403e-06,-3.041294e-06,1.733586e-05,-1.792288e-07,8.062612e-08,3.244223731286885e-05
PART_000_R31G119B180A255,14332,9.241888e-06,-3.11273e-06,-3.029722e-06,1.818078e-05,-1.138807e-07,6.841036e-08,3.3812618572388136e-05
PART_000_R31G119B180A255,14333,9.296093e-06,-3.130188e-06,-3.039622e-06,1.93272e-05,-8.419089e-08,2.848005e-08,3.569230925989368e-05
PART_000_R31G119B180A255,14334,1.414567e-07,-1.491381e-07,3.20491e-09,2.011774e-05,4.278998e-08,-7.818954e-09,3.4845938760809e-05
PART_000_R31G119B180A255,14335,1.123181e-07,-1.193629e-07,5.49467e-09,1.893037e-05,1.067075e-07,-1.220037e-08,3.2789505476620495e-05
PART_000_R31G119B180A255,14336,8.892005e-08,-1.008688e-07,1.055927e-08,1.805805e-05,7.717981e-08,-1.26562e-08,3.127818965880243e-05
PART_000_R31G119B180A255,14337,7.485092e-08,-9.254989e-08,1.508002e-08,1.744751e-05,6.03847e-08,-9.686663e-09,3.0220516638952477e-05
PART_000_R31G119B180A255,14338,6.689829e-08,-8.846352e-08,1.856295e-08,1.708648e-05,-3.630251e-09,-5.622831e-09,2.959497414912272e-05
PART_000_R31G119B180A255,14339,6.39862e-08,-8.75786e-08,2.007187e-08,1.695656e-05,-4.534639e-08,1.155259e-09,2.9370039129702616e-05
PART_000_R31G119B180A255,14340,6.925537e-08,-9.048803e-08,1.801962e-08,1.703025e-05,-1.148632e-07,7.488716e-09,2.9498270331957768e-05
PART_000_R31G119B180A255,14341,7.922914e-08,-9.671141e-08,1.45863e-08,1.735755e-05,-1.317621e-07,1.130011e-08,3.0065426212096545e-05
PART_000_R31G119B180A255,14342,9.570271e-08,-1.077076e-07,9.964402e-09,1.790192e-05,-1.833256e-07,1.335011e-08,3.1009173889644675e-05
PART_000_R31G119B180A255,14343,1.168265e-07,-1.242568e-07,5.093608e-09,1.875381e-05,-1.202561e-07,1.025108e-08,3.24838965774329e-05
PART_000_R31G119B180A255,14344,1.4073e-07,-1.462199e-07,3.418011e-09,1.99033e-05,-8.64514e-08,4.302798e-09,3.4474749062347335e-05
PART_000_R31G119B180A255,14345,-8.949556e-06,2.8446e-06,3.007427e-06,1.94367e-05,1.063434e-08,1.538057e-08,3.569882358070976e-05
PART_000_R31G119B180A255,14346,-8.957591e-06,2.857312e-06,3.025041e-06,1.826293e-05,9.144335e-08,1.965202e-08,3.379692069702926e-05
PART_000_R31G119B180A255,14347,-8.982378e-06,2.869057e-06,3.042447e-06,1.740862e-05,6.959084e-08,2.07311e-08,3.243050207551114e-05
PART_000_R31G119B180A255,14348,-9.024461e-06,2.876754e-06,3.087901e-06,1.681237e-05,5.200731e-08,6.29987e-09,3.149876181331744e-05
PART_000_R31G119B180A255,14349,-9.057386e-06,2.881524e-06,3.112563e-06,1.64603e-05,-7.837048e-09,-1.939855e-09,3.095438464341017e-05
PART_000_R31G119B180A255,14350,-9.076227e-06,2.884731e-06,3.128163e-06,1.633403e-05,-4.417988e-08,-2.189873e-08,3.076433580813116e-05
PART_000_R31G119B180A255,14351,-9.07678e-06,2.888344e-06,3.118541e-06,1.640494e-05,-1.101668e-07,-3.228847e-08,3.0876807245273346e-05
PART_000_R31G119B180A255,14352,-9.062366e-06,2.89145e-06,3.093404e-06,1.672532e-05,-1.205557e-07,-4.874457e-08,3.137846936632437e-05
PART_000_R31G119B180A255,14353,-9.046094e-06,2.890932e-06,3.065981e-06,1.725513e-05,-1.743154e-07,-4.96328e-08,3.2216919128193956e-05
PART_000_R31G119B180A255,14354,-9.033774e-06,2.88255e-06,3.042719e-06,1.80916e-05,-1.092602e-07,-4.424569e-08,3.355432484162744e-05
PART_000_R31G119B180A255,14355,-9.042997e-06,2.860502e-06,3.049352e-06,1.922145e-05,-8.345385e-08,-1.83463e-08,3.538914031527979e-05
PART_000_R31G119B180A255,14356,-1.803599e-05,5.802332e-06,6.029079e-06,1.748741e-05,2.658794e-08,2.305818e-08,3.8615469947874285e-05
PART_000_R31G119B180A255,14357,-1.803729e-05,5.847359e-06,6.034279e-06,1.63558e-05,8.574865e-08,6.819104e-08,3.711534056151742e-05
PART_000_R31G119B180A255,14358,-1.808052e-05,5.862546e-06,6.090231e-06,1.555069e-05,4.580311e-08,6.557402e-08,3.611460644920618e-05
PART_000_R31G119B180A255,14359,-1.81522e-05,5.865248e-06,6.168666e-06,1.499492e-05,3.876183e-08,4.467669e-08,3.547915683651706e-05
PART_000_R31G119B180A255,14360,-1.820931e-05,5.869395e-06,6.222622e-06,1.467753e-05,-1.540607e-08,6.276168e-09,3.513836284513155e-05
PART_000_R31G119B180A255,14361,-1.825023e-05,5.875242e-06,6.252628e-06,1.456147e-05,-4.106556e-08,-4.129277e-08,3.5034337939996655e-05
PART_000_R31G119B180A255,14362,-1.824939e-05,5.88539e-06,6.231812e-06,1.4627e-05,-9.520243e-08,-8.327695e-08,3.511216050411711e-05
PART_000_R31G119B180A255,14363,-1.823078e-05,5.896264e-06,6.185247e-06,1.491749e-05,-1.018315e-07,-1.235543e-07,3.545196043333992e-05
PART_000_R31G119B180A255,14364,-1.8208e-05,5.909227e-06,6.127741e-06,1.541192e-05,-1.463591e-07,-1.320749e-07,3.605075265280451e-05
PART_000_R31G119B180A255,14365,-1.820417e-05,5.912774e-06,6.080548e-06,1.620273e-05,-9.331576e-08,-1.158041e-07,3.705877852543836e-05
PART_000_R31G119B180A255,14366,-1.824741e-05,5.896641e-06,6.094324e-06,1.730062e-05,-7.310516e-08,-4.348224e-08,3.854482076822987e-05
PART_000_R31G119B180A255,14367,-2.71817e-05,8.884621e-06,9.036972e-06,1.425851e-05,1.763775e-09,6.946633e-08,4.3774733233669525e-05
PART_000_R31G119B180A255,14368,-2.713249e-05,8.87007e-06,9.039308e-06,1.320941e-05,4.817165e-08,1.638351e-07,4.273007131156454e-05
PART_000_R31G119B180A255,14369,-2.719108e-05,8.857041e-06,9.150463e-06,1.249043e-05,2.629304e-08,1.594724e-07,4.216919881769666e-05
PART_001_R158G218B229A255,14370,-2.729981e-05,8.857318e-06,9.263508e-06,1.202806e-05,1.82634e-08,1.325469e-07,4.1907826812363363e-05
PART_001_R158G218B229A255,14371,-2.738494e-05,8.859152e-06,9.352803e-06,1.176676e-05,-2.001302e-08,3.445158e-08,4.179885780094905e-05
PART_001_R158G218B229A255,14372,-2.7452e-05,8.868056e-06,9.398118e-06,1.167271e-05,-3.579695e-08,-5.897238e-08,4.180251270931508e-05
PART_001_R158G218B229A255,14373,-2.744356e-05,8.882565e-06,9.363792e-06,1.172508e-05,-7.459819e-08,-1.552031e-07,4.183086791822913e-05
PART_001_R158G218B229A255,14374,-2.741604e-05,8.903491e-06,9.29085e-06,1.196581e-05,-7.239046e-08,-2.44606e-07,4.198885709987325e-05
PART_001_R158G218B229A255,14375,-2.737565e-05,8.92777e-06,9.196663e-06,1.237789e-05,-1.100982e-07,-2.671069e-07,4.228071934512493e-05
PART_000_R31G119B180A255,14376,-2.737508e-05,8.95214e-06,9.119967e-06,1.308813e-05,-5.95598e-08,-2.288649e-07,4.289355414754824e-05
PART_000_R31G119B180A255,14377,-2.74548e-05,8.959386e-06,9.119688e-06,1.41139e-05,-5.89446e-08,-9.608023e-08,4.392608044063766e-05
PART_000_R31G119B180A255,14378,-3.625573e-05,1.187047e-05,1.204205e-05,9.717912e-06,7.583769e-09,1.327364e-07,5.1066471680036245e-05
PART_000_R31G119B180A255,14379,-3.619267e-05,1.186568e-05,1.204008e-05,8.781899e-06,3.127718e-08,3.785263e-07,5.0495691179807063e-05
PART_001_R158G218B229A255,14380,-3.629378e-05,1.185475e-05,1.221274e-05,8.266335e-06,5.690327e-09,3.864826e-07,5.0409234042902766e-05
PART_001_R158G218B229A255,14381,-3.645353e-05,1.184682e-05,1.237695e-05,7.95362e-06,2.078892e-09,2.965301e-07,5.0486179584754617e-05
PART_001_R158G218B229A255,14382,-3.657552e-05,1.184971e-05,1.250156e-05,7.77614e-06,-1.891786e-08,1.055616e-07,5.058095845731044e-05
PART_001_R158G218B229A255,14383,-3.666829e-05,1.186275e-05,1.256498e-05,7.716922e-06,-2.618859e-08,-7.536981e-08,5.068043683205058e-05
PART_001_R158G218B229A255,14384,-3.665173e-05,1.188086e-05,1.251329e-05,7.746992e-06,-4.900554e-08,-2.670434e-07,5.0663344954830955e-05
PART_001_R158G218B229A255,14385,-3.660066e-05,1.190584e-05,1.241069e-05,7.913041e-06,-4.14209e-08,-4.389696e-07,5.065625140002551e-05
PART_001_R158G218B229A255,14386,-3.65277e-05,1.194028e-05,1.226498e-05,8.187924e-06,-6.833676e-08,-5.362357e-07,5.0665481569623836e-05
PART_001_R158G218B229A255,14387,-3.651552e-05,1.198272e-05,1.215218e-05,8.699032e-06,-3.061144e-08,-4.642176e-07,5.087234307432574e-05
PART_000_R31G119B180A255,14388,-3.662307e-05,1.202755e-05,1.213698e-05,9.624173e-06,-3.239734e-08,-1.723158e-07,5.1479947391439644e-05
PART_001_R158G218B229A255,14389,-4.527998e-05,1.49508e-05,1.498555e-05,3.56148e-06,-8.413803e-09,4.465935e-07,6.056807785943078e-05
PART_001_R158G218B229A255,14390,-4.52045e-05,1.485584e-05,1.50283e-05,3.109797e-06,3.716058e-09,9.332461e-07,6.0409085310274175e-05
PART_001_R158G218B229A255,14391,-4.536135e-05,1.481975e-05,1.52769e-05,2.941231e-06,-2.227033e-09,8.060465e-07,6.0641464694902435e-05
PART_001_R158G218B229A255,14392,-4.559194e-05,1.481413e-05,1.55006e-05,2.821773e-06,-5.934034e-10,5.838979e-07,6.0956882373515e-05
PART_001_R158G218B229A255,14393,-4.576273e-05,1.48225e-05,1.566831e-05,2.759971e-06,-9.803485e-09,2.369748e-07,6.120090000441401e-05
PART_001_R158G218B229A255,14394,-4.587741e-05,1.483636e-05,1.574586e-05,2.740207e-06,-8.127341e-09,-8.917323e-08,6.135762779510228e-05
PART_001_R158G218B229A255,14395,-4.585461e-05,1.486085e-05,1.567878e-05,2.748427e-06,-2.01905e-08,-4.319526e-07,6.13181833857796e-05
PART_001_R158G218B229A255,14396,-4.576345e-05,1.488607e-05,1.553389e-05,2.808872e-06,-9.608202e-09,-7.514249e-07,6.118363670018323e-05
PART_001_R158G218B229A255,14397,-4.564426e-05,1.493031e-05,1.53284e-05,2.909524e-06,-2.613954e-08,-9.963965e-07,6.100760275905225e-05
PART_001_R158G218B229A255,14398,-4.558284e-05,1.497773e-05,1.516423e-05,3.084446e-06,-4.367431e-10,-1.03154e-06,6.0915068854493486e-05
PART_001_R158G218B229A255,14399,-4.567748e-05,1.505198e-05,1.509016e-05,3.523446e-06,-2.241279e-08,-5.020803e-07,6.106053714482013e-05
PART_000_R31G119B180A255,14400,4.040382e-05,-1.32483e-05,-1.336859e-05,3.589109e-06,6.953058e-08,-4.222941e-07,5.40759916632168e-05
PART_000_R31G119B180A255,14401,4.04054e-05,-1.323789e-05,-1.351308e-05,3.181496e-06,-3.761585e-09,-7.81501e-07,5.407992615395213e-05
PART_000_R31G119B180A255,14402,4.064538e-05,-1.32211e-05,-1.380758e-05,2.982478e-06,1.821321e-08,-6.828328e-07,5.4420754696108136e-05
PART_000_R31G119B180A255,14403,4.092153e-05,-1.320512e-05,-1.411001e-05,2.889914e-06,-2.148205e-09,-4.374392e-07,5.481898040132389e-05
PART_000_R31G119B180A255,14404,4.117364e-05,-1.321353e-05,-1.434744e-05,2.81965e-06,9.011353e-10,-1.633281e-07,5.518017286526097e-05
PART_000_R31G119B180A255,14405,4.129256e-05,-1.323152e-05,-1.442682e-05,2.799908e-06,-1.302823e-08,8.813522e-08,5.5344547534884915e-05
PART_000_R31G119B180A255,14406,4.124576e-05,-1.325806e-05,-1.433121e-05,2.819535e-06,-1.453521e-08,3.705759e-07,5.52681713656834e-05
PART_000_R31G119B180A255,14407,4.113258e-05,-1.329542e-05,-1.413607e-05,2.859139e-06,-3.153262e-08,6.574176e-07,5.5088042066379566e-05
PART_000_R31G119B180A255,14408,4.094944e-05,-1.334581e-05,-1.386087e-05,2.977539e-06,-1.287112e-08,8.752813e-07,5.481880001769687e-05
PART_000_R31G119B180A255,14409,4.086948e-05,-1.341595e-05,-1.362714e-05,3.13189e-06,-3.098197e-08,9.711204e-07,5.468706758019014e-05
PART_000_R31G119B180A255,14410,4.099184e-05,-1.351397e-05,-1.356173e-05,3.581134e-06,8.501814e-09,4.644047e-07,5.4887244387524484e-05
PART_000_R31G119B180A255,14411,3.24993e-05,-1.071366e-05,-1.078362e-05,9.852917e-06,-1.320524e-08,-9.769596e-08,4.649362388444634e-05
PART_000_R31G119B180A255,14412,3.242852e-05,-1.064859e-05,-1.082631e-05,8.918229e-06,1.328892e-08,-3.042056e-07,4.584983350849184e-05
PART_000_R31G119B180A255,14413,3.254315e-05,-1.060304e-05,-1.103767e-05,8.405453e-06,4.275764e-08,-2.969542e-07,4.574669598732082e-05
PART_000_R31G119B180A255,14414,3.275254e-05,-1.059807e-05,-1.126334e-05,8.113856e-06,1.754252e-08,-2.047347e-07,4.5893229146989465e-05
PART_000_R31G119B180A255,14415,3.291513e-05,-1.059674e-05,-1.142701e-05,7.939554e-06,1.834642e-10,-5.988144e-08,4.6034976812126174e-05
PART_000_R31G119B180A255,14416,3.301464e-05,-1.061273e-05,-1.149598e-05,7.875374e-06,-2.94617e-08,7.484239e-08,4.613832867884196e-05
PART_000_R31G119B180A255,14417,3.298682e-05,-1.063413e-05,-1.142417e-05,7.924904e-06,-4.671055e-08,2.249698e-07,4.611338664128811e-05
PART_000_R31G119B180A255,14418,3.291983e-05,-1.067246e-05,-1.128597e-05,8.054636e-06,-8.168336e-08,3.743583e-07,4.607038506463591e-05
PART_000_R31G119B180A255,14419,3.281799e-05,-1.071921e-05,-1.109131e-05,8.352494e-06,-5.593578e-08,4.629981e-07,4.6062689788877636e-05
PART_000_R31G119B180A255,14420,3.280098e-05,-1.077923e-05,-1.093583e-05,8.828617e-06,-8.234956e-08,4.21899e-07,4.626523168791945e-05
PART_000_R31G119B180A255,14421,3.293531e-05,-1.083127e-05,-1.091454e-05,9.75183e-06,3.093333e-09,1.568016e-07,4.6952457399842395e-05
PART_000_R31G119B180A255,14422,2.44188e-05,-7.983835e-06,-8.094923e-06,1.439653e-05,7.560639e-08,-6.879325e-08,4.093109104383747e-05
PART_000_R31G119B180A255,14423,2.437351e-05,-7.999774e-06,-8.1352e-06,1.338146e-05,7.688145e-08,-1.1466e-07,3.9870786670427994e-05
PART_000_R31G119B180A255,14424,2.445641e-05,-7.994981e-06,-8.265098e-06,1.267085e-05,7.585996e-08,-1.100641e-07,3.928913767312458e-05
PART_000_R31G119B180A255,14425,2.458334e-05,-7.980109e-06,-8.424985e-06,1.222789e-05,4.324227e-08,-7.348921e-08,3.903394055944524e-05
PART_000_R31G119B180A255,14426,2.469911e-05,-7.981023e-06,-8.53864e-06,1.197956e-05,1.180542e-08,-6.602502e-09,3.8949392159610926e-05
PART_000_R31G119B180A255,14427,2.476706e-05,-7.991314e-06,-8.588562e-06,1.18751e-05,-4.238881e-08,5.853413e-08,3.893715853588826e-05
PART_000_R31G119B180A255,14428,2.475956e-05,-8.011772e-06,-8.541373e-06,1.195143e-05,-6.998592e-08,1.303207e-07,3.8989384326354747e-05
PART_000_R31G119B180A255,14429,2.472177e-05,-8.044691e-06,-8.444293e-06,1.21449e-05,-1.296275e-07,2.018245e-07,3.910962271429011e-05
PART_000_R31G119B180A255,14430,2.467403e-05,-8.085618e-06,-8.313211e-06,1.257958e-05,-1.035223e-07,2.287181e-07,3.944146026279468e-05
PART_000_R31G119B180A255,14431,2.468891e-05,-8.135211e-06,-8.217605e-06,1.3245e-05,-1.387688e-07,2.046164e-07,4.008251074686513e-05
PART_000_R31G119B180A255,14432,2.48e-05,-8.160677e-06,-8.20867e-06,1.427889e-05,-1.552725e-08,8.647997e-08,4.122709875720156e-05
PART_000_R31G119B180A255,14433,1.63404e-05,-5.377285e-06,-5.407783e-06,1.764118e-05,5.095867e-08,-1.913975e-08,3.74961825066205e-05
PART_000_R31G119B180A255,14434,1.631439e-05,-5.382087e-06,-5.43369e-06,1.652921e-05,7.899415e-08,-3.503497e-08,3.593780923526976e-05
PART_000_R31G119B180A255,14435,1.635989e-05,-5.381351e-06,-5.504679e-06,1.571539e-05,1.242067e-07,-4.306652e-08,3.487621493841358e-05
PART_000_R31G119B180A255,14436,1.642528e-05,-5.370575e-06,-5.598956e-06,1.519854e-05,6.49406e-08,-1.065595e-08,3.4250387722041e-05
PART_000_R31G119B180A255,14437,1.650821e-05,-5.372876e-06,-5.68038e-06,1.48825e-05,2.403248e-08,1.183271e-08,3.3912734719985626e-05
PART_000_R31G119B180A255,14438,1.654289e-05,-5.378491e-06,-5.703483e-06,1.476112e-05,-4.919633e-08,3.874228e-08,3.378550862268929e-05
PART_000_R31G119B180A255,14439,1.654979e-05,-5.395528e-06,-5.681045e-06,1.484733e-05,-9.006601e-08,7.464377e-08,3.390154773104305e-05
PART_000_R31G119B180A255,14440,1.653268e-05,-5.421695e-06,-5.618038e-06,1.50861e-05,-1.682582e-07,9.866156e-08,3.4193992081515804e-05
PART_000_R31G119B180A255,14441,1.651564e-05,-5.453618e-06,-5.537837e-06,1.56024e-05,-1.424103e-07,1.165884e-07,3.485558630658376e-05
PART_000_R31G119B180A255,14442,1.654167e-05,-5.483972e-06,-5.485361e-06,1.633427e-05,-1.868727e-07,1.049067e-07,3.585697157906749e-05
PART_000_R31G119B180A255,14443,1.662593e-05,-5.494819e-06,-5.490336e-06,1.743101e-05,-2.662119e-08,4.26496e-08,3.742667900026978e-05
PART_000_R31G119B180A255,14444,8.286464e-06,-2.778767e-06,-2.722402e-06,1.951744e-05,1.069004e-07,-1.273995e-08,3.556184732009305e-05
PART_000_R31G119B180A255,14445,8.245518e-06,-2.772133e-06,-2.709059e-06,1.838249e-05,1.105523e-07,-2.405001e-08,3.368210060270072e-05
PART_000_R31G119B180A255,14446,8.251472e-06,-2.756695e-06,-2.755417e-06,1.752314e-05,1.441226e-07,-9.381738e-09,3.228636799482195e-05
PART_000_R31G119B180A255,14447,8.280239e-06,-2.753804e-06,-2.789414e-06,1.696468e-05,7.788084e-08,-2.864411e-09,3.139368756082419e-05
PART_000_R31G119B180A255,14448,8.313699e-06,-2.749106e-06,-2.834151e-06,1.661427e-05,3.192161e-08,1.310608e-08,3.084540806255493e-05
PART_000_R31G119B180A255,14449,8.332738e-06,-2.754462e-06,-2.841354e-06,1.647972e-05,-5.252886e-08,1.850252e-08,3.063739156244216e-05
PART_000_R31G119B180A255,14450,8.338073e-06,-2.763801e-06,-2.833403e-06,1.657272e-05,-1.036751e-07,3.680672e-08,3.0790105842017166e-05
PART_000_R31G119B180A255,14451,8.339241e-06,-2.782149e-06,-2.803921e-06,1.683393e-05,-1.898641e-07,4.39498e-08,3.121194422130782e-05
PART_000_R31G119B180A255,14452,8.341071e-06,-2.804266e-06,-2.766966e-06,1.738517e-05,-1.695888e-07,5.375894e-08,3.210345099836332e-05
PART_000_R31G119B180A255,14453,8.370413e-06,-2.829163e-06,-2.748382e-06,1.815516e-05,-2.113643e-07,4.654232e-08,3.3369182522835006e-05
PART_000_R31G119B180A255,14454,8.42816e-06,-2.848827e-06,-2.74975e-06,1.927852e-05,-3.379738e-08,2.077205e-08,3.5228563459260826e-05
PART_000_R31G119B180A255,14455,1.838326e-07,-1.684209e-07,-5.357657e-09,2.010849e-05,5.518966e-08,1.058996e-09,3.4830395976098845e-05
PART_000_R31G119B180A255,14456,1.547983e-07,-1.503139e-07,-7.198007e-10,1.895666e-05,1.08754e-07,-7.539629e-09,3.2835504515185305e-05
PART_000_R31G119B180A255,14457,1.326705e-07,-1.362103e-07,4.186275e-09,1.809412e-05,1.427195e-07,-1.026737e-08,3.1341780687867404e-05
PART_000_R31G119B180A255,14458,1.141021e-07,-1.239104e-07,9.461556e-09,1.751327e-05,8.313355e-08,-9.395443e-09,3.0334923281578942e-05
PART_000_R31G119B180A255,14459,1.034121e-07,-1.182286e-07,1.301332e-08,1.715833e-05,2.947451e-08,-3.130477e-09,2.971977054583399e-05
PART_000_R31G119B180A255,14460,1.030243e-07,-1.178581e-07,1.269072e-08,1.701405e-05,-5.381099e-08,2.034759e-09,2.9469974339800866e-05
PART_000_R31G119B180A255,14461,1.073575e-07,-1.212438e-07,1.200622e-08,1.711225e-05,-1.049286e-07,7.123264e-09,2.964051341387086e-05
PART_000_R31G119B180A255,14462,1.214902e-07,-1.297762e-07,7.585023e-09,1.737744e-05,-1.966007e-07,1.171952e-08,3.0101330851929436e-05
PART_000_R31G119B180A255,14463,1.415662e-07,-1.442076e-07,3.237133e-09,1.794093e-05,-1.709312e-07,1.182721e-08,3.107700517490715e-05
PART_000_R31G119B180A255,14464,1.705426e-07,-1.6634e-07,-6.600295e-10,1.871475e-05,-2.176633e-07,1.125386e-08,3.241840896175617e-05
PART_000_R31G119B180A255,14465,2.086965e-07,-1.988767e-07,-5.170114e-09,1.983996e-05,-3.295178e-08,4.063851e-09,3.436568104883957e-05
PART_000_R31G119B180A255,14466,-7.908448e-06,2.402216e-06,2.719808e-06,1.939357e-05,9.803901e-08,-8.469784e-09,3.5185877328685675e-05
PART_000_R31G119B180A255,14467,-7.951433e-06,2.478646e-06,2.713156e-06,1.827394e-05,9.896162e-08,-5.922154e-09,3.3363567487693134e-05
PART_000_R31G119B180A255,14468,-8.02122e-06,2.513076e-06,2.772348e-06,1.741869e-05,1.28537e-07,-2.059216e-08,3.200082785677082e-05
PART_000_R31G119B180A255,14469,-8.086968e-06,2.530434e-06,2.818251e-06,1.685934e-05,6.596091e-08,-1.878723e-08,3.112224413114042e-05
PART_000_R31G119B180A255,14470,-8.140011e-06,2.536709e-06,2.869434e-06,1.650966e-05,2.390122e-08,-2.421204e-08,3.058374666332463e-05
PART_000_R31G119B180A255,14471,-8.164299e-06,2.543438e-06,2.879718e-06,1.637155e-05,-5.385566e-08,-1.4579e-08,3.037205624984081e-05
PART_000_R31G119B180A255,14472,-8.158091e-06,2.546146e-06,2.866842e-06,1.646557e-05,-9.712911e-08,-1.862801e-08,3.05203320942046e-05
PART_000_R31G119B180A255,14473,-8.130991e-06,2.548427e-06,2.828555e-06,1.672538e-05,-1.804058e-07,-1.578083e-08,3.0926258079755126e-05
PART_000_R31G119B180A255,14474,-8.091485e-06,2.542338e-06,2.779975e-06,1.727372e-05,-1.575666e-07,-2.422401e-08,3.179437218689554e-05
PART_000_R31G119B180A255,14475,-8.062924e-06,2.522052e-06,2.752677e-06,1.803222e-05,-2.04021e-07,-2.033022e-08,3.3017344728873335e-05
PART_000_R31G119B180A255,14476,-8.047656e-06,2.479604e-06,2.743626e-06,1.913278e-05,-2.965378e-08,-1.103303e-08,3.481185363884351e-05
PART_000_R31G119B180A255,14477,-1.610179e-05,5.131365e-06,5.419812e-06,1.738255e-05,5.253244e-08,1.242352e-08,3.692590673628643e-05
PART_000_R31G119B180A255,14478,-1.611806e-05,5.163155e-06,5.444088e-06,1.632352e-05,6.484404e-08,7.220555e-10,3.5472977915367806e-05
PART_000_R31G119B180A255,14479,-1.62193e-05,5.188921e-06,5.544042e-06,1.553216e-05,9.929141e-08,-1.226938e-08,3.449368865345339e-05
PART_000_R31G119B180A255,14480,-1.63342e-05,5.202778e-06,5.653856e-06,1.501472e-05,4.076286e-08,-2.974559e-08,3.3913018723857234e-05
PART_000_R31G119B180A255,14481,-1.644147e-05,5.213492e-06,5.748669e-06,1.469326e-05,1.007385e-08,-3.307102e-08,3.3593039235060284e-05
PART_000_R31G119B180A255,14482,-1.648172e-05,5.221883e-06,5.772306e-06,1.457006e-05,-5.054237e-08,-3.438393e-08,3.346889102588894e-05
PART_000_R31G119B180A255,14483,-1.647846e-05,5.233205e-06,5.746177e-06,1.465602e-05,-7.954396e-08,-4.821393e-08,3.357409322317499e-05
PART_000_R31G119B180A255,14484,-1.642643e-05,5.244347e-06,5.667722e-06,1.48937e-05,-1.500448e-07,-5.173988e-08,3.3830742791554216e-05
PART_000_R31G119B180A255,14485,-1.636475e-05,5.252065e-06,5.570194e-06,1.540593e-05,-1.213899e-07,-6.976045e-08,3.444345621628758e-05
PART_000_R31G119B180A255,14486,-1.633375e-05,5.246255e-06,5.506085e-06,1.611672e-05,-1.733033e-07,-6.127369e-08,3.536550036829546e-05
PART_000_R31G119B180A255,14487,-1.635182e-05,5.208759e-06,5.494002e-06,1.71725e-05,-1.901442e-08,-2.751149e-08,3.6820884816374754e-05
PART_000_R31G119B180A255,14488,-2.427769e-05,7.814197e-06,8.100586e-06,1.414495e-05,6.109252e-08,2.996339e-08,4.0489686527754863e-05
PART_000_R31G119B180A255,14489,-2.43115e-05,7.873056e-06,8.188547e-06,1.315927e-05,4.031213e-08,2.941293e-08,3.956773620778351e-05
PART_000_R31G119B180A255,14490,-2.445167e-05,7.893833e-06,8.329038e-06,1.245556e-05,5.608927e-08,4.251965e-08,3.906322668277013e-05
PART_001_R158G218B229A255,14491,-2.462412e-05,7.900649e-06,8.513846e-06,1.202532e-05,1.214056e-08,-1.046063e-08,3.888452691755159e-05
PART_000_R31G119B180A255,14492,-2.479832e-05,7.911451e-06,8.665785e-06,1.176222e-05,-5.261323e-09,-2.494631e-08,3.886159594044509e-05
PART_000_R31G119B180A255,14493,-2.485071e-05,7.924537e-06,8.695374e-06,1.165921e-05,-4.331893e-08,-5.314455e-08,3.88317011570996e-05
PART_000_R31G119B180A255,14494,-2.48487e-05,7.940634e-06,8.659886e-06,1.173448e-05,-5.725929e-08,-9.349153e-08,3.888922295636475e-05
PART_001_R158G218B229A255,14495,-2.475859e-05,7.961007e-06,8.528563e-06,1.192699e-05,-1.076739e-07,-1.220657e-07,3.893973682168833e-05
PART_001_R158G218B229A255,14496,-2.466344e-05,7.980923e-06,8.374554e-06,1.235753e-05,-7.960189e-08,-1.588761e-07,3.9203055896483525e-05
PART_000_R31G119B180A255,14497,-2.46208e-05,7.999912e-06,8.262219e-06,1.2995e-05,-1.260393e-07,-1.337937e-07,3.9742266322263125e-05
PART_000_R31G119B180A255,14498,-2.467428e-05,7.991354e-06,8.225912e-06,1.397512e-05,-7.664263e-09,-6.327354e-08,4.0751500239201824e-05
PART_000_R31G119B180A255,14499,-3.248666e-05,1.064885e-05,1.07666e-05,9.583216e-06,9.87958e-09,8.398821e-08,4.6274191899044857e-05
PART_000_R31G119B180A255,14500,-3.249051e-05,1.060405e-05,1.091921e-05,8.731471e-06,1.149283e-09,1.621609e-07,4.582157525506236e-05
PART_001_R158G218B229A255,14501,-3.268132e-05,1.058551e-05,1.113155e-05,8.233187e-06,1.626166e-08,2.009851e-07,4.5819430820020354e-05
PART_001_R158G218B229A255,14502,-3.293116e-05,1.059041e-05,1.139992e-05,7.941204e-06,-7.471337e-09,7.290912e-08,4.603496264174128e-05
PART_001_R158G218B229A255,14503,-3.318264e-05,1.060374e-05,1.161574e-05,7.761644e-06,-1.505469e-08,1.37417e-08,4.629593538580506e-05
PART_001_R158G218B229A255,14504,-3.325419e-05,1.0622e-05,1.16548e-05,7.69189e-06,-3.112113e-08,-6.959597e-08,4.635746979156345e-05
PART_001_R158G218B229A255,14505,-3.323959e-05,1.064018e-05,1.160123e-05,7.745392e-06,-3.364436e-08,-1.705306e-07,4.635291161189749e-05
PART_001_R158G218B229A255,14506,-3.310557e-05,1.066789e-05,1.14145e-05,7.87269e-06,-6.330704e-08,-2.581082e-07,4.62115197349672e-05
PART_001_R158G218B229A255,14507,-3.295017e-05,1.069974e-05,1.118924e-05,8.171357e-06,-3.152111e-08,-3.532393e-07,4.6126038466551266e-05
PART_001_R158G218B229A255,14508,-3.287133e-05,1.074238e-05,1.100335e-05,8.623653e-06,-7.349085e-08,-3.139892e-07,4.622791168509755e-05
PART_000_R31G119B180A255,14509,-3.296254e-05,1.078009e-05,1.094846e-05,9.488561e-06,1.04781e-08,-1.230751e-07,4.680763950202489e-05
PART_001_R158G218B229A255,14510,-4.049909e-05,1.329241e-05,1.338215e-05,3.500945e-06,2.401928e-08,3.502027e-07,5.418025728046492e-05
PART_001_R158G218B229A255,14511,-4.056156e-05,1.326023e-05,1.362975e-05,3.100932e-06,5.557171e-10,5.96814e-07,5.428375218478753e-05
PART_001_R158G218B229A255,14512,-4.087503e-05,1.32602e-05,1.393897e-05,2.925727e-06,-5.828052e-10,5.257838e-07,5.472054649033122e-05
PART_001_R158G218B229A255,14513,-4.122567e-05,1.325907e-05,1.430458e-05,2.814437e-06,-7.576423e-09,2.701831e-07,5.523247831081944e-05
PART_001_R158G218B229A255,14514,-4.156388e-05,1.328461e-05,1.458581e-05,2.756471e-06,-7.085856e-09,9.95636e-08,5.571573492640139e-05
PART_001_R158G218B229A255,14515,-4.166573e-05,1.330589e-05,1.464527e-05,2.723827e-06,-1.417181e-08,-8.404535e-08,5.585320336887896e-05
PART_001_R158G218B229A255,14516,-4.162412e-05,1.332934e-05,1.455896e-05,2.75245e-06,-7.292264e-09,-2.93526e-07,5.5784883076672937e-05
PART_001_R158G218B229A255,14517,-4.143907e-05,1.335531e-05,1.431567e-05,2.78639e-06,-2.604969e-08,-5.071781e-07,5.5498057029246576e-05
PART_001_R158G218B229A255,14518,-4.11865e-05,1.33887e-05,1.400002e-05,2.908767e-06,-5.4809e-10,-7.107154e-07,5.512791674703359e-05
PART_001_R158G218B229A255,14519,-4.103122e-05,1.344471e-05,1.371762e-05,3.052711e-06,-3.249434e-08,-8.109667e-07,5.4886262008354936e-05
PART_001_R158G218B229A255,14520,-4.1115e-05,1.353887e-05,1.361346e-05,3.472405e-06,1.419149e-08,-3.979246e-07,5.5025231734336163e-05
PART_000_R31G119B180A255,14521,3.561559e-05,-1.178282e-05,-1.182334e-05,3.577194e-06,-1.000092e-07,-2.273795e-07,4.782369241854839e-05
PART_000_R31G119B180A255,14522,3.56548e-05,-1.16311e-05,-1.2049e-05,3.130852e-06,2.390807e-08,-4.418174e-07,4.7810937892912895e-05
PART_000_R31G119B180A255,14523,3.604566e-05,-1.159472e-05,-1.251174e-05,3.027764e-06,-1.321748e-09,-2.369455e-07,4.839219371719422e-05
PART_000_R31G119B180A255,14524,3.659139e-05,-1.160639e-05,-1.303767e-05,2.879427e-06,1.427925e-08,-8.209759e-08,4.9182854829747126e-05
PART_000_R31G119B180A255,14525,3.694321e-05,-1.162826e-05,-1.334522e-05,2.847519e-06,4.399462e-09,-1.825095e-08,4.969765659925133e-05
PART_000_R31G119B180A255,14526,3.707685e-05,-1.164874e-05,-1.343637e-05,2.822945e-06,-9.058342e-09,8.76644e-08,4.988398966640034e-05
PART_000_R31G119B180A255,14527,3.702307e-05,-1.168127e-05,-1.331862e-05,2.826598e-06,-2.273742e-08,1.642456e-07,4.978545119349703e-05
PART_000_R31G119B180A255,14528,3.671335e-05,-1.170997e-05,-1.295144e-05,2.891721e-06,-1.674767e-08,3.172178e-07,4.9313934547351676e-05
PART_000_R31G119B180A255,14529,3.642566e-05,-1.176582e-05,-1.255055e-05,2.970661e-06,-4.110829e-08,5.465487e-07,4.886949500775917e-05
PART_000_R31G119B180A255,14530,3.618142e-05,-1.182443e-05,-1.218412e-05,3.142997e-06,5.521772e-09,6.356753e-07,4.850573024357138e-05
PART_000_R31G119B180A255,14531,3.625052e-05,-1.192397e-05,-1.199685e-05,3.530781e-06,-3.386985e-08,3.640172e-07,4.860141937805405e-05
PART_000_R31G119B180A255,14532,2.858296e-05,-9.283073e-06,-9.508711e-06,9.710692e-06,5.294964e-08,-5.50252e-08,4.1537230231273396e-05
PART_000_R31G119B180A255,14533,2.86055e-05,-9.304011e-06,-9.678533e-06,8.890811e-06,8.063128e-08,-4.281868e-08,4.109298969541549e-05
PART_000_R31G119B180A255,14534,2.890089e-05,-9.312265e-06,-1.000192e-05,8.435162e-06,3.990817e-08,-3.192577e-08,4.123758530920276e-05
PART_000_R31G119B180A255,14535,2.923769e-05,-9.301058e-06,-1.036156e-05,8.136202e-06,4.360335e-08,4.60544e-08,4.154317750202899e-05
PART_000_R31G119B180A255,14536,2.951756e-05,-9.316206e-06,-1.061055e-05,7.9865e-06,2.077456e-08,4.104287e-08,4.1849251548876705e-05
PART_000_R31G119B180A255,14537,2.960823e-05,-9.334913e-06,-1.066396e-05,7.938208e-06,-2.200293e-08,6.173657e-08,4.194222628061347e-05
PART_000_R31G119B180A255,14538,2.957889e-05,-9.362171e-06,-1.058493e-05,7.949309e-06,-6.123807e-08,8.411947e-08,4.1894199162615527e-05
PART_000_R31G119B180A255,14539,2.938006e-05,-9.393112e-06,-1.032306e-05,8.120407e-06,-6.479924e-08,1.356137e-07,4.169138404476023e-05
PART_000_R31G119B180A255,14540,2.919626e-05,-9.444953e-06,-1.003583e-05,8.343905e-06,-1.149121e-07,2.391021e-07,4.153791108753817e-05
PART_000_R31G119B180A255,14541,2.90835e-05,-9.509414e-06,-9.784903e-06,8.831443e-06,-3.554977e-08,2.167578e-07,4.164431207334602e-05
PART_000_R31G119B180A255,14542,2.919439e-05,-9.569516e-06,-9.694467e-06,9.664294e-06,-6.538827e-08,9.443785e-08,4.2281614537565255e-05
PART_000_R31G119B180A255,14543,2.150611e-05,-6.98675e-06,-7.190561e-06,1.434437e-05,-5.22162e-09,2.093775e-08,3.788107729787463e-05
PART_000_R31G119B180A255,14544,2.153395e-05,-7.018507e-06,-7.264524e-06,1.336437e-05,1.101443e-07,3.572467e-08,3.685358999422192e-05
PART_000_R31G119B180A255,14545,2.170196e-05,-7.009173e-06,-7.486949e-06,1.271316e-05,1.169155e-07,7.022605e-08,3.6375871572837804e-05
PART_000_R31G119B180A255,14546,2.194391e-05,-7.020989e-06,-7.727713e-06,1.228937e-05,9.116917e-08,8.563682e-08,3.6236277452457056e-05
PART_000_R31G119B180A255,14547,2.213293e-05,-7.025824e-06,-7.908772e-06,1.205338e-05,3.853652e-08,6.346667e-08,3.62301896634276e-05
PART_000_R31G119B180A255,14548,2.220545e-05,-7.041578e-06,-7.94808e-06,1.198063e-05,-2.278171e-08,4.52074e-08,3.623999249201798e-05
PART_000_R31G119B180A255,14549,2.218749e-05,-7.065678e-06,-7.890521e-06,1.200133e-05,-9.997278e-08,3.56035e-08,3.623102298677276e-05
PART_000_R31G119B180A255,14550,2.207183e-05,-7.097312e-06,-7.713612e-06,1.22437e-05,-1.130217e-07,4.733654e-08,3.631756084800897e-05
PART_000_R31G119B180A255,14551,2.196188e-05,-7.139935e-06,-7.517343e-06,1.258038e-05,-1.95011e-07,7.974505e-08,3.650989426731842e-05
PART_000_R31G119B180A255,14552,2.191024e-05,-7.178012e-06,-7.352859e-06,1.32491e-05,-9.176925e-08,8.034329e-08,3.712012327343267e-05
PART_000_R31G119B180A255,14553,2.200676e-05,-7.186287e-06,-7.315555e-06,1.417574e-05,-1.159993e-07,4.948335e-08,3.8195902360345045e-05
PART_000_R31G119B180A255,14554,1.440342e-05,-4.645231e-06,-4.831102e-06,1.760146e-05,5.904856e-08,1.357119e-08,3.5998214398524985e-05
PART_000_R31G119B180A255,14555,1.441192e-05,-4.707093e-06,-4.838275e-06,1.651007e-05,2.161879e-07,2.447338e-08,3.4437641903194595e-05
PART_000_R31G119B180A255,14556,1.451381e-05,-4.715917e-06,-4.978833e-06,1.58006e-05,1.494244e-07,8.931478e-08,3.352573822670043e-05
PART_000_R31G119B180A255,14557,1.468571e-05,-4.728694e-06,-5.144288e-06,1.526148e-05,1.398165e-07,7.874866e-08,3.292378891091668e-05
PART_000_R31G119B180A255,14558,1.478657e-05,-4.731602e-06,-5.239576e-06,1.49855e-05,5.888869e-08,5.560063e-08,3.263199516400104e-05
PART_000_R31G119B180A255,14559,1.48495e-05,-4.743455e-06,-5.283551e-06,1.48835e-05,-2.642801e-08,3.584828e-08,3.254718625797929e-05
PART_000_R31G119B180A255,14560,1.483669e-05,-4.763281e-06,-5.236056e-06,1.491335e-05,-1.273406e-07,8.345431e-09,3.2571792032099984e-05
PART_000_R31G119B180A255,14561,1.477553e-05,-4.787011e-06,-5.130523e-06,1.520044e-05,-1.593453e-07,1.138171e-08,3.2905435241605314e-05
PART_000_R31G119B180A255,14562,1.472105e-05,-4.821043e-06,-5.009441e-06,1.560501e-05,-2.592214e-07,2.085003e-08,3.3412011111848296e-05
PART_000_R31G119B180A255,14563,1.469876e-05,-4.842316e-06,-4.910477e-06,1.635533e-05,-1.440721e-07,3.277046e-08,3.443466547952476e-05
PART_000_R31G119B180A255,14564,1.477422e-05,-4.838537e-06,-4.908962e-06,1.735651e-05,-1.463045e-07,1.731647e-08,3.591457723507628e-05
PART_000_R31G119B180A255,14565,7.309358e-06,-2.418986e-06,-2.404273e-06,1.954418e-05,2.801023e-09,8.095561e-09,3.521963793252489e-05
PART_000_R31G119B180A255,14566,7.304583e-06,-2.42622e-06,-2.444307e-06,1.840146e-05,2.222393e-07,3.958812e-08,3.33295502245405e-05
PART_000_R31G119B180A255,14567,7.356442e-06,-2.445753e-06,-2.485815e-06,1.763103e-05,1.862253e-07,4.503304e-08,3.208032274481998e-05
PART_000_R31G119B180A255,14568,7.424998e-06,-2.440503e-06,-2.575159e-06,1.704142e-05,1.627391e-07,5.168611e-08,3.114469689011438e-05
PART_000_R31G119B180A255,14569,7.476753e-06,-2.444402e-06,-2.61565e-06,1.673379e-05,7.215298e-08,3.055656e-08,3.0663255256461524e-05
PART_000_R31G119B180A255,14570,7.505337e-06,-2.449276e-06,-2.640158e-06,1.661783e-05,-2.90912e-08,2.276662e-08,3.0487568416221228e-05
PART_000_R31G119B180A255,14571,7.506383e-06,-2.461871e-06,-2.618077e-06,1.664865e-05,-1.443754e-07,-1.914498e-10,3.0537563140386796e-05
PART_000_R31G119B180A255,14572,7.481228e-06,-2.479744e-06,-2.565386e-06,1.696447e-05,-1.856723e-07,1.836322e-09,3.1041335911472455e-05
PART_000_R31G119B180A255,14573,7.470203e-06,-2.503235e-06,-2.511668e-06,1.739436e-05,-2.992765e-07,4.243042e-09,3.174135591570342e-05
PART_000_R31G119B180A255,14574,7.477225e-06,-2.524967e-06,-2.465318e-06,1.819058e-05,-1.662238e-07,1.142288e-08,3.304883760086395e-05
PART_000_R31G119B180A255,14575,7.542132e-06,-2.541338e-06,-2.470374e-06,1.922223e-05,-1.639209e-07,8.864225e-09,3.477828437677225e-05
PART_000_R31G119B180A255,14576,2.816545e-07,-2.591139e-07,-1.441088e-08,2.014245e-05,8.337116e-08,-8.016572e-09,3.489120094557615e-05
PART_000_R31G119B180A255,14577,2.256082e-07,-1.982868e-07,-1.289617e-08,1.899356e-05,2.230684e-07,-5.675833e-09,3.2902139901454575e-05
PART_000_R31G119B180A255,14578,1.869868e-07,-1.636085e-07,-8.782311e-09,1.818479e-05,1.858604e-07,-3.869641e-09,3.150009596967176e-05
PART_000_R31G119B180A255,14579,1.67811e-07,-1.500747e-07,-5.803816e-09,1.759262e-05,1.617796e-07,3.846016e-10,3.0473847107137103e-05
PART_000_R31G119B180A255,14580,1.611416e-07,-1.445696e-07,-5.592049e-09,1.726502e-05,7.239541e-08,8.810726e-10,2.990532995169644e-05
PART_000_R31G119B180A255,14581,1.589175e-07,-1.43752e-07,-4.32416e-09,1.71473e-05,-2.979286e-08,3.57546e-09,2.970119932695382e-05
PART_000_R31G119B180A255,14582,1.67061e-07,-1.479672e-07,-7.967807e-09,1.717745e-05,-1.464841e-07,4.846143e-09,2.9754555072753518e-05
PART_000_R31G119B180A255,14583,1.785031e-07,-1.578363e-07,-8.320443e-09,1.750143e-05,-1.884537e-07,4.291823e-09,3.0316529268617115e-05
PART_000_R31G119B180A255,14584,2.028897e-07,-1.768394e-07,-1.163761e-08,1.794115e-05,-3.045791e-07,6.414791e-09,3.108121253417202e-05
PART_000_R31G119B180A255,14585,2.39027e-07,-2.089407e-07,-1.50729e-08,1.874387e-05,-1.708275e-07,3.414412e-09,3.246901572393667e-05
PART_000_R31G119B180A255,14586,2.915917e-07,-2.572467e-07,-1.591039e-08,1.977657e-05,-1.677257e-07,2.33955e-09,3.425856954421917e-05
PART_000_R31G119B180A255,14587,-6.836236e-06,2.020553e-06,2.373817e-06,1.936345e-05,-2.934803e-10,-1.752118e-09,3.4735081527601997e-05
PART_000_R31G119B180A255,14588,-6.918262e-06,2.080731e-06,2.426532e-06,1.824904e-05,1.997179e-07,-5.195377e-08,3.291539846622301e-05
PART_000_R31G119B180A255,14589,-7.030031e-06,2.136942e-06,2.480706e-06,1.748803e-05,1.62277e-07,-6.114739e-08,3.169994702367175e-05
PART_000_R31G119B180A255,14590,-7.140057e-06,2.163904e-06,2.575693e-06,1.689939e-05,1.393751e-07,-6.44102e-08,3.0779918756547476e-05
PART_000_R31G119B180A255,14591,-7.216102e-06,2.180049e-06,2.624789e-06,1.658242e-05,5.872559e-08,-3.397898e-08,3.029204615811466e-05
PART_000_R31G119B180A255,14592,-7.245297e-06,2.186572e-06,2.646459e-06,1.646642e-05,-2.857203e-08,-1.376301e-08,3.0115464848113515e-05
PART_000_R31G119B180A255,14593,-7.230727e-06,2.190928e-06,2.619338e-06,1.649684e-05,-1.3407e-07,1.372161e-08,3.0157571659285138e-05
PART_000_R31G119B180A255,14594,-7.179314e-06,2.188811e-06,2.562114e-06,1.681573e-05,-1.653275e-07,1.717843e-08,3.065595344224592e-05
PART_000_R31G119B180A255,14595,-7.115342e-06,2.175019e-06,2.499796e-06,1.724313e-05,-2.79082e-07,1.941123e-08,3.1331213995805677e-05
PART_000_R31G119B180A255,14596,-7.048938e-06,2.138646e-06,2.44349e-06,1.802849e-05,-1.471422e-07,5.433741e-09,3.259524206960695e-05
PART_000_R31G119B180A255,14597,-7.009919e-06,2.064657e-06,2.445225e-06,1.903025e-05,-1.587022e-07,3.707824e-10,3.424139394922995e-05
PART_000_R31G119B180A255,14598,-1.399674e-05,4.258646e-06,4.809346e-06,1.73162e-05,3.551647e-08,-4.756014e-08,3.5258737173201056e-05
PART_000_R31G119B180A255,14599,-1.413186e-05,4.422978e-06,4.854807e-06,1.626308e-05,1.73588e-07,-8.655687e-08,3.385346650707799e-05
PART_000_R31G119B180A255,14600,-1.432126e-05,4.492212e-06,5.005154e-06,1.555498e-05,1.033912e-07,-1.341465e-07,3.3012396484003874e-05
PART_000_R31G119B180A255,14601,-1.453732e-05,4.526667e-06,5.188457e-06,1.501052e-05,1.001042e-07,-1.188294e-07,3.24424024717604e-05
PART_000_R31G119B180A255,14602,-1.467322e-05,4.54602e-06,5.295076e-06,1.472836e-05,3.624374e-08,-7.520343e-08,3.21734553703623e-05
PART_000_R31G119B180A255,14603,-1.474297e-05,4.559963e-06,5.342002e-06,1.462082e-05,-2.822051e-08,-2.65515e-08,3.2087693752833155e-05
PART_000_R31G119B180A255,14604,-1.470655e-05,4.571429e-06,5.281376e-06,1.465116e-05,-1.064784e-07,2.334125e-08,3.2091057287849176e-05
PART_000_R31G119B180A255,14605,-1.461464e-05,4.577757e-06,5.166451e-06,1.494483e-05,-1.246862e-07,3.057001e-08,3.2405036443420465e-05
PART_000_R31G119B180A255,14606,-1.449922e-05,4.576461e-06,5.029413e-06,1.534206e-05,-2.242662e-07,3.307525e-08,3.284840516708615e-05
PART_000_R31G119B180A255,14607,-1.439949e-05,4.543106e-06,4.9104e-06,1.607276e-05,-1.129126e-07,4.606293e-09,3.377800324810805e-05
PART_000_R31G119B180A255,14608,-1.438293e-05,4.463508e-06,4.906193e-06,1.70144e-05,-1.388968e-07,8.917164e-10,3.5103483190870445e-05
PART_000_R31G119B180A255,14609,-2.134141e-05,6.787048e-06,7.227933e-06,1.393121e-05,-1.395202e-08,-4.13924e-08,3.722965893488065e-05
PART_000_R31G119B180A255,14610,-2.141705e-05,6.847042e-06,7.282527e-06,1.304509e-05,9.4417e-08,-1.029246e-07,3.635847597642304e-05
PART_000_R31G119B180A255,14611,-2.168702e-05,6.885357e-06,7.563509e-06,1.243629e-05,4.862641e-08,-2.042569e-07,3.6060133323265436e-05
PART_000_R31G119B180A255,14612,-2.202871e-05,6.92141e-06,7.854661e-06,1.198036e-05,4.389049e-08,-1.539241e-07,3.600919421596852e-05
PART_000_R31G119B180A255,14613,-2.222342e-05,6.941737e-06,8.0164e-06,1.174658e-05,1.261419e-08,-1.084918e-07,3.6015083123184354e-05
PART_000_R31G119B180A255,14614,-2.23419e-05,6.961502e-06,8.097529e-06,1.166291e-05,-2.6811e-08,-4.116823e-08,3.607418789030647e-05
PART_000_R31G119B180A255,14615,-2.227377e-05,6.978654e-06,7.995307e-06,1.168451e-05,-7.360052e-08,3.069433e-08,3.600110911028537e-05
PART_000_R31G119B180A255,14616,-2.212472e-05,6.993611e-06,7.812194e-06,1.193826e-05,-7.045149e-08,2.602891e-08,3.6055043022176804e-05
PART_001_R158G218B229A255,14617,-2.193921e-05,7.006698e-06,7.584979e-06,1.226805e-05,-1.526829e-07,3.035584e-08,3.614590876608301e-05
PART_000_R31G119B180A255,14618,-2.180206e-05,7.004028e-06,7.382749e-06,1.291261e-05,-5.41248e-08,-1.021712e-08,3.662047512799201e-05
PART_000_R31G119B180A255,14619,-2.182646e-05,6.961841e-06,7.347988e-06,1.376252e-05,-1.082846e-07,-1.318306e-08,3.752716973517536e-05
PART_000_R31G119B180A255,14620,-2.862734e-05,9.228655e-06,9.634652e-06,9.421955e-06,-3.073607e-09,-5.672454e-08,4.141183406749354e-05
PART_000_R31G119B180A255,14621,-2.8693e-05,9.275422e-06,9.715019e-06,8.635255e-06,4.269411e-08,-5.41502e-08,4.101465922005287e-05
PART_001_R158G218B229A255,14622,-2.907782e-05,9.303629e-06,1.014108e-05,8.201612e-06,-5.262051e-09,-1.978103e-07,4.132670229247712e-05
PART_001_R158G218B229A255,14623,-2.957933e-05,9.332662e-06,1.057549e-05,7.889378e-06,-1.116385e-09,-1.574782e-07,4.1843158504217244e-05
PART_000_R31G119B180A255,14624,-2.984916e-05,9.360968e-06,1.079324e-05,7.728068e-06,-4.064827e-09,-1.160509e-07,4.2129024049337814e-05
PART_000_R31G119B180A255,14625,-3.001262e-05,9.386461e-06,1.090936e-05,7.677448e-06,-2.314099e-08,-5.967989e-08,4.2325518792174996e-05
PART_000_R31G119B180A255,14626,-2.991565e-05,9.408352e-06,1.076666e-05,7.685762e-06,-3.966713e-08,1.751076e-08,4.2176470849434174e-05
PART_001_R158G218B229A255,14627,-2.967235e-05,9.421622e-06,1.049508e-05,7.870702e-06,-2.453166e-08,-1.518527e-08,4.1920198507550484e-05
PART_001_R158G218B229A255,14628,-2.939421e-05,9.446129e-06,1.015896e-05,8.087175e-06,-8.244928e-08,-6.367469e-08,4.1629393640201195e-05
PART_001_R158G218B229A255,14629,-2.918533e-05,9.476489e-06,9.854526e-06,8.555728e-06,-4.913572e-09,-9.817535e-08,4.1582751122178015e-05
PART_000_R31G119B180A255,14630,-2.923949e-05,9.506087e-06,9.761721e-06,9.303533e-06,-6.549216e-08,-3.753942e-08,4.208175432150134e-05
PART_000_R31G119B180A255,14631,-3.576422e-05,1.175886e-05,1.19464e-05,3.415623e-06,-2.924445e-08,1.198665e-07,4.798370445726988e-05
PART_001_R158G218B229A255,14632,-3.586428e-05,1.166817e-05,1.213104e-05,3.050224e-06,-5.515808e-09,2.308323e-07,4.805851577031912e-05
PART_001_R158G218B229A255,14633,-3.640889e-05,1.165864e-05,1.273238e-05,2.914184e-06,-1.257921e-08,-6.077817e-08,4.88747516553863e-05
PART_001_R158G218B229A255,14634,-3.71124e-05,1.170841e-05,1.332153e-05,2.792609e-06,-8.602297e-09,-8.426876e-08,4.988231140362904e-05
PART_001_R158G218B229A255,14635,-3.748422e-05,1.174799e-05,1.361803e-05,2.732733e-06,-6.21438e-09,-8.567941e-08,5.041626107479031e-05
PART_001_R158G218B229A255,14636,-3.768794e-05,1.177906e-05,1.375807e-05,2.720898e-06,-7.647887e-09,-8.098122e-08,5.0705285369217836e-05
PART_001_R158G218B229A255,14637,-3.756588e-05,1.180445e-05,1.358439e-05,2.714826e-06,-1.613683e-08,-3.614332e-08,5.05033606479224e-05
PART_001_R158G218B229A255,14638,-3.719236e-05,1.181293e-05,1.319468e-05,2.79293e-06,3.707328e-09,-1.393292e-07,4.994597474841752e-05
PART_001_R158G218B229A255,14639,-3.67999e-05,1.184417e-05,1.27408e-05,2.86425e-06,-2.971499e-08,-3.05173e-07,4.93513834539122e-05
PART_001_R158G218B229A255,14640,-3.644058e-05,1.187771e-05,1.230567e-05,3.035786e-06,2.503626e-08,-4.271006e-07,4.88233111207955e-05
PART_001_R158G218B229A255,14641,-3.645123e-05,1.196579e-05,1.208626e-05,3.37816e-06,-3.986938e-08,-2.689471e-07,4.8831473440678406e-05
PART_000_R31G119B180A255,14642,3.044001e-05,-9.851744e-06,-1.015207e-05,3.409567e-06,1.780019e-07,-4.576349e-08,4.087288925091209e-05
PART_000_R31G119B180A255,14643,3.074262e-05,-9.900321e-06,-1.061167e-05,3.192577e-06,-1.8785e-08,2.235643e-07,4.1376256854467354e-05
PART_000_R31G119B180A255,14644,3.163961e-05,-9.942222e-06,-1.145093e-05,2.944237e-06,3.101969e-08,3.804747e-07,4.2667347692240894e-05
PART_000_R31G119B180A255,14645,3.236415e-05,-9.972323e-06,-1.209679e-05,2.924341e-06,3.550812e-08,3.402165e-07,4.3736015834000326e-05
PART_000_R31G119B180A255,14646,3.292246e-05,-1.001319e-05,-1.258435e-05,2.848062e-06,4.450297e-09,2.412872e-07,4.455316397231192e-05
PART_000_R31G119B180A255,14647,3.31039e-05,-1.004686e-05,-1.269247e-05,2.828552e-06,6.141861e-09,-3.778777e-08,4.4801271624558444e-05
PART_000_R31G119B180A255,14648,3.284763e-05,-1.006754e-05,-1.239549e-05,2.865967e-06,-2.024787e-08,-1.259098e-07,4.4404117237369935e-05
PART_000_R31G119B180A255,14649,3.248247e-05,-1.009492e-05,-1.197691e-05,2.868855e-06,-4.510794e-08,-1.298862e-07,4.383211094922282e-05
PART_000_R31G119B180A255,14650,3.184728e-05,-1.011699e-05,-1.129734e-05,2.998318e-06,-6.800855e-09,-5.254831e-08,4.288244237525202e-05
PART_000_R31G119B180A255,14651,3.142124e-05,-1.019202e-05,-1.071027e-05,3.102417e-06,-5.349498e-08,2.366739e-07,4.222025183906707e-05
PART_000_R31G119B180A255,14652,3.141129e-05,-1.030244e-05,-1.048444e-05,3.473843e-06,3.510333e-08,1.351401e-07,4.223649528796231e-05
PART_000_R31G119B180A255,14653,2.458315e-05,-7.953906e-06,-8.307526e-06,9.533383e-06,-1.315403e-08,1.724545e-07,3.66474655196993e-05
PART_000_R31G119B180A255,14654,2.477245e-05,-7.981244e-06,-8.5229e-06,8.840286e-06,3.063753e-08,2.836229e-07,3.640790035491707e-05
PART_000_R31G119B180A255,14655,2.527691e-05,-7.965837e-06,-9.087534e-06,8.393776e-06,1.216996e-07,4.066469e-07,3.681757278724067e-05
PART_000_R31G119B180A255,14656,2.585978e-05,-8.006742e-06,-9.603251e-06,8.191052e-06,1.054667e-07,3.219225e-07,3.74857657131053e-05
PART_000_R31G119B180A255,14657,2.622708e-05,-8.035257e-06,-9.914758e-06,8.039428e-06,4.069373e-08,1.91114e-07,3.789258643439282e-05
PART_000_R31G119B180A255,14658,2.637208e-05,-8.061086e-06,-1.001232e-05,7.978001e-06,7.60121e-09,-1.297699e-08,3.804712311782781e-05
PART_000_R31G119B180A255,14659,2.62099e-05,-8.081395e-06,-9.801977e-06,8.049431e-06,-6.26231e-08,-1.301511e-07,3.78456985836591e-05
PART_000_R31G119B180A255,14660,2.5954e-05,-8.114961e-06,-9.495755e-06,8.105721e-06,-1.253827e-07,-1.636918e-07,3.750838038218997e-05
PART_000_R31G119B180A255,14661,2.555381e-05,-8.145691e-06,-9.025153e-06,8.402932e-06,-6.821299e-08,-1.528308e-07,3.712114062085214e-05
PART_000_R31G119B180A255,14662,2.529616e-05,-8.196663e-06,-8.619244e-06,8.747889e-06,-1.492871e-07,-3.667348e-08,3.6956038457376637e-05
PART_000_R31G119B180A255,14663,2.534793e-05,-8.222505e-06,-8.495838e-06,9.504339e-06,3.391839e-08,-2.339254e-08,3.75130270334594e-05
PART_000_R31G119B180A255,14664,1.841226e-05,-5.785531e-06,-6.237342e-06,1.416122e-05,1.70046e-07,5.454358e-08,3.4617714803360556e-05
PART_000_R31G119B180A255,14665,1.855505e-05,-5.913723e-06,-6.399867e-06,1.330955e-05,1.910026e-07,2.586493e-07,3.3802293461596196e-05
PART_000_R31G119B180A255,14666,1.896757e-05,-5.994117e-06,-6.767282e-06,1.269621e-05,2.185504e-07,3.415933e-07,3.357168003845926e-05
PART_000_R31G119B180A255,14667,1.935836e-05,-6.010963e-06,-7.136649e-06,1.236403e-05,1.871674e-07,2.702974e-07,3.36505512683286e-05
PART_000_R31G119B180A255,14668,1.962351e-05,-6.037969e-06,-7.351803e-06,1.214779e-05,9.207446e-08,1.518309e-07,3.3715776492391814e-05
PART_000_R31G119B180A255,14669,1.972664e-05,-6.059478e-06,-7.419625e-06,1.204969e-05,2.991693e-09,-1.105662e-09,3.3725834462876165e-05
PART_000_R31G119B180A255,14670,1.963385e-05,-6.078421e-06,-7.285131e-06,1.214519e-05,-9.844592e-08,-1.0863e-07,3.3707353503003536e-05
PART_000_R31G119B180A255,14671,1.94599e-05,-6.110755e-06,-7.060563e-06,1.223739e-05,-2.14941e-07,-1.515196e-07,3.359339757384514e-05
PART_000_R31G119B180A255,14672,1.921775e-05,-6.138075e-06,-6.748495e-06,1.265535e-05,-1.590568e-07,-1.574799e-07,3.375488297305467e-05
PART_000_R31G119B180A255,14673,1.906046e-05,-6.16205e-06,-6.490558e-06,1.315588e-05,-2.68053e-07,-8.372809e-08,3.411798424080819e-05
PART_000_R31G119B180A255,14674,1.908729e-05,-6.119931e-06,-6.420411e-06,1.404907e-05,6.63264e-09,-2.634893e-08,3.5145410268029276e-05
PART_000_R31G119B180A255,14675,1.226801e-05,-3.84043e-06,-4.152443e-06,1.749997e-05,1.653715e-07,6.298454e-08,3.440125038997947e-05
PART_000_R31G119B180A255,14676,1.239677e-05,-3.936145e-06,-4.28714e-06,1.65889e-05,1.999703e-07,2.303003e-07,3.314323415215934e-05
PART_000_R31G119B180A255,14677,1.269639e-05,-4.026444e-06,-4.511612e-06,1.579777e-05,3.368654e-07,2.310244e-07,3.220576208596732e-05
PART_000_R31G119B180A255,14678,1.291576e-05,-4.043792e-06,-4.713444e-06,1.541737e-05,2.552323e-07,2.018367e-07,3.182507460556381e-05
PART_000_R31G119B180A255,14679,1.311707e-05,-4.06521e-06,-4.885969e-06,1.512719e-05,1.256106e-07,1.178785e-07,3.156883834201197e-05
PART_000_R31G119B180A255,14680,1.317205e-05,-4.079978e-06,-4.908185e-06,1.501228e-05,8.086656e-09,-5.370273e-09,3.144380038096765e-05
PART_000_R31G119B180A255,14681,1.312449e-05,-4.096762e-06,-4.833892e-06,1.511726e-05,-1.360041e-07,-6.978631e-08,3.155113205618468e-05
PART_000_R31G119B180A255,14682,1.302344e-05,-4.122678e-06,-4.689391e-06,1.523581e-05,-2.877262e-07,-1.208559e-07,3.163399043239599e-05
PART_000_R31G119B180A255,14683,1.28788e-05,-4.14078e-06,-4.493778e-06,1.573024e-05,-2.390485e-07,-1.170776e-07,3.222316703999416e-05
PART_000_R31G119B180A255,14684,1.279875e-05,-4.146896e-06,-4.34687e-06,1.629184e-05,-3.588618e-07,-7.014664e-08,3.297357814001695e-05
PART_000_R31G119B180A255,14685,1.281768e-05,-4.098964e-06,-4.311704e-06,1.729098e-05,-1.056292e-08,-2.437108e-08,3.4449282053920274e-05
PART_000_R31G119B180A255,14686,6.277315e-06,-2.005757e-06,-2.134527e-06,1.958131e-05,2.683015e-07,4.877729e-08,3.4931342278197526e-05
PART_000_R31G119B180A255,14687,6.343253e-06,-2.081697e-06,-2.140145e-06,1.852978e-05,2.460567e-07,9.981529e-08,3.319255009289286e-05
PART_000_R31G119B180A255,14688,6.456598e-06,-2.084318e-06,-2.276673e-06,1.765294e-05,3.731912e-07,1.409126e-07,3.178023584699852e-05
PART_000_R31G119B180A255,14689,6.578324e-06,-2.106968e-06,-2.363593e-06,1.723598e-05,2.966586e-07,1.111942e-07,3.113305554682663e-05
PART_000_R31G119B180A255,14690,6.672135e-06,-2.110932e-06,-2.457378e-06,1.690382e-05,1.445679e-07,7.195546e-08,3.062026736268463e-05
PART_000_R31G119B180A255,14691,6.70396e-06,-2.12012e-06,-2.466043e-06,1.677297e-05,1.070129e-08,-3.928921e-09,3.0414379173656544e-05
PART_000_R31G119B180A255,14692,6.679604e-06,-2.130592e-06,-2.428339e-06,1.688776e-05,-1.580912e-07,-3.681367e-08,3.0594113387007735e-05
PART_000_R31G119B180A255,14693,6.642618e-06,-2.149577e-06,-2.361501e-06,1.70172e-05,-3.29291e-07,-6.953492e-08,3.079457699589852e-05
PART_000_R31G119B180A255,14694,6.577167e-06,-2.165774e-06,-2.262006e-06,1.75555e-05,-2.845838e-07,-6.989432e-08,3.165649994615939e-05
PART_000_R31G119B180A255,14695,6.554145e-06,-2.178135e-06,-2.198191e-06,1.815699e-05,-4.089149e-07,-4.485332e-08,3.2649116038214375e-05
PART_000_R31G119B180A255,14696,6.586903e-06,-2.175708e-06,-2.178751e-06,1.921506e-05,-1.87639e-08,-1.553692e-08,3.441609214121676e-05
PART_000_R31G119B180A255,14697,3.443458e-07,-2.572011e-07,-3.703587e-08,2.017428e-05,1.329023e-07,1.136367e-08,3.494761778301963e-05
PART_000_R31G119B180A255,14698,2.761411e-07,-2.095224e-07,-3.327745e-08,1.909194e-05,2.572776e-07,1.282234e-08,3.307396140465718e-05
PART_000_R31G119B180A255,14699,2.458729e-07,-1.831536e-07,-3.491356e-08,1.824019e-05,3.728387e-07,1.831165e-08,3.160180478529938e-05
PART_000_R31G119B180A255,14700,2.340333e-07,-1.667573e-07,-3.939044e-08,1.776815e-05,2.979321e-07,1.498039e-08,3.078171917054374e-05
PART_000_R31G119B180A255,14701,2.277864e-07,-1.593476e-07,-4.046235e-08,1.743674e-05,1.456658e-07,1.165559e-08,3.020433330718051e-05
PART_000_R31G119B180A255,14702,2.300331e-07,-1.577977e-07,-4.474155e-08,1.729438e-05,1.103968e-08,3.12683e-09,2.9956743505818235e-05
PART_000_R31G119B180A255,14703,2.323191e-07,-1.621299e-07,-4.147122e-08,1.741523e-05,-1.57203e-07,-3.642613e-09,3.0167324058477715e-05
PART_000_R31G119B180A255,14704,2.474778e-07,-1.745357e-07,-4.397578e-08,1.754768e-05,-3.361776e-07,-7.659235e-09,3.0401356639353472e-05
PART_000_R31G119B180A255,14705,2.678344e-07,-1.984016e-07,-3.945972e-08,1.810179e-05,-2.836039e-07,-1.341178e-08,3.1359763565095066e-05
PART_000_R31G119B180A255,14706,3.102316e-07,-2.397354e-07,-3.600073e-08,1.87171e-05,-4.138723e-07,-6.983539e-09,3.2430470834589585e-05
PART_000_R31G119B180A255,14707,3.832321e-07,-3.078258e-07,-3.923352e-08,1.978787e-05,-1.45041e-08,-4.13734e-09,3.42789172799733e-05
PART_000_R31G119B180A255,14708,-5.612797e-06,1.430731e-06,2.079636e-06,1.937559e-05,2.485872e-07,-6.292272e-08,3.4366272318379797e-05
PART_000_R31G119B180A255,14709,-5.814189e-06,1.659725e-06,2.085862e-06,1.836147e-05,2.141533e-07,-9.276371e-08,3.272338668934597e-05
PART_000_R31G119B180A255,14710,-6.009269e-06,1.748482e-06,2.218782e-06,1.748811e-05,3.265372e-07,-1.283159e-07,3.133566022312488e-05
PART_000_R31G119B180A255,14711,-6.175911e-06,1.80065e-06,2.315633e-06,1.70509e-05,2.599556e-07,-9.370608e-08,3.0666385046996885e-05
PART_000_R31G119B180A255,14712,-6.274052e-06,1.818807e-06,2.396399e-06,1.671592e-05,1.280254e-07,-5.186827e-08,3.0146733433798536e-05
PART_000_R31G119B180A255,14713,-6.305486e-06,1.830235e-06,2.404108e-06,1.65815e-05,1.129182e-08,8.038563e-09,2.993371276919195e-05
PART_000_R31G119B180A255,14714,-6.274506e-06,1.832718e-06,2.367697e-06,1.670075e-05,-1.369601e-07,4.090347e-08,3.0119045856085202e-05
PART_000_R31G119B180A255,14715,-6.202129e-06,1.827967e-06,2.29341e-06,1.683359e-05,-2.986428e-07,6.50099e-08,3.0312144912882072e-05
PART_000_R31G119B180A255,14716,-6.095269e-06,1.798776e-06,2.199728e-06,1.737429e-05,-2.464061e-07,5.703445e-08,3.116779760899511e-05
PART_000_R31G119B180A255,14717,-5.985033e-06,1.728147e-06,2.13868e-06,1.796139e-05,-3.817185e-07,4.027563e-08,3.211082035072557e-05
PART_000_R31G119B180A255,14718,-5.877594e-06,1.597898e-06,2.109708e-06,1.898228e-05,-4.235162e-09,1.066812e-08,3.3777984233965595e-05
PART_000_R31G119B180A255,14719,-1.180218e-05,3.469244e-06,4.131395e-06,1.711889e-05,1.433538e-07,-6.149962e-08,3.351132652775185e-05
PART_000_R31G119B180A255,14720,-1.203539e-05,3.622798e-06,4.255244e-06,1.625872e-05,1.357845e-07,-2.431236e-07,3.238444635029692e-05
PART_000_R31G119B180A255,14721,-1.241248e-05,3.756457e-06,4.507987e-06,1.547996e-05,2.579915e-07,-2.780579e-07,3.1519357139839526e-05
PART_000_R31G119B180A255,14722,-1.27153e-05,3.822103e-06,4.73046e-06,1.508619e-05,1.913918e-07,-2.296639e-07,3.1183011261474415e-05
PART_000_R31G119B180A255,14723,-1.293549e-05,3.857173e-06,4.900852e-06,1.477349e-05,8.838069e-08,-1.156195e-07,3.091020063991048e-05
PART_000_R31G119B180A255,14724,-1.298537e-05,3.872812e-06,4.915307e-06,1.465353e-05,1.379564e-08,1.537739e-08,3.0773995050177636e-05
PART_000_R31G119B180A255,14725,-1.292896e-05,3.883862e-06,4.840929e-06,1.477008e-05,-1.004901e-07,9.578693e-08,3.089015324932716e-05
PART_000_R31G119B180A255,14726,-1.277722e-05,3.884137e-06,4.679022e-06,1.489314e-05,-2.307303e-07,1.586415e-07,3.09374948884521e-05
PART_000_R31G119B180A255,14727,-1.257687e-05,3.859313e-06,4.477861e-06,1.539763e-05,-1.698788e-07,1.475156e-07,3.149778038509341e-05
PART_000_R31G119B180A255,14728,-1.240073e-05,3.79458e-06,4.326554e-06,1.593372e-05,-3.088969e-07,1.080338e-07,3.214277696590997e-05
PART_000_R31G119B180A255,14729,-1.227935e-05,3.639827e-06,4.265256e-06,1.686741e-05,1.718138e-08,3.456439e-08,3.342604826715577e-05
PART_000_R31G119B180A255,14730,-1.806608e-05,5.473163e-06,6.19073e-06,1.375012e-05,1.401153e-07,-1.335624e-07,3.374628366314552e-05
PART_000_R31G119B180A255,14731,-1.843043e-05,5.732343e-06,6.464356e-06,1.295899e-05,7.037783e-08,-4.186731e-07,3.32627402975898e-05
PART_000_R31G119B180A255,14732,-1.897739e-05,5.865027e-06,6.858879e-06,1.230131e-05,1.391634e-07,-4.238004e-07,3.312682769087913e-05
PART_000_R31G119B180A255,14733,-1.941398e-05,5.925725e-06,7.215396e-06,1.198672e-05,1.10486e-07,-3.764433e-07,3.328588143162884e-05
PART_000_R31G119B180A255,14734,-1.978669e-05,5.972523e-06,7.510689e-06,1.17294e-05,3.976237e-08,-1.910135e-07,3.3442123576950575e-05
PART_000_R31G119B180A255,14735,-1.984842e-05,5.99776e-06,7.515616e-06,1.162523e-05,1.323927e-08,3.509615e-08,3.3391643049301436e-05
PART_000_R31G119B180A255,14736,-1.975069e-05,6.00877e-06,7.401216e-06,1.173845e-05,-5.606892e-08,1.569954e-07,3.338883558076576e-05
PART_000_R31G119B180A255,14737,-1.95043e-05,6.016822e-06,7.13554e-06,1.183375e-05,-1.455051e-07,2.637902e-07,3.318908442338731e-05
PART_000_R31G119B180A255,14738,-1.918127e-05,6.003157e-06,6.799225e-06,1.226721e-05,-7.764218e-08,2.45789e-07,3.326545128487208e-05
PART_000_R31G119B180A255,14739,-1.892017e-05,5.960703e-06,6.532963e-06,1.272951e-05,-2.156516e-07,1.849878e-07,3.346620838919765e-05
PART_000_R31G119B180A255,14740,-1.880636e-05,5.83839e-06,6.405416e-06,1.353103e-05,3.722624e-08,5.74108e-08,3.4218997633216546e-05
PART_000_R31G119B180A255,14741,-2.44951e-05,7.838856e-06,8.202043e-06,9.049331e-06,3.949257e-08,-1.638484e-07,3.609870192141489e-05
PART_000_R31G119B180A255,14742,-2.487187e-05,7.916129e-06,8.67152e-06,8.525911e-06,-2.940848e-08,-5.9415e-07,3.6325285487148504e-05
PART_001_R158G218B229A255,14743,-2.56329e-05,7.990136e-06,9.288277e-06,8.064833e-06,2.934826e-08,-5.724254e-07,3.7039861661724796e-05
PART_001_R158G218B229A255,14744,-2.623449e-05,8.056968e-06,9.781147e-06,7.844322e-06,3.455817e-08,-5.168289e-07,3.772806089383347e-05
PART_000_R31G119B180A255,14745,-2.678224e-05,8.115818e-06,1.022415e-05,7.669055e-06,-1.559733e-09,-2.762402e-07,3.837405836544407e-05
PART_000_R31G119B180A255,14746,-2.686706e-05,8.151683e-06,1.022427e-05,7.595585e-06,1.240038e-08,6.710596e-08,3.8422390283340116e-05
PART_000_R31G119B180A255,14747,-2.669039e-05,8.158918e-06,1.003913e-05,7.685884e-06,-2.229617e-08,2.143303e-07,3.8221607693967506e-05
PART_000_R31G119B180A255,14748,-2.634379e-05,8.168462e-06,9.67765e-06,7.744617e-06,-6.471871e-08,3.57794e-07,3.775966837388633e-05
PART_001_R158G218B229A255,14749,-2.583007e-05,8.161545e-06,9.162713e-06,8.06625e-06,1.128799e-08,3.332397e-07,3.722888986278522e-05
PART_001_R158G218B229A255,14750,-2.545132e-05,8.162875e-06,8.727544e-06,8.378364e-06,-1.084977e-07,2.228125e-07,3.6878029392671106e-05
PART_000_R31G119B180A255,14751,-2.537396e-05,8.142773e-06,8.529261e-06,9.032969e-06,6.383982e-08,8.065069e-08,3.716570873944509e-05
PART_000_R31G119B180A255,14752,-3.061968e-05,9.972555e-06,1.014205e-05,3.266314e-06,4.391118e-08,-1.08808e-07,4.1069285059264695e-05
PART_001_R158G218B229A255,14753,-3.112174e-05,9.973899e-06,1.085675e-05,3.028963e-06,-2.05634e-08,-6.32725e-07,4.188840458404392e-05
PART_001_R158G218B229A255,14754,-3.225153e-05,1.009015e-05,1.174183e-05,2.846621e-06,-1.160682e-08,-6.689829e-07,4.3487165807125346e-05
PART_001_R158G218B229A255,14755,-3.308018e-05,1.016761e-05,1.241294e-05,2.765827e-06,3.189633e-09,-6.207789e-07,4.4683598040498246e-05
PART_001_R158G218B229A255,14756,-3.38292e-05,1.025119e-05,1.300846e-05,2.70793e-06,-9.332124e-09,-3.558907e-07,4.576684113888192e-05
PART_000_R31G119B180A255,14757,-3.395365e-05,1.029652e-05,1.302774e-05,2.669793e-06,4.335962e-09,9.744998e-08,4.5910848248652e-05
PART_001_R158G218B229A255,14758,-3.366799e-05,1.030304e-05,1.273726e-05,2.722481e-06,3.228993e-11,2.532871e-07,4.548450547571327e-05
PART_001_R158G218B229A255,14759,-3.320195e-05,1.029902e-05,1.227624e-05,2.720839e-06,-2.298861e-08,3.948391e-07,4.477647765889696e-05
PART_001_R158G218B229A255,14760,-3.241045e-05,1.027151e-05,1.153392e-05,2.867465e-06,2.983142e-08,3.43965e-07,4.3614793289164026e-05
PART_001_R158G218B229A255,14761,-3.183992e-05,1.029897e-05,1.089412e-05,2.954539e-06,-4.984567e-08,5.260833e-08,4.2747197254642005e-05
PART_001_R158G218B229A255,14762,-3.170222e-05,1.037733e-05,1.059058e-05,3.273192e-06,5.337346e-08,-6.832208e-09,4.2565919602717234e-05
PART_000_R31G119B180A255,14763,2.5218e-05,-8.266082e-06,-8.59e-06,3.334984e-06,-3.031098e-07,5.358251e-07,3.4156084000268976e-05
PART_000_R31G119B180A255,14764,2.602614e-05,-8.200962e-06,-9.365566e-06,2.944481e-06,6.683071e-08,1.028429e-06,3.5240717024862466e-05
PART_000_R31G119B180A255,14765,2.726063e-05,-8.27248e-06,-1.04415e-05,3.036837e-06,8.083951e-08,1.238133e-06,3.71034262869968e-05
PART_000_R31G119B180A255,14766,2.858401e-05,-8.381141e-06,-1.159132e-05,2.860837e-06,3.585927e-08,9.729e-07,3.902292934993877e-05
PART_000_R31G119B180A255,14767,2.919656e-05,-8.4489e-06,-1.20394e-05,2.872559e-06,8.37927e-08,2.691788e-07,3.987770798260441e-05
PART_000_R31G119B180A255,14768,2.923334e-05,-8.475893e-06,-1.202794e-05,2.880734e-06,-1.557652e-08,-1.04481e-07,3.9918387005823844e-05
PART_000_R31G119B180A255,14769,2.903542e-05,-8.491722e-06,-1.180773e-05,2.833958e-06,-2.880566e-08,-5.520878e-07,3.9607239802661413e-05
PART_000_R31G119B180A255,14770,2.826685e-05,-8.485999e-06,-1.1036e-05,2.927067e-06,-3.493803e-08,-7.889775e-07,3.845215856842705e-05
PART_000_R31G119B180A255,14771,2.748598e-05,-8.504848e-06,-1.02368e-05,2.924615e-06,-7.879836e-08,-7.325781e-07,3.7255368776180886e-05
PART_000_R31G119B180A255,14772,2.655547e-05,-8.481512e-06,-9.324027e-06,3.10027e-06,3.670739e-08,-5.67747e-07,3.588349476524615e-05
PART_000_R31G119B180A255,14773,2.628735e-05,-8.562217e-06,-8.759721e-06,3.30485e-06,-7.5754e-08,-8.895105e-08,3.54149870851199e-05
PART_000_R31G119B180A255,14774,2.024378e-05,-6.300009e-06,-6.885111e-06,9.136469e-06,1.035268e-07,2.336858e-07,3.116194924545969e-05
PART_000_R31G119B180A255,14775,2.075382e-05,-6.458389e-06,-7.464068e-06,8.594289e-06,2.578626e-07,8.561732e-07,3.150978329501532e-05
PART_000_R31G119B180A255,14776,2.178866e-05,-6.606934e-06,-8.303565e-06,8.397641e-06,2.200701e-07,9.193753e-07,3.273541398661313e-05
PART_000_R31G119B180A255,14777,2.263929e-05,-6.68025e-06,-9.023133e-06,8.143921e-06,1.960629e-07,6.841334e-07,3.36794679837596e-05
PART_000_R31G119B180A255,14778,2.310795e-05,-6.723897e-06,-9.39398e-06,8.084765e-06,1.865336e-07,2.264227e-07,3.4250115438875336e-05
PART_000_R31G119B180A255,14779,2.315566e-05,-6.755256e-06,-9.371407e-06,8.087877e-06,-1.069606e-08,-9.704063e-08,3.429327152355504e-05
PART_000_R31G119B180A255,14780,2.301379e-05,-6.774539e-06,-9.218093e-06,8.017453e-06,-9.343607e-08,-3.902393e-07,3.40503538909271e-05
PART_000_R31G119B180A255,14781,2.252425e-05,-6.774507e-06,-8.70501e-06,8.200185e-06,-1.384733e-07,-5.981868e-07,3.34897812903134e-05
PART_000_R31G119B180A255,14782,2.197637e-05,-6.800574e-06,-8.119196e-06,8.255044e-06,-2.353519e-07,-5.896433e-07,3.276344983284271e-05
PART_000_R31G119B180A255,14783,2.141896e-05,-6.806865e-06,-7.50623e-06,8.698972e-06,-2.976726e-08,-4.930616e-07,3.232142929232577e-05
PART_000_R31G119B180A255,14784,2.127226e-05,-6.774494e-06,-7.186211e-06,9.208696e-06,-1.675061e-07,-1.572227e-07,3.244835626214783e-05
PART_000_R31G119B180A255,14785,1.495001e-05,-4.440882e-06,-5.263877e-06,1.382999e-05,2.97111e-08,3.108686e-07,3.109245980612207e-05
PART_000_R31G119B180A255,14786,1.554047e-05,-4.795482e-06,-5.576911e-06,1.314023e-05,3.940458e-07,6.248161e-07,3.081698578343449e-05
PART_000_R31G119B180A255,14787,1.622509e-05,-4.903476e-06,-6.146334e-06,1.27616e-05,4.319572e-07,6.661317e-07,3.1059411835694476e-05
PART_000_R31G119B180A255,14788,1.684427e-05,-4.993379e-06,-6.631114e-06,1.239306e-05,3.528157e-07,4.949038e-07,3.126022083129778e-05
PART_000_R31G119B180A255,14789,1.718653e-05,-5.023332e-06,-6.906058e-06,1.229275e-05,2.697403e-07,1.783032e-07,3.150057896552308e-05
PART_000_R31G119B180A255,14790,1.723034e-05,-5.043493e-06,-6.89836e-06,1.22674e-05,1.625277e-09,-7.259128e-08,3.15017823397528e-05
PART_000_R31G119B180A255,14791,1.713263e-05,-5.070692e-06,-6.774178e-06,1.218434e-05,-1.638089e-07,-2.715202e-07,3.129518355912542e-05
PART_000_R31G119B180A255,14792,1.68283e-05,-5.07723e-06,-6.44658e-06,1.2432e-05,-2.510559e-07,-4.21331e-07,3.1242746680443404e-05
PART_000_R31G119B180A255,14793,1.645555e-05,-5.093907e-06,-6.034011e-06,1.253233e-05,-4.18883e-07,-4.404127e-07,3.0948469879428995e-05
PART_000_R31G119B180A255,14794,1.609781e-05,-5.059715e-06,-5.637449e-06,1.312505e-05,-1.563094e-07,-3.452889e-07,3.1263874454635434e-05
PART_000_R31G119B180A255,14795,1.59697e-05,-4.926377e-06,-5.475098e-06,1.376699e-05,-2.760473e-07,-1.08961e-07,3.189463136340757e-05
PART_000_R31G119B180A255,14796,9.924331e-06,-2.838345e-06,-3.583063e-06,1.757943e-05,6.433406e-08,2.073569e-07,3.3169196293644635e-05
PART_000_R31G119B180A255,14797,1.036327e-05,-3.175395e-06,-3.700732e-06,1.637392e-05,6.110337e-07,3.611876e-07,3.1567562704378804e-05
PART_000_R31G119B180A255,14798,1.078376e-05,-3.261503e-06,-4.040068e-06,1.59873e-05,5.512026e-07,4.742238e-07,3.125984881300913e-05
PART_000_R31G119B180A255,14799,1.125406e-05,-3.332265e-06,-4.416952e-06,1.548517e-05,4.672307e-07,3.499211e-07,3.082454764786196e-05
PART_000_R31G119B180A255,14800,1.144667e-05,-3.354284e-06,-4.544344e-06,1.535506e-05,3.503796e-07,1.098907e-07,3.075445713602963e-05
PART_000_R31G119B180A255,14801,1.148581e-05,-3.366222e-06,-4.565593e-06,1.531284e-05,-3.829442e-09,-3.054925e-08,3.071296944545157e-05
PART_000_R31G119B180A255,14802,1.143228e-05,-3.388931e-06,-4.47825e-06,1.521306e-05,-2.133515e-07,-1.861325e-07,3.052133703389674e-05
PART_000_R31G119B180A255,14803,1.12438e-05,-3.400408e-06,-4.268954e-06,1.550661e-05,-3.54201e-07,-2.734225e-07,3.0820316093365586e-05
PART_000_R31G119B180A255,14804,1.101831e-05,-3.407428e-06,-4.017894e-06,1.56436e-05,-5.655578e-07,-2.962148e-07,3.086536031758495e-05
PART_000_R31G119B180A255,14805,1.077094e-05,-3.34983e-06,-3.772596e-06,1.63506e-05,-2.638636e-07,-2.270837e-07,3.174798563739293e-05
PART_000_R31G119B180A255,14806,1.0679e-05,-3.220565e-06,-3.701008e-06,1.712253e-05,-3.503774e-07,-7.669223e-08,3.2863896911918224e-05
PART_000_R31G119B180A255,14807,5.158692e-06,-1.593874e-06,-1.741747e-06,1.958601e-05,-3.524158e-08,7.031418e-08,3.460450053850673e-05
PART_000_R31G119B180A255,14808,5.265426e-06,-1.601896e-06,-1.903169e-06,1.839328e-05,6.686974e-07,2.505946e-07,3.2646407530496625e-05
PART_000_R31G119B180A255,14809,5.526645e-06,-1.700962e-06,-2.044108e-06,1.794259e-05,6.422095e-07,2.662608e-07,3.197023252724646e-05
PART_000_R31G119B180A255,14810,5.749741e-06,-1.717336e-06,-2.250186e-06,1.735041e-05,5.198927e-07,2.011119e-07,3.104935401546518e-05
PART_000_R31G119B180A255,14811,5.846361e-06,-1.725615e-06,-2.305761e-06,1.720656e-05,3.986424e-07,6.245679e-08,3.0834231179912246e-05
PART_000_R31G119B180A255,14812,5.862444e-06,-1.732346e-06,-2.316192e-06,1.715412e-05,-4.059727e-09,-9.512945e-09,3.0744881182302096e-05
PART_000_R31G119B180A255,14813,5.845782e-06,-1.74479e-06,-2.279545e-06,1.704212e-05,-2.455965e-07,-1.026759e-07,3.055283922574182e-05
PART_000_R31G119B180A255,14814,5.749446e-06,-1.757059e-06,-2.167089e-06,1.736709e-05,-4.118781e-07,-1.538235e-07,3.106478705995923e-05
PART_000_R31G119B180A255,14815,5.654025e-06,-1.770801e-06,-2.049294e-06,1.75181e-05,-6.501501e-07,-1.676054e-07,3.129340512866027e-05
PART_000_R31G119B180A255,14816,5.547721e-06,-1.761967e-06,-1.921361e-06,1.830993e-05,-3.079958e-07,-1.350603e-07,3.2568727077070626e-05
PART_000_R31G119B180A255,14817,5.529681e-06,-1.721854e-06,-1.890447e-06,1.916977e-05,-3.895763e-07,-4.456327e-08,3.401084023940739e-05
PART_000_R31G119B180A255,14818,3.80204e-07,-2.925273e-07,-5.464152e-08,2.028359e-05,1.874291e-07,1.38485e-08,3.51386846373912e-05
PART_000_R31G119B180A255,14819,3.377379e-07,-2.136089e-07,-6.857581e-08,1.907682e-05,6.243237e-07,5.24241e-08,3.306354220896677e-05
PART_000_R31G119B180A255,14820,3.264572e-07,-1.751369e-07,-8.759466e-08,1.849641e-05,6.287019e-07,5.455484e-08,3.2058721515479175e-05
PART_000_R31G119B180A255,14821,3.197714e-07,-1.54688e-07,-9.765162e-08,1.793218e-05,5.338259e-07,4.258772e-08,3.1076532842285924e-05
PART_000_R31G119B180A255,14822,3.187596e-07,-1.432838e-07,-1.062598e-07,1.775816e-05,4.023283e-07,2.057551e-08,3.076916251996138e-05
PART_000_R31G119B180A255,14823,3.163549e-07,-1.399345e-07,-1.042744e-07,1.770802e-05,3.875841e-10,2.976187e-09,3.067434016109528e-05
PART_000_R31G119B180A255,14824,3.23227e-07,-1.441505e-07,-1.091724e-07,1.759348e-05,-2.474757e-07,-1.727579e-08,3.0479166011790493e-05
PART_000_R31G119B180A255,14825,3.260146e-07,-1.577494e-07,-9.82226e-08,1.793258e-05,-4.124561e-07,-3.687875e-08,3.107177965170044e-05
PART_000_R31G119B180A255,14826,3.453389e-07,-1.876362e-07,-8.986233e-08,1.809182e-05,-6.588215e-07,-4.274929e-08,3.13606598096709e-05
PART_000_R31G119B180A255,14827,3.8061e-07,-2.420048e-07,-7.583387e-08,1.889397e-05,-3.079968e-07,-4.319568e-08,3.273451225016574e-05
PART_000_R31G119B180A255,14828,4.618738e-07,-3.336011e-07,-6.175662e-08,1.977126e-05,-3.963697e-07,-1.480677e-08,3.425887599993089e-05
PART_000_R31G119B180A255,14829,-4.365866e-06,1.07394e-06,1.622773e-06,1.943083e-05,-6.07491e-08,-2.721674e-08,3.4140342838127504e-05
PART_000_R31G119B180A255,14830,-4.653443e-06,1.219145e-06,1.781533e-06,1.821844e-05,5.885147e-07,-1.886055e-07,3.217120880479114e-05
PART_000_R31G119B180A255,14831,-4.981117e-06,1.380113e-06,1.917774e-06,1.772627e-05,5.737135e-07,-1.797607e-07,3.1431208047951186e-05
PART_000_R31G119B180A255,14832,-5.195059e-06,1.437245e-06,2.074814e-06,1.713168e-05,4.776939e-07,-1.261779e-07,3.0493248725709595e-05
PART_000_R31G119B180A255,14833,-5.308657e-06,1.467734e-06,2.133321e-06,1.697883e-05,3.762268e-07,-3.457206e-08,3.0267854050126837e-05
PART_000_R31G119B180A255,14834,-5.328937e-06,1.48143e-06,2.139471e-06,1.69276e-05,4.023658e-09,2.505178e-08,3.0181591640732463e-05
PART_000_R31G119B180A255,14835,-5.290719e-06,1.484961e-06,2.091959e-06,1.682046e-05,-2.162695e-07,7.499671e-08,2.9988863351038618e-05
PART_000_R31G119B180A255,14836,-5.18862e-06,1.468491e-06,2.001542e-06,1.715609e-05,-3.609675e-07,1.009307e-07,3.052155919676547e-05
PART_000_R31G119B180A255,14837,-5.040054e-06,1.421567e-06,1.892076e-06,1.730988e-05,-5.955435e-07,1.056769e-07,3.0740974795015344e-05
PART_000_R31G119B180A255,14838,-4.855941e-06,1.310549e-06,1.788374e-06,1.809654e-05,-2.550304e-07,6.963789e-08,3.199788068719112e-05
PART_000_R31G119B180A255,14839,-4.667514e-06,1.091867e-06,1.779813e-06,1.891364e-05,-3.740155e-07,2.582812e-08,3.3334739844948126e-05
PART_000_R31G119B180A255,14840,-9.223306e-06,2.273039e-06,3.46856e-06,1.715911e-05,2.444242e-08,-2.264759e-07,3.2106076916419415e-05
PART_000_R31G119B180A255,14841,-9.869386e-06,2.815786e-06,3.643352e-06,1.604882e-05,5.040247e-07,-4.088315e-07,3.0757985851861284e-05
PART_000_R31G119B180A255,14842,-1.045473e-05,3.029468e-06,3.995102e-06,1.563666e-05,4.285986e-07,-4.663507e-07,3.0504029108454333e-05
PART_000_R31G119B180A255,14843,-1.094084e-05,3.129017e-06,4.343683e-06,1.508043e-05,3.69628e-07,-3.168124e-07,2.9991591458857268e-05
PART_000_R31G119B180A255,14844,-1.114573e-05,3.165285e-06,4.468357e-06,1.494121e-05,3.195288e-07,-9.987082e-08,2.9920008643079296e-05
PART_000_R31G119B180A255,14845,-1.119248e-05,3.188868e-06,4.485487e-06,1.490641e-05,3.82055e-09,5.370456e-08,2.9895875865812634e-05
PART_000_R31G119B180A255,14846,-1.110629e-05,3.196772e-06,4.382533e-06,1.480649e-05,-1.573436e-07,1.932812e-07,2.967871976817144e-05
PART_000_R31G119B180A255,14847,-1.09e-05,3.184202e-06,4.186711e-06,1.512833e-05,-2.606737e-07,2.719936e-07,3.0008568929396498e-05
PART_000_R31G119B180A255,14848,-1.060035e-05,3.134607e-06,3.929327e-06,1.526538e-05,-4.680177e-07,2.977255e-07,3.0003576311051318e-05
PART_000_R31G119B180A255,14849,-1.025854e-05,2.979719e-06,3.688081e-06,1.59621e-05,-1.694317e-07,2.083073e-07,3.0817413324652634e-05
PART_000_R31G119B180A255,14850,-1.000349e-05,2.69875e-06,3.634241e-06,1.664354e-05,-3.25298e-07,7.766564e-08,3.1709031821306736e-05
PART_000_R31G119B180A255,14851,-1.463624e-05,4.20025e-06,5.29165e-06,1.328444e-05,-6.095867e-08,-3.251603e-07,3.0105149535375717e-05
PART_000_R31G119B180A255,14852,-1.533898e-05,4.571573e-06,5.56351e-06,1.263836e-05,3.160796e-07,-6.687957e-07,2.996648271758571e-05
PART_000_R31G119B180A255,14853,-1.617476e-05,4.786768e-06,6.169712e-06,1.23422e-05,2.698867e-07,-8.401994e-07,3.0489552861400634e-05
PART_000_R31G119B180A255,14854,-1.700008e-05,4.927451e-06,6.780719e-06,1.185965e-05,2.124875e-07,-5.636417e-07,3.078849188634445e-05
PART_000_R31G119B180A255,14855,-1.729702e-05,4.978127e-06,6.9442e-06,1.173903e-05,2.380045e-07,-1.609341e-07,3.0943566307118805e-05
PART_000_R31G119B180A255,14856,-1.7361e-05,5.0034e-06,6.978446e-06,1.172947e-05,3.396029e-09,7.856962e-08,3.099996558742954e-05
PART_000_R31G119B180A255,14857,-1.722715e-05,5.017123e-06,6.817795e-06,1.163733e-05,-9.133799e-08,3.496246e-07,3.073725474170223e-05
PART_000_R31G119B180A255,14858,-1.686618e-05,4.996646e-06,6.490848e-06,1.193453e-05,-1.315268e-07,4.974672e-07,3.067534215560137e-05
PART_000_R31G119B180A255,14859,-1.638903e-05,4.957575e-06,6.055083e-06,1.204069e-05,-2.965963e-07,5.603549e-07,3.027293653681638e-05
PART_000_R31G119B180A255,14860,-1.589531e-05,4.843088e-06,5.621745e-06,1.262679e-05,-3.567002e-08,4.102636e-07,3.04245262893159e-05
PART_000_R31G119B180A255,14861,-1.561377e-05,4.59554e-06,5.485492e-06,1.315151e-05,-2.448915e-07,1.533629e-07,3.07624879196958e-05
PART_000_R31G119B180A255,14862,-2.021198e-05,6.167458e-06,7.151232e-06,8.744488e-06,-6.919575e-08,-5.408092e-07,3.087205799411876e-05
PART_000_R31G119B180A255,14863,-2.099071e-05,6.470884e-06,7.543757e-06,8.19569e-06,1.296535e-07,-9.939934e-07,3.145275038356335e-05
PART_001_R158G218B229A255,14864,-2.211606e-05,6.661933e-06,8.443485e-06,8.008638e-06,8.60295e-08,-1.288405e-06,3.2863860287916676e-05
PART_001_R158G218B229A255,14865,-2.335871e-05,6.825445e-06,9.410875e-06,7.683397e-06,7.567871e-08,-8.76971e-07,3.42816987005511e-05
PART_000_R31G119B180A255,14866,-2.375769e-05,6.911118e-06,9.588628e-06,7.597638e-06,1.433857e-07,-2.20263e-07,3.4687756043459725e-05
PART_001_R158G218B229A255,14867,-2.38262e-05,6.938335e-06,9.631574e-06,7.604914e-06,-5.872451e-09,9.394758e-08,3.4786450354970176e-05
PART_000_R31G119B180A255,14868,-2.364862e-05,6.948051e-06,9.432543e-06,7.53326e-06,-2.741911e-08,5.47717e-07,3.448910577194317e-05
PART_000_R31G119B180A255,14869,-2.304735e-05,6.908901e-06,8.899602e-06,7.76577e-06,-2.735786e-08,7.801911e-07,3.381898422723725e-05
PART_001_R158G218B229A255,14870,-2.235635e-05,6.874272e-06,8.271247e-06,7.822103e-06,-1.333751e-07,8.481917e-07,3.290870386517118e-05
PART_001_R158G218B229A255,14871,-2.161377e-05,6.800223e-06,7.586806e-06,8.270185e-06,7.452769e-08,6.70984e-07,3.220060366504066e-05
PART_001_R158G218B229A255,14872,-2.131957e-05,6.682213e-06,7.283351e-06,8.632865e-06,-1.588319e-07,2.491533e-07,3.201773169738821e-05
PART_000_R31G119B180A255,14873,-2.54285e-05,8.143363e-06,8.864519e-06,3.044864e-06,-9.982568e-08,-7.856063e-07,3.4372890761633395e-05
PART_001_R158G218B229A255,14874,-2.652312e-05,8.326486e-06,9.534659e-06,2.861496e-06,-1.423252e-08,-1.424044e-06,3.589857745221579e-05
PART_001_R158G218B229A255,14875,-2.807451e-05,8.477758e-06,1.080492e-05,2.812628e-06,5.990968e-09,-1.80221e-06,3.821025578490713e-05
PART_001_R158G218B229A255,14876,-2.981462e-05,8.693938e-06,1.215484e-05,2.683306e-06,-2.73033e-10,-1.256844e-06,4.067555274739165e-05
PART_001_R158G218B229A255,14877,-3.037317e-05,8.816588e-06,1.241621e-05,2.650645e-06,5.371933e-08,-3.049168e-07,4.136699242784049e-05
PART_001_R158G218B229A255,14878,-3.043548e-05,8.850519e-06,1.24373e-05,2.669554e-06,-8.521027e-09,1.156997e-07,4.145581892703812e-05
PART_001_R158G218B229A255,14879,-3.018536e-05,8.846312e-06,1.218908e-05,2.617954e-06,-2.895873e-09,7.71854e-07,4.107879856512409e-05
PART_001_R158G218B229A255,14880,-2.926108e-05,8.788418e-06,1.137579e-05,2.741634e-06,1.554887e-08,1.078437e-06,3.973595944504793e-05
PART_001_R158G218B229A255,14881,-2.831999e-05,8.741547e-06,1.055295e-05,2.729467e-06,-3.631758e-08,1.126582e-06,3.834232091511258e-05
PART_001_R158G218B229A255,14882,-2.71362e-05,8.638839e-06,9.53786e-06,2.927677e-06,9.861252e-08,9.370317e-07,3.662241529314369e-05
PART_001_R158G218B229A255,14883,-2.670794e-05,8.667971e-06,8.928417e-06,3.048443e-06,-8.681899e-08,2.522346e-07,3.590026350013709e-05
PART_000_R31G119B180A255,14884,1.935247e-05,-5.949814e-06,-6.625775e-06,2.681917e-06,5.99283e-07,8.795081e-07,2.6129330575158864e-05
PART_000_R31G119B180A255,14885,2.104368e-05,-6.333088e-06,-8.079021e-06,3.116491e-06,8.439686e-08,2.550951e-06,2.913785648968085e-05
PART_000_R31G119B180A255,14886,2.380063e-05,-6.656934e-06,-1.030742e-05,2.752262e-06,9.847032e-08,2.36598e-06,3.3041211773621294e-05
PART_000_R31G119B180A255,14887,2.513497e-05,-6.822427e-06,-1.118591e-05,2.914972e-06,2.89299e-07,1.053809e-06,3.476829838635545e-05
PART_000_R31G119B180A255,14888,2.546631e-05,-6.865527e-06,-1.148216e-05,2.911731e-06,3.292997e-08,3.997313e-07,3.523978363200509e-05
PART_000_R31G119B180A255,14889,2.562943e-05,-6.885776e-06,-1.159808e-05,2.842286e-06,4.234849e-08,-3.276103e-07,3.545742658925882e-05
PART_000_R31G119B180A255,14890,2.526485e-05,-6.897151e-06,-1.119168e-05,2.910918e-06,-7.694872e-08,-8.992588e-07,3.491163168545985e-05
PART_000_R31G119B180A255,14891,2.455163e-05,-6.874423e-06,-1.056824e-05,2.801634e-06,-1.140957e-07,-1.544752e-06,3.3883159075317264e-05
PART_000_R31G119B180A255,14892,2.303995e-05,-6.780592e-06,-9.18566e-06,2.95339e-06,-4.408585e-08,-1.836149e-06,3.167107838673413e-05
PART_000_R31G119B180A255,14893,2.177793e-05,-6.79089e-06,-7.95357e-06,2.915075e-06,-1.364838e-07,-1.352292e-06,2.9694791594184564e-05
PART_000_R31G119B180A255,14894,2.1027e-05,-6.726993e-06,-7.290255e-06,3.113845e-06,1.130895e-07,-6.706137e-07,2.857813480776602e-05
PART_000_R31G119B180A255,14895,1.52775e-05,-4.365642e-06,-5.663219e-06,8.404398e-06,1.749392e-07,9.000985e-07,2.5048937767846278e-05
PART_000_R31G119B180A255,14896,1.688837e-05,-5.049682e-06,-6.494293e-06,8.509927e-06,2.90191e-07,1.643865e-06,2.721530928051162e-05
PART_000_R31G119B180A255,14897,1.861185e-05,-5.293402e-06,-7.833595e-06,8.112418e-06,5.393311e-07,1.526666e-06,2.9050582545062856e-05
PART_000_R31G119B180A255,14898,1.96342e-05,-5.383445e-06,-8.588813e-06,8.252558e-06,6.236817e-07,7.551514e-07,3.0389793388725292e-05
PART_000_R31G119B180A255,14899,1.992613e-05,-5.454718e-06,-8.739721e-06,8.259992e-06,2.129556e-07,2.201231e-07,3.0713493257069015e-05
PART_000_R31G119B180A255,14900,2.003059e-05,-5.469642e-06,-8.845796e-06,8.131965e-06,6.839435e-08,-2.026592e-07,3.0761611922204476e-05
PART_000_R31G119B180A255,14901,1.982736e-05,-5.474839e-06,-8.596646e-06,8.218438e-06,-2.072641e-07,-6.279225e-07,3.0543009672156416e-05
PART_000_R31G119B180A255,14902,1.932246e-05,-5.479783e-06,-8.144939e-06,8.047006e-06,-3.351954e-07,-1.034172e-06,2.9768518283879976e-05
PART_000_R31G119B180A255,14903,1.836444e-05,-5.417986e-06,-7.254051e-06,8.339747e-06,-2.321868e-07,-1.239939e-06,2.8741419928334504e-05
PART_000_R31G119B180A255,14904,1.749665e-05,-5.376505e-06,-6.386818e-06,8.292571e-06,-3.98349e-07,-9.532452e-07,2.751023944354182e-05
PART_000_R31G119B180A255,14905,1.698595e-05,-5.173431e-06,-5.96376e-06,8.744101e-06,1.378865e-07,-4.241415e-07,2.7187324632060934e-05
PART_000_R31G119B180A255,14906,1.122979e-05,-3.109347e-06,-4.078102e-06,1.360985e-05,5.206451e-07,3.738886e-07,2.7881124258229275e-05
PART_000_R31G119B180A255,14907,1.233199e-05,-3.581197e-06,-4.736848e-06,1.298642e-05,6.718273e-07,1.071814e-06,2.799458635101742e-05
PART_000_R31G119B180A255,14908,1.368341e-05,-3.888057e-06,-5.660689e-06,1.245939e-05,9.058989e-07,1.070198e-06,2.854213637196124e-05
PART_000_R31G119B180A255,14909,1.444658e-05,-3.936162e-06,-6.241491e-06,1.263632e-05,8.995114e-07,5.283221e-07,2.946035468042362e-05
PART_000_R31G119B180A255,14910,1.464398e-05,-3.970696e-06,-6.342576e-06,1.253993e-05,3.542235e-07,1.331106e-07,2.9469694033096268e-05
PART_000_R31G119B180A255,14911,1.472828e-05,-4.010156e-06,-6.392693e-06,1.240529e-05,9.809602e-08,-1.270973e-07,2.9380290553112616e-05
PART_000_R31G119B180A255,14912,1.460932e-05,-4.004352e-06,-6.26089e-06,1.25027e-05,-3.203265e-07,-4.240363e-07,2.938303892856428e-05
PART_000_R31G119B180A255,14913,1.425956e-05,-4.027897e-06,-5.912958e-06,1.228065e-05,-5.602459e-07,-6.857428e-07,2.876200548843218e-05
PART_000_R31G119B180A255,14914,1.36435e-05,-3.98219e-06,-5.3437e-06,1.268251e-05,-4.821299e-07,-7.998433e-07,2.8664803958574124e-05
PART_000_R31G119B180A255,14915,1.300708e-05,-3.867555e-06,-4.782463e-06,1.269997e-05,-7.186661e-07,-6.340991e-07,2.806514748738547e-05
PART_000_R31G119B180A255,14916,1.253961e-05,-3.520475e-06,-4.518887e-06,1.340704e-05,7.612335e-08,-2.673244e-07,2.8538319402104615e-05
PART_000_R31G119B180A255,14917,7.398779e-06,-2.073099e-06,-2.574419e-06,1.676943e-05,7.832987e-07,2.31161e-07,3.066526635832424e-05
PART_000_R31G119B180A255,14918,8.072129e-06,-2.267908e-06,-3.121733e-06,1.658485e-05,8.402313e-07,8.381418e-07,3.075501786528891e-05
PART_000_R31G119B180A255,14919,9.083322e-06,-2.510928e-06,-3.807803e-06,1.571681e-05,1.165678e-06,7.276863e-07,2.99643814916619e-05
PART_000_R31G119B180A255,14920,9.51508e-06,-2.55241e-06,-4.064998e-06,1.590011e-05,1.133485e-06,3.144048e-07,3.0475511280842003e-05
PART_000_R31G119B180A255,14921,9.650452e-06,-2.558808e-06,-4.184332e-06,1.578138e-05,4.295105e-07,1.246326e-07,3.0320136954693904e-05
PART_000_R31G119B180A255,14922,9.729697e-06,-2.587879e-06,-4.209378e-06,1.558385e-05,1.308994e-07,-9.457129e-08,3.00494967063034e-05
PART_000_R31G119B180A255,14923,9.638565e-06,-2.596478e-06,-4.112921e-06,1.572141e-05,-4.134783e-07,-2.645041e-07,3.0211928095222754e-05
PART_000_R31G119B180A255,14924,9.430915e-06,-2.609008e-06,-3.904256e-06,1.546199e-05,-7.381999e-07,-4.413859e-07,2.969294167826545e-05
PART_000_R31G119B180A255,14925,9.039953e-06,-2.580998e-06,-3.538564e-06,1.594071e-05,-6.852866e-07,-5.114199e-07,3.0192771856540263e-05
PART_000_R31G119B180A255,14926,8.639153e-06,-2.490316e-06,-3.202939e-06,1.601993e-05,-9.40518e-07,-4.119124e-07,3.008955361524611e-05
PART_000_R31G119B180A255,14927,8.273238e-06,-2.187848e-06,-3.038432e-06,1.699414e-05,4.427396e-08,-1.733116e-07,3.139353787192775e-05
PART_000_R31G119B180A255,14928,3.635944e-06,-8.449638e-07,-1.465186e-06,1.932596e-05,9.725614e-07,2.737138e-07,3.386418378333115e-05
PART_000_R31G119B180A255,14929,4.232005e-06,-1.244705e-06,-1.598807e-06,1.868171e-05,8.882346e-07,4.590054e-07,3.289493669507243e-05
PART_000_R31G119B180A255,14930,4.697359e-06,-1.275311e-06,-1.987172e-06,1.769227e-05,1.271125e-06,4.001429e-07,3.138165254456698e-05
PART_000_R31G119B180A255,14931,4.895022e-06,-1.278176e-06,-2.091809e-06,1.791537e-05,1.280703e-06,1.831559e-07,3.180716547098575e-05
PART_000_R31G119B180A255,14932,4.962893e-06,-1.279731e-06,-2.158955e-06,1.775307e-05,4.761102e-07,8.060543e-08,3.148723664978711e-05
PART_000_R31G119B180A255,14933,5.004972e-06,-1.282051e-06,-2.180912e-06,1.753443e-05,1.418263e-07,-4.60047e-08,3.11194660743197e-05
PART_000_R31G119B180A255,14934,4.958595e-06,-1.294939e-06,-2.123566e-06,1.76827e-05,-4.612083e-07,-1.466134e-07,3.136417416316343e-05
PART_000_R31G119B180A255,14935,4.868376e-06,-1.313313e-06,-2.026275e-06,1.741414e-05,-8.392647e-07,-2.464197e-07,3.0906002371601307e-05
PART_000_R31G119B180A255,14936,4.665763e-06,-1.309307e-06,-1.828464e-06,1.794907e-05,-7.942029e-07,-2.951569e-07,3.174482562611105e-05
PART_000_R31G119B180A255,14937,4.468123e-06,-1.271961e-06,-1.664218e-06,1.805603e-05,-1.064679e-06,-2.374434e-07,3.189019345060683e-05
PART_000_R31G119B180A255,14938,4.307606e-06,-1.161999e-06,-1.567998e-06,1.91977e-05,3.503383e-08,-1.046406e-07,3.373416154505192e-05
PART_000_R31G119B180A255,14939,4.662287e-07,-2.705859e-07,-8.63166e-08,2.000357e-05,5.471218e-07,5.72712e-08,3.466666098165467e-05
PART_000_R31G119B180A255,14940,3.911639e-07,-1.638347e-07,-1.304661e-07,1.922858e-05,9.482799e-07,1.030637e-07,3.3350188223117855e-05
PART_000_R31G119B180A255,14941,3.840368e-07,-1.014662e-07,-1.686417e-07,1.833495e-05,1.331524e-06,1.005321e-07,3.184545811763752e-05
PART_000_R31G119B180A255,14942,3.853481e-07,-6.364015e-08,-1.944016e-07,1.850018e-05,1.290487e-06,6.234385e-08,3.2125614543781926e-05
PART_000_R31G119B180A255,14943,3.707444e-07,-4.074101e-08,-1.933863e-07,1.835772e-05,5.000091e-07,3.105246e-08,3.1812356137171084e-05
PART_000_R31G119B180A255,14944,3.700773e-07,-3.216468e-08,-2.03011e-07,1.812499e-05,1.456549e-07,1.370361e-10,3.139855318711171e-05
PART_000_R31G119B180A255,14945,3.751543e-07,-3.618331e-08,-2.013306e-07,1.828175e-05,-4.636368e-07,-3.417422e-08,3.167932975324355e-05
PART_000_R31G119B180A255,14946,3.844023e-07,-5.979585e-08,-1.966973e-07,1.800327e-05,-8.572956e-07,-7.238455e-08,3.122259827848368e-05
PART_000_R31G119B180A255,14947,3.833875e-07,-1.007558e-07,-1.640592e-07,1.856102e-05,-8.062789e-07,-9.829276e-08,3.218357782607963e-05
PART_000_R31G119B180A255,14948,4.147997e-07,-1.738987e-07,-1.300296e-07,1.870076e-05,-1.083191e-06,-8.161769e-08,3.245023622313594e-05
PART_000_R31G119B180A255,14949,4.997305e-07,-2.937595e-07,-1.097494e-07,1.988093e-05,4.495955e-08,-3.995939e-08,3.444245146994344e-05
PART_000_R31G119B180A255,14950,-2.959709e-06,4.083235e-07,1.316625e-06,1.908384e-05,9.205367e-07,-2.094335e-07,3.3323871947381274e-05
PART_000_R31G119B180A255,14951,-3.557291e-06,9.46287e-07,1.387946e-06,1.846091e-05,8.198113e-07,-2.449432e-07,3.2358587431021595e-05
PART_000_R31G119B180A255,14952,-3.956529e-06,1.066448e-06,1.651627e-06,1.749839e-05,1.213361e-06,-2.090651e-07,3.084867728502845e-05
PART_000_R31G119B180A255,14953,-4.191016e-06,1.137841e-06,1.761186e-06,1.7715e-05,1.233087e-06,-8.173249e-08,3.1275425153474906e-05
PART_000_R31G119B180A255,14954,-4.276549e-06,1.177025e-06,1.807719e-06,1.755598e-05,4.647898e-07,-1.018832e-08,3.09655370057878e-05
PART_000_R31G119B180A255,14955,-4.310258e-06,1.197319e-06,1.812349e-06,1.734376e-05,1.534165e-07,4.242562e-08,3.060380750615931e-05
PART_000_R31G119B180A255,14956,-4.264182e-06,1.1969e-06,1.768025e-06,1.749844e-05,-4.219767e-07,9.433502e-08,3.0861232289531524e-05
PART_000_R31G119B180A255,14957,-4.143177e-06,1.177353e-06,1.66627e-06,1.723124e-05,-7.770317e-07,1.202993e-07,3.03932562132746e-05
PART_000_R31G119B180A255,14958,-3.948171e-06,1.099591e-06,1.536321e-06,1.777666e-05,-7.152989e-07,1.196209e-07,3.126470775002988e-05
PART_000_R31G119B180A255,14959,-3.682002e-06,9.218071e-07,1.427091e-06,1.786529e-05,-1.003833e-06,9.308895e-08,3.137405615714278e-05
PART_000_R31G119B180A255,14960,-3.349366e-06,5.848644e-07,1.361871e-06,1.897228e-05,7.155329e-08,3.035222e-08,3.315115653593936e-05
PART_000_R31G119B180A255,14961,-6.666631e-06,1.711935e-06,2.479647e-06,1.661755e-05,6.711583e-07,-2.282873e-07,3.0119075106397153e-05
PART_000_R31G119B180A255,14962,-7.645646e-06,2.080696e-06,2.996672e-06,1.626582e-05,6.34522e-07,-7.294767e-07,3.0014743055097315e-05
PART_000_R31G119B180A255,14963,-8.631921e-06,2.348763e-06,3.606864e-06,1.52779e-05,1.003057e-06,-5.951876e-07,2.8987874169356905e-05
PART_000_R31G119B180A255,14964,-9.070307e-06,2.433406e-06,3.84921e-06,1.547332e-05,1.07032e-06,-2.522846e-07,2.9538542776610164e-05
PART_000_R31G119B180A255,14965,-9.237081e-06,2.492238e-06,3.943349e-06,1.536142e-05,3.861464e-07,-6.605316e-08,2.941229811825706e-05
PART_000_R31G119B180A255,14966,-9.303477e-06,2.514043e-06,3.967615e-06,1.515148e-05,1.516179e-07,9.586361e-08,2.9116023745013534e-05
PART_000_R31G119B180A255,14967,-9.209342e-06,2.51819e-06,3.880454e-06,1.531719e-05,-3.346346e-07,2.555474e-07,2.9321452002330305e-05
PART_000_R31G119B180A255,14968,-8.949213e-06,2.492432e-06,3.653974e-06,1.506302e-05,-6.19816e-07,3.819697e-07,2.8771936050226116e-05
PART_000_R31G119B180A255,14969,-8.54473e-06,2.397683e-06,3.343286e-06,1.55774e-05,-5.290946e-07,4.160979e-07,2.9330924871381363e-05
PART_000_R31G119B180A255,14970,-8.039289e-06,2.186003e-06,3.04089e-06,1.563549e-05,-8.229982e-07,3.498112e-07,2.915190597248974e-05
PART_000_R31G119B180A255,14971,-7.464911e-06,1.672998e-06,2.870177e-06,1.653969e-05,1.172782e-07,1.29486e-07,3.027622713447808e-05
PART_000_R31G119B180A255,14972,-1.046244e-05,2.514339e-06,3.877656e-06,1.309536e-05,5.51632e-07,-4.845187e-07,2.6533552705287962e-05
PART_000_R31G119B180A255,14973,-1.207484e-05,3.420659e-06,4.722578e-06,1.270814e-05,3.915082e-07,-1.339797e-06,2.7428358275671035e-05
PART_000_R31G119B180A255,14974,-1.380119e-05,3.850247e-06,5.802032e-06,1.188189e-05,6.51136e-07,-1.092869e-06,2.7896728391650335e-05
PART_000_R31G119B180A255,14975,-1.445586e-05,3.949763e-06,6.134712e-06,1.204434e-05,8.292e-07,-4.503048e-07,2.866401449525984e-05
PART_000_R31G119B180A255,14976,-1.468461e-05,4.008277e-06,6.301535e-06,1.197816e-05,2.688682e-07,-1.754715e-07,2.8780008014780495e-05
PART_000_R31G119B180A255,14977,-1.481673e-05,4.043773e-06,6.355219e-06,1.178973e-05,1.290126e-07,1.73123e-07,2.8666870044220493e-05
PART_000_R31G119B180A255,14978,-1.463044e-05,4.026157e-06,6.213784e-06,1.194795e-05,-2.184011e-07,4.748719e-07,2.8683586483039904e-05
PART_000_R31G119B180A255,14979,-1.422099e-05,4.012877e-06,5.841577e-06,1.172827e-05,-4.017183e-07,7.489339e-07,2.7999752005377854e-05
PART_001_R158G218B229A255,14980,-1.352943e-05,3.905758e-06,5.290779e-06,1.219801e-05,-2.761275e-07,8.342678e-07,2.790597170213129e-05
PART_000_R31G119B180A255,14981,-1.274309e-05,3.669989e-06,4.747568e-06,1.218195e-05,-5.728705e-07,6.991854e-07,2.7127247702720473e-05
PART_000_R31G119B180A255,14982,-1.203227e-05,3.159374e-06,4.402614e-06,1.277636e-05,1.676044e-07,2.677935e-07,2.7225430959606883e-05
PART_000_R31G119B180A255,14983,-1.490176e-05,4.225989e-06,5.178337e-06,7.750385e-06,2.919155e-07,-7.374115e-07,2.381357587822227e-05
PART_000_R31G119B180A255,14984,-1.693562e-05,4.94403e-06,6.631471e-06,8.116906e-06,7.667792e-08,-2.27122e-06,2.7048708067865007e-05
PART_001_R158G218B229A255,14985,-1.947838e-05,5.447179e-06,8.356012e-06,7.563853e-06,3.0302e-07,-1.806091e-06,2.973123044083253e-05
PART_001_R158G218B229A255,14986,-2.036035e-05,5.639268e-06,8.667015e-06,7.653687e-06,5.088678e-07,-7.228265e-07,3.0691182793848513e-05
PART_000_R31G119B180A255,14987,-2.068396e-05,5.704988e-06,8.945248e-06,7.632781e-06,1.379874e-07,-3.589786e-07,3.1106344528345296e-05
PART_000_R31G119B180A255,14988,-2.088991e-05,5.739841e-06,9.046108e-06,7.485824e-06,9.377124e-08,2.908182e-07,3.124920630090374e-05
PART_001_R158G218B229A255,14989,-2.055941e-05,5.714396e-06,8.774544e-06,7.613017e-06,-1.151179e-07,7.542701e-07,3.0914393613034984e-05
PART_001_R158G218B229A255,14990,-1.997681e-05,5.673875e-06,8.307768e-06,7.454036e-06,-1.774514e-07,1.261499e-06,3.0066804905382874e-05
PART_001_R158G218B229A255,14991,-1.883752e-05,5.538793e-06,7.385696e-06,7.847029e-06,-1.917641e-08,1.488294e-06,2.887923344637024e-05
PART_001_R158G218B229A255,14992,-1.774342e-05,5.385415e-06,6.497708e-06,7.773328e-06,-2.684464e-07,1.21286e-06,2.7346104084097612e-05
PART_000_R31G119B180A255,14993,-1.695085e-05,5.068763e-06,5.94468e-06,8.101741e-06,2.420413e-07,4.940892e-07,2.65092566229121e-05
PART_000_R31G119B180A255,14994,-1.938932e-05,6.209171e-06,6.360633e-06,2.569799e-06,1.727657e-07,-1.226663e-06,2.614570962639122e-05
PART_001_R158G218B229A255,14995,-2.176341e-05,6.45661e-06,8.548277e-06,2.821802e-06,3.295187e-10,-3.559762e-06,3.03590991402894e-05
PART_001_R158G218B229A255,14996,-2.541909e-05,7.07481e-06,1.110713e-05,2.585766e-06,5.168309e-08,-2.856177e-06,3.532249646686982e-05
PART_001_R158G218B229A255,14997,-2.668386e-05,7.394959e-06,1.15649e-05,2.647051e-06,1.96789e-07,-1.149446e-06,3.6687347546532104e-05
PART_001_R158G218B229A255,14998,-2.706534e-05,7.47554e-06,1.188609e-05,2.64276e-06,1.547807e-08,-5.612822e-07,3.723933396087749e-05
PART_001_R158G218B229A255,14999,-2.731138e-05,7.510678e-06,1.20116e-05,2.567399e-06,4.872467e-08,4.236189e-07,3.754844182141568e-05
PART_001_R158G218B229A255,15000,-2.683216e-05,7.488352e-06,1.158724e-05,2.652781e-06,-3.824143e-08,1.096979e-06,3.687954146503797e-05
PART_001_R158G218B229A255,15001,-2.599014e-05,7.38818e-06,1.09777e-05,2.542644e-06,-4.273342e-08,1.946646e-06,3.574322219631172e-05
PART_001_R158G218B229A255,15002,-2.415992e-05,7.174511e-06,9.507588e-06,2.759158e-06,4.899571e-08,2.304618e-06,3.315381286336967e-05
PART_001_R158G218B229A255,15003,-2.263081e-05,7.058506e-06,8.255473e-06,2.690755e-06,-1.150195e-07,1.809777e-06,3.08222549513646e-05
PART_001_R158G218B229A255,15004,-2.155504e-05,6.877548e-06,7.471235e-06,2.822724e-06,1.729101e-07,8.99372e-07,2.9190138720728874e-05
PART_000_R31G119B180A255,15005,1.309587e-05,-4.021005e-06,-5.334403e-06,2.71974e-06,-1.025357e-06,2.871199e-06,1.916429159899288e-05
PART_000_R31G119B180A255,15006,1.802471e-05,-4.924023e-06,-8.415073e-06,2.418776e-06,2.427806e-07,4.30023e-06,2.630876553888221e-05
PART_000_R31G119B180A255,15007,2.099881e-05,-5.368349e-06,-9.944811e-06,2.941132e-06,8.433848e-07,2.030279e-06,2.961908411684249e-05
PART_000_R31G119B180A255,15008,2.124797e-05,-5.400129e-06,-1.034067e-05,3.031762e-06,1.568167e-07,1.141227e-06,2.9962340787574604e-05
PART_000_R31G119B180A255,15009,2.19742e-05,-5.41353e-06,-1.097747e-05,2.899031e-06,2.298408e-07,4.692699e-07,3.097516964677926e-05
PART_000_R31G119B180A255,15010,2.21574e-05,-5.441144e-06,-1.110975e-05,2.983886e-06,-2.773979e-08,-4.671661e-07,3.126700761151663e-05
PART_000_R31G119B180A255,15011,2.168699e-05,-5.413333e-06,-1.0732e-05,2.861754e-06,-9.522896e-08,-1.369826e-06,3.061174124964967e-05
PART_000_R31G119B180A255,15012,2.091676e-05,-5.401805e-06,-9.903945e-06,2.946675e-06,-2.516185e-07,-1.964402e-06,2.948289732024719e-05
PART_000_R31G119B180A255,15013,1.961889e-05,-5.329398e-06,-8.911035e-06,2.669219e-06,-2.692732e-07,-2.888666e-06,2.7770952401302964e-05
PART_000_R31G119B180A255,15014,1.687384e-05,-4.930679e-06,-6.747458e-06,2.877471e-06,4.641232e-08,-3.05233e-06,2.3898700019981614e-05
PART_000_R31G119B180A255,15015,1.524549e-05,-4.798522e-06,-5.141739e-06,2.587072e-06,-2.457099e-07,-1.057481e-06,2.079361448840355e-05
PART_000_R31G119B180A255,15016,9.973528e-06,-3.133568e-06,-3.522587e-06,7.87052e-06,1.32842e-07,1.052529e-06,1.9137864530924446e-05
PART_000_R31G119B180A255,15017,1.360913e-05,-3.987096e-06,-5.91969e-06,7.280893e-06,1.354459e-06,2.382599e-06,2.2998623218943976e-05
PART_000_R31G119B180A255,15018,1.576871e-05,-3.977747e-06,-7.427391e-06,8.396952e-06,1.73299e-06,1.407534e-06,2.6389779882855656e-05
PART_000_R31G119B180A255,15019,1.625818e-05,-4.143166e-06,-7.594913e-06,8.504079e-06,7.63705e-07,6.007065e-07,2.6801867856707525e-05
PART_000_R31G119B180A255,15020,1.668656e-05,-4.168346e-06,-8.07116e-06,8.302074e-06,5.175866e-07,2.974788e-07,2.7191806618395017e-05
PART_000_R31G119B180A255,15021,1.689544e-05,-4.178655e-06,-8.198393e-06,8.398675e-06,-2.103024e-09,-3.331759e-07,2.751244029926837e-05
PART_000_R31G119B180A255,15022,1.657236e-05,-4.171742e-06,-7.94583e-06,8.196268e-06,-3.162553e-07,-8.440117e-07,2.695969438484311e-05
PART_000_R31G119B180A255,15023,1.609515e-05,-4.138337e-06,-7.463193e-06,8.275117e-06,-7.072063e-07,-1.2358e-06,2.6443086157181484e-05
PART_000_R31G119B180A255,15024,1.517176e-05,-4.123343e-06,-6.720462e-06,7.734487e-06,-8.154243e-07,-1.778206e-06,2.490191504786195e-05
PART_000_R31G119B180A255,15025,1.343226e-05,-3.838977e-06,-5.357687e-06,8.193352e-06,-2.20242e-07,-1.769114e-06,2.318965225174649e-05
PART_000_R31G119B180A255,15026,1.218798e-05,-3.358039e-06,-4.414342e-06,7.784277e-06,-6.056111e-07,-6.283089e-07,2.105434171749146e-05
PART_000_R31G119B180A255,15027,6.794991e-06,-1.614857e-06,-2.803703e-06,1.223959e-05,3.105496e-07,1.165133e-06,2.3149979057005117e-05
PART_000_R31G119B180A255,15028,9.682595e-06,-2.805212e-06,-4.167858e-06,1.169279e-05,2.2676e-06,1.870772e-06,2.471655305474732e-05
PART_000_R31G119B180A255,15029,1.13577e-05,-2.823598e-06,-5.312992e-06,1.315314e-05,2.365973e-06,9.14717e-07,2.794508929069124e-05
PART_000_R31G119B180A255,15030,1.162065e-05,-2.835237e-06,-5.423085e-06,1.302523e-05,1.154755e-06,3.547194e-07,2.7684417440792085e-05
PART_000_R31G119B180A255,15031,1.196103e-05,-2.942057e-06,-5.677409e-06,1.28814e-05,8.225464e-07,1.72025e-07,2.775354508792401e-05
PART_000_R31G119B180A255,15032,1.21004e-05,-2.921401e-06,-5.804224e-06,1.293705e-05,-1.64148e-08,-2.181249e-07,2.7919808362838562e-05
PART_000_R31G119B180A255,15033,1.191109e-05,-2.937829e-06,-5.625021e-06,1.26766e-05,-4.822791e-07,-5.212268e-07,2.7408295584747297e-05
PART_000_R31G119B180A255,15034,1.15903e-05,-2.907699e-06,-5.346214e-06,1.281227e-05,-1.084509e-06,-7.861669e-07,2.7374027116897157e-05
PART_000_R31G119B180A255,15035,1.094166e-05,-2.911926e-06,-4.776653e-06,1.208922e-05,-1.341307e-06,-1.121776e-06,2.5862180610254465e-05
PART_000_R31G119B180A255,15036,9.777863e-06,-2.675341e-06,-3.89926e-06,1.268723e-05,-6.078693e-07,-1.073145e-06,2.567650349288383e-05
PART_000_R31G119B180A255,15037,8.689018e-06,-2.009378e-06,-3.363565e-06,1.259301e-05,-9.328001e-07,-4.029537e-07,2.469061145255111e-05
PART_000_R31G119B180A255,15038,4.364927e-06,-9.358668e-07,-2.068351e-06,1.703626e-05,-1.169769e-07,9.246949e-07,3.014453014597814e-05
PART_000_R31G119B180A255,15039,6.415262e-06,-1.784623e-06,-2.874432e-06,1.488126e-05,2.541642e-06,1.17405e-06,2.766284179328767e-05
PART_000_R31G119B180A255,15040,7.40903e-06,-1.815995e-06,-3.365589e-06,1.662953e-05,2.9616e-06,5.138864e-07,3.096008134104828e-05
PART_000_R31G119B180A255,15041,7.55243e-06,-1.740127e-06,-3.569471e-06,1.652017e-05,1.368564e-06,2.989602e-07,3.051774046055397e-05
PART_000_R31G119B180A255,15042,7.83013e-06,-1.799712e-06,-3.730315e-06,1.621551e-05,1.028365e-06,7.702068e-08,3.011762242772024e-05
PART_000_R31G119B180A255,15043,7.860254e-06,-1.804933e-06,-3.760855e-06,1.635561e-05,-1.6315e-08,-1.262125e-07,3.0310267983670332e-05
PART_000_R31G119B180A255,15044,7.790972e-06,-1.80967e-06,-3.693726e-06,1.59992e-05,-6.025945e-07,-3.191752e-07,2.9717475022727418e-05
PART_000_R31G119B180A255,15045,7.583037e-06,-1.825235e-06,-3.48846e-06,1.621072e-05,-1.361558e-06,-4.968358e-07,3.0026560898271145e-05
PART_000_R31G119B180A255,15046,7.158513e-06,-1.823522e-06,-3.132367e-06,1.538579e-05,-1.74043e-06,-6.979053e-07,2.8545791748086603e-05
PART_000_R31G119B180A255,15047,6.366365e-06,-1.60087e-06,-2.583211e-06,1.61538e-05,-8.889514e-07,-6.776361e-07,2.930618378652186e-05
PART_000_R31G119B180A255,15048,5.640793e-06,-1.151908e-06,-2.258538e-06,1.632335e-05,-1.154811e-06,-2.603333e-07,2.9299177033252328e-05
PART_000_R31G119B180A255,15049,2.798649e-06,-1.327571e-06,-7.212965e-07,1.846341e-05,-2.362769e-07,2.155462e-07,3.2216316139311836e-05
PART_000_R31G119B180A255,15050,3.408081e-06,-9.268917e-07,-1.51241e-06,1.687229e-05,2.967981e-06,5.522951e-07,3.0050580005202326e-05
PART_000_R31G119B180A255,15051,3.742951e-06,-7.610965e-07,-1.758097e-06,1.879481e-05,3.309564e-06,3.22517e-07,3.344663411396183e-05
PART_000_R31G119B180A255,15052,3.855668e-06,-7.32221e-07,-1.896874e-06,1.863037e-05,1.501169e-06,1.8642e-07,3.280069026916705e-05
PART_000_R31G119B180A255,15053,3.970977e-06,-7.111578e-07,-1.988004e-06,1.83198e-05,1.125824e-06,6.167839e-08,3.225197910763617e-05
PART_000_R31G119B180A255,15054,3.990813e-06,-7.249127e-07,-1.994774e-06,1.84293e-05,-3.243062e-09,-7.01473e-08,3.2384734414846896e-05
PART_000_R31G119B180A255,15055,3.957647e-06,-7.287517e-07,-1.967346e-06,1.80781e-05,-6.74237e-07,-1.717325e-07,3.17994710162587e-05
PART_000_R31G119B180A255,15056,3.863398e-06,-7.551173e-07,-1.857716e-06,1.828739e-05,-1.527213e-06,-2.891344e-07,3.2220686060626996e-05
PART_000_R31G119B180A255,15057,3.668509e-06,-7.897902e-07,-1.680712e-06,1.742674e-05,-1.9631e-06,-4.075915e-07,3.078596511016108e-05
PART_000_R31G119B180A255,15058,3.281073e-06,-7.416454e-07,-1.370486e-06,1.833406e-05,-1.025619e-06,-4.080242e-07,3.211192543233485e-05
PART_000_R31G119B180A255,15059,2.942182e-06,-5.769926e-07,-1.192327e-06,1.861042e-05,-1.274388e-06,-1.523603e-07,3.2540954634367673e-05
PART_000_R31G119B180A255,15060,2.982322e-07,-1.17364e-07,-1.200233e-07,1.888016e-05,6.330534e-07,8.251322e-08,3.2722742129309465e-05
PART_000_R31G119B180A255,15061,3.78008e-07,1.47797e-08,-2.287695e-07,1.747002e-05,3.069581e-06,1.784966e-07,3.072860356458037e-05
PART_000_R31G119B180A255,15062,4.056149e-07,1.105263e-07,-2.998664e-07,1.953402e-05,3.341337e-06,1.181478e-07,3.433141257346103e-05
PART_000_R31G119B180A255,15063,3.565604e-07,1.719766e-07,-2.894964e-07,1.940886e-05,1.574994e-06,7.350883e-08,3.373279972655784e-05
PART_000_R31G119B180A255,15064,3.4885e-07,2.13379e-07,-3.211621e-07,1.904917e-05,1.144953e-06,4.800417e-08,3.305947367671069e-05
PART_000_R31G119B180A255,15065,3.548888e-07,2.371428e-07,-3.401053e-07,1.918593e-05,9.872992e-09,-4.988411e-09,3.323725537886061e-05
PART_000_R31G119B180A255,15066,3.494266e-07,2.208055e-07,-3.276222e-07,1.88087e-05,-6.883728e-07,-6.096403e-08,3.2605554188630774e-05
PART_000_R31G119B180A255,15067,3.644784e-07,1.881396e-07,-3.163373e-07,1.90467e-05,-1.55852e-06,-9.635237e-08,3.310618822735421e-05
PART_000_R31G119B180A255,15068,3.866487e-07,1.14354e-07,-2.941902e-07,1.814536e-05,-2.011697e-06,-1.510718e-07,3.16278960460836e-05
PART_000_R31G119B180A255,15069,3.744189e-07,9.382538e-09,-2.151551e-07,1.904511e-05,-1.046731e-06,-1.614505e-07,3.304208549692653e-05
PART_000_R31G119B180A255,15070,4.299543e-07,-1.460389e-07,-1.363259e-07,1.934448e-05,-1.316704e-06,-6.092034e-08,3.3588171272523735e-05
PART_000_R31G119B180A255,15071,-1.991392e-06,9.897581e-07,4.826111e-07,1.831265e-05,-2.302579e-07,8.594194e-09,3.184103171095628e-05
PART_000_R31G119B180A255,15072,-2.604692e-06,8.756576e-07,1.038146e-06,1.679205e-05,2.926132e-06,-2.347734e-07,2.974013589336999e-05
PART_000_R31G119B180A255,15073,-2.968706e-06,8.923412e-07,1.257647e-06,1.873145e-05,3.260733e-06,-1.250748e-07,3.3181279726082405e-05
PART_000_R31G119B180A255,15074,-3.152981e-06,9.928815e-07,1.341966e-06,1.85725e-05,1.501456e-06,-1.959532e-08,3.2562782793158714e-05
PART_000_R31G119B180A255,15075,-3.269657e-06,1.068998e-06,1.371727e-06,1.829308e-05,1.127577e-06,2.833496e-08,3.206175345622605e-05
PART_000_R31G119B180A255,15076,-3.293022e-06,1.094701e-06,1.376432e-06,1.840745e-05,5.814154e-09,5.918833e-08,3.220374047786201e-05
PART_000_R31G119B180A255,15077,-3.259204e-06,1.087356e-06,1.349948e-06,1.80511e-05,-6.303357e-07,6.446778e-08,3.160433485257429e-05
PART_000_R31G119B180A255,15078,-3.141512e-06,1.042413e-06,1.277303e-06,1.826896e-05,-1.469635e-06,1.084857e-07,3.203627086361276e-05
PART_000_R31G119B180A255,15079,-2.898684e-06,9.515605e-07,1.119947e-06,1.737346e-05,-1.902435e-06,1.238746e-07,3.05273027726118e-05
PART_000_R31G119B180A255,15080,-2.543589e-06,7.183986e-07,9.710868e-07,1.826478e-05,-9.597719e-07,8.743506e-08,3.18609740359343e-05
PART_000_R31G119B180A255,15081,-2.087505e-06,2.511247e-07,9.432698e-07,1.848675e-05,-1.26646e-06,3.778471e-08,3.221277304635499e-05
PART_000_R31G119B180A255,15082,-4.055579e-06,8.933155e-07,1.772463e-06,1.671566e-05,-2.094004e-07,-7.177128e-07,2.9487828228025497e-05
PART_000_R31G119B180A255,15083,-5.781001e-06,1.642183e-06,2.523846e-06,1.450787e-05,2.415363e-06,-8.896989e-07,2.6715861215622594e-05
PART_000_R31G119B180A255,15084,-6.727975e-06,1.782809e-06,2.985052e-06,1.633004e-05,2.954687e-06,-3.473256e-07,3.0177374193924994e-05
PART_000_R31G119B180A255,15085,-6.975545e-06,1.891643e-06,3.098647e-06,1.628585e-05,1.313482e-06,-1.251587e-07,2.986127999147292e-05
PART_000_R31G119B180A255,15086,-7.211749e-06,1.959218e-06,3.246898e-06,1.598084e-05,1.004531e-06,-2.154474e-08,2.9440862890176927e-05
PART_000_R31G119B180A255,15087,-7.26565e-06,1.986078e-06,3.285577e-06,1.613565e-05,9.966527e-09,1.343893e-07,2.9672173195362718e-05
PART_000_R31G119B180A255,15088,-7.187487e-06,1.966808e-06,3.226172e-06,1.577188e-05,-5.218829e-07,2.386495e-07,2.9054435916716555e-05
PART_000_R31G119B180A255,15089,-6.958059e-06,1.941363e-06,3.049356e-06,1.601188e-05,-1.223112e-06,3.841326e-07,2.9399990536769894e-05
PART_000_R31G119B180A255,15090,-6.470286e-06,1.851234e-06,2.6833e-06,1.515663e-05,-1.591671e-06,4.783429e-07,2.7826625148882863e-05
PART_000_R31G119B180A255,15091,-5.718455e-06,1.488213e-06,2.269864e-06,1.59322e-05,-7.109819e-07,4.027103e-07,2.8665103248731793e-05
PART_000_R31G119B180A255,15092,-4.846519e-06,7.719028e-07,2.076281e-06,1.601578e-05,-1.118808e-06,1.68171e-07,2.8529848903020674e-05
PART_000_R31G119B180A255,15093,-6.082779e-06,1.584306e-06,2.71703e-06,1.256207e-05,-2.23066e-07,-1.30901e-06,2.3397832210762796e-05
PART_000_R31G119B180A255,15094,-9.749377e-06,2.785776e-06,4.28343e-06,1.100397e-05,1.928222e-06,-1.715067e-06,2.3693604669577106e-05
PART_000_R31G119B180A255,15095,-1.121937e-05,2.928828e-06,4.925092e-06,1.255631e-05,2.403426e-06,-6.323718e-07,2.6905611483075526e-05
PART_001_R158G218B229A255,15096,-1.145481e-05,3.009091e-06,5.134937e-06,1.25587e-05,9.716687e-07,-4.009785e-07,2.6850498840223227e-05
PART_000_R31G119B180A255,15097,-1.195887e-05,3.105171e-06,5.463575e-06,1.22714e-05,7.813877e-07,-1.033513e-07,2.6863358200236806e-05
PART_000_R31G119B180A255,15098,-1.198608e-05,3.090999e-06,5.536535e-06,1.240392e-05,7.194478e-09,2.228507e-07,2.705349023052467e-05
PART_000_R31G119B180A255,15099,-1.187512e-05,3.087973e-06,5.425156e-06,1.210256e-05,-3.596601e-07,5.082223e-07,2.655008238464064e-05
PART_000_R31G119B180A255,15100,-1.145262e-05,3.020198e-06,5.140393e-06,1.232959e-05,-8.724438e-07,8.259226e-07,2.6552385424647004e-05
PART_001_R158G218B229A255,15101,-1.06831e-05,2.944245e-06,4.52584e-06,1.160392e-05,-1.10353e-06,1.08813e-06,2.4918210396834782e-05
PART_000_R31G119B180A255,15102,-9.463479e-06,2.586581e-06,3.731209e-06,1.227979e-05,-3.275211e-07,9.691489e-07,2.4815846583502105e-05
PART_000_R31G119B180A255,15103,-8.132167e-06,1.671041e-06,3.311748e-06,1.205754e-05,-8.634481e-07,4.088893e-07,2.3532318422482586e-05
PART_000_R31G119B180A255,15104,-9.341497e-06,2.298188e-06,4.392254e-06,7.594321e-06,-3.466499e-07,-1.996156e-06,1.8696983635400445e-05
PART_000_R31G119B180A255,15105,-1.440643e-05,4.166585e-06,6.46944e-06,6.826774e-06,1.12633e-06,-2.578287e-06,2.359224590644371e-05
PART_001_R158G218B229A255,15106,-1.652329e-05,4.44137e-06,7.148121e-06,7.854158e-06,1.591341e-06,-1.168466e-06,2.6464051369593132e-05
PART_001_R158G218B229A255,15107,-1.688817e-05,4.521943e-06,7.60714e-06,7.891507e-06,5.628144e-07,-8.864413e-07,2.6909125932916607e-05
PART_001_R158G218B229A255,15108,-1.767947e-05,4.602572e-06,8.166183e-06,7.632638e-06,4.567753e-07,-2.773925e-07,2.7644556577400875e-05
PART_001_R158G218B229A255,15109,-1.771543e-05,4.601121e-06,8.233003e-06,7.731607e-06,1.429223e-08,3.375133e-07,2.7783910706925326e-05
PART_001_R158G218B229A255,15110,-1.749845e-05,4.574355e-06,8.074869e-06,7.535802e-06,-1.803743e-07,9.602505e-07,2.7385347630368965e-05
PART_001_R158G218B229A255,15111,-1.680446e-05,4.472953e-06,7.548366e-06,7.70764e-06,-4.919892e-07,1.486915e-06,2.670590484366579e-05
PART_001_R158G218B229A255,15112,-1.566608e-05,4.357124e-06,6.749078e-06,7.178007e-06,-5.652471e-07,2.020545e-06,2.4946390478058048e-05
PART_001_R158G218B229A255,15113,-1.36938e-05,3.918317e-06,5.38444e-06,7.771774e-06,7.560467e-08,1.928318e-06,2.3033269505916574e-05
PART_000_R31G119B180A255,15114,-1.214049e-05,3.230468e-06,4.514769e-06,7.142522e-06,-5.854136e-07,7.409771e-07,2.0331720183632842e-05
PART_000_R31G119B180A255,15115,-1.276775e-05,3.164949e-06,6.119016e-06,2.206686e-06,-4.334247e-07,-3.840336e-06,1.9210938852646146e-05
PART_001_R158G218B229A255,15116,-1.976462e-05,5.288195e-06,9.40945e-06,2.327345e-06,2.07912e-07,-5.005307e-06,2.8972675096047464e-05
PART_001_R158G218B229A255,15117,-2.290174e-05,6.115047e-06,1.022803e-05,2.655467e-06,6.302598e-07,-2.049016e-06,3.1830452486931474e-05
PART_001_R158G218B229A255,15118,-2.301169e-05,6.15612e-06,1.055571e-05,2.687052e-06,1.049308e-07,-1.49513e-06,3.204440599360953e-05
PART_001_R158G218B229A255,15119,-2.415237e-05,6.245062e-06,1.135027e-05,2.539789e-06,1.856707e-07,-6.057837e-07,3.35530648516254e-05
PART_001_R158G218B229A255,15120,-2.430362e-05,6.287077e-06,1.148696e-05,2.615576e-06,-2.180365e-08,4.909163e-07,3.3810437848711074e-05
PART_001_R158G218B229A255,15121,-2.380708e-05,6.207181e-06,1.115039e-05,2.497518e-06,-2.494139e-08,1.657062e-06,3.3175445163745134e-05
PART_001_R158G218B229A255,15122,-2.275638e-05,6.091338e-06,1.027187e-05,2.644213e-06,-1.641076e-07,2.392272e-06,3.1756759388887844e-05
PART_001_R158G218B229A255,15123,-2.117764e-05,5.865011e-06,9.329725e-06,2.343677e-06,-1.354289e-07,3.480936e-06,2.983099902176512e-05
PART_001_R158G218B229A255,15124,-1.78977e-05,5.258951e-06,7.027973e-06,2.687789e-06,2.374415e-07,3.662774e-06,2.534588830730075e-05
PART_001_R158G218B229A255,15125,-1.58757e-05,4.985964e-06,5.35243e-06,2.262629e-06,-2.704651e-07,1.304337e-06,2.153300308484769e-05
PART_000_R31G119B180A255,15126,4.855786e-06,-2.18279e-06,-1.399189e-06,2.28646e-06,3.001478e-06,3.173886e-06,1.0843021396918896e-05
PART_000_R31G119B180A255,15127,1.609602e-05,-4.265157e-06,-6.750955e-06,3.002456e-06,2.542251e-06,3.257924e-06,2.3444531270480074e-05
PART_000_R31G119B180A255,15128,1.618376e-05,-3.985583e-06,-8.058401e-06,3.399397e-06,3.76574e-07,1.74623e-06,2.3447332219109747e-05
PART_000_R31G119B180A255,15129,1.773078e-05,-3.910559e-06,-9.605599e-06,2.828194e-06,5.84819e-07,1.522976e-06,2.561268781202004e-05
PART_000_R31G119B180A255,15130,1.835197e-05,-3.961627e-06,-1.021483e-05,3.10819e-06,2.520315e-07,7.334127e-08,2.656538804956068e-05
PART_000_R31G119B180A255,15131,1.809451e-05,-3.850034e-06,-1.013748e-05,3.024425e-06,5.698193e-08,-4.800793e-07,2.621474266383815e-05
PART_000_R31G119B180A255,15132,1.832459e-05,-3.914021e-06,-1.022332e-05,3.030789e-06,-3.320755e-07,-1.261916e-06,2.659583207004892e-05
PART_000_R31G119B180A255,15133,1.737686e-05,-3.884328e-06,-9.448107e-06,2.776681e-06,-3.830203e-07,-2.573519e-06,2.5391441257826212e-05
PART_000_R31G119B180A255,15134,1.604674e-05,-3.82315e-06,-7.954091e-06,2.867081e-06,-6.427421e-07,-3.159665e-06,2.344800219131187e-05
PART_000_R31G119B180A255,15135,1.36044e-05,-3.670099e-06,-6.422196e-06,2.248531e-06,-6.400469e-07,-4.121851e-06,2.051558121399191e-05
PART_000_R31G119B180A255,15136,9.361478e-06,-2.38863e-06,-4.239225e-06,2.076691e-06,3.67322e-07,-2.684864e-06,1.4078445509321403e-05
PART_000_R31G119B180A255,15137,6.737281e-06,-3.827565e-06,-2.253352e-06,4.186691e-06,3.950889e-06,2.053893e-06,1.4475218315543292e-05
PART_000_R31G119B180A255,15138,1.051897e-05,-2.516267e-06,-4.893274e-06,9.353145e-06,5.056508e-06,2.314205e-06,2.370164200010664e-05
PART_000_R31G119B180A255,15139,1.192852e-05,-2.921482e-06,-5.499486e-06,9.266623e-06,1.680454e-06,8.516295e-07,2.31021758587059e-05
PART_000_R31G119B180A255,15140,1.271145e-05,-3.063403e-06,-6.558749e-06,8.61554e-06,1.452124e-06,8.602589e-07,2.3397237381782464e-05
PART_000_R31G119B180A255,15141,1.337072e-05,-2.96946e-06,-7.153056e-06,8.926958e-06,7.99354e-07,-1.51617e-08,2.436911974396237e-05
PART_000_R31G119B180A255,15142,1.318491e-05,-2.954801e-06,-7.081784e-06,8.862152e-06,7.291167e-08,-3.280509e-07,2.408490372608689e-05
PART_000_R31G119B180A255,15143,1.332056e-05,-2.967844e-06,-7.159525e-06,8.776481e-06,-8.11891e-07,-7.265533e-07,2.420328664357487e-05
PART_000_R31G119B180A255,15144,1.271234e-05,-2.953394e-06,-6.665392e-06,8.27953e-06,-1.165716e-06,-1.408357e-06,2.3087318270996896e-05
PART_000_R31G119B180A255,15145,1.181598e-05,-2.839511e-06,-5.816445e-06,8.389948e-06,-1.718378e-06,-1.786365e-06,2.2290792557835846e-05
PART_000_R31G119B180A255,15146,1.013676e-05,-2.87046e-06,-4.595577e-06,6.688916e-06,-1.802344e-06,-2.194897e-06,1.878897599942136e-05
PART_000_R31G119B180A255,15147,6.926256e-06,-1.494149e-06,-3.111871e-06,6.99473e-06,4.500794e-07,-1.26773e-06,1.5470940340749558e-05
PART_000_R31G119B180A255,15148,3.187195e-06,-3.665044e-06,-4.180889e-08,6.712334e-06,5.551054e-06,1.375909e-06,1.6387251157311448e-05
PART_000_R31G119B180A255,15149,7.653436e-06,-2.164829e-06,-3.4467e-06,1.448199e-05,6.121419e-06,1.326362e-06,2.9283175943035895e-05
PART_000_R31G119B180A255,15150,8.146278e-06,-1.766724e-06,-3.894742e-06,1.407619e-05,2.484212e-06,4.288173e-07,2.715463259393936e-05
PART_000_R31G119B180A255,15151,8.85429e-06,-2.165003e-06,-4.36733e-06,1.329722e-05,2.339374e-06,4.494894e-07,2.6419982256098394e-05
PART_000_R31G119B180A255,15152,9.267369e-06,-2.048079e-06,-4.849181e-06,1.371159e-05,1.078619e-06,-7.03311e-09,2.7112631117220917e-05
PART_000_R31G119B180A255,15153,9.227854e-06,-2.050325e-06,-4.831435e-06,1.357615e-05,1.657098e-07,-2.158941e-07,2.6822667787806333e-05
PART_000_R31G119B180A255,15154,9.269959e-06,-2.059122e-06,-4.875054e-06,1.3477e-05,-1.198214e-06,-4.307875e-07,2.6794252033440567e-05
PART_000_R31G119B180A255,15155,8.90264e-06,-2.057488e-06,-4.555146e-06,1.281395e-05,-1.712973e-06,-8.077057e-07,2.5633752972179013e-05
PART_000_R31G119B180A255,15156,8.272412e-06,-2.02594e-06,-4.020174e-06,1.30587e-05,-2.611566e-06,-1.022969e-06,2.580231601188116e-05
PART_000_R31G119B180A255,15157,7.007626e-06,-1.932504e-06,-3.123251e-06,1.079221e-05,-2.892706e-06,-1.350676e-06,2.172512018016368e-05
PART_000_R31G119B180A255,15158,4.700025e-06,-8.82043e-07,-2.090712e-06,1.192761e-05,2.704031e-07,-8.06144e-07,2.1641160674687803e-05
PART_000_R31G119B180A255,15159,1.474647e-06,-2.330246e-06,6.110177e-07,8.5538e-06,7.587544e-06,6.166226e-07,2.013188204563604e-05
PART_000_R31G119B180A255,15160,5.122354e-06,-1.694884e-06,-1.823787e-06,1.82745e-05,8.199637e-06,7.58975e-07,3.5393112791320695e-05
PART_000_R31G119B180A255,15161,5.017517e-06,-8.850731e-07,-2.594794e-06,1.780499e-05,2.68855e-06,4.035153e-07,3.1954371858986995e-05
PART_000_R31G119B180A255,15162,5.601115e-06,-1.021585e-06,-2.929286e-06,1.670464e-05,2.864042e-06,2.419514e-07,3.0365316292936562e-05
PART_000_R31G119B180A255,15163,5.745197e-06,-1.049111e-06,-3.057284e-06,1.729523e-05,1.333316e-06,-1.473433e-08,3.108936014304229e-05
PART_000_R31G119B180A255,15164,5.808386e-06,-1.022958e-06,-3.146936e-06,1.703785e-05,1.812679e-07,-1.09071e-07,3.060534968316138e-05
PART_000_R31G119B180A255,15165,5.794843e-06,-1.04149e-06,-3.128412e-06,1.698527e-05,-1.411429e-06,-2.788712e-07,3.0611525278584046e-05
PART_000_R31G119B180A255,15166,5.590725e-06,-1.055278e-06,-2.95579e-06,1.620297e-05,-2.10701e-06,-4.608293e-07,2.9359434344106567e-05
PART_000_R31G119B180A255,15167,5.234781e-06,-1.096438e-06,-2.614524e-06,1.654464e-05,-3.227086e-06,-6.64187e-07,3.0095535840255212e-05
PART_000_R31G119B180A255,15168,4.44159e-06,-1.149402e-06,-2.019988e-06,1.404867e-05,-3.590666e-06,-8.806914e-07,2.5884076885070516e-05
PART_000_R31G119B180A255,15169,3.006949e-06,-5.358211e-07,-1.344623e-06,1.548263e-05,2.333916e-07,-4.964571e-07,2.7131330573840523e-05
PART_000_R31G119B180A255,15170,1.928241e-06,-6.389556e-07,-8.197368e-07,1.069105e-05,8.58731e-06,5.822133e-07,2.3921235910863795e-05
PART_000_R31G119B180A255,15171,2.373928e-06,-3.651322e-07,-1.082181e-06,2.019926e-05,8.772848e-06,5.568667e-07,3.828615743178155e-05
PART_000_R31G119B180A255,15172,2.599421e-06,-2.744415e-07,-1.432268e-06,2.027248e-05,3.060487e-06,2.296746e-07,3.5694613198369686e-05
PART_000_R31G119B180A255,15173,2.718867e-06,-1.0221e-07,-1.643252e-06,1.902185e-05,3.032978e-06,1.700071e-07,3.358357619704951e-05
PART_000_R31G119B180A255,15174,2.820452e-06,-1.202787e-07,-1.711029e-06,1.95835e-05,1.48279e-06,-1.021755e-09,3.4248982032235154e-05
PART_000_R31G119B180A255,15175,2.826186e-06,-1.000198e-07,-1.742719e-06,1.935563e-05,2.107836e-07,-4.712244e-08,3.376579935103227e-05
PART_000_R31G119B180A255,15176,2.843469e-06,-1.20381e-07,-1.742868e-06,1.925962e-05,-1.545963e-06,-1.666373e-07,3.370872105816504e-05
PART_000_R31G119B180A255,15177,2.747323e-06,-1.649934e-07,-1.646997e-06,1.846953e-05,-2.316586e-06,-2.649606e-07,3.247575903009514e-05
PART_000_R31G119B180A255,15178,2.61623e-06,-2.642448e-07,-1.457094e-06,1.882311e-05,-3.594271e-06,-3.752673e-07,3.3395557118696894e-05
PART_000_R31G119B180A255,15179,2.275441e-06,-3.980695e-07,-1.137754e-06,1.601682e-05,-3.998481e-06,-4.844473e-07,2.8774216462821408e-05
PART_000_R31G119B180A255,15180,1.555624e-06,-1.903224e-07,-7.388466e-07,1.762823e-05,1.882468e-07,-2.913208e-07,3.0609333450425384e-05
PART_000_R31G119B180A255,15181,2.742745e-07,6.962285e-08,-1.841301e-07,1.001888e-05,7.32948e-06,1.559979e-07,2.150648531085925e-05
PART_000_R31G119B180A255,15182,3.069584e-07,3.687367e-07,-3.53502e-07,2.137056e-05,9.007843e-06,1.731311e-07,4.017582557249019e-05
PART_000_R31G119B180A255,15183,2.293331e-07,5.074243e-07,-3.718639e-07,2.099509e-05,3.223558e-06,1.138886e-07,3.6799460089049065e-05
PART_000_R31G119B180A255,15184,2.088444e-07,6.006367e-07,-4.34189e-07,1.987738e-05,3.110819e-06,1.097511e-07,3.485996781627823e-05
PART_000_R31G119B180A255,15185,1.992486e-07,6.919182e-07,-4.943461e-07,2.043834e-05,1.538733e-06,4.055377e-08,3.551550038213588e-05
PART_000_R31G119B180A255,15186,1.753662e-07,7.122097e-07,-4.859673e-07,2.019326e-05,2.159246e-07,-1.347249e-08,3.499320303484575e-05
PART_000_R31G119B180A255,15187,2.022242e-07,6.916003e-07,-4.970097e-07,2.011381e-05,-1.57152e-06,-6.09515e-08,3.4959788816706075e-05
PART_000_R31G119B180A255,15188,2.134858e-07,6.239971e-07,-4.682784e-07,1.927801e-05,-2.396186e-06,-1.348233e-07,3.3661816001912635e-05
PART_000_R31G119B180A255,15189,2.49561e-07,5.108071e-07,-4.1808e-07,1.962645e-05,-3.737421e-06,-1.614045e-07,3.461595200014265e-05
PART_000_R31G119B180A255,15190,2.813207e-07,3.335651e-07,-3.513568e-07,1.671772e-05,-4.183715e-06,-1.998483e-07,2.985821129573291e-05
PART_000_R31G119B180A255,15191,2.399168e-07,1.463506e-07,-2.225206e-07,1.836656e-05,1.931441e-07,-1.228932e-07,3.181710444586619e-05
PART_000_R31G119B180A255,15192,-1.870733e-06,8.863912e-07,6.767914e-07,1.056306e-05,8.578816e-06,-3.334784e-07,2.3726027024254568e-05
PART_000_R31G119B180A255,15193,-1.734863e-06,9.90155e-07,5.005484e-07,2.037447e-05,8.769472e-06,-1.942545e-07,3.850340837090311e-05
PART_000_R31G119B180A255,15194,-2.122861e-06,1.156371e-06,7.466801e-07,2.042713e-05,3.098325e-06,2.121983e-08,3.59190877112032e-05
PART_000_R31G119B180A255,15195,-2.267697e-06,1.250061e-06,7.584316e-07,1.923059e-05,3.101238e-06,5.960838e-08,3.389981347555992e-05
PART_000_R31G119B180A255,15196,-2.393207e-06,1.393645e-06,7.750755e-07,1.982875e-05,1.487491e-06,6.869939e-08,3.462037654444738e-05
PART_000_R31G119B180A255,15197,-2.446798e-06,1.417512e-06,8.125545e-07,1.959694e-05,2.327623e-07,3.215234e-08,3.4135713414409367e-05
PART_000_R31G119B180A255,15198,-2.408136e-06,1.39523e-06,7.979042e-07,1.950605e-05,-1.53288e-06,4.115081e-08,3.407437080359445e-05
PART_000_R31G119B180A255,15199,-2.295198e-06,1.316517e-06,7.513663e-07,1.867874e-05,-2.291537e-06,2.071543e-09,3.2768309989962304e-05
PART_000_R31G119B180A255,15200,-2.089217e-06,1.203076e-06,6.657015e-07,1.902072e-05,-3.583621e-06,5.220506e-08,3.3663887664994405e-05
PART_000_R31G119B180A255,15201,-1.692305e-06,9.962666e-07,4.534254e-07,1.609141e-05,-4.027033e-06,8.099065e-08,2.8836343675175666e-05
PART_000_R31G119B180A255,15202,-1.038305e-06,4.083919e-07,3.002e-07,1.768671e-05,2.131441e-07,3.287589e-08,3.066833516981618e-05
PART_000_R31G119B180A255,15203,-1.312663e-06,2.250432e-06,-4.720341e-07,8.489288e-06,7.647824e-06,-3.989231e-07,2.0063801964258806e-05
PART_000_R31G119B180A255,15204,-4.331716e-06,1.785867e-06,1.536952e-06,1.843062e-05,8.359925e-06,-5.218071e-07,3.557399568484788e-05
PART_000_R31G119B180A255,15205,-4.523296e-06,1.502559e-06,1.916108e-06,1.8035e-05,2.817692e-06,-8.355921e-08,3.222726677227128e-05
PART_000_R31G119B180A255,15206,-4.959916e-06,1.827075e-06,2.085908e-06,1.701545e-05,2.881038e-06,-2.904136e-08,3.0681708309334355e-05
PART_000_R31G119B180A255,15207,-5.205082e-06,1.910741e-06,2.269858e-06,1.763928e-05,1.334348e-06,6.243822e-08,3.1497699298516575e-05
PART_000_R31G119B180A255,15208,-5.296679e-06,1.916444e-06,2.370044e-06,1.738221e-05,2.142236e-07,9.995789e-08,3.101770611134775e-05
PART_000_R31G119B180A255,15209,-5.22282e-06,1.900909e-06,2.329915e-06,1.734159e-05,-1.362928e-06,1.843182e-07,3.10137800417372e-05
PART_000_R31G119B180A255,15210,-5.007376e-06,1.815768e-06,2.194255e-06,1.650197e-05,-2.034415e-06,2.071544e-07,2.9644077509896074e-05
PART_000_R31G119B180A255,15211,-4.60848e-06,1.70215e-06,1.953869e-06,1.682271e-05,-3.156605e-06,3.60923e-07,3.034419047809635e-05
PART_000_R31G119B180A255,15212,-3.774506e-06,1.517276e-06,1.410913e-06,1.412622e-05,-3.590606e-06,4.684209e-07,2.5796071469121137e-05
PART_000_R31G119B180A255,15213,-2.409867e-06,5.498935e-07,9.523452e-07,1.550677e-05,3.162646e-07,2.065498e-07,2.7054040660925136e-05
PART_000_R31G119B180A255,15214,-2.812503e-06,3.408692e-06,-4.037374e-07,6.748718e-06,6.190548e-06,-1.335139e-06,1.6925485057637886e-05
PART_000_R31G119B180A255,15215,-7.323521e-06,2.14274e-06,2.662756e-06,1.413242e-05,6.851587e-06,-1.047367e-06,2.8950002978644528e-05
PART_000_R31G119B180A255,15216,-7.552932e-06,2.192161e-06,3.210506e-06,1.411411e-05,2.340673e-06,-2.434738e-07,2.683591106852356e-05
PART_001_R158G218B229A255,15217,-8.466003e-06,2.483813e-06,3.827176e-06,1.312912e-05,2.252597e-06,-3.11711e-07,2.5865964493013265e-05
PART_001_R158G218B229A255,15218,-8.74555e-06,2.421531e-06,4.244482e-06,1.364872e-05,1.053165e-06,1.764962e-08,2.66566120667861e-05
PART_001_R158G218B229A255,15219,-8.913073e-06,2.428087e-06,4.384035e-06,1.34678e-05,1.957081e-07,1.908461e-07,2.6438597620654098e-05
PART_001_R158G218B229A255,15220,-8.773307e-06,2.40518e-06,4.321053e-06,1.341222e-05,-1.100264e-06,4.369141e-07,2.6342229646939024e-05
PART_001_R158G218B229A255,15221,-8.448491e-06,2.344288e-06,4.065373e-06,1.26888e-05,-1.54391e-06,6.129807e-07,2.5086184420220194e-05
PART_001_R158G218B229A255,15222,-7.770193e-06,2.241908e-06,3.625785e-06,1.301228e-05,-2.367923e-06,8.61998e-07,2.5357866438916068e-05
PART_000_R31G119B180A255,15223,-6.437146e-06,2.020784e-06,2.694037e-06,1.060073e-05,-2.696034e-06,1.055659e-06,2.0975215173919194e-05
PART_000_R31G119B180A255,15224,-4.08409e-06,7.147101e-07,1.724878e-06,1.177751e-05,4.910314e-07,5.430877e-07,2.113371498489603e-05
PART_000_R31G119B180A255,15225,-2.936906e-06,3.518505e-06,-1.011628e-06,4.172915e-06,4.828757e-06,-1.794545e-06,1.2837526332391456e-05
PART_000_R31G119B180A255,15226,-1.180585e-05,3.459066e-06,3.681304e-06,8.949887e-06,5.205117e-06,-2.11163e-06,2.390434268658693e-05
PART_001_R158G218B229A255,15227,-1.204356e-05,3.431262e-06,5.086705e-06,8.849428e-06,1.265995e-06,-1.215751e-06,2.2627589409782675e-05
PART_001_R158G218B229A255,15228,-1.363942e-05,3.556848e-06,6.440422e-06,7.878692e-06,1.313229e-06,-8.799442e-07,2.3395113227774466e-05
PART_001_R158G218B229A255,15229,-1.400943e-05,3.512478e-06,6.883741e-06,8.267439e-06,7.185092e-07,-8.823075e-08,2.4167693261227695e-05
PART_001_R158G218B229A255,15230,-1.41612e-05,3.498458e-06,7.040693e-06,8.148871e-06,1.13402e-07,3.105656e-07,2.421788258432731e-05
PART_001_R158G218B229A255,15231,-1.404954e-05,3.475268e-06,6.996718e-06,8.103507e-06,-7.061874e-07,8.577766e-07,2.412335303780115e-05
PART_001_R158G218B229A255,15232,-1.34446e-05,3.384497e-06,6.604027e-06,7.601929e-06,-9.021852e-07,1.470397e-06,2.302306782125193e-05
PART_001_R158G218B229A255,15233,-1.231775e-05,3.168361e-06,5.799958e-06,7.92188e-06,-1.357346e-06,2.045067e-06,2.2222527977748437e-05
PART_001_R158G218B229A255,15234,-1.029084e-05,3.0348e-06,4.478349e-06,6.207807e-06,-1.484842e-06,2.381706e-06,1.8388452092966064e-05
PART_000_R31G119B180A255,15235,-6.608478e-06,1.375664e-06,2.858855e-06,6.60873e-06,8.095691e-07,1.246772e-06,1.4678005683928708e-05
PART_000_R31G119B180A255,15236,-4.056447e-06,2.57911e-06,1.047183e-07,1.288447e-06,2.357737e-06,-3.694188e-06,9.81490687966865e-06
PART_001_R158G218B229A255,15237,-1.842481e-05,5.656944e-06,6.290823e-06,3.327548e-06,2.345935e-06,-3.719953e-06,2.6207626896824082e-05
PART_001_R158G218B229A255,15238,-1.779299e-05,4.986935e-06,7.831153e-06,2.986186e-06,2.104781e-07,-2.229688e-06,2.517151129877501e-05
PART_001_R158G218B229A255,15239,-2.034766e-05,5.143448e-06,9.816167e-06,2.537778e-06,4.796947e-07,-2.053108e-06,2.8694959566616314e-05
PART_001_R158G218B229A255,15240,-2.106185e-05,5.255203e-06,1.04528e-05,2.718085e-06,2.151946e-07,-2.737224e-07,2.9646507131649195e-05
PART_001_R158G218B229A255,15241,-2.099018e-05,5.192573e-06,1.042898e-05,2.66759e-06,7.724755e-08,4.765421e-07,2.953146376176754e-05
PART_001_R158G218B229A255,15242,-2.110416e-05,5.178383e-06,1.057105e-05,2.665521e-06,-2.920551e-07,1.516713e-06,2.9833841126372865e-05
PART_001_R158G218B229A255,15243,-1.988587e-05,4.99643e-06,9.836807e-06,2.423575e-06,-2.212867e-07,3.127481e-06,2.8462418702351663e-05
PART_001_R158G218B229A255,15244,-1.799806e-05,4.697465e-06,8.233265e-06,2.664785e-06,-4.913049e-07,3.821471e-06,2.595522827052606e-05
PART_001_R158G218B229A255,15245,-1.499596e-05,4.2187e-06,6.782186e-06,1.988751e-06,-5.741495e-07,4.806033e-06,2.252064220773637e-05
PART_001_R158G218B229A255,15246,-9.9341e-06,2.539501e-06,4.446363e-06,1.825632e-06,5.752408e-07,3.090278e-06,1.4921569529656891e-05
PART_000_R31G119B180A255,15247,1.09958e-05,-2.576446e-06,-4.648026e-06,4.460871e-06,4.935591e-07,3.063632e-06,1.746996661803821e-05
PART_000_R31G119B180A255,15248,1.218959e-05,-3.211197e-06,-6.465204e-06,2.855271e-06,9.927498e-07,2.875533e-06,1.8711160159854255e-05
PART_000_R31G119B180A255,15249,1.422345e-05,-2.968404e-06,-8.436655e-06,3.772914e-06,9.998344e-07,5.645984e-07,2.1590065921158667e-05
PART_000_R31G119B180A255,15250,1.370261e-05,-2.676177e-06,-8.570519e-06,3.503105e-06,2.895224e-07,7.799609e-08,2.0895814343572094e-05
PART_000_R31G119B180A255,15251,1.411041e-05,-2.67635e-06,-9.044077e-06,3.500854e-06,-1.86593e-08,-5.704624e-07,2.1609766914163322e-05
PART_000_R31G119B180A255,15252,1.379139e-05,-2.631401e-06,-8.757541e-06,3.519765e-06,-2.228678e-07,-9.232688e-07,2.1159359521301366e-05
PART_000_R31G119B180A255,15253,1.431898e-05,-2.86983e-06,-8.734273e-06,3.543922e-06,-1.114064e-06,-1.825462e-06,2.1955595577302176e-05
PART_000_R31G119B180A255,15254,1.261711e-05,-2.935916e-06,-7.297552e-06,2.721801e-06,-1.047934e-06,-3.616698e-06,1.983728148686687e-05
PART_000_R31G119B180A255,15255,1.024662e-05,-2.767126e-06,-4.356956e-06,2.97765e-06,-1.289341e-06,-4.384936e-06,1.6788215467024095e-05
PART_000_R31G119B180A255,15256,2.847282e-06,-1.607244e-06,-3.021241e-07,1.13977e-06,-1.745598e-06,-2.435098e-06,6.823497652282781e-06
PART_000_R31G119B180A255,15257,1.418941e-06,-1.339685e-06,1.263396e-06,1.060908e-06,9.375779e-07,2.632262e-06,5.83140336392195e-06
PART_000_R31G119B180A255,15258,6.59409e-06,-1.058205e-06,-1.825476e-06,1.178606e-05,1.933348e-06,2.425756e-06,2.259685196092878e-05
PART_000_R31G119B180A255,15259,8.083085e-06,-2.833415e-06,-3.549971e-06,8.667292e-06,3.468162e-06,1.209976e-06,1.9833006048034877e-05
PART_000_R31G119B180A255,15260,9.491735e-06,-2.25385e-06,-5.190262e-06,9.924282e-06,2.403833e-06,3.504868e-07,2.223171250893981e-05
PART_000_R31G119B180A255,15261,9.383392e-06,-2.171427e-06,-5.424431e-06,9.838272e-06,9.594418e-07,-6.439262e-08,2.1790653095818355e-05
PART_000_R31G119B180A255,15262,9.726167e-06,-2.14272e-06,-5.871576e-06,9.48782e-06,-4.67431e-08,-2.891975e-07,2.1664391558088787e-05
PART_000_R31G119B180A255,15263,9.488719e-06,-2.100408e-06,-5.621801e-06,9.741949e-06,-7.622289e-07,-5.659354e-07,2.1793083358056453e-05
PART_000_R31G119B180A255,15264,9.541232e-06,-2.220054e-06,-5.437525e-06,9.499258e-06,-2.721364e-06,-8.545292e-07,2.1946238830639774e-05
PART_000_R31G119B180A255,15265,8.444725e-06,-2.288698e-06,-4.536432e-06,7.996366e-06,-3.090629e-06,-1.592105e-06,1.9299495400217928e-05
PART_000_R31G119B180A255,15266,6.648306e-06,-1.957853e-06,-2.877432e-06,8.439732e-06,-3.838171e-06,-1.859654e-06,1.873719506564219e-05
PART_000_R31G119B180A255,15267,2.412913e-06,-2.160674e-06,-1.121673e-07,3.903757e-06,-4.343683e-06,-9.52721e-07,1.0990395270604147e-05
PART_000_R31G119B180A255,15268,3.987695e-06,-4.44994e-07,-1.463758e-06,1.863046e-05,3.008919e-06,1.14462e-06,3.312968217095504e-05
PART_000_R31G119B180A255,15269,5.09429e-06,-1.607213e-06,-2.131091e-06,1.278762e-05,5.05206e-06,8.22538e-07,2.4856883823497648e-05
PART_000_R31G119B180A255,15270,6.117343e-06,-1.541628e-06,-3.172394e-06,1.521599e-05,3.581615e-06,1.417763e-07,2.8406556965779627e-05
PART_000_R31G119B180A255,15271,6.136902e-06,-1.363621e-06,-3.46616e-06,1.459195e-05,1.362009e-06,-8.883911e-08,2.6847952524654216e-05
PART_000_R31G119B180A255,15272,6.332127e-06,-1.453178e-06,-3.64032e-06,1.437769e-05,-4.327731e-08,-1.627861e-07,2.6507756554403867e-05
PART_000_R31G119B180A255,15273,6.249659e-06,-1.345287e-06,-3.625898e-06,1.451928e-05,-1.120564e-06,-2.583459e-07,2.6769407962632857e-05
PART_000_R31G119B180A255,15274,6.189497e-06,-1.423638e-06,-3.484353e-06,1.432445e-05,-3.817696e-06,-4.466163e-07,2.7162240009653108e-05
PART_000_R31G119B180A255,15275,5.540094e-06,-1.473941e-06,-2.915725e-06,1.236189e-05,-4.278134e-06,-8.770498e-07,2.402190802703918e-05
PART_000_R31G119B180A255,15276,4.419297e-06,-1.774971e-06,-1.796121e-06,1.317679e-05,-5.612715e-06,-1.098034e-06,2.5641929359312395e-05
PART_000_R31G119B180A255,15277,2.023857e-06,-2.319707e-06,2.037614e-08,6.529455e-06,-6.132897e-06,-6.566639e-07,1.6006576257960006e-05
PART_000_R31G119B180A255,15278,2.70057e-06,-6.925489e-07,-1.07594e-06,2.223948e-05,2.537645e-06,4.63075e-07,3.89449199512433e-05
PART_000_R31G119B180A255,15279,3.108369e-06,-6.936085e-07,-1.60988e-06,1.653477e-05,6.106879e-06,4.419105e-07,3.0845451121514886e-05
PART_000_R31G119B180A255,15280,3.516609e-06,-5.705795e-07,-2.046271e-06,1.890012e-05,4.144875e-06,3.55926e-08,3.3883647669718964e-05
PART_000_R31G119B180A255,15281,3.611841e-06,-6.369644e-07,-2.138071e-06,1.841174e-05,1.711631e-06,-5.084325e-08,3.244159189699518e-05
PART_000_R31G119B180A255,15282,3.686057e-06,-5.893416e-07,-2.282998e-06,1.797977e-05,-5.614012e-08,-1.121616e-07,3.1595128500499065e-05
PART_000_R31G119B180A255,15283,3.683664e-06,-5.856286e-07,-2.281855e-06,1.823822e-05,-1.3427e-06,-9.804546e-08,3.21197930415779e-05
PART_000_R31G119B180A255,15284,3.656495e-06,-6.161357e-07,-2.243072e-06,1.798323e-05,-4.459863e-06,-2.587977e-07,3.252561051216022e-05
PART_000_R31G119B180A255,15285,3.30625e-06,-7.895889e-07,-1.855076e-06,1.580185e-05,-5.006876e-06,-4.569617e-07,2.9106759982142917e-05
PART_000_R31G119B180A255,15286,2.818345e-06,-1.222235e-06,-1.083737e-06,1.652335e-05,-6.857716e-06,-6.113436e-07,3.1257881742895104e-05
PART_000_R31G119B180A255,15287,1.353168e-06,-1.739203e-06,1.151893e-07,8.320593e-06,-7.480451e-06,-3.494084e-07,1.957553483376428e-05
PART_000_R31G119B180A255,15288,1.892763e-06,-4.921963e-07,-9.834782e-07,2.507026e-05,4.005997e-06,2.54267e-07,4.4056700699450305e-05
PART_000_R31G119B180A255,15289,1.391077e-06,3.042033e-07,-1.075639e-06,1.827341e-05,6.173676e-06,2.641682e-07,3.3479690756868414e-05
PART_000_R31G119B180A255,15290,1.71136e-06,2.144449e-07,-1.256193e-06,2.132789e-05,4.570933e-06,1.400925e-08,3.786716916451097e-05
PART_000_R31G119B180A255,15291,1.645775e-06,3.175073e-07,-1.323349e-06,2.052338e-05,1.860618e-06,-1.977731e-09,3.578616060067042e-05
PART_000_R31G119B180A255,15292,1.722685e-06,2.910618e-07,-1.359054e-06,2.023167e-05,-3.656551e-08,-7.166976e-08,3.5144211542470465e-05
PART_000_R31G119B180A255,15293,1.705453e-06,3.108533e-07,-1.38926e-06,2.039849e-05,-1.459808e-06,-4.588521e-08,3.5523244340045936e-05
PART_000_R31G119B180A255,15294,1.749853e-06,2.158397e-07,-1.350779e-06,2.018144e-05,-4.838358e-06,-1.661292e-07,3.604711066701692e-05
PART_000_R31G119B180A255,15295,1.588622e-06,3.850986e-08,-1.110643e-06,1.782453e-05,-5.52028e-06,-2.583451e-07,3.240782352011942e-05
PART_000_R31G119B180A255,15296,1.374075e-06,-2.55994e-07,-7.061902e-07,1.854725e-05,-7.73465e-06,-3.526499e-07,3.486319861750645e-05
PART_000_R31G119B180A255,15297,6.497526e-07,-6.985534e-07,-1.862801e-08,9.397646e-06,-8.262505e-06,-2.191409e-07,2.170856434621817e-05
PART_000_R31G119B180A255,15298,7.68022e-08,-5.628792e-08,6.971664e-08,2.14362e-06,1.909719e-06,1.624045e-07,4.982202918600888e-06
PART_000_R31G119B180A255,15299,2.327124e-08,9.812595e-07,-4.774881e-07,2.486417e-05,3.672464e-06,1.624237e-07,4.355306180083386e-05
PART_000_R31G119B180A255,15300,-8.181131e-08,1.098536e-06,-4.684658e-07,1.95932e-05,6.456879e-06,1.832905e-07,3.576107118443359e-05
PART_000_R31G119B180A255,15301,-8.465831e-08,1.275045e-06,-6.406192e-07,2.194023e-05,4.677641e-06,7.225949e-08,3.8893335484370924e-05
PART_000_R31G119B180A255,15302,-1.515269e-07,1.410518e-06,-6.575657e-07,2.154956e-05,1.926719e-06,4.364335e-08,3.7520388803757676e-05
PART_000_R31G119B180A255,15303,-1.442795e-07,1.403185e-06,-6.758675e-07,2.10064e-05,-2.385079e-08,-1.951546e-08,3.64322551835488e-05
PART_000_R31G119B180A255,15304,-1.453922e-07,1.398616e-06,-6.654459e-07,2.131889e-05,-1.501565e-06,-6.309504e-08,3.7063710447633056e-05
PART_000_R31G119B180A255,15305,-7.767511e-08,1.274433e-06,-6.375473e-07,2.101129e-05,-4.997986e-06,-1.115357e-07,3.7447276217863126e-05
PART_000_R31G119B180A255,15306,-3.920083e-08,1.096161e-06,-5.638342e-07,1.862382e-05,-5.708838e-06,-1.672356e-07,3.377212381101661e-05
PART_000_R31G119B180A255,15307,2.627178e-08,8.426543e-07,-4.21987e-07,1.935304e-05,-8.014052e-06,-1.823927e-07,3.629915602844216e-05
PART_000_R31G119B180A255,15308,-9.968901e-08,5.245693e-07,-1.907028e-07,9.785808e-06,-8.616203e-06,-9.843609e-08,2.2593955919758025e-05
PART_000_R31G119B180A255,15309,-1.805279e-06,2.180611e-06,2.950936e-07,2.551146e-05,4.04066e-06,1.770943e-07,4.487210370467596e-05
PART_000_R31G119B180A255,15310,-1.445511e-06,1.799608e-06,-3.021424e-08,1.869386e-05,6.413633e-06,3.960206e-08,3.434721285171257e-05
PART_000_R31G119B180A255,15311,-1.835612e-06,2.316375e-06,2.610713e-08,2.181444e-05,4.660587e-06,1.761181e-07,3.880516466131429e-05
PART_000_R31G119B180A255,15312,-1.877207e-06,2.33055e-06,5.026125e-08,2.103267e-05,1.892366e-06,7.455647e-08,3.675852935070739e-05
PART_000_R31G119B180A255,15313,-1.943928e-06,2.464758e-06,1.642511e-08,2.072737e-05,-2.228115e-08,4.222872e-08,3.610422905623915e-05
PART_000_R31G119B180A255,15314,-1.932904e-06,2.344119e-06,1.131178e-07,2.090199e-05,-1.472098e-06,-9.229882e-08,3.648197611579086e-05
PART_000_R31G119B180A255,15315,-1.836633e-06,2.261421e-06,8.972432e-08,2.066424e-05,-4.915797e-06,-6.635722e-08,3.696148559515626e-05
PART_000_R31G119B180A255,15316,-1.618264e-06,2.053805e-06,1.035567e-08,1.81989e-05,-5.635172e-06,-1.1886e-07,3.315213184856785e-05
PART_000_R31G119B180A255,15317,-1.246581e-06,1.860827e-06,-1.163292e-07,1.890777e-05,-7.893463e-06,-5.868615e-08,3.5593021869924806e-05
PART_000_R31G119B180A255,15318,-8.249853e-07,1.651364e-06,-2.915065e-07,9.502144e-06,-8.453466e-06,6.280865e-10,2.2143877502503238e-05
PART_000_R31G119B180A255,15319,-2.454828e-06,2.120483e-06,-6.660946e-09,2.314039e-05,2.858659e-06,-2.256723e-07,4.058112113866635e-05
PART_000_R31G119B180A255,15320,-3.049368e-06,2.692235e-06,5.795937e-07,1.723971e-05,6.337983e-06,1.764153e-08,3.220920881508859e-05
PART_000_R31G119B180A255,15321,-3.512848e-06,2.788892e-06,8.912115e-07,1.992709e-05,4.287254e-06,7.215117e-08,3.574602683870552e-05
PART_000_R31G119B180A255,15322,-3.73079e-06,3.070779e-06,9.627333e-07,1.937261e-05,1.763806e-06,1.825442e-07,3.4230019512986187e-05
PART_000_R31G119B180A255,15323,-3.760641e-06,3.003016e-06,1.070421e-06,1.8968e-05,-5.574619e-08,5.735806e-08,3.34033656163866e-05
PART_000_R31G119B180A255,15324,-3.801085e-06,2.996811e-06,1.113468e-06,1.921761e-05,-1.312245e-06,-4.02971e-08,3.391277098323458e-05
PART_000_R31G119B180A255,15325,-3.607772e-06,2.824703e-06,1.088837e-06,1.895696e-05,-4.596139e-06,3.804117e-09,3.4273846772837045e-05
PART_000_R31G119B180A255,15326,-3.202288e-06,2.637627e-06,8.427561e-07,1.654494e-05,-5.167125e-06,1.685566e-08,3.046551802793472e-05
PART_000_R31G119B180A255,15327,-2.563403e-06,2.58379e-06,3.692316e-07,1.717901e-05,-7.084483e-06,1.079857e-07,3.2495521842218024e-05
PART_000_R31G119B180A255,15328,-1.459414e-06,2.46685e-06,-3.260819e-07,8.486523e-06,-7.812692e-06,7.913671e-08,2.0284149088095857e-05
PART_000_R31G119B180A255,15329,-4.061583e-06,1.61193e-06,1.194299e-06,1.923882e-05,2.660022e-06,-6.24473e-07,3.409966812430095e-05
PART_000_R31G119B180A255,15330,-4.677456e-06,2.787811e-06,1.141939e-06,1.383703e-05,5.287231e-06,-5.311626e-07,2.6556604937784278e-05
PART_001_R158G218B229A255,15331,-5.637074e-06,2.983052e-06,2.210232e-06,1.637815e-05,3.694272e-06,1.890006e-08,3.0231067099379935e-05
PART_001_R158G218B229A255,15332,-5.874859e-06,2.888422e-06,2.572744e-06,1.582455e-05,1.333917e-06,1.454904e-07,2.882323759800017e-05
PART_001_R158G218B229A255,15333,-5.940115e-06,2.992448e-06,2.614615e-06,1.55341e-05,-9.306186e-09,1.637389e-07,2.8294237964226785e-05
PART_001_R158G218B229A255,15334,-5.974363e-06,2.849146e-06,2.764261e-06,1.573112e-05,-1.05589e-06,7.936341e-08,2.8685894601125506e-05
PART_001_R158G218B229A255,15335,-5.682613e-06,2.813101e-06,2.534122e-06,1.554737e-05,-3.877497e-06,2.813584e-07,2.8989471161263182e-05
PART_000_R31G119B180A255,15336,-5.03836e-06,2.559117e-06,2.058065e-06,1.323423e-05,-4.442514e-06,3.461089e-07,2.5281765680776622e-05
PART_000_R31G119B180A255,15337,-3.896708e-06,2.576982e-06,1.289054e-06,1.394081e-05,-5.755555e-06,4.733991e-07,2.6801490344773394e-05
PART_000_R31G119B180A255,15338,-2.077909e-06,2.682614e-06,2.925315e-08,6.658856e-06,-6.4676e-06,3.252724e-07,1.6610224653776676e-05
PART_000_R31G119B180A255,15339,-7.129818e-06,1.619407e-06,2.398011e-06,1.253532e-05,1.306558e-06,-1.759822e-06,2.387011286558329e-05
PART_001_R158G218B229A255,15340,-8.144582e-06,3.227459e-06,2.990494e-06,8.447494e-06,3.378122e-06,-1.433628e-06,1.9523476901649792e-05
PART_001_R158G218B229A255,15341,-9.397656e-06,2.864128e-06,4.637002e-06,1.024408e-05,2.372735e-06,-2.700202e-07,2.2520321914547473e-05
PART_001_R158G218B229A255,15342,-9.612202e-06,2.807439e-06,4.979636e-06,9.964933e-06,9.093055e-07,2.443191e-08,2.205279570966238e-05
PART_001_R158G218B229A255,15343,-9.728962e-06,2.822283e-06,5.184817e-06,9.6417e-06,-4.690661e-08,3.269275e-07,2.172515691858093e-05
PART_001_R158G218B229A255,15344,-9.677218e-06,2.718762e-06,5.199497e-06,9.9021e-06,-6.25808e-07,4.023051e-07,2.205404081149246e-05
PART_001_R158G218B229A255,15345,-9.503064e-06,2.731107e-06,5.016198e-06,9.725795e-06,-2.689217e-06,8.967147e-07,2.2152516699125032e-05
PART_001_R158G218B229A255,15346,-8.32027e-06,2.651528e-06,4.111535e-06,7.970266e-06,-2.903983e-06,1.338357e-06,1.8967847642231867e-05
PART_000_R31G119B180A255,15347,-6.371483e-06,2.199282e-06,2.625578e-06,8.678875e-06,-3.460514e-06,1.503732e-06,1.8600299428079538e-05
PART_000_R31G119B180A255,15348,-2.404899e-06,2.260509e-06,2.195615e-07,3.911055e-06,-4.483329e-06,7.056247e-07,1.1139709815237042e-05
PART_001_R158G218B229A255,15349,-1.270788e-05,3.431673e-06,4.613489e-06,4.447028e-06,-1.335887e-07,-4.157134e-06,1.9803606824728572e-05
PART_001_R158G218B229A255,15350,-1.478665e-05,4.369097e-06,6.518362e-06,2.280233e-06,8.227808e-07,-4.204285e-06,2.1986134020452003e-05
PART_001_R158G218B229A255,15351,-1.747436e-05,4.252114e-06,8.802904e-06,3.313838e-06,9.665177e-07,-9.564599e-07,2.510206098303747e-05
PART_001_R158G218B229A255,15352,-1.702669e-05,4.231786e-06,8.547303e-06,3.033214e-06,2.386759e-07,-1.039354e-07,2.4291814900480098e-05
PART_001_R158G218B229A255,15353,-1.72149e-05,4.173362e-06,8.834235e-06,2.964707e-06,-1.529806e-08,5.78947e-07,2.4622026016178933e-05
PART_001_R158G218B229A255,15354,-1.709476e-05,4.126943e-06,8.816211e-06,3.042336e-06,-1.368161e-07,8.228227e-07,2.4529958375681944e-05
PART_001_R158G218B229A255,15355,-1.763746e-05,4.127329e-06,9.230685e-06,3.080153e-06,-1.103297e-06,2.22882e-06,2.5648401223218473e-05
PART_001_R158G218B229A255,15356,-1.510179e-05,3.877333e-06,7.702263e-06,2.182545e-06,-7.577449e-07,4.643362e-06,2.2981002769919638e-05
PART_001_R158G218B229A255,15357,-1.157477e-05,3.382623e-06,4.321825e-06,2.857415e-06,-7.571306e-07,5.332514e-06,1.871296442409035e-05
PART_000_R31G119B180A255,15358,-3.044548e-06,1.819341e-06,1.443521e-07,1.107862e-06,-1.764169e-06,2.769342e-06,7.371754247621058e-06
PART_000_R31G119B180A255,15359,3.32857e-06,-1.590913e-06,-1.256005e-06,1.656663e-06,2.591337e-06,1.887888e-06,7.857286088353599e-06
PART_000_R31G119B180A255,15360,8.895984e-06,-1.999569e-06,-4.636147e-06,5.245611e-06,2.752927e-06,1.97211e-06,1.647253390076272e-05
PART_000_R31G119B180A255,15361,7.650741e-06,-1.020613e-06,-5.678305e-06,4.551769e-06,6.952522e-07,-8.574828e-09,1.417325374256283e-05
PART_000_R31G119B180A255,15362,8.205664e-06,-7.573917e-07,-6.753745e-06,4.278592e-06,5.10689e-07,-2.47297e-08,1.5024698397979357e-05
PART_000_R31G119B180A255,15363,8.329927e-06,-6.782935e-07,-7.060676e-06,4.485506e-06,1.993904e-08,-3.254917e-07,1.5493710701204886e-05
PART_000_R31G119B180A255,15364,8.226689e-06,-7.124189e-07,-6.927872e-06,4.202294e-06,-5.789977e-07,-7.986181e-07,1.5165652818144633e-05
PART_000_R31G119B180A255,15365,8.204449e-06,-8.485882e-07,-6.428114e-06,4.609503e-06,-6.668903e-07,-5.156666e-07,1.5148424445730493e-05
PART_000_R31G119B180A255,15366,8.764431e-06,-1.783433e-06,-5.046583e-06,4.910744e-06,-3.295458e-06,-2.254417e-06,1.662824054180607e-05
PART_000_R31G119B180A255,15367,4.671818e-06,-2.041762e-06,-1.629242e-06,2.63896e-06,-3.590586e-06,-2.893204e-06,1.1276257553684912e-05
PART_000_R31G119B180A255,15368,3.787524e-06,-3.2939e-06,1.737128e-07,5.98956e-06,6.253912e-06,1.935837e-06,1.65473984498353e-05
PART_000_R31G119B180A255,15369,4.841492e-06,-2.272035e-06,-1.237959e-06,1.322604e-05,6.714648e-06,1.162585e-06,2.661605453839167e-05
PART_000_R31G119B180A255,15370,5.179174e-06,-1.529708e-06,-2.822327e-06,1.208633e-05,2.107049e-06,5.801377e-08,2.2514865573115795e-05
PART_000_R31G119B180A255,15371,5.60155e-06,-1.656117e-06,-3.585599e-06,1.130197e-05,1.362136e-06,-4.878845e-09,2.142825381148172e-05
PART_000_R31G119B180A255,15372,5.782277e-06,-1.408209e-06,-3.913391e-06,1.165732e-05,4.904551e-08,-2.386292e-07,2.1996587887361155e-05
PART_000_R31G119B180A255,15373,5.686586e-06,-1.589485e-06,-3.760873e-06,1.109504e-05,-1.530559e-06,-3.092817e-07,2.12148496146506e-05
PART_000_R31G119B180A255,15374,5.364781e-06,-1.372664e-06,-3.260619e-06,1.212084e-05,-2.115413e-06,-3.422538e-07,2.271999446686498e-05
PART_000_R31G119B180A255,15375,5.122607e-06,-1.951962e-06,-2.085849e-06,1.227801e-05,-7.582153e-06,-9.264468e-07,2.604429452165005e-05
PART_000_R31G119B180A255,15376,3.003481e-06,-2.95253e-06,-7.772252e-08,7.316623e-06,-8.110598e-06,-9.727355e-07,1.9682458161761767e-05
PART_000_R31G119B180A255,15377,1.903388e-06,-2.553525e-06,4.136148e-07,9.156196e-06,8.393007e-06,1.059476e-06,2.1946449630771685e-05
PART_000_R31G119B180A255,15378,3.089039e-06,-2.318923e-06,-4.512757e-07,1.868396e-05,9.120878e-06,7.219686e-07,3.634611451171154e-05
PART_000_R31G119B180A255,15379,3.168424e-06,-1.86428e-06,-1.338381e-06,1.7134e-05,3.128782e-06,-1.635689e-07,3.0547143042756626e-05
PART_000_R31G119B180A255,15380,3.474713e-06,-1.912104e-06,-1.800617e-06,1.604978e-05,2.031434e-06,-1.297142e-08,2.8523615792589434e-05
PART_000_R31G119B180A255,15381,3.654392e-06,-1.875814e-06,-2.063579e-06,1.653832e-05,5.986409e-08,-1.480131e-07,2.9193858485229048e-05
PART_000_R31G119B180A255,15382,3.524341e-06,-1.844876e-06,-1.944598e-06,1.573271e-05,-2.211143e-06,-8.551598e-08,2.8046706680253925e-05
PART_000_R31G119B180A255,15383,3.399927e-06,-1.730287e-06,-1.758755e-06,1.708477e-05,-3.07034e-06,3.294756e-08,3.0502758410930676e-05
PART_000_R31G119B180A255,15384,3.243374e-06,-2.002862e-06,-1.274309e-06,1.697311e-05,-9.732231e-06,-2.751034e-07,3.4247146103514296e-05
PART_000_R31G119B180A255,15385,2.338156e-06,-3.111697e-06,1.337523e-07,1.047949e-05,-1.014721e-05,-5.072885e-07,2.5723051655583623e-05
PART_000_R31G119B180A255,15386,1.138271e-06,-1.621544e-06,1.207047e-07,1.031601e-05,9.400724e-06,9.221965e-08,2.42950665937604e-05
PART_000_R31G119B180A255,15387,2.058047e-06,-1.459473e-06,-5.668791e-07,2.234152e-05,1.075307e-05,1.573057e-07,4.30629803912972e-05
PART_000_R31G119B180A255,15388,1.987752e-06,-1.324005e-06,-7.567357e-07,2.007517e-05,3.70099e-06,-8.943684e-08,3.5490339533211836e-05
PART_000_R31G119B180A255,15389,2.201923e-06,-1.442388e-06,-1.003907e-06,1.91262e-05,2.489221e-06,-1.084371e-07,3.358472607920129e-05
PART_000_R31G119B180A255,15390,2.243788e-06,-1.347824e-06,-1.168951e-06,1.95538e-05,1.037191e-07,-4.481187e-08,3.404968150337959e-05
PART_000_R31G119B180A255,15391,2.236735e-06,-1.386093e-06,-1.119437e-06,1.868212e-05,-2.634711e-06,3.508325e-09,3.2865177703544335e-05
PART_000_R31G119B180A255,15392,2.206995e-06,-1.257664e-06,-1.09473e-06,2.007405e-05,-3.582314e-06,1.307492e-07,3.5481242308807636e-05
PART_000_R31G119B180A255,15393,2.087275e-06,-1.547845e-06,-7.757559e-07,1.999751e-05,-1.117072e-05,-7.229482e-08,3.98130058729813e-05
PART_000_R31G119B180A255,15394,1.606531e-06,-2.25019e-06,1.118427e-07,1.262737e-05,-1.167907e-05,-1.585607e-07,2.9982872882081982e-05
PART_000_R31G119B180A255,15395,3.999539e-07,-2.959734e-07,-2.867831e-07,1.157364e-05,9.989962e-06,-2.770641e-07,2.6494409747482442e-05
PART_000_R31G119B180A255,15396,9.841734e-07,1.878305e-07,-8.498432e-07,2.374232e-05,1.111211e-05,6.496553e-08,4.5432149159701085e-05
PART_000_R31G119B180A255,15397,6.754302e-07,1.287927e-07,-6.11161e-07,2.189516e-05,4.095048e-06,-4.43102e-08,3.859739718297618e-05
PART_000_R31G119B180A255,15398,8.727429e-07,1.614011e-07,-8.369542e-07,2.062022e-05,2.728774e-06,-6.558821e-08,3.6057521253296206e-05
PART_000_R31G119B180A255,15399,8.210689e-07,1.662961e-07,-8.577592e-07,2.125317e-05,1.277675e-07,-4.846566e-09,3.684139912448614e-05
PART_000_R31G119B180A255,15400,8.782715e-07,1.643152e-07,-8.717387e-07,2.017763e-05,-2.839797e-06,-1.618946e-08,3.5326013404306345e-05
PART_000_R31G119B180A255,15401,8.529978e-07,1.629931e-07,-8.405436e-07,2.175267e-05,-3.867684e-06,7.073232e-08,3.829626015129202e-05
PART_000_R31G119B180A255,15402,8.713681e-07,-1.083577e-07,-6.346097e-07,2.160299e-05,-1.198537e-05,-6.533567e-08,4.2810979966040415e-05
PART_000_R31G119B180A255,15403,6.449584e-07,-6.123249e-07,-1.223255e-07,1.39943e-05,-1.255961e-05,-1.165667e-07,3.258831483152782e-05
PART_000_R31G119B180A255,15404,-3.979334e-07,1.556575e-06,-5.820496e-07,1.200035e-05,1.013547e-05,9.709188e-08,2.7284621964578048e-05
PART_000_R31G119B180A255,15405,-4.08434e-07,1.830317e-06,-6.674912e-07,2.453731e-05,1.138744e-05,1.504463e-07,4.6914678927549764e-05
PART_000_R31G119B180A255,15406,-5.246609e-07,2.085779e-06,-8.078699e-07,2.256301e-05,4.220733e-06,3.853114e-08,3.9854113712153336e-05
PART_000_R31G119B180A255,15407,-5.450862e-07,2.187828e-06,-8.479292e-07,2.13722e-05,2.813013e-06,4.083288e-08,3.74492337004251e-05
PART_000_R31G119B180A255,15408,-5.494497e-07,2.203374e-06,-8.651527e-07,2.194012e-05,1.506092e-07,-1.693563e-08,3.811459416144052e-05
PART_000_R31G119B180A255,15409,-5.371175e-07,2.1691e-06,-8.521021e-07,2.089043e-05,-2.930702e-06,-5.738127e-08,3.665081666915277e-05
PART_000_R31G119B180A255,15410,-5.031693e-07,2.037589e-06,-7.853543e-07,2.246425e-05,-3.986887e-06,-7.362864e-08,3.960911128217625e-05
PART_000_R31G119B180A255,15411,-3.958799e-07,1.800977e-06,-6.89557e-07,2.234695e-05,-1.240967e-05,-1.15632e-07,4.433684649086041e-05
PART_000_R31G119B180A255,15412,-3.409874e-07,1.42378e-06,-5.17818e-07,1.452677e-05,-1.296889e-05,-1.218496e-07,3.3781055982391405e-05
PART_000_R31G119B180A255,15413,-1.097651e-06,3.318562e-06,-7.764753e-07,1.194964e-05,1.034595e-05,5.512077e-07,2.7723580814388557e-05
PART_000_R31G119B180A255,15414,-1.813525e-06,3.624579e-06,-6.402328e-07,2.439289e-05,1.146962e-05,1.176058e-07,4.6950041475567294e-05
PART_000_R31G119B180A255,15415,-1.737267e-06,4.088243e-06,-9.322911e-07,2.244739e-05,4.171629e-06,1.936302e-07,3.992331467632355e-05
PART_000_R31G119B180A255,15416,-1.989998e-06,4.227238e-06,-8.458928e-07,2.117957e-05,2.817612e-06,1.30455e-07,3.74491689089964e-05
PART_000_R31G119B180A255,15417,-1.935817e-06,4.348655e-06,-8.907612e-07,2.183781e-05,1.35248e-07,-9.443115e-09,3.827197520902775e-05
PART_000_R31G119B180A255,15418,-1.974449e-06,4.198001e-06,-8.089341e-07,2.071895e-05,-2.940197e-06,-1.349878e-07,3.668892324888386e-05
PART_000_R31G119B180A255,15419,-1.879818e-06,3.986815e-06,-7.322666e-07,2.231891e-05,-3.974004e-06,-2.234753e-07,3.963497409901227e-05
PART_000_R31G119B180A255,15420,-1.645623e-06,3.729886e-06,-7.295384e-07,2.217938e-05,-1.233161e-05,-2.067878e-07,4.423708486895992e-05
PART_000_R31G119B180A255,15421,-1.324551e-06,3.442593e-06,-9.009137e-07,1.433671e-05,-1.291789e-05,-1.244769e-07,3.3736797135921436e-05
PART_000_R31G119B180A255,15422,-2.264616e-06,4.859944e-06,-1.203389e-06,1.085959e-05,9.933465e-06,-1.27635e-07,2.634742720279646e-05
PART_000_R31G119B180A255,15423,-2.723575e-06,5.307841e-06,-8.359912e-07,2.35255e-05,1.122976e-05,1.790344e-07,4.573480933060034e-05
PART_000_R31G119B180A255,15424,-3.143117e-06,5.563359e-06,-6.95707e-07,2.125038e-05,3.91229e-06,2.916401e-07,3.8228175146464945e-05
PART_000_R31G119B180A255,15425,-3.262825e-06,5.954151e-06,-6.870838e-07,2.027237e-05,2.649473e-06,2.131101e-07,3.635861479786318e-05
PART_000_R31G119B180A255,15426,-3.353474e-06,5.888414e-06,-5.070749e-07,2.077317e-05,9.499472e-08,2.230478e-08,3.690271968300359e-05
PART_000_R31G119B180A255,15427,-3.306261e-06,5.859007e-06,-5.555664e-07,1.980801e-05,-2.780277e-06,-1.994584e-07,3.5591270799588196e-05
PART_000_R31G119B180A255,15428,-3.246922e-06,5.48528e-06,-4.389126e-07,2.124172e-05,-3.788832e-06,-3.625765e-07,3.816684815207463e-05
PART_000_R31G119B180A255,15429,-2.797375e-06,5.218354e-06,-5.611769e-07,2.120472e-05,-1.18546e-05,-3.188886e-07,4.268662412883923e-05
PART_000_R31G119B180A255,15430,-2.164029e-06,4.914675e-06,-1.059626e-06,1.329446e-05,-1.24492e-05,-2.560447e-07,3.223169919554828e-05
PART_000_R31G119B180A255,15431,-2.481968e-06,5.106992e-06,-9.572298e-07,9.419243e-06,8.938026e-06,-1.498632e-07,2.3542401801753046e-05
PART_000_R31G119B180A255,15432,-4.04878e-06,6.055656e-06,-4.371594e-07,2.088636e-05,9.840766e-06,-1.954339e-07,4.096348072130022e-05
PART_000_R31G119B180A255,15433,-4.221705e-06,6.260649e-06,-1.334884e-07,1.921024e-05,3.372257e-06,3.817065e-07,3.500560727471142e-05
PART_000_R31G119B180A255,15434,-4.574465e-06,6.408122e-06,2.636449e-07,1.805498e-05,2.151823e-06,2.136441e-07,3.2906905478946474e-05
PART_000_R31G119B180A255,15435,-4.686329e-06,6.447061e-06,5.205165e-07,1.866733e-05,9.298036e-08,7.016518e-08,3.3742289560993276e-05
PART_000_R31G119B180A255,15436,-4.604573e-06,6.326834e-06,4.06154e-07,1.770452e-05,-2.391233e-06,-1.296447e-07,3.236330085424029e-05
PART_000_R31G119B180A255,15437,-4.442192e-06,6.081386e-06,3.020694e-07,1.918834e-05,-3.19935e-06,-3.62919e-07,3.4914279786275235e-05
PART_000_R31G119B180A255,15438,-3.826526e-06,5.713635e-06,4.305759e-08,1.913555e-05,-1.074012e-05,-2.737782e-07,3.890829110065676e-05
PART_000_R31G119B180A255,15439,-2.787393e-06,5.415449e-06,-8.3865e-07,1.141149e-05,-1.131086e-05,-4.278035e-08,2.880238617864057e-05
PART_000_R31G119B180A255,15440,-3.17472e-06,4.390886e-06,-3.228217e-07,6.46827e-06,7.601495e-06,-1.451527e-08,1.851107075060418e-05
PART_000_R31G119B180A255,15441,-5.469909e-06,4.990827e-06,8.934702e-07,1.609118e-05,7.757494e-06,-5.732916e-07,3.227466983965595e-05
PART_001_R158G218B229A255,15442,-5.533553e-06,4.877385e-06,1.541615e-06,1.456464e-05,2.066133e-06,4.998903e-08,2.7092193069216675e-05
PART_001_R158G218B229A255,15443,-6.124067e-06,5.00795e-06,2.401011e-06,1.369383e-05,1.481435e-06,3.126151e-07,2.5906321968945458e-05
PART_001_R158G218B229A255,15444,-6.098068e-06,4.801607e-06,2.661468e-06,1.419256e-05,4.334453e-08,1.014167e-07,2.6540140557971434e-05
PART_001_R158G218B229A255,15445,-6.166643e-06,4.946073e-06,2.547967e-06,1.345438e-05,-1.617187e-06,7.967182e-08,2.5564034229690925e-05
PART_001_R158G218B229A255,15446,-5.809561e-06,4.642635e-06,2.134683e-06,1.464027e-05,-2.079227e-06,8.234091e-09,2.7300309407883618e-05
PART_000_R31G119B180A255,15447,-5.014261e-06,4.706551e-06,1.081746e-06,1.503169e-05,-8.677833e-06,3.641514e-07,3.1250034200109955e-05
PART_000_R31G119B180A255,15448,-3.191011e-06,4.428217e-06,-2.896222e-07,8.195611e-06,-9.715235e-06,1.301156e-07,2.300166585303402e-05
PART_000_R31G119B180A255,15449,-4.27272e-06,2.243365e-06,1.709829e-06,1.97615e-06,3.639999e-06,-2.27503e-06,1.0308201957381511e-05
PART_001_R158G218B229A255,15450,-1.255408e-05,4.379356e-06,5.364288e-06,6.739886e-06,3.40118e-06,-2.328199e-06,2.2172808270583656e-05
PART_001_R158G218B229A255,15451,-1.120645e-05,3.840097e-06,5.359037e-06,5.689647e-06,5.618569e-07,3.34368e-07,1.8707198128189076e-05
PART_001_R158G218B229A255,15452,-1.136273e-05,3.757535e-06,5.899799e-06,5.414949e-06,5.489571e-07,2.091935e-07,1.8830923332856832e-05
PART_001_R158G218B229A255,15453,-1.151513e-05,3.562109e-06,6.340512e-06,5.681543e-06,3.660096e-08,2.16188e-07,1.933694206409702e-05
PART_001_R158G218B229A255,15454,-1.139978e-05,3.678996e-06,6.121211e-06,5.320835e-06,-6.321976e-07,6.089852e-07,1.8905157452999707e-05
PART_001_R158G218B229A255,15455,-1.174734e-05,3.670399e-06,6.145805e-06,5.772128e-06,-5.392541e-07,9.920255e-09,1.956590247079396e-05
PART_001_R158G218B229A255,15456,-1.199253e-05,4.105599e-06,5.432018e-06,6.34152e-06,-3.902973e-06,2.559614e-06,2.1639341551180063e-05
PART_001_R158G218B229A255,15457,-5.724951e-06,2.836508e-06,1.910672e-06,2.930687e-06,-4.583906e-06,3.539312e-06,1.3878501193547522e-05
PART_000_R31G119B180A255,15458,2.455021e-06,1.515097e-06,-2.258886e-06,3.916873e-06,7.578749e-07,2.015155e-07,8.157468534056064e-06
PART_000_R31G119B180A255,15459,1.334678e-06,1.800097e-06,-2.601424e-06,2.030821e-06,1.114793e-06,1.700536e-07,5.807684326647918e-06
PART_000_R31G119B180A255,15460,2.177281e-06,2.376659e-06,-4.126702e-06,2.578623e-06,5.698972e-07,-9.395662e-08,7.873090276197968e-06
PART_000_R31G119B180A255,15461,2.056891e-06,2.480278e-06,-4.51182e-06,2.15318e-06,-3.524278e-08,-1.605868e-07,7.752288078772364e-06
PART_000_R31G119B180A255,15462,2.435703e-06,2.47409e-06,-4.531889e-06,2.658536e-06,-6.332763e-07,-1.827861e-07,8.445298495358804e-06
PART_000_R31G119B180A255,15463,1.238867e-06,2.030959e-06,-2.931213e-06,1.796329e-06,-1.386661e-06,-2.546927e-07,6.079765528374418e-06
PART_000_R31G119B180A255,15464,2.855553e-06,1.536011e-06,-2.520935e-06,4.37876e-06,-1.102291e-06,-3.907222e-07,9.22914177196198e-06
PART_000_R31G119B180A255,15465,3.386098e-06,-4.252791e-06,2.375599e-07,1.006164e-05,2.559364e-06,5.942726e-07,1.9199867050449125e-05
PART_000_R31G119B180A255,15466,2.828662e-06,-4.974452e-06,1.782433e-07,5.941209e-06,3.281651e-06,2.208047e-07,1.3622762027854196e-05
PART_000_R31G119B180A255,15467,3.83053e-06,-4.397556e-06,-1.28547e-06,6.778611e-06,1.537641e-06,-1.292099e-07,1.4027536264247406e-05
PART_000_R31G119B180A255,15468,3.546421e-06,-4.30305e-06,-1.488788e-06,6.112319e-06,-7.613651e-08,-6.713641e-08,1.263154941008719e-05
PART_000_R31G119B180A255,15469,3.824752e-06,-4.256115e-06,-1.497526e-06,6.888284e-06,-1.65405e-06,-1.778678e-08,1.4183525536200205e-05
PART_000_R31G119B180A255,15470,3.080279e-06,-4.71011e-06,-2.919313e-07,5.515719e-06,-3.785658e-06,-1.934871e-07,1.342261273244947e-05
PART_000_R31G119B180A255,15471,3.021611e-06,-3.819932e-06,6.742406e-08,1.066856e-05,-3.231829e-06,-3.515953e-07,2.021094419760582e-05
PART_000_R31G119B180A255,15472,2.557364e-06,-5.072567e-06,1.109652e-06,1.341862e-05,3.854964e-06,9.417168e-08,2.5180403288765314e-05
PART_000_R31G119B180A255,15473,2.548867e-06,-5.971657e-06,1.107767e-06,8.101697e-06,5.051744e-06,4.9074e-09,1.832675854372331e-05
PART_000_R31G119B180A255,15474,3.221307e-06,-5.772598e-06,1.131326e-07,9.24475e-06,2.276763e-06,-7.478487e-08,1.829099191583546e-05
PART_000_R31G119B180A255,15475,3.110303e-06,-5.598991e-06,-1.554873e-07,8.282692e-06,-4.244643e-08,-1.020431e-08,1.6244664914353908e-05
PART_000_R31G119B180A255,15476,3.206105e-06,-5.620495e-06,-7.906692e-08,9.382061e-06,-2.345437e-06,-4.189566e-08,1.844673465304727e-05
PART_000_R31G119B180A255,15477,2.709503e-06,-5.618408e-06,6.463451e-07,7.512161e-06,-5.412742e-06,1.162105e-07,1.7710461822338013e-05
PART_000_R31G119B180A255,15478,2.374147e-06,-4.791362e-06,9.590753e-07,1.375754e-05,-4.441018e-06,1.608678e-07,2.588942866643119e-05
PART_000_R31G119B180A255,15479,1.644019e-06,-3.615894e-06,8.490088e-07,1.510143e-05,4.358274e-06,-4.738339e-08,2.76634596167658e-05
PART_000_R31G119B180A255,15480,1.959183e-06,-4.176469e-06,6.859248e-07,9.06032e-06,5.974197e-06,-6.193981e-08,1.961652204646482e-05
PART_000_R31G119B180A255,15481,2.1068e-06,-4.214007e-06,3.467628e-07,1.039072e-05,2.845277e-06,-4.812505e-08,1.949667701582277e-05
PART_000_R31G119B180A255,15482,2.243834e-06,-4.174096e-06,1.040799e-07,9.331248e-06,1.096441e-08,-2.52413e-08,1.7124672866931e-05
PART_000_R31G119B180A255,15483,2.161311e-06,-4.093801e-06,1.665758e-07,1.056422e-05,-2.787746e-06,3.670722e-08,1.9716869952684403e-05
PART_000_R31G119B180A255,15484,1.96071e-06,-3.98302e-06,4.731545e-07,8.276165e-06,-6.175606e-06,1.46865e-07,1.867251662563253e-05
PART_000_R31G119B180A255,15485,1.656595e-06,-3.56678e-06,7.685757e-07,1.550526e-05,-4.9547e-06,8.836158e-08,2.8606705672550278e-05
PART_000_R31G119B180A255,15486,4.530803e-07,-8.22977e-07,6.442145e-08,1.599832e-05,4.583351e-06,-1.572567e-07,2.8848183021044882e-05
PART_000_R31G119B180A255,15487,7.431419e-07,-1.01533e-06,-1.177431e-07,9.645869e-06,6.319819e-06,-1.840436e-08,2.0031705453102342e-05
PART_000_R31G119B180A255,15488,6.486875e-07,-1.067212e-06,-1.614294e-07,1.106903e-05,3.132791e-06,-1.535307e-08,1.9980606653055673e-05
PART_000_R31G119B180A255,15489,8.259718e-07,-1.036844e-06,-3.30099e-07,9.932968e-06,5.186827e-08,-1.944715e-08,1.7281602959259405e-05
PART_000_R31G119B180A255,15490,7.228731e-07,-1.011206e-06,-2.770221e-07,1.122773e-05,-2.958223e-06,2.188088e-08,2.0167135951794078e-05
PART_000_R31G119B180A255,15491,6.806688e-07,-1.018795e-06,-1.160554e-07,8.816609e-06,-6.536883e-06,6.238495e-08,1.9067535740403414e-05
PART_000_R31G119B180A255,15492,5.404562e-07,-8.985585e-07,8.453733e-08,1.650706e-05,-5.279362e-06,7.565213e-08,3.004502953922917e-05
PART_000_R31G119B180A255,15493,-7.706874e-07,2.602098e-06,-9.086182e-07,1.637721e-05,4.652856e-06,1.811012e-08,2.96891753034728e-05
PART_000_R31G119B180A255,15494,-8.772723e-07,2.733008e-06,-9.443849e-07,9.825346e-06,6.472658e-06,3.181063e-08,2.0702225382936292e-05
PART_000_R31G119B180A255,15495,-8.680003e-07,2.868026e-06,-1.039286e-06,1.139082e-05,3.24187e-06,9.370839e-09,2.0866454579805855e-05
PART_000_R31G119B180A255,15496,-9.029284e-07,2.891906e-06,-1.035222e-06,1.013466e-05,5.820817e-08,-4.961493e-09,1.7973996227700915e-05
PART_000_R31G119B180A255,15497,-8.565397e-07,2.833402e-06,-1.028614e-06,1.154547e-05,-3.026656e-06,-2.040177e-08,2.1015638090135473e-05
PART_000_R31G119B180A255,15498,-8.545504e-07,2.666116e-06,-9.237627e-07,8.975855e-06,-6.753452e-06,-3.869934e-08,1.9778101761048084e-05
PART_000_R31G119B180A255,15499,-7.358683e-07,2.510324e-06,-8.785236e-07,1.696929e-05,-5.419315e-06,-2.462748e-08,3.103224702753412e-05
PART_000_R31G119B180A255,15500,-2.036713e-06,6.210903e-06,-1.947998e-06,1.64132e-05,4.75984e-06,2.463022e-07,3.07185445667469e-05
PART_000_R31G119B180A255,15501,-2.534664e-06,6.679338e-06,-1.82184e-06,9.840827e-06,6.530722e-06,8.793985e-08,2.2301071881338462e-05
PART_000_R31G119B180A255,15502,-2.474176e-06,6.979629e-06,-1.896102e-06,1.133679e-05,3.226086e-06,4.868869e-08,2.2383968070295776e-05
PART_000_R31G119B180A255,15503,-2.686204e-06,7.035056e-06,-1.781793e-06,1.016969e-05,4.52355e-08,5.870273e-10,1.9919908750798655e-05
PART_000_R31G119B180A255,15504,-2.504687e-06,6.870925e-06,-1.791481e-06,1.149544e-05,-3.096022e-06,-6.645521e-08,2.2515078245033225e-05
PART_000_R31G119B180A255,15505,-2.449551e-06,6.542717e-06,-1.765592e-06,8.999474e-06,-6.80001e-06,-1.533883e-07,2.1376176688326462e-05
PART_000_R31G119B180A255,15506,-2.044947e-06,6.09183e-06,-1.911472e-06,1.693273e-05,-5.477797e-06,-1.802707e-07,3.186545476636794e-05
PART_000_R31G119B180A255,15507,-3.45274e-06,9.604962e-06,-2.873802e-06,1.594579e-05,4.621453e-06,8.718269e-08,3.1467127180256e-05
PART_000_R31G119B180A255,15508,-3.997421e-06,1.042181e-05,-2.654887e-06,9.532609e-06,6.375448e-06,2.232541e-07,2.4187987806417847e-05
PART_000_R31G119B180A255,15509,-4.245265e-06,1.078929e-05,-2.435218e-06,1.102258e-05,3.079736e-06,9.057346e-08,2.4394089544998522e-05
PART_000_R31G119B180A255,15510,-4.404582e-06,1.087615e-05,-2.261783e-06,9.886729e-06,-6.552096e-09,2.776211e-09,2.232915590951903e-05
PART_000_R31G119B180A255,15511,-4.230779e-06,1.064478e-05,-2.311382e-06,1.119814e-05,-3.061735e-06,-1.029038e-07,2.4510481159573455e-05
PART_000_R31G119B180A255,15512,-4.011001e-06,1.013766e-05,-2.436012e-06,8.70085e-06,-6.71259e-06,-3.088471e-07,2.33014664407339e-05
PART_000_R31G119B180A255,15513,-3.278155e-06,9.329272e-06,-2.771145e-06,1.647707e-05,-5.342436e-06,-2.086817e-07,3.245071958970851e-05
PART_000_R31G119B180A255,15514,-4.472617e-06,1.204286e-05,-3.465772e-06,1.474904e-05,4.288911e-06,3.710821e-07,3.107001952347107e-05
PART_000_R31G119B180A255,15515,-5.421441e-06,1.343451e-05,-3.068402e-06,8.969402e-06,5.721483e-06,2.554622e-07,2.562161773273496e-05
PART_000_R31G119B180A255,15516,-5.738533e-06,1.363236e-05,-2.346332e-06,1.031542e-05,2.52526e-06,7.829329e-08,2.5678812933742363e-05
PART_000_R31G119B180A255,15517,-6.019913e-06,1.345587e-05,-1.849946e-06,9.212047e-06,-7.055187e-08,1.065997e-08,2.3876391671054625e-05
PART_000_R31G119B180A255,15518,-5.755564e-06,1.34663e-05,-2.179679e-06,1.047015e-05,-2.599761e-06,-4.651161e-08,2.5742702244452474e-05
PART_000_R31G119B180A255,15519,-5.377437e-06,1.308475e-05,-2.819526e-06,8.274695e-06,-6.228597e-06,-3.818858e-07,2.49480686703913e-05
PART_000_R31G119B180A255,15520,-4.281402e-06,1.17017e-05,-3.363942e-06,1.536951e-05,-5.098763e-06,-4.906789e-07,3.207830089472643e-05
PART_000_R31G119B180A255,15521,-5.271952e-06,1.318017e-05,-3.337517e-06,1.30215e-05,3.267621e-06,7.017849e-08,2.9141956304636412e-05
PART_000_R31G119B180A255,15522,-6.744656e-06,1.471014e-05,-2.180907e-06,7.696572e-06,3.902872e-06,4.842064e-08,2.4630016187981914e-05
PART_000_R31G119B180A255,15523,-6.92707e-06,1.413127e-05,-8.194001e-07,8.874497e-06,1.633139e-06,1.507687e-07,2.4422932653403625e-05
PART_000_R31G119B180A255,15524,-7.286242e-06,1.39993e-05,-2.313601e-07,8.065912e-06,-7.840288e-08,8.230158e-08,2.3407140849096503e-05
PART_000_R31G119B180A255,15525,-7.048198e-06,1.399847e-05,-6.129061e-07,9.006264e-06,-1.77165e-06,-1.281157e-07,2.4530340589082488e-05
PART_000_R31G119B180A255,15526,-6.581781e-06,1.447862e-05,-2.070564e-06,7.19904e-06,-4.469119e-06,-1.028128e-07,2.41725639139229e-05
PART_000_R31G119B180A255,15527,-5.15988e-06,1.289626e-05,-3.24128e-06,1.374927e-05,-4.028005e-06,3.194537e-09,3.018053159753113e-05
PART_000_R31G119B180A255,15528,-8.098566e-06,1.132238e-05,-7.601729e-07,6.180129e-06,1.120689e-06,3.949716e-07,2.018228042793174e-05
PART_001_R158G218B229A255,15529,-7.693921e-06,1.106451e-05,7.424049e-07,3.158802e-06,1.335716e-06,3.019525e-07,1.7330842992897308e-05
PART_001_R158G218B229A255,15530,-8.2778e-06,1.021976e-05,2.61296e-06,4.158672e-06,5.709272e-07,8.72231e-08,1.766918924022753e-05
PART_001_R158G218B229A255,15531,-8.377071e-06,1.017191e-05,3.086355e-06,3.482536e-06,-2.522861e-08,1.59653e-07,1.730036151039433e-05
PART_001_R158G218B229A255,15532,-8.596882e-06,1.015715e-05,2.967783e-06,4.24396e-06,-6.541539e-07,6.633042e-08,1.7997267457402434e-05
PART_001_R158G218B229A255,15533,-7.345104e-06,1.087074e-05,7.873299e-07,2.921241e-06,-1.61617e-06,-2.244511e-07,1.6834559832181838e-05
PART_000_R31G119B180A255,15534,-8.534865e-06,1.13821e-05,-6.000361e-07,6.604815e-06,-1.442343e-06,-7.605526e-08,2.0946084401399578e-05
